Si+C                                    
   1.00000000000000     
    13.3031797409999992    0.0000000000000000    0.0000000000000000
     6.6515893940000002   14.8734064099999994    0.0000000000000000
     0.0000000000000000    0.0000000000000000    7.9947500229999999
   Si   C 
    36    84
Direct
  0.2832494969999999  0.6416247490000018  0.0000000470000003
  0.8165827990000025  0.4082912800000003  0.1519008730000024
  0.3499159810000023  0.1749577670000022  0.3038017450000012
  0.6165827510000028  0.3082913759999997  0.0000000570000012
  0.1499160529999983  0.0749579299999965  0.1519008730000024
  0.6832492349999981  0.8416244390000003  0.3038017149999988
  0.9499161239999978  0.9749580619999989  0.0000000400000033
  0.4832494850000018  0.7416245940000010  0.1519008730000024
  0.0165826679999981  0.5082911249999995  0.3038017149999988
  0.7999162670000004  0.7749580139999992  0.0759503100000032
  0.3332495089999981  0.5416245460000013  0.2278511669999972
  0.8665827510000028  0.3082910780000034  0.3797520399999996
  0.1332496850000027  0.4416247609999999  0.0759503250000009
  0.6665829419999980  0.2082912770000007  0.2278511669999972
  0.1999162440000006  0.9749577640000027  0.3797520399999996
  0.4665828939999983  0.1082915369999995  0.0759503250000009
  0.9999161360000031  0.8749580380000026  0.2278511669999972
  0.5332493780000007  0.6416245699999976  0.3797520399999996
  0.7832495569999978  0.6416247490000018  0.0000000000000000
  0.3165828289999979  0.4082912800000003  0.1519008579999976
  0.8499160410000002  0.1749577819999999  0.3038017450000012
  0.1165827960000030  0.3082914049999985  0.0000000570000012
  0.6499160529999983  0.0749579519999983  0.1519009020000013
  0.1832492950000031  0.8416244980000016  0.3038017450000012
  0.4499161239999978  0.9749580619999989  0.0000000570000012
  0.9832494260000004  0.7416245940000010  0.1519009020000013
  0.5165826679999981  0.5082911249999995  0.3038017450000012
  0.2999161779999966  0.7749581340000020  0.0759503250000009
  0.8332494499999967  0.5416246650000005  0.2278511969999997
  0.3665826920000015  0.3082911970000026  0.3797520099999971
  0.6332494019999970  0.4416247309999974  0.0759503470000027
  0.1665826440000018  0.2082912620000030  0.2278511969999997
  0.6999159459999973  0.9749578240000005  0.3797519800000018
  0.9665827159999978  0.1082915510000007  0.0759503250000009
  0.4999159569999989  0.8749580380000026  0.2278511969999997
  0.0332492590000015  0.6416246289999989  0.3797520399999996
  0.0198079350000029  0.1450181009999980  0.5651753539999973
  0.9912362689999981  0.4164467160000029  0.6649360059999978
  0.9626647230000032  0.6878753299999971  0.7646965380000026
  0.1626650090000012  0.2878752350000013  0.5651753539999973
  0.1340934629999992  0.5593038800000016  0.6649360059999978
  0.1055219320000020  0.8307325239999983  0.7646965380000026
  0.3055221739999965  0.4307323990000000  0.5651753539999973
  0.2769505979999991  0.7021610139999979  0.6649360059999978
  0.2483790810000031  0.9735897179999995  0.7646965980000004
  0.4483793079999998  0.5735895629999987  0.5651753539999973
  0.4198077619999978  0.8450182079999990  0.6649360059999978
  0.3912362160000029  0.1164468529999994  0.7646965980000004
  0.5912364129999972  0.7164466979999986  0.5651753539999973
  0.5626648069999973  0.9878752830000010  0.6649360059999978
  0.5340932610000024  0.2593039269999977  0.7646965980000004
  0.7340935470000005  0.8593037719999970  0.5651753539999973
  0.7055220009999985  0.1307324169999973  0.6649360059999978
  0.6769504549999965  0.4021610019999997  0.7646965380000026
  0.8769507410000017  0.0021610260000031  0.5651753539999973
  0.8483791949999997  0.2735896109999985  0.6649360059999978
  0.8198075290000020  0.5450181960000009  0.7646965980000004
  0.1126650570000010  0.8878750800000006  0.6150555609999984
  0.0840935109999990  0.1593036650000030  0.7148162129999989
  0.0555220170000013  0.4307323689999976  0.8145768050000015
  0.2555221619999983  0.0307323930000010  0.6150555609999984
  0.2269506160000034  0.3021609780000034  0.7148161530000010
  0.1983790399999990  0.5735896830000016  0.8145768050000015
  0.3983793259999970  0.1735894680000030  0.6150555609999984
  0.3698077499999997  0.4450181719999975  0.7148161530000010
  0.3412361439999998  0.7164467569999999  0.8145768050000015
  0.5412364009999990  0.3164465429999979  0.6150555609999984
  0.5126649139999984  0.5878751870000016  0.7148162129999989
  0.4840932789999997  0.8593037130000027  0.8145768050000015
  0.6840935350000024  0.4593038260000029  0.6150555609999984
  0.6555219890000004  0.7307324410000007  0.7148162129999989
  0.6269504429999984  0.0021611450000023  0.8145768050000015
  0.8269506689999986  0.6021609310000002  0.6150555609999984
  0.7983791229999966  0.8735895749999969  0.7148162129999989
  0.7698076369999995  0.1450182199999972  0.8145768050000015
  0.9698078629999998  0.7450180649999965  0.6150555609999984
  0.9412363770000027  0.0164467099999968  0.7148162129999989
  0.9126647109999979  0.2878751750000035  0.8145768050000015
  0.0912364129999972  0.7164466380000007  0.5651753539999973
  0.0626648960000011  0.9878752830000010  0.6649360059999978
  0.0340933089999993  0.2593039269999977  0.7646965380000026
  0.2340935470000005  0.8593037719999970  0.5651753539999973
  0.2055220310000010  0.1307324169999973  0.6649360059999978
  0.1769505440000003  0.4021611209999989  0.7646965980000004
  0.3769507709999971  0.0021609069999968  0.5651753539999973
  0.3483792540000010  0.2735896109999985  0.6649360059999978
  0.3198076190000023  0.5450181960000009  0.7646965380000026
  0.5198078749999979  0.1450181009999980  0.5651753539999973
  0.4912362990000005  0.4164467160000029  0.6649360059999978
  0.4626647830000010  0.6878753299999971  0.7646965980000004
  0.6626650090000012  0.2878751750000035  0.5651753539999973
  0.6340934629999992  0.5593038199999967  0.6649360059999978
  0.6055219169999972  0.8307324649999970  0.7646965980000004
  0.8055222030000024  0.4307323990000000  0.5651753539999973
  0.7769505979999991  0.7021610139999979  0.6649360059999978
  0.7483791109999984  0.9735896589999982  0.7646965980000004
  0.9483793380000023  0.5735895039999974  0.5651753539999973
  0.9198077320000024  0.8450181480000012  0.6649360059999978
  0.8912361860000004  0.1164467329999965  0.7646965980000004
  0.0412364450000027  0.3164465730000003  0.6150555609999984
  0.0126649139999984  0.5878751870000016  0.7148161530000010
  0.9840933079999985  0.8593038320000019  0.8145768050000015
  0.1840935950000002  0.4593036170000033  0.6150555609999984
  0.1555220480000017  0.7307322619999965  0.7148162129999989
  0.1269505169999974  0.0021609069999968  0.8145768050000015
  0.3269507290000035  0.6021609310000002  0.6150555609999984
  0.2983791830000015  0.8735895160000027  0.7148162129999989
  0.2698076069999971  0.1450181009999980  0.8145768050000015
  0.4698078930000023  0.7450180049999986  0.6150555609999984
  0.4412363169999978  0.0164465900000010  0.7148161530000010
  0.4126648009999982  0.2878751750000035  0.8145768050000015
  0.6126649380000018  0.8878750209999993  0.6150555609999984
  0.5840934510000011  0.1593036650000030  0.7148161530000010
  0.5555219049999991  0.4307323689999976  0.8145768050000015
  0.7555220719999980  0.0307322740000018  0.6150555609999984
  0.7269505260000031  0.3021609780000034  0.7148162129999989
  0.6983789800000011  0.5735894439999996  0.8145768050000015
  0.8983792659999992  0.1735893489999967  0.6150555609999984
  0.8698076610000030  0.4450179339999991  0.7148161530000010
  0.8412360550000031  0.7164465190000016  0.8145768050000015
 
  0.00000000E+00  0.00000000E+00  0.00000000E+00
  0.00000000E+00  0.00000000E+00  0.00000000E+00
  0.00000000E+00  0.00000000E+00  0.00000000E+00
  0.00000000E+00  0.00000000E+00  0.00000000E+00
  0.00000000E+00  0.00000000E+00  0.00000000E+00
  0.00000000E+00  0.00000000E+00  0.00000000E+00
  0.00000000E+00  0.00000000E+00  0.00000000E+00
  0.00000000E+00  0.00000000E+00  0.00000000E+00
  0.00000000E+00  0.00000000E+00  0.00000000E+00
  0.00000000E+00  0.00000000E+00  0.00000000E+00
  0.00000000E+00  0.00000000E+00  0.00000000E+00
  0.00000000E+00  0.00000000E+00  0.00000000E+00
  0.00000000E+00  0.00000000E+00  0.00000000E+00
  0.00000000E+00  0.00000000E+00  0.00000000E+00
  0.00000000E+00  0.00000000E+00  0.00000000E+00
  0.00000000E+00  0.00000000E+00  0.00000000E+00
  0.00000000E+00  0.00000000E+00  0.00000000E+00
  0.00000000E+00  0.00000000E+00  0.00000000E+00
  0.00000000E+00  0.00000000E+00  0.00000000E+00
  0.00000000E+00  0.00000000E+00  0.00000000E+00
  0.00000000E+00  0.00000000E+00  0.00000000E+00
  0.00000000E+00  0.00000000E+00  0.00000000E+00
  0.00000000E+00  0.00000000E+00  0.00000000E+00
  0.00000000E+00  0.00000000E+00  0.00000000E+00
  0.00000000E+00  0.00000000E+00  0.00000000E+00
  0.00000000E+00  0.00000000E+00  0.00000000E+00
  0.00000000E+00  0.00000000E+00  0.00000000E+00
  0.00000000E+00  0.00000000E+00  0.00000000E+00
  0.00000000E+00  0.00000000E+00  0.00000000E+00
  0.00000000E+00  0.00000000E+00  0.00000000E+00
  0.00000000E+00  0.00000000E+00  0.00000000E+00
  0.00000000E+00  0.00000000E+00  0.00000000E+00
  0.00000000E+00  0.00000000E+00  0.00000000E+00
  0.00000000E+00  0.00000000E+00  0.00000000E+00
  0.00000000E+00  0.00000000E+00  0.00000000E+00
  0.00000000E+00  0.00000000E+00  0.00000000E+00
  0.00000000E+00  0.00000000E+00  0.00000000E+00
  0.00000000E+00  0.00000000E+00  0.00000000E+00
  0.00000000E+00  0.00000000E+00  0.00000000E+00
  0.00000000E+00  0.00000000E+00  0.00000000E+00
  0.00000000E+00  0.00000000E+00  0.00000000E+00
  0.00000000E+00  0.00000000E+00  0.00000000E+00
  0.00000000E+00  0.00000000E+00  0.00000000E+00
  0.00000000E+00  0.00000000E+00  0.00000000E+00
  0.00000000E+00  0.00000000E+00  0.00000000E+00
  0.00000000E+00  0.00000000E+00  0.00000000E+00
  0.00000000E+00  0.00000000E+00  0.00000000E+00
  0.00000000E+00  0.00000000E+00  0.00000000E+00
  0.00000000E+00  0.00000000E+00  0.00000000E+00
  0.00000000E+00  0.00000000E+00  0.00000000E+00
  0.00000000E+00  0.00000000E+00  0.00000000E+00
  0.00000000E+00  0.00000000E+00  0.00000000E+00
  0.00000000E+00  0.00000000E+00  0.00000000E+00
  0.00000000E+00  0.00000000E+00  0.00000000E+00
  0.00000000E+00  0.00000000E+00  0.00000000E+00
  0.00000000E+00  0.00000000E+00  0.00000000E+00
  0.00000000E+00  0.00000000E+00  0.00000000E+00
  0.00000000E+00  0.00000000E+00  0.00000000E+00
  0.00000000E+00  0.00000000E+00  0.00000000E+00
  0.00000000E+00  0.00000000E+00  0.00000000E+00
  0.00000000E+00  0.00000000E+00  0.00000000E+00
  0.00000000E+00  0.00000000E+00  0.00000000E+00
  0.00000000E+00  0.00000000E+00  0.00000000E+00
  0.00000000E+00  0.00000000E+00  0.00000000E+00
  0.00000000E+00  0.00000000E+00  0.00000000E+00
  0.00000000E+00  0.00000000E+00  0.00000000E+00
  0.00000000E+00  0.00000000E+00  0.00000000E+00
  0.00000000E+00  0.00000000E+00  0.00000000E+00
  0.00000000E+00  0.00000000E+00  0.00000000E+00
  0.00000000E+00  0.00000000E+00  0.00000000E+00
  0.00000000E+00  0.00000000E+00  0.00000000E+00
  0.00000000E+00  0.00000000E+00  0.00000000E+00
  0.00000000E+00  0.00000000E+00  0.00000000E+00
  0.00000000E+00  0.00000000E+00  0.00000000E+00
  0.00000000E+00  0.00000000E+00  0.00000000E+00
  0.00000000E+00  0.00000000E+00  0.00000000E+00
  0.00000000E+00  0.00000000E+00  0.00000000E+00
  0.00000000E+00  0.00000000E+00  0.00000000E+00
  0.00000000E+00  0.00000000E+00  0.00000000E+00
  0.00000000E+00  0.00000000E+00  0.00000000E+00
  0.00000000E+00  0.00000000E+00  0.00000000E+00
  0.00000000E+00  0.00000000E+00  0.00000000E+00
  0.00000000E+00  0.00000000E+00  0.00000000E+00
  0.00000000E+00  0.00000000E+00  0.00000000E+00
  0.00000000E+00  0.00000000E+00  0.00000000E+00
  0.00000000E+00  0.00000000E+00  0.00000000E+00
  0.00000000E+00  0.00000000E+00  0.00000000E+00
  0.00000000E+00  0.00000000E+00  0.00000000E+00
  0.00000000E+00  0.00000000E+00  0.00000000E+00
  0.00000000E+00  0.00000000E+00  0.00000000E+00
  0.00000000E+00  0.00000000E+00  0.00000000E+00
  0.00000000E+00  0.00000000E+00  0.00000000E+00
  0.00000000E+00  0.00000000E+00  0.00000000E+00
  0.00000000E+00  0.00000000E+00  0.00000000E+00
  0.00000000E+00  0.00000000E+00  0.00000000E+00
  0.00000000E+00  0.00000000E+00  0.00000000E+00
  0.00000000E+00  0.00000000E+00  0.00000000E+00
  0.00000000E+00  0.00000000E+00  0.00000000E+00
  0.00000000E+00  0.00000000E+00  0.00000000E+00
  0.00000000E+00  0.00000000E+00  0.00000000E+00
  0.00000000E+00  0.00000000E+00  0.00000000E+00
  0.00000000E+00  0.00000000E+00  0.00000000E+00
  0.00000000E+00  0.00000000E+00  0.00000000E+00
  0.00000000E+00  0.00000000E+00  0.00000000E+00
  0.00000000E+00  0.00000000E+00  0.00000000E+00
  0.00000000E+00  0.00000000E+00  0.00000000E+00
  0.00000000E+00  0.00000000E+00  0.00000000E+00
  0.00000000E+00  0.00000000E+00  0.00000000E+00
  0.00000000E+00  0.00000000E+00  0.00000000E+00
  0.00000000E+00  0.00000000E+00  0.00000000E+00
  0.00000000E+00  0.00000000E+00  0.00000000E+00
  0.00000000E+00  0.00000000E+00  0.00000000E+00
  0.00000000E+00  0.00000000E+00  0.00000000E+00
  0.00000000E+00  0.00000000E+00  0.00000000E+00
  0.00000000E+00  0.00000000E+00  0.00000000E+00
  0.00000000E+00  0.00000000E+00  0.00000000E+00
  0.00000000E+00  0.00000000E+00  0.00000000E+00
  0.00000000E+00  0.00000000E+00  0.00000000E+00
  0.00000000E+00  0.00000000E+00  0.00000000E+00
  0.00000000E+00  0.00000000E+00  0.00000000E+00
