Sn+Ge
    1.000000000
   12.978400230    0.000000000    0.000000000
    0.000000000   12.978400230    0.000000000
    0.000000000    0.000000000   19.583751678
Sn  Ge 
48     60
Direct
    0.992552638    0.499999970    0.000000000
    0.742552638    0.499999970    0.165678188
    0.492552757    0.499999970    0.331356287
    0.992552638    0.000000000    0.000000000
    0.742552638    0.000000000    0.165678188
    0.492552757    0.000000000    0.331356287
    0.492552608    0.499999970    0.000000000
    0.242552638    0.499999970    0.165678188
    0.992552698    0.499999970    0.331356287
    0.492552608    0.000000000    0.000000000
    0.242552638    0.000000000    0.165678188
    0.992552698    0.000000000    0.331356287
    0.117552646    0.874999940    0.082839087
    0.867552757    0.874999940    0.248517260
    0.617552698    0.874999940    0.414195418
    0.117552646    0.374999970    0.082839087
    0.867552757    0.374999970    0.248517260
    0.617552698    0.374999970    0.414195418
    0.617552578    0.874999940    0.082839087
    0.367552698    0.874999940    0.248517260
    0.117552668    0.874999940    0.414195418
    0.617552578    0.374999970    0.082839087
    0.367552698    0.374999970    0.248517260
    0.117552668    0.374999970    0.414195418
    0.242552638    0.749999940    0.000000000
    0.992552638    0.749999940    0.165678188
    0.742552757    0.749999940    0.331356287
    0.242552638    0.249999985    0.000000000
    0.992552638    0.249999985    0.165678188
    0.742552757    0.249999985    0.331356287
    0.742552578    0.749999940    0.000000000
    0.492552608    0.749999940    0.165678188
    0.242552698    0.749999940    0.331356287
    0.742552578    0.249999985    0.000000000
    0.492552608    0.249999985    0.165678188
    0.242552698    0.249999985    0.331356287
    0.367552638    0.624999940    0.082839087
    0.117552713    0.624999940    0.248517260
    0.867552698    0.624999940    0.414195418
    0.367552638    0.124999993    0.082839087
    0.117552713    0.124999993    0.248517260
    0.867552698    0.124999993    0.414195418
    0.867552638    0.624999940    0.082839087
    0.617552757    0.624999940    0.248517260
    0.367552698    0.624999940    0.414195418
    0.867552638    0.124999993    0.082839087
    0.617552757    0.124999993    0.248517260
    0.367552698    0.124999993    0.414195418
    0.821705401    0.220561355    0.526533484
    0.821705461    0.720561385    0.670984805
    0.821705461    0.220561415    0.815436304
    0.021705389    0.820561290    0.526533484
    0.021705389    0.320561320    0.670984805
    0.021705508    0.820561290    0.815436304
    0.221705437    0.420561343    0.526533484
    0.221705437    0.920561314    0.670984805
    0.221705437    0.420561343    0.815436304
    0.421705484    0.020561337    0.526533484
    0.421705484    0.520561337    0.670984805
    0.421705604    0.020561337    0.815436304
    0.621705294    0.620561361    0.526533484
    0.621705413    0.120561242    0.670984805
    0.621705413    0.620561361    0.815436304
    0.971705437    0.170561194    0.598759174
    0.971705437    0.670561314    0.743210614
    0.971705496    0.170561314    0.887661994
    0.171705365    0.770561337    0.598759174
    0.171705484    0.270561367    0.743210614
    0.171705484    0.770561337    0.887661994
    0.371705294    0.370561272    0.598759174
    0.371705294    0.870561361    0.743210614
    0.371705413    0.370561272    0.887661994
    0.571705461    0.970561385    0.598759174
    0.571705580    0.470561415    0.743210614
    0.571705580    0.970561385    0.887661994
    0.771705508    0.570561349    0.598759174
    0.771705508    0.070561290    0.743210614
    0.771705627    0.570561290    0.887661994
    0.921705425    0.520561337    0.526533484
    0.921705484    0.020561337    0.670984805
    0.921705544    0.520561218    0.815436304
    0.121705413    0.120561242    0.526533484
    0.121705532    0.620561242    0.670984805
    0.121705532    0.120561242    0.815436304
    0.321705341    0.720561385    0.526533484
    0.321705461    0.220561296    0.670984805
    0.321705580    0.720561385    0.815436304
    0.521705389    0.320561349    0.526533484
    0.521705389    0.820561290    0.670984805
    0.521705627    0.320561320    0.815436304
    0.721705437    0.920561314    0.526533484
    0.721705437    0.420561343    0.670984805
    0.721705556    0.920561194    0.815436304
    0.871705413    0.870561361    0.598759174
    0.871705472    0.370561391    0.743210614
    0.871705532    0.870561361    0.887661994
    0.071705341    0.470561355    0.598759174
    0.071705461    0.970561385    0.743210614
    0.071705580    0.470561415    0.887661994
    0.271705389    0.070561290    0.598759174
    0.271705389    0.570561290    0.743210614
    0.271705508    0.070561290    0.887661994
    0.471705437    0.670561373    0.598759174
    0.471705437    0.170561314    0.743210614
    0.471705437    0.670561433    0.887661994
    0.671705484    0.270561367    0.598759174
    0.671705484    0.770561337    0.743210614
    0.671705723    0.270561367    0.887661994
