C+Si
    1.000000000
   13.345743179    0.000000000    0.000000000
   -6.672872543   11.557754517    0.000000000
   -0.000000256   -0.000000148   21.729434967
C   Si 
308     72
Direct
    0.920635223    0.519841015    0.473848909
    0.015873071    0.996031702    0.000000037
    0.396825522    0.900793552    0.094769813
    0.777777910    0.805555403    0.189539567
    0.158730388    0.710317314    0.284309357
    0.539682865    0.615079045    0.379079133
    0.349206924    0.662698150    0.473848969
    0.444444537    0.138888881    0.000000034
    0.825397015    0.043650717    0.094769798
    0.206349373    0.948412597    0.189539552
    0.587301850    0.853174448    0.284309357
    0.968254209    0.757936239    0.379079133
    0.777778149    0.805555284    0.473848909
    0.873015940    0.281746000    0.000000037
    0.253968358    0.186507881    0.094769806
    0.634920835    0.091269724    0.189539567
    0.015873432    0.996031642    0.284309387
    0.396826029    0.900793433    0.379079193
    0.206349850    0.948412418    0.473848939
    0.301587403    0.424603164    0.000000037
    0.682539821    0.329365015    0.094769798
    0.063492179    0.234126896    0.189539552
    0.444444776    0.138888702    0.284309387
    0.825397253    0.043650553    0.379079133
    0.634921074    0.091269515    0.473848939
    0.730158865    0.567460299    0.000000039
    0.111111403    0.472222239    0.094769835
    0.492063642    0.376984090    0.189539596
    0.873016238    0.281745940    0.284309387
    0.253968716    0.186507747    0.379079163
    0.063492537    0.234126732    0.473848939
    0.158730224    0.710317433    0.000000051
    0.539682686    0.615079284    0.094769813
    0.920635045    0.519841194    0.189539567
    0.301587582    0.424603015    0.284309357
    0.682539940    0.329364866    0.379079163
    0.492063761    0.376983881    0.473848909
    0.587301672    0.853174567    0.000000035
    0.968254149    0.757936418    0.094769798
    0.349206567    0.662698269    0.189539567
    0.730159044    0.567460179    0.284309357
    0.111111641    0.472222000    0.379079163
    0.825396895    0.043650798    0.023692502
    0.206349373    0.948412657    0.118462242
    0.587301850    0.853174567    0.213232040
    0.968254328    0.757936358    0.308001876
    0.349206924    0.662698150    0.402771711
    0.253968358    0.186507910    0.023692479
    0.634920776    0.091269769    0.118462250
    0.015873313    0.996031642    0.213232040
    0.396825790    0.900793433    0.308001816
    0.777778268    0.805555344    0.402771652
    0.682539821    0.329365075    0.023692491
    0.063492298    0.234126881    0.118462250
    0.444444776    0.138888776    0.213232026
    0.825397253    0.043650653    0.308001846
    0.206349850    0.948412418    0.402771682
    0.111111186    0.472222179    0.023692492
    0.492063642    0.376984060    0.118462235
    0.873016059    0.281745911    0.213232011
    0.253968716    0.186507747    0.308001816
    0.634921074    0.091269635    0.402771652
    0.539682686    0.615079403    0.023692496
    0.920635045    0.519841254    0.118462250
    0.301587582    0.424603164    0.213232040
    0.682540178    0.329364985    0.308001846
    0.063492775    0.234126762    0.402771652
    0.968253970    0.757936478    0.023692492
    0.349206448    0.662698328    0.118462250
    0.730158925    0.567460120    0.213231981
    0.111111403    0.472221971    0.308001816
    0.492064238    0.376983851    0.402771622
    0.396825492    0.900793672    0.023692477
    0.777777910    0.805555582    0.118462250
    0.158730388    0.710317373    0.213232026
    0.539682746    0.615079165    0.308001816
    0.920635581    0.519841075    0.402771652
    0.420635462    0.519841015    0.473848939
    0.515873075    0.996031702    0.000000033
    0.896825552    0.900793552    0.094769806
    0.277777910    0.805555463    0.189539567
    0.658730388    0.710317254    0.284309357
    0.039682865    0.615079045    0.379079163
    0.849206924    0.662698150    0.473848909
    0.944444537    0.138888881    0.000000042
    0.325397015    0.043650780    0.094769835
    0.706349373    0.948412657    0.189539611
    0.087301970    0.853174448    0.284309357
    0.468254328    0.757936180    0.379079193
    0.277778149    0.805555224    0.473848969
    0.373015970    0.281746030    0.000000045
    0.753968418    0.186507896    0.094769813
    0.134920716    0.091269769    0.189539567
    0.515873313    0.996031582    0.284309357
    0.896825790    0.900793433    0.379079133
    0.706349611    0.948412418    0.473848909
    0.801587462    0.424603164    0.000000017
    0.182539940    0.329365075    0.094769813
    0.563492298    0.234126925    0.189539596
    0.944444656    0.138888776    0.284309387
    0.325397491    0.043650545    0.379079133
    0.134921074    0.091269650    0.473848969
    0.230158791    0.567460358    0.000000032
    0.611111224    0.472222179    0.094769798
    0.992063642    0.376984060    0.189539552
    0.373016000    0.281745911    0.284309387
    0.753968596    0.186507702    0.379079163
    0.563492537    0.234126717    0.473848909
    0.658730268    0.710317433    0.000000028
    0.039682746    0.615079284    0.094769791
    0.420635104    0.519841194    0.189539567
    0.801587582    0.424603075    0.284309387
    0.182540178    0.329364836    0.379079163
    0.992063999    0.376983821    0.473848939
    0.087301657    0.853174627    0.000000025
    0.468254060    0.757936418    0.094769798
    0.849206567    0.662698269    0.189539567
    0.230158925    0.567460179    0.284309357
    0.611111522    0.472221971    0.379079133
    0.325396925    0.043650761    0.023692457
    0.706349432    0.948412657    0.118462235
    0.087301731    0.853174508    0.213231981
    0.468254328    0.757936299    0.308001786
    0.849206567    0.662698209    0.402771592
    0.753968418    0.186507910    0.023692448
    0.134920835    0.091269769    0.118462235
    0.515873313    0.996031702    0.213231996
    0.896825671    0.900793433    0.308001786
    0.277778387    0.805555284    0.402771592
    0.182539731    0.329365045    0.023692453
    0.563492239    0.234126896    0.118462235
    0.944444656    0.138888747    0.213232011
    0.325397134    0.043650605    0.308001786
    0.706349611    0.948412478    0.402771592
    0.611111224    0.472222239    0.023692453
    0.992063701    0.376984060    0.118462235
    0.373016238    0.281745940    0.213232011
    0.753968596    0.186507747    0.308001786
    0.134920835    0.091269627    0.402771592
    0.039682508    0.615079403    0.023692461
    0.420634985    0.519841254    0.118462250
    0.801587582    0.424603134    0.213232011
    0.182539940    0.329364926    0.308001786
    0.563492298    0.234126821    0.402771622
    0.468254030    0.757936478    0.023692470
    0.849206507    0.662698388    0.118462250
    0.230158925    0.567460179    0.213232011
    0.611111522    0.472222060    0.308001786
    0.992063761    0.376983911    0.402771562
    0.896825433    0.900793672    0.023692474
    0.277777910    0.805555522    0.118462265
    0.658730388    0.710317433    0.213232026
    0.039682865    0.615079224    0.308001816
    0.420635223    0.519841075    0.402771592
    0.634921074    0.591269612    0.473848909
    0.730158806    0.067460321    0.000000050
    0.111111164    0.972222149    0.094769843
    0.492063642    0.876984060    0.189539567
    0.873016119    0.781745911    0.284309417
    0.253968716    0.686507642    0.379079223
    0.063492298    0.734126687    0.473848909
    0.158730209    0.210317448    0.000000028
    0.539682686    0.115079299    0.094769813
    0.920635104    0.019841198    0.189539582
    0.301587582    0.924602985    0.284309387
    0.682540178    0.829364896    0.379079163
    0.492063999    0.876983762    0.473848909
    0.587301672    0.353174597    0.000000027
    0.968254149    0.257936448    0.094769828
    0.349206448    0.162698269    0.189539567
    0.730159044    0.067460060    0.284309298
    0.111111403    0.972222030    0.379079103
    0.920635223    0.019841053    0.473848879
    0.015873073    0.496031731    0.000000028
    0.396825552    0.400793582    0.094769806
    0.777777970    0.305555463    0.189539596
    0.158730388    0.210317284    0.284309357
    0.539683104    0.115079165    0.379079163
    0.349206686    0.162698179    0.473848909
    0.444444567    0.638888955    0.000000048
    0.825397015    0.543650746    0.094769813
    0.206349373    0.448412597    0.189539567
    0.587301970    0.353174508    0.284309387
    0.968254566    0.257936299    0.379079193
    0.777778387    0.305555314    0.473848939
    0.873015940    0.781746030    0.000000044
    0.253968358    0.686507881    0.094769828
    0.634920835    0.591269672    0.189539596
    0.015873194    0.496031553    0.284309357
    0.396825790    0.400793493    0.379079163
    0.206349611    0.448412418    0.473848909
    0.301587343    0.924603224    0.000000000
    0.682539761    0.829365075    0.094769776
    0.063492298    0.734126866    0.189539567
    0.444444656    0.638888776    0.284309298
    0.825397253    0.543650627    0.379079103
    0.539682686    0.115079328    0.023692466
    0.920635164    0.019841203    0.118462242
    0.301587582    0.924602985    0.213231996
    0.682540178    0.829364836    0.308001816
    0.063492537    0.734126747    0.402771533
    0.968254089    0.257936448    0.023692461
    0.349206686    0.162698314    0.118462235
    0.730159163    0.067460164    0.213232040
    0.111111641    0.972222090    0.308001786
    0.492063999    0.876983881    0.402771562
    0.396825492    0.400793612    0.023692461
    0.777777970    0.305555463    0.118462227
    0.158730507    0.210317284    0.213232011
    0.539682984    0.115079142    0.308001816
    0.920635343    0.019841030    0.402771562
    0.825396955    0.543650746    0.023692477
    0.206349492    0.448412567    0.118462235
    0.587301970    0.353174388    0.213232011
    0.968254328    0.257936388    0.308001816
    0.349206686    0.162698165    0.402771533
    0.253968328    0.686507940    0.023692457
    0.634920776    0.591269791    0.118462242
    0.015873194    0.496031702    0.213232011
    0.396825790    0.400793493    0.308001816
    0.777778149    0.305555373    0.402771533
    0.682539701    0.829365015    0.023692448
    0.063492298    0.734126866    0.118462272
    0.444444656    0.638888717    0.213232026
    0.825397253    0.543650568    0.308001786
    0.206349611    0.448412448    0.402771562
    0.111111201    0.972222149    0.023692459
    0.492063671    0.876984000    0.118462220
    0.873016119    0.781745911    0.213231996
    0.253968716    0.686507702    0.308001786
    0.634921074    0.591269612    0.402771592
    0.134921074    0.591269553    0.473848909
    0.230158776    0.067460306    0.000000035
    0.611111283    0.972222149    0.094769806
    0.992063701    0.876984000    0.189539596
    0.373016119    0.781745911    0.284309357
    0.753968716    0.686507702    0.379079163
    0.563492537    0.734126687    0.473848909
    0.658730268    0.210317433    0.000000020
    0.039682746    0.115079314    0.094769828
    0.420635223    0.019841187    0.189539552
    0.801587582    0.924602985    0.284309298
    0.182540178    0.829364777    0.379079133
    0.992063880    0.876983821    0.473848879
    0.087301634    0.353174597    0.000000045
    0.468254089    0.257936448    0.094769813
    0.849206507    0.162698328    0.189539596
    0.230159044    0.067460164    0.284309357
    0.611111522    0.972221971    0.379079193
    0.420635462    0.019840980    0.473848939
    0.515873075    0.496031731    0.000000037
    0.896825612    0.400793612    0.094769828
    0.277777910    0.305555463    0.189539567
    0.658730507    0.210317239    0.284309357
    0.039682865    0.115079090    0.379079103
    0.849206924    0.162698299    0.473848939
    0.944444537    0.638888836    0.000000031
    0.325397015    0.543650687    0.094769798
    0.706349492    0.448412567    0.189539582
    0.087301731    0.353174448    0.284309357
    0.468254328    0.257936299    0.379079163
    0.277778149    0.305555344    0.473848909
    0.373015940    0.781746030    0.000000022
    0.753968358    0.686507881    0.094769783
    0.134920835    0.591269732    0.189539567
    0.515873194    0.496031612    0.284309298
    0.896825671    0.400793403    0.379079133
    0.706349611    0.448412538    0.473848939
    0.801587403    0.924603164    0.000000022
    0.182539821    0.829365015    0.094769783
    0.563492298    0.734126866    0.189539567
    0.944444656    0.638888776    0.284309298
    0.325397253    0.543650627    0.379079133
    0.039682508    0.115079306    0.023692479
    0.420634985    0.019841196    0.118462279
    0.801587343    0.924603105    0.213232026
    0.182539940    0.829364836    0.308001816
    0.563492537    0.734126806    0.402771652
    0.468254000    0.257936507    0.023692477
    0.849206388    0.162698388    0.118462250
    0.230158806    0.067460179    0.213232040
    0.611111403    0.972222030    0.308001816
    0.992063999    0.876983941    0.402771652
    0.896825492    0.400793672    0.023692489
    0.277777910    0.305555463    0.118462265
    0.658730268    0.210317343    0.213232055
    0.039683104    0.115079246    0.308001846
    0.420635462    0.019841013    0.402771652
    0.325396925    0.543650746    0.023692492
    0.706349313    0.448412627    0.118462250
    0.087301850    0.353174478    0.213232011
    0.468254447    0.257936358    0.308001816
    0.849206805    0.162698165    0.402771652
    0.753968239    0.686507881    0.023692463
    0.134920716    0.591269732    0.118462272
    0.515873075    0.496031642    0.213232026
    0.896825671    0.400793463    0.308001786
    0.277778387    0.305555373    0.402771682
    0.182539761    0.829365015    0.023692487
    0.563492179    0.734126925    0.118462265
    0.944444656    0.638888657    0.213232040
    0.325397253    0.543650568    0.308001846
    0.706349730    0.448412389    0.402771652
    0.611111164    0.972222149    0.023692476
    0.992063642    0.876983941    0.118462250
    0.373016000    0.781745791    0.213232040
    0.753968716    0.686507642    0.308001846
    0.134921074    0.591269493    0.402771652
    0.090584606    0.022727273    0.574585319
    0.423917949    0.022727273    0.718886793
    0.757251441    0.022727273    0.863188386
    0.757251263    0.356060624    0.574585319
    0.090584710    0.356060624    0.718886793
    0.423918188    0.356060624    0.863188386
    0.423917949    0.689393938    0.574585319
    0.757251263    0.689393938    0.718886793
    0.090584829    0.689393938    0.863188386
    0.423918009    0.022727273    0.610660791
    0.757251322    0.022727273    0.754962206
    0.090584829    0.022727273    0.899263740
    0.090584591    0.356060624    0.610660791
    0.423917949    0.356060624    0.754962206
    0.757251441    0.356060624    0.899263740
    0.757251322    0.689393938    0.610660732
    0.090584710    0.689393938    0.754962206
    0.423918188    0.689393938    0.899263740
    0.423917949    0.189393938    0.574585319
    0.757251322    0.189393938    0.718886793
    0.090584710    0.189393938    0.863188326
    0.090584606    0.522727251    0.574585319
    0.423917949    0.522727251    0.718886793
    0.757251441    0.522727251    0.863188326
    0.757251263    0.856060624    0.574585319
    0.090584710    0.856060624    0.718886793
    0.423918068    0.856060624    0.863188386
    0.757251382    0.189393967    0.610660732
    0.090584829    0.189393967    0.754962146
    0.423918188    0.189393967    0.899263680
    0.423917949    0.522727251    0.610660732
    0.757251441    0.522727251    0.754962206
    0.090584829    0.522727251    0.899263680
    0.090584710    0.856060684    0.610660732
    0.423918068    0.856060684    0.754962146
    0.757251322    0.856060684    0.899263620
    0.590584576    0.022727273    0.574585319
    0.923918009    0.022727273    0.718886793
    0.257251441    0.022727273    0.863188386
    0.257251263    0.356060624    0.574585319
    0.590584636    0.356060624    0.718886793
    0.923918128    0.356060624    0.863188326
    0.923917949    0.689393938    0.574585319
    0.257251322    0.689393938    0.718886793
    0.590584815    0.689393938    0.863188386
    0.923917949    0.022727286    0.610660732
    0.257251441    0.022727286    0.754962206
    0.590584815    0.022727286    0.899263680
    0.590584636    0.356060624    0.610660732
    0.923918068    0.356060624    0.754962206
    0.257251441    0.356060624    0.899263680
    0.257251203    0.689393938    0.610660732
    0.590584636    0.689393938    0.754962146
    0.923917949    0.689393938    0.899263680
    0.923917949    0.189393938    0.574585319
    0.257251322    0.189393938    0.718886793
    0.590584815    0.189393938    0.863188386
    0.590584576    0.522727251    0.574585319
    0.923917949    0.522727251    0.718886793
    0.257251441    0.522727251    0.863188386
    0.257251292    0.856060565    0.574585319
    0.590584636    0.856060565    0.718886793
    0.923918068    0.856060565    0.863188326
    0.257251203    0.189393967    0.610660732
    0.590584636    0.189393967    0.754962206
    0.923918068    0.189393967    0.899263740
    0.923918009    0.522727251    0.610660732
    0.257251441    0.522727251    0.754962206
    0.590584815    0.522727251    0.899263740
    0.590584576    0.856060624    0.610660791
    0.923917949    0.856060624    0.754962206
    0.257251441    0.856060624    0.899263740
