fcc Si+fcc Ge
    1.000000000
   12.253652517    0.000000000    0.000000000
   -9.802922013    7.352191510    0.000000000
    0.000000000    0.000000000   18.258333333
Si    Ge   
66     12
Direct
    0.333333333    0.666666667    0.000000000
    0.666666667    0.833333333    0.150068462
    0.000000000    0.000000000    0.300136924
    0.333333333    0.166666667    0.450205386
    0.666666667    0.333333333    0.600273848
    0.000000000    0.500000000    0.750342309
    0.000000000    0.000000000    0.000000000
    0.333333333    0.166666667    0.150068462
    0.666666667    0.333333333    0.300136924
    0.000000000    0.500000000    0.450205386
    0.333333333    0.666666667    0.600273848
    0.666666667    0.833333333    0.750342309
    0.666666667    0.333333333    0.000000000
    0.000000000    0.500000000    0.150068462
    0.333333333    0.666666667    0.300136924
    0.666666667    0.833333333    0.450205386
    0.000000000    0.000000000    0.600273848
    0.333333333    0.166666667    0.750342309
    0.166666667    0.833333333    0.000000000
    0.500000000    0.000000000    0.150068462
    0.833333333    0.166666667    0.300136924
    0.166666667    0.333333333    0.450205386
    0.500000000    0.500000000    0.600273848
    0.833333333    0.666666667    0.750342309
    0.500000000    0.500000000    0.000000000
    0.833333333    0.666666667    0.150068462
    0.166666667    0.833333333    0.300136924
    0.500000000    0.000000000    0.450205386
    0.833333333    0.166666667    0.600273848
    0.166666667    0.333333333    0.750342309
    0.833333333    0.166666667    0.000000000
    0.166666667    0.333333333    0.150068462
    0.500000000    0.500000000    0.300136924
    0.833333333    0.666666667    0.450205386
    0.166666667    0.833333333    0.600273848
    0.500000000    0.000000000    0.750342309
    0.083333333    0.916666667    0.075034231
    0.416666667    0.083333333    0.225102693
    0.750000000    0.250000000    0.375171155
    0.083333333    0.416666667    0.525239617
    0.416666667    0.583333333    0.675308079
    0.416666667    0.583333333    0.075034231
    0.750000000    0.750000000    0.225102693
    0.083333333    0.916666667    0.375171155
    0.416666667    0.083333333    0.525239617
    0.750000000    0.250000000    0.675308079
    0.750000000    0.250000000    0.075034231
    0.083333333    0.416666667    0.225102693
    0.416666667    0.583333333    0.375171155
    0.750000000    0.750000000    0.525239617
    0.083333333    0.916666667    0.675308079
    0.250000000    0.750000000    0.075034231
    0.583333333    0.916666667    0.225102693
    0.916666667    0.083333333    0.375171155
    0.250000000    0.250000000    0.525239617
    0.583333333    0.416666667    0.675308079
    0.583333333    0.416666667    0.075034231
    0.916666667    0.583333333    0.225102693
    0.250000000    0.750000000    0.375171155
    0.583333333    0.916666667    0.525239617
    0.916666667    0.083333333    0.675308079
    0.916666667    0.083333333    0.075034231
    0.250000000    0.250000000    0.225102693
    0.583333333    0.416666667    0.375171155
    0.916666667    0.583333333    0.525239617
    0.250000000    0.750000000    0.675308079
    0.106557377    0.000000000    0.810588772
    0.995446266    0.611111111    0.862254678
    0.884335155    0.222222222    0.913920584
    0.606557377    0.500000000    0.810588772
    0.495446266    0.111111111    0.862254678
    0.384335155    0.722222222    0.913920584
    0.301001821    0.305555556    0.836421725
    0.189890710    0.916666667    0.888087631
    0.078779599    0.527777778    0.939753537
    0.801001821    0.805555556    0.836421725
    0.689890710    0.416666667    0.888087631
    0.578779599    0.027777778    0.939753537
