Si Ge
 1.0000000000000000
     7.8403999897964392    0.0000000000000000    0.0000000000000000
     1.9600999974491096    3.3949927834974849    0.0000000000000000
     0.0000000000000000    0.0000000000000000   27.4579734608117896
 Si  Ge 
  10  10
Cartesian
  0.4360403793134677  0.5786405640488927  0.0076531702977774
  0.4360403793134678  0.5786405640488929  2.3589121415725276
  4.3562403742116880  2.8419690863805500  3.1426651319974450
  4.3562403742116897  2.8419690863805505  5.4939241032721950
  6.3163403716607993  1.7103048252147219  6.2776770936971120
  6.3163403716607993  1.7103048252147219  8.6289360649718638
  0.4360403793134684  0.5786405640488939  9.4126890553967790
  8.2764403691099062  0.5786405640488946 11.7639480266715317
  4.3562403742116906  2.8419690863805518 12.5477010170964469
  4.3562403742116906  2.8419690863805527 14.8989599883711996
  1.2902504177570844  0.0390290850617236 13.3584417797849682
  1.2902504177570864  0.0390290850617239 15.8084276470911469
  5.2104504126553035  2.3023576073933798 16.6250896028598696
  5.2104504126553035  2.3023576073933811 19.0750754701660483
  7.1705504101044131  1.1706933462275517 19.8917374259347746
  7.1705504101044149  1.1706933462275531 22.3417232932409533
  1.2902504177570844  0.0390290850617236 23.1583852490096760
  3.2503504152061935  3.4340218685592077 25.6083711163158512
  5.2104504126553026  2.3023576073933798 26.4250330720845810
  5.2104504126553044  2.3023576073933798 28.8750189393907561
