Si+Ge
    1.000000000
   16.293001175    0.000000000    0.000000000
    0.000000000   17.174329758    0.000000000
    0.000000000    0.000000185    7.627488136
Si  Ge 
72     48
Direct
    0.130378902    0.826204658    0.562910020
    0.963712454    0.076203912    0.000000078
    0.797045708    0.426204026    0.112582065
    0.630379081    0.776204169    0.225163996
    0.463712275    0.126204491    0.337745994
    0.297045529    0.476204634    0.450328022
    0.463712275    0.826204658    0.562910020
    0.297045797    0.076203912    0.000000078
    0.130379081    0.426204026    0.112582065
    0.963712394    0.776204169    0.225163996
    0.797045588    0.126204491    0.337745994
    0.630378842    0.476204634    0.450328022
    0.797045588    0.826204658    0.562910020
    0.630379140    0.076203912    0.000000078
    0.463712424    0.426204026    0.112582065
    0.297045767    0.776204169    0.225163996
    0.130378976    0.126204491    0.337745994
    0.963712215    0.476204634    0.450328022
    0.213712215    0.576204777    0.562909901
    0.047045767    0.826204002    0.000000000
    0.880379081    0.176204205    0.112582035
    0.713712335    0.526204467    0.225163922
    0.547045588    0.876204610    0.337745965
    0.380378962    0.226204634    0.450327903
    0.547045588    0.576204777    0.562909901
    0.380379081    0.826204002    0.000000000
    0.213712379    0.176204205    0.112582035
    0.047045693    0.526204467    0.225163922
    0.880378962    0.876204610    0.337745965
    0.713712335    0.226204634    0.450327903
    0.880378902    0.576204777    0.562909901
    0.713712394    0.826204002    0.000000000
    0.547045708    0.176204205    0.112582035
    0.380378991    0.526204467    0.225163922
    0.213712230    0.876204610    0.337745965
    0.047045581    0.226204634    0.450327903
    0.130378902    0.326204777    0.562910020
    0.963712394    0.576204002    0.000000031
    0.797045708    0.926204145    0.112581998
    0.630379021    0.276204228    0.225163922
    0.463712275    0.626204491    0.337745994
    0.297045648    0.976204634    0.450327903
    0.463712275    0.326204777    0.562910020
    0.297045767    0.576204002    0.000000031
    0.130379051    0.926204145    0.112581998
    0.963712394    0.276204228    0.225163922
    0.797045588    0.626204491    0.337745994
    0.630378962    0.976204634    0.450327903
    0.797045588    0.326204777    0.562910020
    0.630379140    0.576204002    0.000000031
    0.463712394    0.926204145    0.112581998
    0.297045738    0.276204228    0.225163922
    0.130378976    0.626204491    0.337745994
    0.963712335    0.976204634    0.450327903
    0.213712215    0.076204777    0.562909842
    0.047045767    0.326203912    0.000000078
    0.880379081    0.676204026    0.112582006
    0.713712394    0.026204228    0.225163952
    0.547045588    0.376204491    0.337745965
    0.380378842    0.726204753    0.450327903
    0.547045588    0.076204777    0.562909842
    0.380379111    0.326203912    0.000000078
    0.213712409    0.676204026    0.112582006
    0.047045726    0.026204228    0.225163952
    0.880378962    0.376204491    0.337745965
    0.713712215    0.726204753    0.450327903
    0.880378962    0.076204777    0.562909842
    0.713712454    0.326203912    0.000000078
    0.547045767    0.676204026    0.112582006
    0.380379081    0.026204228    0.225163952
    0.213712290    0.376204491    0.337745965
    0.047045540    0.726204753    0.450327903
    0.913237751    0.910024285    0.562909961
    0.538237751    0.521135390    0.650327921
    0.163237810    0.132246494    0.737745881
    0.788237810    0.743357420    0.825163960
    0.413237810    0.354468584    0.912581921
    0.038237691    0.965579510    0.999999881
    0.413237691    0.910024285    0.562909961
    0.038237717    0.521135330    0.650327921
    0.663237751    0.132246435    0.737745881
    0.288237691    0.743357420    0.825163841
    0.913237810    0.354468465    0.912581921
    0.538237810    0.965579748    1.000000000
    0.038237728    0.660024226    0.562909961
    0.663237751    0.271135300    0.650327921
    0.288237810    0.882246375    0.737745881
    0.913237810    0.493357420    0.825163841
    0.538237691    0.104468405    0.912581801
    0.163237691    0.715579629    0.999999881
    0.538237691    0.660024226    0.562909961
    0.163237706    0.271135300    0.650327921
    0.788237751    0.882246375    0.737745881
    0.413237691    0.493357480    0.825163841
    0.038237751    0.104468465    0.912581921
    0.663237691    0.715579629    0.999999881
    0.288237751    0.660024226    0.562909961
    0.913237751    0.271135300    0.650327921
    0.538237810    0.882246375    0.737745881
    0.163237810    0.493357420    0.825163841
    0.788237810    0.104468465    0.912581801
    0.413237810    0.715579510    0.999999881
    0.788237691    0.660024166    0.562909961
    0.413237721    0.271135300    0.650327921
    0.038237784    0.882246375    0.737745881
    0.663237751    0.493357420    0.825163841
    0.288237691    0.104468465    0.912581801
    0.913237810    0.715579629    0.999999881
    0.163237721    0.910024285    0.562909961
    0.788237691    0.521135330    0.650327921
    0.413237810    0.132246494    0.737745881
    0.038237751    0.743357420    0.825163960
    0.663237810    0.354468584    0.912581801
    0.288237691    0.965579510    0.999999881
    0.663237691    0.910024285    0.562910080
    0.288237751    0.521135330    0.650327921
    0.913237751    0.132246494    0.737745881
    0.538237810    0.743357420    0.825163960
    0.163237691    0.354468465    0.912581801
    0.788237810    0.965579748    0.999999881
