Sn+Si
    1.000000000
    9.177114487    0.000000000    0.000000000
    0.000000000   15.895230293    0.000000000
    0.000000000    0.000000000   13.972713470
Sn  Si 
48     48
Direct
    0.018613756    0.993795395    0.000000016
    0.518613756    0.827128708    0.268132716
    0.018613696    0.660462022    0.536265433
    0.518613756    0.493795395    0.000000007
    0.018613696    0.327128708    0.268132716
    0.518613696    0.160461962    0.536265433
    0.018613696    0.327128738    0.067033194
    0.518613696    0.160461977    0.335165948
    0.018613577    0.993795276    0.603298545
    0.518613696    0.827128708    0.067033216
    0.018613696    0.660461962    0.335165888
    0.518613696    0.493795276    0.603298545
    0.518613756    0.993795395    0.000000025
    0.018613696    0.827128649    0.268132746
    0.518613696    0.660461962    0.536265433
    0.018613761    0.493795395    0.000000016
    0.518613756    0.327128679    0.268132746
    0.018613815    0.160461962    0.536265492
    0.518613756    0.327128768    0.067033112
    0.018613696    0.160462052    0.335165828
    0.518613815    0.993795276    0.603298545
    0.018613696    0.827128768    0.067033134
    0.518613696    0.660462022    0.335165799
    0.018613815    0.493795335    0.603298485
    0.768613696    0.243795365    0.000000025
    0.268613696    0.077128649    0.268132746
    0.768613696    0.910461962    0.536265433
    0.268613726    0.743795455    0.000000020
    0.768613756    0.577128768    0.268132716
    0.268613696    0.410462022    0.536265433
    0.268613756    0.077128746    0.067033127
    0.768613696    0.910462022    0.335165799
    0.268613815    0.743795276    0.603298545
    0.768613696    0.577128768    0.067033127
    0.268613696    0.410462022    0.335165799
    0.768613815    0.243795320    0.603298485
    0.268613756    0.243795395    0.000000011
    0.768613756    0.077128686    0.268132716
    0.268613696    0.910461962    0.536265433
    0.768613696    0.743795455    0.000000000
    0.268613696    0.577128768    0.268132746
    0.768613696    0.410461992    0.536265314
    0.768613636    0.077128761    0.067033194
    0.268613577    0.910462022    0.335165948
    0.768613577    0.743795335    0.603298664
    0.268613756    0.577128768    0.067033164
    0.768613756    0.410462022    0.335165888
    0.268613696    0.243795320    0.603298545
    0.069444448    0.921875000    0.603298664
    0.402777851    0.546875000    0.682638943
    0.736111283    0.171875000    0.761979103
    0.069444656    0.796875000    0.841319382
    0.402778029    0.421875119    0.920659661
    0.736111641    0.046874881    1.000000000
    0.069444455    0.421874970    0.603298664
    0.402777851    0.046874985    0.682638943
    0.736111283    0.671875000    0.761979103
    0.069444656    0.296875000    0.841319501
    0.402778029    0.921875000    0.920659661
    0.736111641    0.546874762    1.000000000
    0.819444478    0.171875015    0.603298664
    0.152777910    0.796875000    0.682638824
    0.486111283    0.421875000    0.761979103
    0.819444776    0.046874940    0.841319382
    0.152778149    0.671875000    0.920659781
    0.486111641    0.296874881    1.000000000
    0.819444478    0.671874940    0.603298664
    0.152777910    0.296874970    0.682638824
    0.486111283    0.921874940    0.761979103
    0.819444776    0.546874881    0.841319382
    0.152777910    0.171875000    0.920659781
    0.486111641    0.796874762    1.000000000
    0.069444448    0.171875000    0.603298664
    0.402777851    0.796875000    0.682638943
    0.736111283    0.421875000    0.761979103
    0.069444776    0.046874940    0.841319382
    0.402778029    0.671875000    0.920659661
    0.736111522    0.296874881    1.000000000
    0.069444455    0.671875000    0.603298664
    0.402777851    0.296875000    0.682638943
    0.736111283    0.921875000    0.761979103
    0.069444656    0.546874940    0.841319382
    0.402778029    0.171875000    0.920659661
    0.736111522    0.796874881    1.000000000
    0.819444478    0.921875000    0.603298664
    0.152777791    0.546875000    0.682638824
    0.486111283    0.171875000    0.761979103
    0.819444895    0.796875000    0.841319382
    0.152778149    0.421875000    0.920659661
    0.486111879    0.046874762    1.000000000
    0.819444478    0.421875000    0.603298664
    0.152777910    0.046874970    0.682638824
    0.486111283    0.671875000    0.761979103
    0.819444656    0.296875000    0.841319382
    0.152778149    0.921875119    0.920659781
    0.486111641    0.546874881    1.000000000
