fcc Si+fcc Ge                           
   1.00000000000000     
     5.4800000000000004    0.0000000000000000    0.0000000000000000
     0.0000000000000000    5.4800000000000004    0.0000000000000000
     0.0000000000000000    0.0000000000000000   27.8500000000000014
   Si   Ge
    22    22
Direct
  0.2500000000000000  0.0000000000000000  0.0491921010000027
  0.7500000000000000  0.0000000000000000  0.1475763019999974
  0.2500000000000000  0.0000000000000000  0.2459605029999992
  0.7500000000000000  0.0000000000000000  0.3443447040000009
  0.2500000000000000  0.0000000000000000  0.4427289050000027
  0.7500000000000000  0.5000000000000000  0.0491921010000027
  0.2500000000000000  0.5000000000000000  0.1475763019999974
  0.7500000000000000  0.5000000000000000  0.2459605029999992
  0.2500000000000000  0.5000000000000000  0.3443447040000009
  0.7500000000000000  0.5000000000000000  0.4427289050000027
  0.0000000000000000  0.2500000000000000  0.0000000000000000
  0.5000000000000000  0.2500000000000000  0.0983842010000018
  0.0000000000000000  0.2500000000000000  0.1967684020000036
  0.5000000000000000  0.2500000000000000  0.2951526029999982
  0.0000000000000000  0.2500000000000000  0.3935368040000000
  0.5000000000000000  0.2500000000000000  0.4919210050000018
  0.5000000000000000  0.7500000000000000  0.0000000000000000
  0.0000000000000000  0.7500000000000000  0.0983842010000018
  0.5000000000000000  0.7500000000000000  0.1967684020000036
  0.0000000000000000  0.7500000000000000  0.2951526029999982
  0.5000000000000000  0.7500000000000000  0.3935368040000000
  0.0000000000000000  0.7500000000000000  0.4919210050000018
  0.0555555560000016  0.3148148149999983  0.4919210050000018
  0.5555555560000016  0.3148148149999983  0.5935368040000029
  0.0555555560000016  0.3148148149999983  0.6951526029999968
  0.5555555560000016  0.3148148149999983  0.7967684019999979
  0.0555555560000016  0.3148148149999983  0.8983842009999989
  0.5555555560000016  0.3148148149999983  0.0000000000000000
  0.5555555560000016  0.8148148149999983  0.4919210050000018
  0.0555555560000016  0.8148148149999983  0.5935368040000029
  0.5555555560000016  0.8148148149999983  0.6951526029999968
  0.0555555560000016  0.8148148149999983  0.7967684019999979
  0.5555555560000016  0.8148148149999983  0.8983842009999989
  0.0555555560000016  0.8148148149999983  0.0000000000000000
  0.3055555560000016  0.5648148149999983  0.5427289049999970
  0.8055555560000016  0.5648148149999983  0.6443447039999981
  0.3055555560000016  0.5648148149999983  0.7459605029999992
  0.8055555560000016  0.5648148149999983  0.8475763020000002
  0.3055555560000016  0.5648148149999983  0.9491921010000013
  0.8055555560000016  0.0648148149999983  0.5427289049999970
  0.3055555560000016  0.0648148149999983  0.6443447039999981
  0.8055555560000016  0.0648148149999983  0.7459605029999992
  0.3055555560000016  0.0648148149999983  0.8475763020000002
  0.8055555560000016  0.0648148149999983  0.9491921010000013
 
  0.00000000E+00  0.00000000E+00  0.00000000E+00
  0.00000000E+00  0.00000000E+00  0.00000000E+00
  0.00000000E+00  0.00000000E+00  0.00000000E+00
  0.00000000E+00  0.00000000E+00  0.00000000E+00
  0.00000000E+00  0.00000000E+00  0.00000000E+00
  0.00000000E+00  0.00000000E+00  0.00000000E+00
  0.00000000E+00  0.00000000E+00  0.00000000E+00
  0.00000000E+00  0.00000000E+00  0.00000000E+00
  0.00000000E+00  0.00000000E+00  0.00000000E+00
  0.00000000E+00  0.00000000E+00  0.00000000E+00
  0.00000000E+00  0.00000000E+00  0.00000000E+00
  0.00000000E+00  0.00000000E+00  0.00000000E+00
  0.00000000E+00  0.00000000E+00  0.00000000E+00
  0.00000000E+00  0.00000000E+00  0.00000000E+00
  0.00000000E+00  0.00000000E+00  0.00000000E+00
  0.00000000E+00  0.00000000E+00  0.00000000E+00
  0.00000000E+00  0.00000000E+00  0.00000000E+00
  0.00000000E+00  0.00000000E+00  0.00000000E+00
  0.00000000E+00  0.00000000E+00  0.00000000E+00
  0.00000000E+00  0.00000000E+00  0.00000000E+00
  0.00000000E+00  0.00000000E+00  0.00000000E+00
  0.00000000E+00  0.00000000E+00  0.00000000E+00
  0.00000000E+00  0.00000000E+00  0.00000000E+00
  0.00000000E+00  0.00000000E+00  0.00000000E+00
  0.00000000E+00  0.00000000E+00  0.00000000E+00
  0.00000000E+00  0.00000000E+00  0.00000000E+00
  0.00000000E+00  0.00000000E+00  0.00000000E+00
  0.00000000E+00  0.00000000E+00  0.00000000E+00
  0.00000000E+00  0.00000000E+00  0.00000000E+00
  0.00000000E+00  0.00000000E+00  0.00000000E+00
  0.00000000E+00  0.00000000E+00  0.00000000E+00
  0.00000000E+00  0.00000000E+00  0.00000000E+00
  0.00000000E+00  0.00000000E+00  0.00000000E+00
  0.00000000E+00  0.00000000E+00  0.00000000E+00
  0.00000000E+00  0.00000000E+00  0.00000000E+00
  0.00000000E+00  0.00000000E+00  0.00000000E+00
  0.00000000E+00  0.00000000E+00  0.00000000E+00
  0.00000000E+00  0.00000000E+00  0.00000000E+00
  0.00000000E+00  0.00000000E+00  0.00000000E+00
  0.00000000E+00  0.00000000E+00  0.00000000E+00
  0.00000000E+00  0.00000000E+00  0.00000000E+00
  0.00000000E+00  0.00000000E+00  0.00000000E+00
  0.00000000E+00  0.00000000E+00  0.00000000E+00
  0.00000000E+00  0.00000000E+00  0.00000000E+00
