Ge+Sn                                   
   1.00000000000000     
    11.3156003950000006    0.0000000000000000    0.0000000000000000
   -11.3156003950000006   16.0026760099999983    0.0000000000000000
     0.0000000000000000    0.0000000000000000   25.8009395599999998
   Ge   Sn
    96    72
Direct
  0.9853314160000011  0.4559941589999994  0.0000000180000015
  0.8603314160000011  0.0809941369999976  0.0775295349999965
  0.7353314160000011  0.7059941289999969  0.1550590690000035
  0.6103314160000011  0.3309942480000032  0.2325885300000010
  0.4853313569999997  0.9559941289999969  0.3101180789999987
  0.3603313569999997  0.5809941289999969  0.3876476289999999
  0.4853313859999986  0.4559941589999994  0.0000000180000015
  0.3603314160000011  0.0809941369999976  0.0775295349999965
  0.2353313569999997  0.7059941289999969  0.1550590690000035
  0.1103313790000016  0.3309942480000032  0.2325885300000010
  0.9853314759999989  0.9559941289999969  0.3101180789999987
  0.8603314160000011  0.5809941289999969  0.3876476289999999
  0.9853313569999997  0.9559941289999969  0.0000000160000013
  0.8603314160000011  0.5809941289999969  0.0775295420000006
  0.7353314160000011  0.2059941289999969  0.1550590539999988
  0.6103314160000011  0.8309943679999989  0.2325885300000010
  0.4853314160000011  0.4559941289999969  0.3101181090000011
  0.3603313569999997  0.0809941289999969  0.3876475989999975
  0.4853313859999986  0.9559941289999969  0.0000000160000013
  0.3603313569999997  0.5809941289999969  0.0775295420000006
  0.2353314460000036  0.2059941289999969  0.1550590539999988
  0.1103314909999966  0.8309943679999989  0.2325885300000010
  0.9853312970000019  0.4559941289999969  0.3101181090000011
  0.8603313569999997  0.0809941289999969  0.3876475989999975
  0.2353313710000009  0.7059941289999969  0.0000000209999982
  0.1103313710000009  0.3309941289999969  0.0775295349999965
  0.9853313569999997  0.9559941289999969  0.1550590539999988
  0.8603313569999997  0.5809942480000032  0.2325885589999999
  0.7353313569999997  0.2059941890000019  0.3101181090000011
  0.6103312970000019  0.8309941289999969  0.3876476289999999
  0.7353313569999997  0.7059941289999969  0.0000000209999982
  0.6103313569999997  0.3309941289999969  0.0775295349999965
  0.4853313269999973  0.9559941289999969  0.1550590539999988
  0.3603313569999997  0.5809942480000032  0.2325885589999999
  0.2353313710000009  0.2059941890000019  0.3101181090000011
  0.1103313639999968  0.8309941289999969  0.3876476289999999
  0.2353313859999986  0.2059941440000017  0.0000000169999979
  0.1103313939999992  0.8309941289999969  0.0775295349999965
  0.9853313569999997  0.4559941289999969  0.1550590539999988
  0.8603313569999997  0.0809942480000032  0.2325885589999999
  0.7353314759999989  0.7059942480000032  0.3101180789999987
  0.6103313569999997  0.3309941289999969  0.3876475989999975
  0.7353312970000019  0.2059941440000017  0.0000000169999979
  0.6103313569999997  0.8309941289999969  0.0775295349999965
  0.4853313859999986  0.4559941289999969  0.1550590539999988
  0.3603312970000019  0.0809942480000032  0.2325885589999999
  0.2353313859999986  0.7059942480000032  0.3101180789999987
  0.1103312600000024  0.3309941289999969  0.3876475989999975
  0.9853314160000011  0.5809941890000019  0.0000000260000022
  0.8603314160000011  0.2059941589999994  0.0775295349999965
  0.7353313569999997  0.8309941289999969  0.1550590539999988
  0.6103314160000011  0.4559942480000032  0.2325885300000010
  0.4853313569999997  0.0809941890000019  0.3101181090000011
  0.3603313569999997  0.7059941289999969  0.3876476289999999
  0.4853314160000011  0.5809941890000019  0.0000000260000022
  0.3603314160000011  0.2059941589999994  0.0775295349999965
  0.2353314010000034  0.8309941289999969  0.1550590539999988
  0.1103314309999988  0.4559942480000032  0.2325885300000010
  0.9853313569999997  0.0809941890000019  0.3101181090000011
  0.8603314160000011  0.7059941289999969  0.3876476289999999
  0.9853313569999997  0.0809941369999976  0.0000000129999975
  0.8603314160000011  0.7059941289999969  0.0775295349999965
  0.7353314160000011  0.3309941289999969  0.1550590539999988
  0.6103314160000011  0.9559942480000032  0.2325885589999999
  0.4853314160000011  0.5809942480000032  0.3101180789999987
  0.3603313569999997  0.2059940099999977  0.3876475989999975
  0.4853313859999986  0.0809941369999976  0.0000000129999975
  0.3603313569999997  0.7059941289999969  0.0775295349999965
  0.2353314010000034  0.3309941289999969  0.1550590539999988
  0.1103314460000036  0.9559942480000032  0.2325885589999999
  0.9853315350000003  0.5809942480000032  0.3101180789999987
  0.8603312369999969  0.2059940099999977  0.3876475989999975
  0.2353314460000036  0.8309941890000019  0.0000000000000000
  0.1103314160000011  0.4559941890000019  0.0775295349999965
  0.9853314160000011  0.0809941739999971  0.1550590539999988
  0.8603314160000011  0.7059943080000011  0.2325885300000010
  0.7353314160000011  0.3309942480000032  0.3101180789999987
  0.6103314160000011  0.9559941289999969  0.3876475690000021
  0.7353314160000011  0.8309941890000019  0.0000000000000000
  0.6103314160000011  0.4559941890000019  0.0775295349999965
  0.4853313859999986  0.0809941739999971  0.1550590539999988
  0.3603314160000011  0.7059943080000011  0.2325885300000010
  0.2353314160000011  0.3309942480000032  0.3101180789999987
  0.1103313569999997  0.9559941289999969  0.3876475690000021
  0.2353313710000009  0.3309941289999969  0.0000000180000015
  0.1103313790000016  0.9559941289999969  0.0775295420000006
  0.9853313569999997  0.5809941289999969  0.1550590539999988
  0.8603314160000011  0.2059942480000032  0.2325885589999999
  0.7353313569999997  0.8309941289999969  0.3101180789999987
  0.6103314160000011  0.4559941289999969  0.3876475989999975
  0.7353313569999997  0.3309941289999969  0.0000000180000015
  0.6103313569999997  0.9559941289999969  0.0775295420000006
  0.4853313859999986  0.5809941289999969  0.1550590539999988
  0.3603314160000011  0.2059942480000032  0.2325885589999999
  0.2353314610000012  0.8309941289999969  0.3101180789999987
  0.1103313039999989  0.4559941289999969  0.3876475989999975
  0.4820204970000006  0.9871487619999968  0.4715180099999969
  0.2320204970000006  0.7371486429999976  0.5604403609999977
  0.9820203780000014  0.4871485529999973  0.6493626829999997
  0.7320203190000001  0.2371484040000027  0.7382849449999966
  0.4820202590000022  0.9871484040000027  0.8272072079999973
  0.2320202590000022  0.7371482850000035  0.9161295890000005
  0.4820204970000006  0.6538153890000018  0.4715180099999969
  0.2320204970000006  0.4038153289999968  0.5604403609999977
  0.9820203780000014  0.1538151499999998  0.6493626829999997
  0.7320203190000001  0.9038150310000006  0.7382849449999966
  0.4820202590000022  0.6538150310000006  0.8272072079999973
  0.2320202590000022  0.4038149419999968  0.9161295890000005
  0.4820204970000006  0.3204820159999997  0.4715180099999969
  0.2320204970000006  0.0704820159999997  0.5604403609999977
  0.9820203780000014  0.8204817769999977  0.6493626829999997
  0.7320203190000001  0.5704816579999985  0.7382849449999966
  0.4820202590000022  0.3204816579999985  0.8272072079999973
  0.2320202590000022  0.0704815389999993  0.9161295890000005
  0.9820204970000006  0.1538153890000018  0.4715180099999969
  0.7320204970000006  0.9038152689999990  0.5604403609999977
  0.4820203780000014  0.6538152689999990  0.6493626239999983
  0.2320203780000014  0.4038151499999998  0.7382849449999966
  0.9820203190000001  0.1538150310000006  0.8272072079999973
  0.7320202590000022  0.9038149120000014  0.9161295890000005
  0.9820204970000006  0.8204820159999997  0.4715180099999969
  0.7320204970000006  0.5704820159999997  0.5604403609999977
  0.4820203780000014  0.3204818959999969  0.6493626239999983
  0.2320203780000014  0.0704817769999977  0.7382849449999966
  0.9820203190000001  0.8204816579999985  0.8272072079999973
  0.7320202590000022  0.5704816579999985  0.9161295890000005
  0.9820204970000006  0.4871487019999989  0.4715180099999969
  0.7320204970000006  0.2371486429999976  0.5604403609999977
  0.4820203780000014  0.9871485230000019  0.6493626239999983
  0.2320203780000014  0.7371484040000027  0.7382849449999966
  0.9820203190000001  0.4871483149999989  0.8272072079999973
  0.7320202590000022  0.2371481659999972  0.9161295890000005
  0.2320204970000006  0.9871487619999968  0.4715180099999969
  0.9820204970000006  0.7371487619999968  0.5604404210000027
  0.7320203780000014  0.4871486429999976  0.6493626829999997
  0.4820203780000014  0.2371485230000019  0.7382849449999966
  0.2320202590000022  0.9871485230000019  0.8272072669999986
  0.9820202590000022  0.7371484040000027  0.9161295890000005
  0.2320204970000006  0.6538153890000018  0.4715180099999969
  0.9820204970000006  0.4038153289999968  0.5604404210000027
  0.7320203780000014  0.1538151499999998  0.6493626829999997
  0.4820203780000014  0.9038150310000006  0.7382849449999966
  0.2320202590000022  0.6538150310000006  0.8272072669999986
  0.9820202590000022  0.4038149419999968  0.9161295890000005
  0.2320204970000006  0.3204820159999997  0.4715180099999969
  0.9820204970000006  0.0704820159999997  0.5604404210000027
  0.7320203780000014  0.8204818959999969  0.6493626829999997
  0.4820203780000014  0.5704817769999977  0.7382849449999966
  0.2320202590000022  0.3204816579999985  0.8272072669999986
  0.9820202590000022  0.0704816579999985  0.9161295890000005
  0.7320204970000006  0.1538153890000018  0.4715180099999969
  0.4820204970000006  0.9038152689999990  0.5604404210000027
  0.2320203780000014  0.6538151499999998  0.6493626829999997
  0.9820202590000022  0.4038150310000006  0.7382849449999966
  0.7320203190000001  0.1538150310000006  0.8272072079999973
  0.4820202590000022  0.9038149120000014  0.9161295890000005
  0.7320204970000006  0.8204820159999997  0.4715180099999969
  0.4820204970000006  0.5704820159999997  0.5604404210000027
  0.2320203780000014  0.3204818959999969  0.6493626829999997
  0.9820202590000022  0.0704817769999977  0.7382849449999966
  0.7320203190000001  0.8204816579999985  0.8272072079999973
  0.4820202590000022  0.5704816579999985  0.9161295890000005
  0.7320204970000006  0.4871487019999989  0.4715180099999969
  0.4820204970000006  0.2371486429999976  0.5604404210000027
  0.2320203780000014  0.9871485230000019  0.6493626829999997
  0.9820202590000022  0.7371484040000027  0.7382849449999966
  0.7320203190000001  0.4871484339999981  0.8272072079999973
  0.4820202590000022  0.2371481659999972  0.9161295890000005
 
  0.00000000E+00  0.00000000E+00  0.00000000E+00
  0.00000000E+00  0.00000000E+00  0.00000000E+00
  0.00000000E+00  0.00000000E+00  0.00000000E+00
  0.00000000E+00  0.00000000E+00  0.00000000E+00
  0.00000000E+00  0.00000000E+00  0.00000000E+00
  0.00000000E+00  0.00000000E+00  0.00000000E+00
  0.00000000E+00  0.00000000E+00  0.00000000E+00
  0.00000000E+00  0.00000000E+00  0.00000000E+00
  0.00000000E+00  0.00000000E+00  0.00000000E+00
  0.00000000E+00  0.00000000E+00  0.00000000E+00
  0.00000000E+00  0.00000000E+00  0.00000000E+00
  0.00000000E+00  0.00000000E+00  0.00000000E+00
  0.00000000E+00  0.00000000E+00  0.00000000E+00
  0.00000000E+00  0.00000000E+00  0.00000000E+00
  0.00000000E+00  0.00000000E+00  0.00000000E+00
  0.00000000E+00  0.00000000E+00  0.00000000E+00
  0.00000000E+00  0.00000000E+00  0.00000000E+00
  0.00000000E+00  0.00000000E+00  0.00000000E+00
  0.00000000E+00  0.00000000E+00  0.00000000E+00
  0.00000000E+00  0.00000000E+00  0.00000000E+00
  0.00000000E+00  0.00000000E+00  0.00000000E+00
  0.00000000E+00  0.00000000E+00  0.00000000E+00
  0.00000000E+00  0.00000000E+00  0.00000000E+00
  0.00000000E+00  0.00000000E+00  0.00000000E+00
  0.00000000E+00  0.00000000E+00  0.00000000E+00
  0.00000000E+00  0.00000000E+00  0.00000000E+00
  0.00000000E+00  0.00000000E+00  0.00000000E+00
  0.00000000E+00  0.00000000E+00  0.00000000E+00
  0.00000000E+00  0.00000000E+00  0.00000000E+00
  0.00000000E+00  0.00000000E+00  0.00000000E+00
  0.00000000E+00  0.00000000E+00  0.00000000E+00
  0.00000000E+00  0.00000000E+00  0.00000000E+00
  0.00000000E+00  0.00000000E+00  0.00000000E+00
  0.00000000E+00  0.00000000E+00  0.00000000E+00
  0.00000000E+00  0.00000000E+00  0.00000000E+00
  0.00000000E+00  0.00000000E+00  0.00000000E+00
  0.00000000E+00  0.00000000E+00  0.00000000E+00
  0.00000000E+00  0.00000000E+00  0.00000000E+00
  0.00000000E+00  0.00000000E+00  0.00000000E+00
  0.00000000E+00  0.00000000E+00  0.00000000E+00
  0.00000000E+00  0.00000000E+00  0.00000000E+00
  0.00000000E+00  0.00000000E+00  0.00000000E+00
  0.00000000E+00  0.00000000E+00  0.00000000E+00
  0.00000000E+00  0.00000000E+00  0.00000000E+00
  0.00000000E+00  0.00000000E+00  0.00000000E+00
  0.00000000E+00  0.00000000E+00  0.00000000E+00
  0.00000000E+00  0.00000000E+00  0.00000000E+00
  0.00000000E+00  0.00000000E+00  0.00000000E+00
  0.00000000E+00  0.00000000E+00  0.00000000E+00
  0.00000000E+00  0.00000000E+00  0.00000000E+00
  0.00000000E+00  0.00000000E+00  0.00000000E+00
  0.00000000E+00  0.00000000E+00  0.00000000E+00
  0.00000000E+00  0.00000000E+00  0.00000000E+00
  0.00000000E+00  0.00000000E+00  0.00000000E+00
  0.00000000E+00  0.00000000E+00  0.00000000E+00
  0.00000000E+00  0.00000000E+00  0.00000000E+00
  0.00000000E+00  0.00000000E+00  0.00000000E+00
  0.00000000E+00  0.00000000E+00  0.00000000E+00
  0.00000000E+00  0.00000000E+00  0.00000000E+00
  0.00000000E+00  0.00000000E+00  0.00000000E+00
  0.00000000E+00  0.00000000E+00  0.00000000E+00
  0.00000000E+00  0.00000000E+00  0.00000000E+00
  0.00000000E+00  0.00000000E+00  0.00000000E+00
  0.00000000E+00  0.00000000E+00  0.00000000E+00
  0.00000000E+00  0.00000000E+00  0.00000000E+00
  0.00000000E+00  0.00000000E+00  0.00000000E+00
  0.00000000E+00  0.00000000E+00  0.00000000E+00
  0.00000000E+00  0.00000000E+00  0.00000000E+00
  0.00000000E+00  0.00000000E+00  0.00000000E+00
  0.00000000E+00  0.00000000E+00  0.00000000E+00
  0.00000000E+00  0.00000000E+00  0.00000000E+00
  0.00000000E+00  0.00000000E+00  0.00000000E+00
  0.00000000E+00  0.00000000E+00  0.00000000E+00
  0.00000000E+00  0.00000000E+00  0.00000000E+00
  0.00000000E+00  0.00000000E+00  0.00000000E+00
  0.00000000E+00  0.00000000E+00  0.00000000E+00
  0.00000000E+00  0.00000000E+00  0.00000000E+00
  0.00000000E+00  0.00000000E+00  0.00000000E+00
  0.00000000E+00  0.00000000E+00  0.00000000E+00
  0.00000000E+00  0.00000000E+00  0.00000000E+00
  0.00000000E+00  0.00000000E+00  0.00000000E+00
  0.00000000E+00  0.00000000E+00  0.00000000E+00
  0.00000000E+00  0.00000000E+00  0.00000000E+00
  0.00000000E+00  0.00000000E+00  0.00000000E+00
  0.00000000E+00  0.00000000E+00  0.00000000E+00
  0.00000000E+00  0.00000000E+00  0.00000000E+00
  0.00000000E+00  0.00000000E+00  0.00000000E+00
  0.00000000E+00  0.00000000E+00  0.00000000E+00
  0.00000000E+00  0.00000000E+00  0.00000000E+00
  0.00000000E+00  0.00000000E+00  0.00000000E+00
  0.00000000E+00  0.00000000E+00  0.00000000E+00
  0.00000000E+00  0.00000000E+00  0.00000000E+00
  0.00000000E+00  0.00000000E+00  0.00000000E+00
  0.00000000E+00  0.00000000E+00  0.00000000E+00
  0.00000000E+00  0.00000000E+00  0.00000000E+00
  0.00000000E+00  0.00000000E+00  0.00000000E+00
  0.00000000E+00  0.00000000E+00  0.00000000E+00
  0.00000000E+00  0.00000000E+00  0.00000000E+00
  0.00000000E+00  0.00000000E+00  0.00000000E+00
  0.00000000E+00  0.00000000E+00  0.00000000E+00
  0.00000000E+00  0.00000000E+00  0.00000000E+00
  0.00000000E+00  0.00000000E+00  0.00000000E+00
  0.00000000E+00  0.00000000E+00  0.00000000E+00
  0.00000000E+00  0.00000000E+00  0.00000000E+00
  0.00000000E+00  0.00000000E+00  0.00000000E+00
  0.00000000E+00  0.00000000E+00  0.00000000E+00
  0.00000000E+00  0.00000000E+00  0.00000000E+00
  0.00000000E+00  0.00000000E+00  0.00000000E+00
  0.00000000E+00  0.00000000E+00  0.00000000E+00
  0.00000000E+00  0.00000000E+00  0.00000000E+00
  0.00000000E+00  0.00000000E+00  0.00000000E+00
  0.00000000E+00  0.00000000E+00  0.00000000E+00
  0.00000000E+00  0.00000000E+00  0.00000000E+00
  0.00000000E+00  0.00000000E+00  0.00000000E+00
  0.00000000E+00  0.00000000E+00  0.00000000E+00
  0.00000000E+00  0.00000000E+00  0.00000000E+00
  0.00000000E+00  0.00000000E+00  0.00000000E+00
  0.00000000E+00  0.00000000E+00  0.00000000E+00
  0.00000000E+00  0.00000000E+00  0.00000000E+00
  0.00000000E+00  0.00000000E+00  0.00000000E+00
  0.00000000E+00  0.00000000E+00  0.00000000E+00
  0.00000000E+00  0.00000000E+00  0.00000000E+00
  0.00000000E+00  0.00000000E+00  0.00000000E+00
  0.00000000E+00  0.00000000E+00  0.00000000E+00
  0.00000000E+00  0.00000000E+00  0.00000000E+00
  0.00000000E+00  0.00000000E+00  0.00000000E+00
  0.00000000E+00  0.00000000E+00  0.00000000E+00
  0.00000000E+00  0.00000000E+00  0.00000000E+00
  0.00000000E+00  0.00000000E+00  0.00000000E+00
  0.00000000E+00  0.00000000E+00  0.00000000E+00
  0.00000000E+00  0.00000000E+00  0.00000000E+00
  0.00000000E+00  0.00000000E+00  0.00000000E+00
  0.00000000E+00  0.00000000E+00  0.00000000E+00
  0.00000000E+00  0.00000000E+00  0.00000000E+00
  0.00000000E+00  0.00000000E+00  0.00000000E+00
  0.00000000E+00  0.00000000E+00  0.00000000E+00
  0.00000000E+00  0.00000000E+00  0.00000000E+00
  0.00000000E+00  0.00000000E+00  0.00000000E+00
  0.00000000E+00  0.00000000E+00  0.00000000E+00
  0.00000000E+00  0.00000000E+00  0.00000000E+00
  0.00000000E+00  0.00000000E+00  0.00000000E+00
  0.00000000E+00  0.00000000E+00  0.00000000E+00
  0.00000000E+00  0.00000000E+00  0.00000000E+00
  0.00000000E+00  0.00000000E+00  0.00000000E+00
  0.00000000E+00  0.00000000E+00  0.00000000E+00
  0.00000000E+00  0.00000000E+00  0.00000000E+00
  0.00000000E+00  0.00000000E+00  0.00000000E+00
  0.00000000E+00  0.00000000E+00  0.00000000E+00
  0.00000000E+00  0.00000000E+00  0.00000000E+00
  0.00000000E+00  0.00000000E+00  0.00000000E+00
  0.00000000E+00  0.00000000E+00  0.00000000E+00
  0.00000000E+00  0.00000000E+00  0.00000000E+00
  0.00000000E+00  0.00000000E+00  0.00000000E+00
  0.00000000E+00  0.00000000E+00  0.00000000E+00
  0.00000000E+00  0.00000000E+00  0.00000000E+00
  0.00000000E+00  0.00000000E+00  0.00000000E+00
  0.00000000E+00  0.00000000E+00  0.00000000E+00
  0.00000000E+00  0.00000000E+00  0.00000000E+00
  0.00000000E+00  0.00000000E+00  0.00000000E+00
  0.00000000E+00  0.00000000E+00  0.00000000E+00
  0.00000000E+00  0.00000000E+00  0.00000000E+00
  0.00000000E+00  0.00000000E+00  0.00000000E+00
  0.00000000E+00  0.00000000E+00  0.00000000E+00
  0.00000000E+00  0.00000000E+00  0.00000000E+00
  0.00000000E+00  0.00000000E+00  0.00000000E+00
  0.00000000E+00  0.00000000E+00  0.00000000E+00
  0.00000000E+00  0.00000000E+00  0.00000000E+00
  0.00000000E+00  0.00000000E+00  0.00000000E+00
