Ge+Sn                                   
   1.00000000000000     
    11.3156003950000006    0.0000000000000000    0.0000000000000000
     0.0000000000000000   17.8915348049999992    0.0000000000000000
     0.0000000000000000   -0.0000003200000000   13.8673772809999996
   Ge   Sn
    48    48
Direct
  0.9455687399999988  0.0762038009999984  0.0000000120000010
  0.6955686809999975  0.4262039070000014  0.0645095479999966
  0.4455686809999975  0.7762039899999991  0.1290190819999992
  0.1955686209999996  0.1262041330000017  0.1935286820000002
  0.9455686809999975  0.4762041569999980  0.2580381929999973
  0.6955686809999975  0.8262043000000006  0.3225476439999966
  0.4455687399999988  0.0762038009999984  0.0000000120000010
  0.1955687110000000  0.4262039070000014  0.0645095479999966
  0.9455686809999975  0.7762039899999991  0.1290190819999992
  0.6955686809999975  0.1262041330000017  0.1935286820000002
  0.4455686809999975  0.4762041569999980  0.2580381929999973
  0.1955686209999996  0.8262043000000006  0.3225476439999966
  0.0705687250000011  0.8262039419999994  0.0000000300000025
  0.8205686809999975  0.1762040850000020  0.0645095260000019
  0.5705686809999975  0.5262041089999983  0.1290190369999991
  0.3205686209999996  0.8762041330000017  0.1935286519999977
  0.0705686209999996  0.2262041569999980  0.2580382229999998
  0.8205685619999983  0.5762043000000006  0.3225477040000015
  0.5705687399999988  0.8262039419999994  0.0000000300000025
  0.3205687399999988  0.1762040850000020  0.0645095260000019
  0.0705687110000000  0.5262041089999983  0.1290190369999991
  0.8205686809999975  0.8762041330000017  0.1935286519999977
  0.5705686809999975  0.2262041569999980  0.2580382229999998
  0.3205686209999996  0.5762043000000006  0.3225477040000015
  0.9455687399999988  0.5762038230000002  0.0000000160000013
  0.6955686809999975  0.9262039070000014  0.0645095180000013
  0.4455686809999975  0.2762039899999991  0.1290190960000004
  0.1955686209999996  0.6262041330000017  0.1935286069999975
  0.9455686809999975  0.9762041569999980  0.2580381929999973
  0.6955686809999975  0.3262043000000006  0.3225477040000015
  0.4455687399999988  0.5762038230000002  0.0000000160000013
  0.1955687110000000  0.9262039070000014  0.0645095180000013
  0.9455686809999975  0.2762039899999991  0.1290190960000004
  0.6955686809999975  0.6262041330000017  0.1935286069999975
  0.4455686809999975  0.9762041569999980  0.2580381929999973
  0.1955686209999996  0.3262043000000006  0.3225477040000015
  0.0705687250000011  0.3262038230000002  0.0000000000000000
  0.8205686809999975  0.6762039660000028  0.0645095559999973
  0.5705686809999975  0.0262039899999991  0.1290190819999992
  0.3205686209999996  0.3762041330000017  0.1935286069999975
  0.0705686209999996  0.7262041569999980  0.2580381630000019
  0.8205685619999983  0.0762043000000006  0.3225476149999977
  0.5705687399999988  0.3262038230000002  0.0000000000000000
  0.3205687399999988  0.6762039660000028  0.0645095559999973
  0.0705687110000000  0.0262039899999991  0.1290190819999992
  0.8205686809999975  0.3762041330000017  0.1935286069999975
  0.5705686809999975  0.7262041569999980  0.2580381630000019
  0.3205686209999996  0.0762043000000006  0.3225476149999977
  0.0736540560000023  0.2086633440000014  0.4224754270000020
  0.7403205040000032  0.8336632850000001  0.5179947609999971
  0.4069870710000032  0.4586632250000022  0.6135140660000005
  0.0736536980000011  0.0836632250000022  0.7090334889999994
  0.7403201460000020  0.7086630459999981  0.8045527940000028
  0.4069867729999999  0.3336630459999981  0.9000720980000025
  0.0736540560000023  0.7086633440000014  0.4224754270000020
  0.7403205040000032  0.3336632850000001  0.5179947609999971
  0.4069870710000032  0.9586632250000022  0.6135140660000005
  0.0736538170000003  0.5836632250000022  0.7090334889999994
  0.7403201460000020  0.2086629869999967  0.8045527940000028
  0.4069866540000007  0.8336630459999981  0.9000722170000017
  0.3236539959999973  0.4586633440000014  0.4224754270000020
  0.9903205040000032  0.0836632250000022  0.5179947609999971
  0.6569871310000011  0.7086632250000022  0.6135140660000005
  0.3236536980000011  0.3336632250000022  0.7090333700000002
  0.9903201460000020  0.9586630459999981  0.8045527940000028
  0.6569867729999999  0.5836630459999981  0.9000720980000025
  0.3236539959999973  0.9586633440000014  0.4224754270000020
  0.9903205040000032  0.5836632850000001  0.5179947609999971
  0.6569871310000011  0.2086632250000022  0.6135140660000005
  0.3236536980000011  0.8336632250000022  0.7090333700000002
  0.9903201460000020  0.4586630459999981  0.8045527940000028
  0.6569867729999999  0.0836629869999967  0.9000720980000025
  0.0736540560000023  0.4586633440000014  0.4224754270000020
  0.7403205040000032  0.0836632250000022  0.5179947609999971
  0.4069870710000032  0.7086632250000022  0.6135140660000005
  0.0736538170000003  0.3336632250000022  0.7090334889999994
  0.7403201460000020  0.9586630459999981  0.8045527940000028
  0.4069866540000007  0.5836630459999981  0.9000720980000025
  0.0736540560000023  0.9586633440000014  0.4224754270000020
  0.7403205040000032  0.5836632850000001  0.5179947609999971
  0.4069870710000032  0.2086632250000022  0.6135140660000005
  0.0736536980000011  0.8336631660000009  0.7090334889999994
  0.7403201460000020  0.4586630459999981  0.8045527940000028
  0.4069866540000007  0.0836629869999967  0.9000722170000017
  0.3236540560000023  0.2086632250000022  0.4224754270000020
  0.9903205629999974  0.8336632850000001  0.5179947609999971
  0.6569871310000011  0.4586631660000009  0.6135140660000005
  0.3236536980000011  0.0836632250000022  0.7090333700000002
  0.9903201460000020  0.7086630459999981  0.8045527940000028
  0.6569867729999999  0.3336630459999981  0.9000720980000025
  0.3236540560000023  0.7086633440000014  0.4224754569999973
  0.9903205629999974  0.3336633150000026  0.5179947609999971
  0.6569871310000011  0.9586632850000001  0.6135140660000005
  0.3236536980000011  0.5836632250000022  0.7090333700000002
  0.9903201460000020  0.2086629869999967  0.8045527940000028
  0.6569867729999999  0.8336630459999981  0.9000720980000025
 
  0.00000000E+00  0.00000000E+00  0.00000000E+00
  0.00000000E+00  0.00000000E+00  0.00000000E+00
  0.00000000E+00  0.00000000E+00  0.00000000E+00
  0.00000000E+00  0.00000000E+00  0.00000000E+00
  0.00000000E+00  0.00000000E+00  0.00000000E+00
  0.00000000E+00  0.00000000E+00  0.00000000E+00
  0.00000000E+00  0.00000000E+00  0.00000000E+00
  0.00000000E+00  0.00000000E+00  0.00000000E+00
  0.00000000E+00  0.00000000E+00  0.00000000E+00
  0.00000000E+00  0.00000000E+00  0.00000000E+00
  0.00000000E+00  0.00000000E+00  0.00000000E+00
  0.00000000E+00  0.00000000E+00  0.00000000E+00
  0.00000000E+00  0.00000000E+00  0.00000000E+00
  0.00000000E+00  0.00000000E+00  0.00000000E+00
  0.00000000E+00  0.00000000E+00  0.00000000E+00
  0.00000000E+00  0.00000000E+00  0.00000000E+00
  0.00000000E+00  0.00000000E+00  0.00000000E+00
  0.00000000E+00  0.00000000E+00  0.00000000E+00
  0.00000000E+00  0.00000000E+00  0.00000000E+00
  0.00000000E+00  0.00000000E+00  0.00000000E+00
  0.00000000E+00  0.00000000E+00  0.00000000E+00
  0.00000000E+00  0.00000000E+00  0.00000000E+00
  0.00000000E+00  0.00000000E+00  0.00000000E+00
  0.00000000E+00  0.00000000E+00  0.00000000E+00
  0.00000000E+00  0.00000000E+00  0.00000000E+00
  0.00000000E+00  0.00000000E+00  0.00000000E+00
  0.00000000E+00  0.00000000E+00  0.00000000E+00
  0.00000000E+00  0.00000000E+00  0.00000000E+00
  0.00000000E+00  0.00000000E+00  0.00000000E+00
  0.00000000E+00  0.00000000E+00  0.00000000E+00
  0.00000000E+00  0.00000000E+00  0.00000000E+00
  0.00000000E+00  0.00000000E+00  0.00000000E+00
  0.00000000E+00  0.00000000E+00  0.00000000E+00
  0.00000000E+00  0.00000000E+00  0.00000000E+00
  0.00000000E+00  0.00000000E+00  0.00000000E+00
  0.00000000E+00  0.00000000E+00  0.00000000E+00
  0.00000000E+00  0.00000000E+00  0.00000000E+00
  0.00000000E+00  0.00000000E+00  0.00000000E+00
  0.00000000E+00  0.00000000E+00  0.00000000E+00
  0.00000000E+00  0.00000000E+00  0.00000000E+00
  0.00000000E+00  0.00000000E+00  0.00000000E+00
  0.00000000E+00  0.00000000E+00  0.00000000E+00
  0.00000000E+00  0.00000000E+00  0.00000000E+00
  0.00000000E+00  0.00000000E+00  0.00000000E+00
  0.00000000E+00  0.00000000E+00  0.00000000E+00
  0.00000000E+00  0.00000000E+00  0.00000000E+00
  0.00000000E+00  0.00000000E+00  0.00000000E+00
  0.00000000E+00  0.00000000E+00  0.00000000E+00
  0.00000000E+00  0.00000000E+00  0.00000000E+00
  0.00000000E+00  0.00000000E+00  0.00000000E+00
  0.00000000E+00  0.00000000E+00  0.00000000E+00
  0.00000000E+00  0.00000000E+00  0.00000000E+00
  0.00000000E+00  0.00000000E+00  0.00000000E+00
  0.00000000E+00  0.00000000E+00  0.00000000E+00
  0.00000000E+00  0.00000000E+00  0.00000000E+00
  0.00000000E+00  0.00000000E+00  0.00000000E+00
  0.00000000E+00  0.00000000E+00  0.00000000E+00
  0.00000000E+00  0.00000000E+00  0.00000000E+00
  0.00000000E+00  0.00000000E+00  0.00000000E+00
  0.00000000E+00  0.00000000E+00  0.00000000E+00
  0.00000000E+00  0.00000000E+00  0.00000000E+00
  0.00000000E+00  0.00000000E+00  0.00000000E+00
  0.00000000E+00  0.00000000E+00  0.00000000E+00
  0.00000000E+00  0.00000000E+00  0.00000000E+00
  0.00000000E+00  0.00000000E+00  0.00000000E+00
  0.00000000E+00  0.00000000E+00  0.00000000E+00
  0.00000000E+00  0.00000000E+00  0.00000000E+00
  0.00000000E+00  0.00000000E+00  0.00000000E+00
  0.00000000E+00  0.00000000E+00  0.00000000E+00
  0.00000000E+00  0.00000000E+00  0.00000000E+00
  0.00000000E+00  0.00000000E+00  0.00000000E+00
  0.00000000E+00  0.00000000E+00  0.00000000E+00
  0.00000000E+00  0.00000000E+00  0.00000000E+00
  0.00000000E+00  0.00000000E+00  0.00000000E+00
  0.00000000E+00  0.00000000E+00  0.00000000E+00
  0.00000000E+00  0.00000000E+00  0.00000000E+00
  0.00000000E+00  0.00000000E+00  0.00000000E+00
  0.00000000E+00  0.00000000E+00  0.00000000E+00
  0.00000000E+00  0.00000000E+00  0.00000000E+00
  0.00000000E+00  0.00000000E+00  0.00000000E+00
  0.00000000E+00  0.00000000E+00  0.00000000E+00
  0.00000000E+00  0.00000000E+00  0.00000000E+00
  0.00000000E+00  0.00000000E+00  0.00000000E+00
  0.00000000E+00  0.00000000E+00  0.00000000E+00
  0.00000000E+00  0.00000000E+00  0.00000000E+00
  0.00000000E+00  0.00000000E+00  0.00000000E+00
  0.00000000E+00  0.00000000E+00  0.00000000E+00
  0.00000000E+00  0.00000000E+00  0.00000000E+00
  0.00000000E+00  0.00000000E+00  0.00000000E+00
  0.00000000E+00  0.00000000E+00  0.00000000E+00
  0.00000000E+00  0.00000000E+00  0.00000000E+00
  0.00000000E+00  0.00000000E+00  0.00000000E+00
  0.00000000E+00  0.00000000E+00  0.00000000E+00
  0.00000000E+00  0.00000000E+00  0.00000000E+00
  0.00000000E+00  0.00000000E+00  0.00000000E+00
  0.00000000E+00  0.00000000E+00  0.00000000E+00
