Si Ge Si Ge Si Ge Si Ge
 1.0000000000000000
     5.5449999999999999    0.0000000000000000    0.0000000000000000
     0.0000000000000000    5.5449999999999999    0.0000000000000000
     0.0000000000000000    0.0000000000000000    5.5449999999999999
 Si  Ge  Si  Ge  Si  Ge  Si  Ge 
   1   1   1   1   1   1   1   1
Direct
  0.0000000000000000  0.0000000000000000  0.0000000000000000
  0.2500000000000000  0.2500000000000000  0.2500000000000000
  0.0000000000000000  0.5000000000000000  0.5000000000000000
  0.2500000000000000  0.7500000000000000  0.7500000000000000
  0.5000000000000000  0.0000000000000000  0.5000000000000000
  0.7500000000000000  0.2500000000000000  0.7500000000000000
  0.5000000000000000  0.5000000000000000  0.0000000000000000
  0.7500000000000000  0.7500000000000000  0.2500000000000000
