Si+C                                    
   1.00000000000000     
    13.3031797409999992    0.0000000000000000    0.0000000000000000
    -6.6515893940000002   14.8734064099999994    0.0000000000000000
     0.0000000000000000    0.0000000000000000    7.0064749720000004
   Si   C 
    36    84
Direct
  0.9971509579999989  0.9800565840000033  0.0000000000000000
  0.9638175369999971  0.7467231749999996  0.1733267310000031
  0.9304841160000024  0.5133898260000009  0.3466534610000025
  0.3304842109999981  0.3133898680000016  0.0000000000000000
  0.2971507910000000  0.0800564740000027  0.1733267310000031
  0.2638173699999982  0.8467230799999967  0.3466534610000025
  0.6638174650000011  0.6467231510000033  0.0000000000000000
  0.6304840450000029  0.4133897130000008  0.1733267310000031
  0.5971506240000011  0.1800563339999997  0.3466534610000025
  0.3138175309999980  0.9467233419999985  0.0866631869999992
  0.2804841100000033  0.7133899929999998  0.2599899169999986
  0.2471506890000015  0.4800565840000033  0.4333165290000025
  0.6471508150000034  0.2800565659999990  0.0866631869999992
  0.6138173940000016  0.0467231940000019  0.2599898870000033
  0.5804839729999998  0.8133897780000012  0.4333165589999979
  0.9804844259999967  0.6133898499999972  0.0866632090000010
  0.9471510050000020  0.3800564710000032  0.2599898870000033
  0.9138175849999968  0.1467230920000020  0.4333165290000025
  0.1638175699999991  0.6467230920000020  0.0000000020000002
  0.1304841640000021  0.4133897130000008  0.1733267310000031
  0.0971507499999973  0.1800563190000020  0.3466534610000025
  0.4971508980000010  0.9800566429999975  0.0000000060000005
  0.4638174179999979  0.7467231749999996  0.1733266560000004
  0.4304840559999974  0.5133898260000009  0.3466533719999987
  0.8304841519999968  0.3133898680000016  0.0000000060000005
  0.7971507310000021  0.0800565259999999  0.1733266560000004
  0.7638173100000003  0.8467230799999967  0.3466533719999987
  0.1471509040000001  0.2800565659999990  0.0866631940000033
  0.1138174829999983  0.0467231650000031  0.2599899169999986
  0.0804840699999971  0.8133897780000012  0.4333165589999979
  0.4804842169999972  0.6133899089999986  0.0866631940000033
  0.4471508259999979  0.3800565299999974  0.2599898870000033
  0.4138174059999997  0.1467231660000010  0.4333165589999979
  0.8138175010000026  0.9467232820000007  0.0866631869999992
  0.7804841399999987  0.7133898740000006  0.2599898870000033
  0.7471507189999969  0.4800564649999970  0.4333165589999979
  0.9323298340000008  0.9567412139999973  0.8020322320000020
  0.3037582640000025  0.9853127599999993  0.5743682379999981
  0.6180440779999969  0.9710270759999986  0.6882002349999965
  0.0751869679999970  0.8138840200000033  0.8020323510000011
  0.4466153680000033  0.8424556260000031  0.5743682379999981
  0.7609011529999989  0.8281698230000032  0.6882002349999965
  0.2180440429999990  0.6710269450000013  0.8020322320000020
  0.5894725320000020  0.6995984910000033  0.5743682379999981
  0.9037583470000001  0.6853127480000012  0.6882002349999965
  0.3609012370000002  0.5281698109999979  0.8020322320000020
  0.7323297260000032  0.5567413569999999  0.5743682379999981
  0.0466156009999992  0.5424555540000000  0.6882002349999965
  0.5037583109999986  0.3853126759999981  0.8020322320000020
  0.8751868610000031  0.4138842229999966  0.5743682379999981
  0.1894726749999975  0.3995984789999980  0.6882002349999965
  0.6466155049999998  0.2424555119999994  0.8020322320000020
  0.0180439949999993  0.2710270879999968  0.5743682379999981
  0.3323297499999995  0.2567413149999993  0.6882002349999965
  0.7894726990000009  0.0995984079999985  0.8020322919999998
  0.1609011290000026  0.1281698940000027  0.5743682379999981
  0.4751869139999982  0.1138842109999985  0.6882002349999965
  0.4823297260000032  0.0567412380000007  0.8589481120000002
  0.8537580969999965  0.0853128429999970  0.6312841179999964
  0.1680439710000030  0.0710270399999970  0.7451161740000032
  0.6251868009999981  0.9138840439999996  0.8589481120000002
  0.9966151710000020  0.9424555900000016  0.6312841179999964
  0.3109009269999987  0.9281697870000016  0.7451161740000032
  0.7680441139999985  0.7710269689999976  0.8589481120000002
  0.1394724849999989  0.7995984550000017  0.6312841179999964
  0.4537583589999983  0.7853127719999975  0.7451161740000032
  0.9109011890000005  0.6281698940000027  0.8589481120000002
  0.2823295589999972  0.6567413810000033  0.6312841179999964
  0.5966154340000003  0.6424556369999976  0.7451161740000032
  0.0537581439999997  0.4853127000000015  0.8589481120000002
  0.4251866640000017  0.5138842460000035  0.6312841769999977
  0.7394724489999973  0.4995985030000014  0.7451161740000032
  0.1966154579999966  0.3424555060000003  0.8589481120000002
  0.5680439469999996  0.3710271120000002  0.6312841179999964
  0.8823297019999998  0.3567413090000002  0.7451161740000032
  0.3394726510000012  0.1995984320000019  0.8589481120000002
  0.7109010220000016  0.2281699629999991  0.6312841179999964
  0.0251867770000018  0.2138842049999994  0.7451161740000032
  0.4323298930000021  0.9567412139999973  0.8020323510000011
  0.8037583229999967  0.9853128789999985  0.5743682379999981
  0.1180441380000019  0.9710270169999973  0.6882002349999965
  0.5751870870000033  0.8138840200000033  0.8020323510000011
  0.9466155770000029  0.8424556849999973  0.5743682379999981
  0.2609012129999968  0.8281698230000032  0.6882002349999965
  0.7180442809999974  0.6710268859999999  0.8020323510000011
  0.0894726510000012  0.6995985510000011  0.5743682379999981
  0.4037584069999980  0.6853127480000012  0.6882002349999965
  0.8609012960000015  0.5281698699999993  0.8020323510000011
  0.2323297260000032  0.5567414160000013  0.5743682379999981
  0.5466155410000013  0.5424556139999979  0.6882002349999965
  0.0037584299999978  0.3853126169999967  0.8020322320000020
  0.3751868610000031  0.4138842229999966  0.5743682379999981
  0.6894726749999975  0.3995984199999967  0.6882002349999965
  0.1466155049999998  0.2424555119999994  0.8020322320000020
  0.5180439949999993  0.2710270879999968  0.5743682379999981
  0.8323298099999974  0.2567412849999968  0.6882002349999965
  0.2894726990000009  0.0995984079999985  0.8020322320000020
  0.6609011290000026  0.1281700130000019  0.5743682379999981
  0.9751869440000007  0.1138842109999985  0.6882002349999965
  0.9823296670000019  0.0567412380000007  0.8589481120000002
  0.3537581559999978  0.0853128429999970  0.6312841769999977
  0.6680439109999980  0.0710270399999970  0.7451161740000032
  0.1251866819999989  0.9138841629999988  0.8589481120000002
  0.4966152610000023  0.9424557090000008  0.6312841769999977
  0.8109009860000000  0.9281699060000008  0.7451161740000032
  0.2680439949999993  0.7710269689999976  0.8589481120000002
  0.6394724849999989  0.7995984550000017  0.6312841769999977
  0.9537582990000004  0.7853127119999996  0.7451161740000032
  0.4109011890000005  0.6281697750000035  0.8589481120000002
  0.7823296190000022  0.6567413209999984  0.6312841769999977
  0.0966153139999975  0.6424555179999984  0.7451161740000032
  0.5537582640000025  0.4853127000000015  0.8589481120000002
  0.9251866339999992  0.5138841870000022  0.6312841769999977
  0.2394725079999986  0.4995984440000001  0.7451161740000032
  0.6966155770000029  0.3424555360000028  0.8589482309999994
  0.0680439469999996  0.3710271120000002  0.6312841179999964
  0.3823297019999998  0.3567413390000027  0.7451161740000032
  0.8394726510000012  0.1995984460000031  0.8589481120000002
  0.2109010220000016  0.2281699480000015  0.6312841769999977
  0.5251868960000010  0.2138842339999982  0.7451161740000032
 
  0.00000000E+00  0.00000000E+00  0.00000000E+00
  0.00000000E+00  0.00000000E+00  0.00000000E+00
  0.00000000E+00  0.00000000E+00  0.00000000E+00
  0.00000000E+00  0.00000000E+00  0.00000000E+00
  0.00000000E+00  0.00000000E+00  0.00000000E+00
  0.00000000E+00  0.00000000E+00  0.00000000E+00
  0.00000000E+00  0.00000000E+00  0.00000000E+00
  0.00000000E+00  0.00000000E+00  0.00000000E+00
  0.00000000E+00  0.00000000E+00  0.00000000E+00
  0.00000000E+00  0.00000000E+00  0.00000000E+00
  0.00000000E+00  0.00000000E+00  0.00000000E+00
  0.00000000E+00  0.00000000E+00  0.00000000E+00
  0.00000000E+00  0.00000000E+00  0.00000000E+00
  0.00000000E+00  0.00000000E+00  0.00000000E+00
  0.00000000E+00  0.00000000E+00  0.00000000E+00
  0.00000000E+00  0.00000000E+00  0.00000000E+00
  0.00000000E+00  0.00000000E+00  0.00000000E+00
  0.00000000E+00  0.00000000E+00  0.00000000E+00
  0.00000000E+00  0.00000000E+00  0.00000000E+00
  0.00000000E+00  0.00000000E+00  0.00000000E+00
  0.00000000E+00  0.00000000E+00  0.00000000E+00
  0.00000000E+00  0.00000000E+00  0.00000000E+00
  0.00000000E+00  0.00000000E+00  0.00000000E+00
  0.00000000E+00  0.00000000E+00  0.00000000E+00
  0.00000000E+00  0.00000000E+00  0.00000000E+00
  0.00000000E+00  0.00000000E+00  0.00000000E+00
  0.00000000E+00  0.00000000E+00  0.00000000E+00
  0.00000000E+00  0.00000000E+00  0.00000000E+00
  0.00000000E+00  0.00000000E+00  0.00000000E+00
  0.00000000E+00  0.00000000E+00  0.00000000E+00
  0.00000000E+00  0.00000000E+00  0.00000000E+00
  0.00000000E+00  0.00000000E+00  0.00000000E+00
  0.00000000E+00  0.00000000E+00  0.00000000E+00
  0.00000000E+00  0.00000000E+00  0.00000000E+00
  0.00000000E+00  0.00000000E+00  0.00000000E+00
  0.00000000E+00  0.00000000E+00  0.00000000E+00
  0.00000000E+00  0.00000000E+00  0.00000000E+00
  0.00000000E+00  0.00000000E+00  0.00000000E+00
  0.00000000E+00  0.00000000E+00  0.00000000E+00
  0.00000000E+00  0.00000000E+00  0.00000000E+00
  0.00000000E+00  0.00000000E+00  0.00000000E+00
  0.00000000E+00  0.00000000E+00  0.00000000E+00
  0.00000000E+00  0.00000000E+00  0.00000000E+00
  0.00000000E+00  0.00000000E+00  0.00000000E+00
  0.00000000E+00  0.00000000E+00  0.00000000E+00
  0.00000000E+00  0.00000000E+00  0.00000000E+00
  0.00000000E+00  0.00000000E+00  0.00000000E+00
  0.00000000E+00  0.00000000E+00  0.00000000E+00
  0.00000000E+00  0.00000000E+00  0.00000000E+00
  0.00000000E+00  0.00000000E+00  0.00000000E+00
  0.00000000E+00  0.00000000E+00  0.00000000E+00
  0.00000000E+00  0.00000000E+00  0.00000000E+00
  0.00000000E+00  0.00000000E+00  0.00000000E+00
  0.00000000E+00  0.00000000E+00  0.00000000E+00
  0.00000000E+00  0.00000000E+00  0.00000000E+00
  0.00000000E+00  0.00000000E+00  0.00000000E+00
  0.00000000E+00  0.00000000E+00  0.00000000E+00
  0.00000000E+00  0.00000000E+00  0.00000000E+00
  0.00000000E+00  0.00000000E+00  0.00000000E+00
  0.00000000E+00  0.00000000E+00  0.00000000E+00
  0.00000000E+00  0.00000000E+00  0.00000000E+00
  0.00000000E+00  0.00000000E+00  0.00000000E+00
  0.00000000E+00  0.00000000E+00  0.00000000E+00
  0.00000000E+00  0.00000000E+00  0.00000000E+00
  0.00000000E+00  0.00000000E+00  0.00000000E+00
  0.00000000E+00  0.00000000E+00  0.00000000E+00
  0.00000000E+00  0.00000000E+00  0.00000000E+00
  0.00000000E+00  0.00000000E+00  0.00000000E+00
  0.00000000E+00  0.00000000E+00  0.00000000E+00
  0.00000000E+00  0.00000000E+00  0.00000000E+00
  0.00000000E+00  0.00000000E+00  0.00000000E+00
  0.00000000E+00  0.00000000E+00  0.00000000E+00
  0.00000000E+00  0.00000000E+00  0.00000000E+00
  0.00000000E+00  0.00000000E+00  0.00000000E+00
  0.00000000E+00  0.00000000E+00  0.00000000E+00
  0.00000000E+00  0.00000000E+00  0.00000000E+00
  0.00000000E+00  0.00000000E+00  0.00000000E+00
  0.00000000E+00  0.00000000E+00  0.00000000E+00
  0.00000000E+00  0.00000000E+00  0.00000000E+00
  0.00000000E+00  0.00000000E+00  0.00000000E+00
  0.00000000E+00  0.00000000E+00  0.00000000E+00
  0.00000000E+00  0.00000000E+00  0.00000000E+00
  0.00000000E+00  0.00000000E+00  0.00000000E+00
  0.00000000E+00  0.00000000E+00  0.00000000E+00
  0.00000000E+00  0.00000000E+00  0.00000000E+00
  0.00000000E+00  0.00000000E+00  0.00000000E+00
  0.00000000E+00  0.00000000E+00  0.00000000E+00
  0.00000000E+00  0.00000000E+00  0.00000000E+00
  0.00000000E+00  0.00000000E+00  0.00000000E+00
  0.00000000E+00  0.00000000E+00  0.00000000E+00
  0.00000000E+00  0.00000000E+00  0.00000000E+00
  0.00000000E+00  0.00000000E+00  0.00000000E+00
  0.00000000E+00  0.00000000E+00  0.00000000E+00
  0.00000000E+00  0.00000000E+00  0.00000000E+00
  0.00000000E+00  0.00000000E+00  0.00000000E+00
  0.00000000E+00  0.00000000E+00  0.00000000E+00
  0.00000000E+00  0.00000000E+00  0.00000000E+00
  0.00000000E+00  0.00000000E+00  0.00000000E+00
  0.00000000E+00  0.00000000E+00  0.00000000E+00
  0.00000000E+00  0.00000000E+00  0.00000000E+00
  0.00000000E+00  0.00000000E+00  0.00000000E+00
  0.00000000E+00  0.00000000E+00  0.00000000E+00
  0.00000000E+00  0.00000000E+00  0.00000000E+00
  0.00000000E+00  0.00000000E+00  0.00000000E+00
  0.00000000E+00  0.00000000E+00  0.00000000E+00
  0.00000000E+00  0.00000000E+00  0.00000000E+00
  0.00000000E+00  0.00000000E+00  0.00000000E+00
  0.00000000E+00  0.00000000E+00  0.00000000E+00
  0.00000000E+00  0.00000000E+00  0.00000000E+00
  0.00000000E+00  0.00000000E+00  0.00000000E+00
  0.00000000E+00  0.00000000E+00  0.00000000E+00
  0.00000000E+00  0.00000000E+00  0.00000000E+00
  0.00000000E+00  0.00000000E+00  0.00000000E+00
  0.00000000E+00  0.00000000E+00  0.00000000E+00
  0.00000000E+00  0.00000000E+00  0.00000000E+00
  0.00000000E+00  0.00000000E+00  0.00000000E+00
  0.00000000E+00  0.00000000E+00  0.00000000E+00
  0.00000000E+00  0.00000000E+00  0.00000000E+00
  0.00000000E+00  0.00000000E+00  0.00000000E+00
  0.00000000E+00  0.00000000E+00  0.00000000E+00
