Ge+Si
    1.000000000
    8.001338005    0.000000000    0.000000000
    0.000000000   16.002676010    0.000000000
    0.000000000    0.000000000   20.872991562
Ge  Si 
48     72
Direct
    0.991458297    0.995729148    0.000000000
    0.741458297    0.870729148    0.135529175
    0.870922327    0.457376301    0.439431459
    0.991458237    0.495729089    0.000000000
    0.741458297    0.370729119    0.135529175
    0.620922327    0.374042988    0.439431459
    0.620922208    0.624042869    0.899391532
    0.241458267    0.120729133    0.135529175
    0.991458297    0.995729148    0.271058381
    0.120922208    0.957376182    0.899391532
    0.241458282    0.620729089    0.135529175
    0.991458237    0.495729089    0.271058381
    0.241458282    0.995729148    0.067764588
    0.991458297    0.870729148    0.203293800
    0.870922327    0.124042988    0.439431459
    0.241458237    0.495729089    0.067764588
    0.991458237    0.370729089    0.203293800
    0.370922327    0.457376301    0.439431459
    0.741458297    0.245729148    0.067764588
    0.491458297    0.120729148    0.203293800
    0.241458282    0.995729148    0.338823020
    0.870922327    0.874042869    0.899391532
    0.491458267    0.620729089    0.203293800
    0.241458267    0.495729119    0.338823020
    0.991458297    0.245729133    0.000000000
    0.741458297    0.120729133    0.135529175
    0.491458297    0.995729148    0.271058381
    0.491458267    0.995729148    0.000000000
    0.241458267    0.870729148    0.135529175
    0.991458297    0.745729148    0.271058381
    0.991458237    0.745729148    0.000000000
    0.741458297    0.620729148    0.135529175
    0.491458297    0.495729148    0.271058381
    0.870922327    0.540709436    0.899391532
    0.241458312    0.370729148    0.135529175
    0.120922446    0.374042988    0.439431459
    0.620922208    0.957376182    0.899391532
    0.991458297    0.120729133    0.203293800
    0.120922446    0.040709734    0.439431459
    0.741458237    0.995729148    0.067764588
    0.491458267    0.870729148    0.203293800
    0.241458252    0.745729089    0.338823020
    0.370922089    0.874042869    0.899391532
    0.991458297    0.620729089    0.203293800
    0.741458297    0.495729089    0.338823020
    0.741458237    0.495729089    0.067764588
    0.491458267    0.370729119    0.203293800
    0.241458252    0.245729089    0.338823020
    0.370922327    0.124042988    0.439431459
    0.120922327    0.957376242    0.531423509
    0.870922208    0.790709555    0.623415530
    0.620922327    0.624042928    0.715407610
    0.370922208    0.457376182    0.807399571
    0.120922208    0.290709496    0.899391532
    0.741458237    0.245729089    0.338823020
    0.120922327    0.290709615    0.531423509
    0.870922208    0.124042869    0.623415530
    0.620922327    0.957376301    0.715407610
    0.370922208    0.790709555    0.807399571
    0.120922208    0.624042869    0.899391532
    0.370922327    0.790709734    0.439431459
    0.120922327    0.624042988    0.531423509
    0.870922208    0.457376301    0.623415530
    0.620922327    0.290709645    0.715407610
    0.370922208    0.124042869    0.807399571
    0.491458237    0.745729089    0.000000000
    0.741458297    0.745729148    0.338823020
    0.620922327    0.957376242    0.531423509
    0.370922327    0.790709555    0.623415530
    0.120922327    0.624042928    0.715407550
    0.870922208    0.457376182    0.807399571
    0.620922208    0.290709496    0.899391532
    0.491458297    0.745729148    0.271058381
    0.620922327    0.290709615    0.531423509
    0.370922327    0.124042869    0.623415530
    0.120922327    0.957376301    0.715407550
    0.870922208    0.790709555    0.807399571
    0.491458237    0.245729119    0.000000000
    0.870922327    0.790709734    0.439431459
    0.620922327    0.624042988    0.531423509
    0.370922327    0.457376301    0.623415530
    0.120922327    0.290709645    0.715407550
    0.870922208    0.124042869    0.807399571
    0.241458282    0.245729119    0.067764588
    0.991458297    0.245729148    0.271058381
    0.870922327    0.207376271    0.531423509
    0.620922327    0.040709496    0.623415530
    0.370922327    0.874042928    0.715407610
    0.120922327    0.707376242    0.807399571
    0.491458267    0.495729119    0.000000000
    0.120922446    0.707376420    0.439431459
    0.870922327    0.540709674    0.531423509
    0.620922327    0.374042988    0.623415530
    0.370922327    0.207376316    0.715407610
    0.120922327    0.040709615    0.807399571
    0.741458297    0.745729089    0.067764588
    0.741458297    0.995729148    0.338823020
    0.870922327    0.874042988    0.531423509
    0.620922327    0.707376301    0.623415530
    0.370922327    0.540709615    0.715407610
    0.120922327    0.374042898    0.807399571
    0.870922327    0.207376152    0.899391532
    0.491458297    0.245729119    0.271058381
    0.370922327    0.207376271    0.531423509
    0.120922208    0.040709496    0.623415530
    0.870922327    0.874042928    0.715407550
    0.620922208    0.707376242    0.807399571
    0.370922089    0.540709436    0.899391532
    0.620922327    0.707376420    0.439431459
    0.370922327    0.540709674    0.531423509
    0.120922208    0.374042988    0.623415530
    0.870922327    0.207376316    0.715407550
    0.620922208    0.040709615    0.807399571
    0.241458282    0.745729089    0.067764588
    0.620922327    0.040709734    0.439431459
    0.370922327    0.874042988    0.531423509
    0.120922208    0.707376301    0.623415530
    0.870922327    0.540709615    0.715407550
    0.620922208    0.374042898    0.807399571
    0.370922089    0.207376152    0.899391532
