Si+C                                    
   1.00000000000000     
    13.3031797409999992    0.0000000000000000    0.0000000000000000
     6.6515893940000002   14.8734064099999994    0.0000000000000000
     0.0000000000000000    0.0000000000000000    7.5994410510000003
   Si   C 
    36    84
Direct
  0.9829056259999973  0.6581194999999980  0.0000000049999969
  0.7829055790000012  0.5581192969999975  0.1598024219999985
  0.5829054120000023  0.4581190939999971  0.3196048439999970
  0.9829056259999973  0.3247861270000030  0.0000000049999969
  0.7829055790000012  0.2247859690000027  0.1598024219999985
  0.5829054120000023  0.1247858030000017  0.3196048439999970
  0.9829056259999973  0.9914528130000022  0.0000000049999969
  0.7829055790000012  0.8914526699999996  0.1598024219999985
  0.5829054120000023  0.7914525269999970  0.3196048439999970
  0.6329056619999989  0.6914526819999978  0.0799010400000029
  0.4329055850000003  0.5914524789999973  0.2397034760000025
  0.2329055220000029  0.4914524260000022  0.3995058830000033
  0.6329056619999989  0.3581194280000020  0.0799010400000029
  0.4329055850000003  0.2581192849999994  0.2397034760000025
  0.2329055220000029  0.1581191419999968  0.3995058830000033
  0.6329056619999989  0.0247861369999995  0.0799010400000029
  0.4329055850000003  0.9247859720000022  0.2397034760000025
  0.2329055220000029  0.8247858289999996  0.3995058830000033
  0.4829056259999973  0.6581194999999980  0.0000000000000000
  0.2829055489999988  0.5581192969999975  0.1598024219999985
  0.0829054419999977  0.4581190939999971  0.3196048439999970
  0.4829056259999973  0.3247861270000030  0.0000000000000000
  0.2829055489999988  0.2247859539999979  0.1598024219999985
  0.0829054419999977  0.1247858110000024  0.3196048439999970
  0.4829056259999973  0.9914528130000022  0.0000000000000000
  0.2829055489999988  0.8914526699999996  0.1598024219999985
  0.0829054419999977  0.7914525269999970  0.3196048439999970
  0.1329056769999966  0.6914527420000027  0.0799010619999976
  0.9329055549999978  0.5914524789999973  0.2397034760000025
  0.7329055069999981  0.4914523959999997  0.3995058830000033
  0.1329056769999966  0.3581194879999998  0.0799010619999976
  0.9329055549999978  0.2581192849999994  0.2397034760000025
  0.7329055069999981  0.1581191269999991  0.3995058830000033
  0.1329056769999966  0.0247861369999995  0.0799010619999976
  0.9329055549999978  0.9247859720000022  0.2397034760000025
  0.7329055069999981  0.8247858289999996  0.3995058830000033
  0.7112786770000028  0.9135312439999979  0.7784655090000001
  0.0541356800000017  0.9421029089999990  0.5685654879999973
  0.3827071190000026  0.9278171059999991  0.6735154389999991
  0.9969928260000032  0.7706741690000030  0.7784655090000001
  0.3398499489999978  0.7992457750000028  0.5685654879999973
  0.6684215069999979  0.7849599720000029  0.6735154389999991
  0.2827070949999992  0.6278170349999996  0.7784655090000001
  0.6255642180000009  0.6563886400000030  0.5685654879999973
  0.9541356559999983  0.6421028379999996  0.6735154389999991
  0.5684214830000016  0.4849598710000009  0.7784654499999988
  0.9112786049999997  0.5135314460000018  0.5685654279999994
  0.2398500440000007  0.4992457029999997  0.6735154389999991
  0.8541357519999977  0.3421027360000011  0.7784654499999988
  0.1969928740000029  0.3706743420000009  0.5685654279999994
  0.5255641939999975  0.3563885690000035  0.6735154389999991
  0.1398500199999972  0.1992456019999977  0.7784654499999988
  0.4827070239999998  0.2278172079999976  0.5685654279999994
  0.8112785819999999  0.2135314350000002  0.6735154389999991
  0.4255644079999996  0.0563884970000004  0.7784655090000001
  0.7684214120000021  0.0849599840000010  0.5685654279999994
  0.0969929700000023  0.0706743000000003  0.6735154989999970
  0.1612784860000005  0.0135312080000034  0.8309403660000001
  0.5041356090000022  0.0421028140000033  0.6210404039999986
  0.8327070469999995  0.0278170110000033  0.7259904739999996
  0.4469927549999966  0.8706741330000014  0.8309403660000001
  0.7898498770000018  0.8992457390000013  0.6210404039999986
  0.1184213160000027  0.8849598770000000  0.7259904739999996
  0.7327070239999998  0.7278169989999981  0.8309404250000014
  0.0755641459999978  0.7563886049999979  0.6210402849999994
  0.4041357039999980  0.7421028019999980  0.7259904149999983
  0.0184214120000021  0.5849599240000032  0.8309403060000022
  0.3612785340000002  0.6135314699999981  0.6210402849999994
  0.6898498540000020  0.5992457270000031  0.7259904149999983
  0.3041357990000009  0.4421028200000023  0.8309404250000014
  0.6469929220000026  0.4706743959999997  0.6210402849999994
  0.9755642410000007  0.4563886230000023  0.7259903550000004
  0.5898499489999978  0.2992456260000012  0.8309404250000014
  0.9327071310000008  0.3278172019999985  0.6210404039999986
  0.2612786290000031  0.3135313989999986  0.7259904149999983
  0.8755643370000001  0.1563884759999965  0.8309403060000022
  0.2184214589999982  0.1849600669999987  0.6210404039999986
  0.5469927790000000  0.1706742940000012  0.7259904149999983
  0.2112785579999965  0.9135313029999992  0.7784654499999988
  0.5541356800000017  0.9421027899999999  0.5685654279999994
  0.8827070000000035  0.9278171059999991  0.6735154989999970
  0.4969930649999981  0.7706741690000030  0.7784655090000001
  0.8398500679999970  0.7992457750000028  0.5685654279999994
  0.1684215069999979  0.7849599720000029  0.6735154389999991
  0.7827073340000013  0.6278170349999996  0.7784655090000001
  0.1255643370000001  0.6563886400000030  0.5685654279999994
  0.4541357760000011  0.6421028379999996  0.6735154389999991
  0.0684214830000016  0.4849599300000023  0.7784655090000001
  0.4112784860000005  0.5135315059999996  0.5685654279999994
  0.7398499250000015  0.4992457330000022  0.6735154389999991
  0.3541356329999985  0.3421028550000003  0.7784655090000001
  0.6969928740000029  0.3706743720000034  0.5685654279999994
  0.0255643129999967  0.3563885690000035  0.6735154389999991
  0.6398501400000001  0.1992456320000002  0.7784655090000001
  0.9827071429999990  0.2278171780000022  0.5685654879999973
  0.3112785819999999  0.2135314049999977  0.6735154989999970
  0.9255642890000004  0.0563884970000004  0.7784655090000001
  0.2684214120000021  0.0849601030000002  0.5685654879999973
  0.5969928499999995  0.0706743000000003  0.6735154989999970
  0.6612784860000005  0.0135313270000026  0.8309403660000001
  0.0041356090000022  0.0421029330000025  0.6210404039999986
  0.3327070469999995  0.0278170110000033  0.7259904149999983
  0.9469928740000029  0.8706741929999993  0.8309403660000001
  0.2898499969999975  0.8992457989999991  0.6210404039999986
  0.6184213160000027  0.8849599360000013  0.7259904149999983
  0.2327071429999990  0.7278169989999981  0.8309403660000001
  0.5755643840000033  0.7563886049999979  0.6210404039999986
  0.9041358229999972  0.7421027420000001  0.7259904149999983
  0.5184212919999993  0.5849599240000032  0.8309403060000022
  0.8612785340000002  0.6135314109999968  0.6210402849999994
  0.1898499730000012  0.5992456669999982  0.7259904149999983
  0.8041357990000009  0.4421027599999974  0.8309403060000022
  0.1469929220000026  0.4706743360000019  0.6210402849999994
  0.4755643609999964  0.4563885629999973  0.7259904149999983
  0.0898498299999986  0.2992455660000033  0.8309403660000001
  0.4327070710000029  0.3278171720000032  0.6210402849999994
  0.7612783909999976  0.3135313989999986  0.7259904149999983
  0.3755642180000009  0.1563885509999992  0.8309403060000022
  0.7184214589999982  0.1849600520000010  0.6210404039999986
  0.0469927790000000  0.1706742790000035  0.7259904149999983
 
  0.00000000E+00  0.00000000E+00  0.00000000E+00
  0.00000000E+00  0.00000000E+00  0.00000000E+00
  0.00000000E+00  0.00000000E+00  0.00000000E+00
  0.00000000E+00  0.00000000E+00  0.00000000E+00
  0.00000000E+00  0.00000000E+00  0.00000000E+00
  0.00000000E+00  0.00000000E+00  0.00000000E+00
  0.00000000E+00  0.00000000E+00  0.00000000E+00
  0.00000000E+00  0.00000000E+00  0.00000000E+00
  0.00000000E+00  0.00000000E+00  0.00000000E+00
  0.00000000E+00  0.00000000E+00  0.00000000E+00
  0.00000000E+00  0.00000000E+00  0.00000000E+00
  0.00000000E+00  0.00000000E+00  0.00000000E+00
  0.00000000E+00  0.00000000E+00  0.00000000E+00
  0.00000000E+00  0.00000000E+00  0.00000000E+00
  0.00000000E+00  0.00000000E+00  0.00000000E+00
  0.00000000E+00  0.00000000E+00  0.00000000E+00
  0.00000000E+00  0.00000000E+00  0.00000000E+00
  0.00000000E+00  0.00000000E+00  0.00000000E+00
  0.00000000E+00  0.00000000E+00  0.00000000E+00
  0.00000000E+00  0.00000000E+00  0.00000000E+00
  0.00000000E+00  0.00000000E+00  0.00000000E+00
  0.00000000E+00  0.00000000E+00  0.00000000E+00
  0.00000000E+00  0.00000000E+00  0.00000000E+00
  0.00000000E+00  0.00000000E+00  0.00000000E+00
  0.00000000E+00  0.00000000E+00  0.00000000E+00
  0.00000000E+00  0.00000000E+00  0.00000000E+00
  0.00000000E+00  0.00000000E+00  0.00000000E+00
  0.00000000E+00  0.00000000E+00  0.00000000E+00
  0.00000000E+00  0.00000000E+00  0.00000000E+00
  0.00000000E+00  0.00000000E+00  0.00000000E+00
  0.00000000E+00  0.00000000E+00  0.00000000E+00
  0.00000000E+00  0.00000000E+00  0.00000000E+00
  0.00000000E+00  0.00000000E+00  0.00000000E+00
  0.00000000E+00  0.00000000E+00  0.00000000E+00
  0.00000000E+00  0.00000000E+00  0.00000000E+00
  0.00000000E+00  0.00000000E+00  0.00000000E+00
  0.00000000E+00  0.00000000E+00  0.00000000E+00
  0.00000000E+00  0.00000000E+00  0.00000000E+00
  0.00000000E+00  0.00000000E+00  0.00000000E+00
  0.00000000E+00  0.00000000E+00  0.00000000E+00
  0.00000000E+00  0.00000000E+00  0.00000000E+00
  0.00000000E+00  0.00000000E+00  0.00000000E+00
  0.00000000E+00  0.00000000E+00  0.00000000E+00
  0.00000000E+00  0.00000000E+00  0.00000000E+00
  0.00000000E+00  0.00000000E+00  0.00000000E+00
  0.00000000E+00  0.00000000E+00  0.00000000E+00
  0.00000000E+00  0.00000000E+00  0.00000000E+00
  0.00000000E+00  0.00000000E+00  0.00000000E+00
  0.00000000E+00  0.00000000E+00  0.00000000E+00
  0.00000000E+00  0.00000000E+00  0.00000000E+00
  0.00000000E+00  0.00000000E+00  0.00000000E+00
  0.00000000E+00  0.00000000E+00  0.00000000E+00
  0.00000000E+00  0.00000000E+00  0.00000000E+00
  0.00000000E+00  0.00000000E+00  0.00000000E+00
  0.00000000E+00  0.00000000E+00  0.00000000E+00
  0.00000000E+00  0.00000000E+00  0.00000000E+00
  0.00000000E+00  0.00000000E+00  0.00000000E+00
  0.00000000E+00  0.00000000E+00  0.00000000E+00
  0.00000000E+00  0.00000000E+00  0.00000000E+00
  0.00000000E+00  0.00000000E+00  0.00000000E+00
  0.00000000E+00  0.00000000E+00  0.00000000E+00
  0.00000000E+00  0.00000000E+00  0.00000000E+00
  0.00000000E+00  0.00000000E+00  0.00000000E+00
  0.00000000E+00  0.00000000E+00  0.00000000E+00
  0.00000000E+00  0.00000000E+00  0.00000000E+00
  0.00000000E+00  0.00000000E+00  0.00000000E+00
  0.00000000E+00  0.00000000E+00  0.00000000E+00
  0.00000000E+00  0.00000000E+00  0.00000000E+00
  0.00000000E+00  0.00000000E+00  0.00000000E+00
  0.00000000E+00  0.00000000E+00  0.00000000E+00
  0.00000000E+00  0.00000000E+00  0.00000000E+00
  0.00000000E+00  0.00000000E+00  0.00000000E+00
  0.00000000E+00  0.00000000E+00  0.00000000E+00
  0.00000000E+00  0.00000000E+00  0.00000000E+00
  0.00000000E+00  0.00000000E+00  0.00000000E+00
  0.00000000E+00  0.00000000E+00  0.00000000E+00
  0.00000000E+00  0.00000000E+00  0.00000000E+00
  0.00000000E+00  0.00000000E+00  0.00000000E+00
  0.00000000E+00  0.00000000E+00  0.00000000E+00
  0.00000000E+00  0.00000000E+00  0.00000000E+00
  0.00000000E+00  0.00000000E+00  0.00000000E+00
  0.00000000E+00  0.00000000E+00  0.00000000E+00
  0.00000000E+00  0.00000000E+00  0.00000000E+00
  0.00000000E+00  0.00000000E+00  0.00000000E+00
  0.00000000E+00  0.00000000E+00  0.00000000E+00
  0.00000000E+00  0.00000000E+00  0.00000000E+00
  0.00000000E+00  0.00000000E+00  0.00000000E+00
  0.00000000E+00  0.00000000E+00  0.00000000E+00
  0.00000000E+00  0.00000000E+00  0.00000000E+00
  0.00000000E+00  0.00000000E+00  0.00000000E+00
  0.00000000E+00  0.00000000E+00  0.00000000E+00
  0.00000000E+00  0.00000000E+00  0.00000000E+00
  0.00000000E+00  0.00000000E+00  0.00000000E+00
  0.00000000E+00  0.00000000E+00  0.00000000E+00
  0.00000000E+00  0.00000000E+00  0.00000000E+00
  0.00000000E+00  0.00000000E+00  0.00000000E+00
  0.00000000E+00  0.00000000E+00  0.00000000E+00
  0.00000000E+00  0.00000000E+00  0.00000000E+00
  0.00000000E+00  0.00000000E+00  0.00000000E+00
  0.00000000E+00  0.00000000E+00  0.00000000E+00
  0.00000000E+00  0.00000000E+00  0.00000000E+00
  0.00000000E+00  0.00000000E+00  0.00000000E+00
  0.00000000E+00  0.00000000E+00  0.00000000E+00
  0.00000000E+00  0.00000000E+00  0.00000000E+00
  0.00000000E+00  0.00000000E+00  0.00000000E+00
  0.00000000E+00  0.00000000E+00  0.00000000E+00
  0.00000000E+00  0.00000000E+00  0.00000000E+00
  0.00000000E+00  0.00000000E+00  0.00000000E+00
  0.00000000E+00  0.00000000E+00  0.00000000E+00
  0.00000000E+00  0.00000000E+00  0.00000000E+00
  0.00000000E+00  0.00000000E+00  0.00000000E+00
  0.00000000E+00  0.00000000E+00  0.00000000E+00
  0.00000000E+00  0.00000000E+00  0.00000000E+00
  0.00000000E+00  0.00000000E+00  0.00000000E+00
  0.00000000E+00  0.00000000E+00  0.00000000E+00
  0.00000000E+00  0.00000000E+00  0.00000000E+00
  0.00000000E+00  0.00000000E+00  0.00000000E+00
  0.00000000E+00  0.00000000E+00  0.00000000E+00
  0.00000000E+00  0.00000000E+00  0.00000000E+00
  0.00000000E+00  0.00000000E+00  0.00000000E+00
