Ge+Si                                   
   1.00000000000000     
    16.0026760099999983    0.0000000000000000    0.0000000000000000
     0.0000000000000000   16.9734020229999985    0.0000000000000000
     0.0000000000000000    0.0000000000000000   13.2939195629999993
   Ge   Si
    48   108
Direct
  0.9132377509999969  0.9100242849999987  0.0000000189999980
  0.5382377509999969  0.5211353899999978  0.0501567419999986
  0.1632378099999983  0.1322464940000003  0.1003134400000008
  0.7882378099999983  0.7433574200000024  0.1504702269999996
  0.4132378099999983  0.3544685840000028  0.2006269250000017
  0.0382376909999991  0.9655795099999978  0.2507836520000026
  0.4132376909999991  0.9100242849999987  0.0000000220000018
  0.0382377170000012  0.5211353299999999  0.0501567419999986
  0.6632377509999969  0.1322464349999990  0.1003134400000008
  0.2882376909999991  0.7433574200000024  0.1504701819999994
  0.9132378099999983  0.3544684649999965  0.2006269250000017
  0.5382378099999983  0.9655797480000032  0.2507837409999993
  0.0382377279999986  0.6600242259999973  0.0000000189999980
  0.6632377509999969  0.2711352999999974  0.0501567239999972
  0.2882378099999983  0.8822463750000011  0.1003134469999978
  0.9132378099999983  0.4933574200000024  0.1504701819999994
  0.5382376909999991  0.1044684049999987  0.2006268949999992
  0.1632376909999991  0.7155796289999969  0.2507836520000026
  0.5382376909999991  0.6600242259999973  0.0000000189999980
  0.1632377059999968  0.2711352999999974  0.0501567239999972
  0.7882377509999969  0.8822463750000011  0.1003134469999978
  0.4132376909999991  0.4933574800000002  0.1504701819999994
  0.0382377509999969  0.1044684649999965  0.2006269399999994
  0.6632376909999991  0.7155796289999969  0.2507836819999980
  0.2882377509999969  0.6600242259999973  0.0000000189999980
  0.9132377509999969  0.2711352999999974  0.0501567239999972
  0.5382378099999983  0.8822463750000011  0.1003134469999978
  0.1632378099999983  0.4933574200000024  0.1504701819999994
  0.7882378099999983  0.1044684649999965  0.2006268949999992
  0.4132378099999983  0.7155795099999978  0.2507836520000026
  0.7882376909999991  0.6600241659999995  0.0000000000000000
  0.4132377210000016  0.2711352999999974  0.0501567239999972
  0.0382377840000032  0.8822463750000011  0.1003134469999978
  0.6632377509999969  0.4933574200000024  0.1504701670000017
  0.2882376909999991  0.1044684649999965  0.2006268949999992
  0.9132378099999983  0.7155796289999969  0.2507836819999980
  0.1632377210000016  0.9100242849999987  0.0000000189999980
  0.7882376909999991  0.5211353299999999  0.0501567419999986
  0.4132378099999983  0.1322464940000003  0.1003134700000032
  0.0382377509999969  0.7433574200000024  0.1504702269999996
  0.6632378099999983  0.3544685840000028  0.2006268800000015
  0.2882376909999991  0.9655795099999978  0.2507836520000026
  0.6632376909999991  0.9100242849999987  0.0000000269999987
  0.2882377509999969  0.5211353299999999  0.0501567239999972
  0.9132377509999969  0.1322464940000003  0.1003134700000032
  0.5382378099999983  0.7433574200000024  0.1504702269999996
  0.1632376909999991  0.3544684649999965  0.2006268800000015
  0.7882378099999983  0.9655797480000032  0.2507836520000026
  0.2893081899999999  0.7218782899999994  0.3700589540000010
  0.2893081899999999  0.5552116630000015  0.5743252640000023
  0.2893081899999999  0.3885449169999973  0.7785916329999978
  0.6226415630000020  0.7218782899999994  0.3700589540000010
  0.6226415630000020  0.5552116630000015  0.5743252640000023
  0.6226415630000020  0.3885449169999973  0.7785916329999978
  0.9559748770000027  0.7218782899999994  0.3700589540000010
  0.9559748770000027  0.5552116630000015  0.5743252640000023
  0.9559748770000027  0.3885449169999973  0.7785916329999978
  0.2893081899999999  0.0552116630000015  0.3700589540000010
  0.2893081899999999  0.8885449770000022  0.5743252640000023
  0.2893081899999999  0.7218782899999994  0.7785916329999978
  0.6226415630000020  0.0552116630000015  0.3700589540000010
  0.6226415630000020  0.8885449770000022  0.5743252640000023
  0.6226415630000020  0.7218782899999994  0.7785916329999978
  0.9559748770000027  0.0552116630000015  0.3700589540000010
  0.9559748770000027  0.8885449770000022  0.5743252640000023
  0.9559748770000027  0.7218782899999994  0.7785916329999978
  0.2893081899999999  0.3885450359999965  0.3700589540000010
  0.2893081899999999  0.2218782899999994  0.5743252640000023
  0.2893081899999999  0.0552116630000015  0.7785916329999978
  0.6226415630000020  0.3885450359999965  0.3700589540000010
  0.6226415630000020  0.2218782899999994  0.5743252640000023
  0.6226415630000020  0.0552116630000015  0.7785916329999978
  0.9559748770000027  0.3885450359999965  0.3700589540000010
  0.9559748770000027  0.2218782899999994  0.5743252640000023
  0.9559748770000027  0.0552116630000015  0.7785916329999978
  0.3726415340000031  0.8052116630000015  0.4721921379999969
  0.3726415340000031  0.6385450359999965  0.6764583590000015
  0.3726415340000031  0.4718782899999994  0.8807247880000020
  0.7059748770000027  0.8052116630000015  0.4721921379999969
  0.7059748770000027  0.6385450359999965  0.6764583590000015
  0.7059748770000027  0.4718782899999994  0.8807247880000020
  0.0393081899999999  0.8052116630000015  0.4721921379999969
  0.0393081899999999  0.6385450359999965  0.6764583590000015
  0.0393081899999999  0.4718782899999994  0.8807247880000020
  0.3726415340000031  0.1385450359999965  0.4721921379999969
  0.3726415340000031  0.9718782899999994  0.6764583590000015
  0.3726415340000031  0.8052116040000001  0.8807247880000020
  0.7059748770000027  0.1385450359999965  0.4721921379999969
  0.7059748770000027  0.9718782899999994  0.6764583590000015
  0.7059748770000027  0.8052116040000001  0.8807247880000020
  0.0393081899999999  0.1385450359999965  0.4721921379999969
  0.0393081899999999  0.9718782899999994  0.6764583590000015
  0.0393081899999999  0.8052116040000001  0.8807247880000020
  0.3726415340000031  0.4718782899999994  0.4721921379999969
  0.3726415340000031  0.3052116630000015  0.6764583590000015
  0.3726415340000031  0.1385450359999965  0.8807247880000020
  0.7059748770000027  0.4718782899999994  0.4721921379999969
  0.7059748770000027  0.3052116630000015  0.6764583590000015
  0.7059748770000027  0.1385450359999965  0.8807247880000020
  0.0393081899999999  0.4718782899999994  0.4721921379999969
  0.0393081899999999  0.3052116630000015  0.6764583590000015
  0.0393081899999999  0.1385450359999965  0.8807247880000020
  0.4559748770000027  0.8885450359999965  0.3700589540000010
  0.4559748770000027  0.7218782899999994  0.5743252640000023
  0.4559748770000027  0.5552115440000023  0.7785916329999978
  0.7893081899999999  0.8885450359999965  0.3700589540000010
  0.7893081899999999  0.7218782899999994  0.5743252640000023
  0.7893081899999999  0.5552115440000023  0.7785916329999978
  0.1226415630000020  0.8885450359999965  0.3700589540000010
  0.1226415630000020  0.7218782899999994  0.5743252640000023
  0.1226415630000020  0.5552115440000023  0.7785916329999978
  0.4559748770000027  0.2218782899999994  0.3700589540000010
  0.4559748770000027  0.0552116630000015  0.5743252640000023
  0.4559748770000027  0.8885449169999973  0.7785916329999978
  0.7893081899999999  0.2218782899999994  0.3700589540000010
  0.7893081899999999  0.0552116630000015  0.5743252640000023
  0.7893081899999999  0.8885449169999973  0.7785916329999978
  0.1226415630000020  0.2218782899999994  0.3700589540000010
  0.1226415630000020  0.0552116630000015  0.5743252640000023
  0.1226415630000020  0.8885449169999973  0.7785916329999978
  0.4559748770000027  0.5552116630000015  0.3700589540000010
  0.4559748770000027  0.3885450359999965  0.5743252640000023
  0.4559748770000027  0.2218782899999994  0.7785916329999978
  0.7893081899999999  0.5552116630000015  0.3700589540000010
  0.7893081899999999  0.3885450359999965  0.5743252640000023
  0.7893081899999999  0.2218782899999994  0.7785916329999978
  0.1226415630000020  0.5552116630000015  0.3700589540000010
  0.1226415630000020  0.3885450359999965  0.5743252640000023
  0.1226415630000020  0.2218782899999994  0.7785916329999978
  0.5393081899999999  0.9718783499999972  0.4721921379999969
  0.5393081899999999  0.8052116630000015  0.6764583590000015
  0.5393081899999999  0.6385450359999965  0.8807247880000020
  0.8726415630000020  0.9718783499999972  0.4721921379999969
  0.8726415630000020  0.8052116630000015  0.6764583590000015
  0.8726415630000020  0.6385450359999965  0.8807247880000020
  0.2059748169999978  0.9718783499999972  0.4721921379999969
  0.2059748169999978  0.8052116630000015  0.6764583590000015
  0.2059748169999978  0.6385450359999965  0.8807247880000020
  0.5393081899999999  0.3052117820000007  0.4721921379999969
  0.5393081899999999  0.1385450359999965  0.6764583590000015
  0.5393081899999999  0.9718783499999972  0.8807247880000020
  0.8726415630000020  0.3052117820000007  0.4721921379999969
  0.8726415630000020  0.1385450359999965  0.6764583590000015
  0.8726415630000020  0.9718783499999972  0.8807247880000020
  0.2059748169999978  0.3052117820000007  0.4721921379999969
  0.2059748169999978  0.1385450359999965  0.6764583590000015
  0.2059748169999978  0.9718783499999972  0.8807247880000020
  0.5393081899999999  0.6385450359999965  0.4721921379999969
  0.5393081899999999  0.4718782899999994  0.6764583590000015
  0.5393081899999999  0.3052116630000015  0.8807247880000020
  0.8726415630000020  0.6385450359999965  0.4721921379999969
  0.8726415630000020  0.4718782899999994  0.6764583590000015
  0.8726415630000020  0.3052116630000015  0.8807247880000020
  0.2059748169999978  0.6385450359999965  0.4721921379999969
  0.2059748169999978  0.4718782899999994  0.6764583590000015
  0.2059748169999978  0.3052116630000015  0.8807247880000020
 
  0.00000000E+00  0.00000000E+00  0.00000000E+00
  0.00000000E+00  0.00000000E+00  0.00000000E+00
  0.00000000E+00  0.00000000E+00  0.00000000E+00
  0.00000000E+00  0.00000000E+00  0.00000000E+00
  0.00000000E+00  0.00000000E+00  0.00000000E+00
  0.00000000E+00  0.00000000E+00  0.00000000E+00
  0.00000000E+00  0.00000000E+00  0.00000000E+00
  0.00000000E+00  0.00000000E+00  0.00000000E+00
  0.00000000E+00  0.00000000E+00  0.00000000E+00
  0.00000000E+00  0.00000000E+00  0.00000000E+00
  0.00000000E+00  0.00000000E+00  0.00000000E+00
  0.00000000E+00  0.00000000E+00  0.00000000E+00
  0.00000000E+00  0.00000000E+00  0.00000000E+00
  0.00000000E+00  0.00000000E+00  0.00000000E+00
  0.00000000E+00  0.00000000E+00  0.00000000E+00
  0.00000000E+00  0.00000000E+00  0.00000000E+00
  0.00000000E+00  0.00000000E+00  0.00000000E+00
  0.00000000E+00  0.00000000E+00  0.00000000E+00
  0.00000000E+00  0.00000000E+00  0.00000000E+00
  0.00000000E+00  0.00000000E+00  0.00000000E+00
  0.00000000E+00  0.00000000E+00  0.00000000E+00
  0.00000000E+00  0.00000000E+00  0.00000000E+00
  0.00000000E+00  0.00000000E+00  0.00000000E+00
  0.00000000E+00  0.00000000E+00  0.00000000E+00
  0.00000000E+00  0.00000000E+00  0.00000000E+00
  0.00000000E+00  0.00000000E+00  0.00000000E+00
  0.00000000E+00  0.00000000E+00  0.00000000E+00
  0.00000000E+00  0.00000000E+00  0.00000000E+00
  0.00000000E+00  0.00000000E+00  0.00000000E+00
  0.00000000E+00  0.00000000E+00  0.00000000E+00
  0.00000000E+00  0.00000000E+00  0.00000000E+00
  0.00000000E+00  0.00000000E+00  0.00000000E+00
  0.00000000E+00  0.00000000E+00  0.00000000E+00
  0.00000000E+00  0.00000000E+00  0.00000000E+00
  0.00000000E+00  0.00000000E+00  0.00000000E+00
  0.00000000E+00  0.00000000E+00  0.00000000E+00
  0.00000000E+00  0.00000000E+00  0.00000000E+00
  0.00000000E+00  0.00000000E+00  0.00000000E+00
  0.00000000E+00  0.00000000E+00  0.00000000E+00
  0.00000000E+00  0.00000000E+00  0.00000000E+00
  0.00000000E+00  0.00000000E+00  0.00000000E+00
  0.00000000E+00  0.00000000E+00  0.00000000E+00
  0.00000000E+00  0.00000000E+00  0.00000000E+00
  0.00000000E+00  0.00000000E+00  0.00000000E+00
  0.00000000E+00  0.00000000E+00  0.00000000E+00
  0.00000000E+00  0.00000000E+00  0.00000000E+00
  0.00000000E+00  0.00000000E+00  0.00000000E+00
  0.00000000E+00  0.00000000E+00  0.00000000E+00
  0.00000000E+00  0.00000000E+00  0.00000000E+00
  0.00000000E+00  0.00000000E+00  0.00000000E+00
  0.00000000E+00  0.00000000E+00  0.00000000E+00
  0.00000000E+00  0.00000000E+00  0.00000000E+00
  0.00000000E+00  0.00000000E+00  0.00000000E+00
  0.00000000E+00  0.00000000E+00  0.00000000E+00
  0.00000000E+00  0.00000000E+00  0.00000000E+00
  0.00000000E+00  0.00000000E+00  0.00000000E+00
  0.00000000E+00  0.00000000E+00  0.00000000E+00
  0.00000000E+00  0.00000000E+00  0.00000000E+00
  0.00000000E+00  0.00000000E+00  0.00000000E+00
  0.00000000E+00  0.00000000E+00  0.00000000E+00
  0.00000000E+00  0.00000000E+00  0.00000000E+00
  0.00000000E+00  0.00000000E+00  0.00000000E+00
  0.00000000E+00  0.00000000E+00  0.00000000E+00
  0.00000000E+00  0.00000000E+00  0.00000000E+00
  0.00000000E+00  0.00000000E+00  0.00000000E+00
  0.00000000E+00  0.00000000E+00  0.00000000E+00
  0.00000000E+00  0.00000000E+00  0.00000000E+00
  0.00000000E+00  0.00000000E+00  0.00000000E+00
  0.00000000E+00  0.00000000E+00  0.00000000E+00
  0.00000000E+00  0.00000000E+00  0.00000000E+00
  0.00000000E+00  0.00000000E+00  0.00000000E+00
  0.00000000E+00  0.00000000E+00  0.00000000E+00
  0.00000000E+00  0.00000000E+00  0.00000000E+00
  0.00000000E+00  0.00000000E+00  0.00000000E+00
  0.00000000E+00  0.00000000E+00  0.00000000E+00
  0.00000000E+00  0.00000000E+00  0.00000000E+00
  0.00000000E+00  0.00000000E+00  0.00000000E+00
  0.00000000E+00  0.00000000E+00  0.00000000E+00
  0.00000000E+00  0.00000000E+00  0.00000000E+00
  0.00000000E+00  0.00000000E+00  0.00000000E+00
  0.00000000E+00  0.00000000E+00  0.00000000E+00
  0.00000000E+00  0.00000000E+00  0.00000000E+00
  0.00000000E+00  0.00000000E+00  0.00000000E+00
  0.00000000E+00  0.00000000E+00  0.00000000E+00
  0.00000000E+00  0.00000000E+00  0.00000000E+00
  0.00000000E+00  0.00000000E+00  0.00000000E+00
  0.00000000E+00  0.00000000E+00  0.00000000E+00
  0.00000000E+00  0.00000000E+00  0.00000000E+00
  0.00000000E+00  0.00000000E+00  0.00000000E+00
  0.00000000E+00  0.00000000E+00  0.00000000E+00
  0.00000000E+00  0.00000000E+00  0.00000000E+00
  0.00000000E+00  0.00000000E+00  0.00000000E+00
  0.00000000E+00  0.00000000E+00  0.00000000E+00
  0.00000000E+00  0.00000000E+00  0.00000000E+00
  0.00000000E+00  0.00000000E+00  0.00000000E+00
  0.00000000E+00  0.00000000E+00  0.00000000E+00
  0.00000000E+00  0.00000000E+00  0.00000000E+00
  0.00000000E+00  0.00000000E+00  0.00000000E+00
  0.00000000E+00  0.00000000E+00  0.00000000E+00
  0.00000000E+00  0.00000000E+00  0.00000000E+00
  0.00000000E+00  0.00000000E+00  0.00000000E+00
  0.00000000E+00  0.00000000E+00  0.00000000E+00
  0.00000000E+00  0.00000000E+00  0.00000000E+00
  0.00000000E+00  0.00000000E+00  0.00000000E+00
  0.00000000E+00  0.00000000E+00  0.00000000E+00
  0.00000000E+00  0.00000000E+00  0.00000000E+00
  0.00000000E+00  0.00000000E+00  0.00000000E+00
  0.00000000E+00  0.00000000E+00  0.00000000E+00
  0.00000000E+00  0.00000000E+00  0.00000000E+00
  0.00000000E+00  0.00000000E+00  0.00000000E+00
  0.00000000E+00  0.00000000E+00  0.00000000E+00
  0.00000000E+00  0.00000000E+00  0.00000000E+00
  0.00000000E+00  0.00000000E+00  0.00000000E+00
  0.00000000E+00  0.00000000E+00  0.00000000E+00
  0.00000000E+00  0.00000000E+00  0.00000000E+00
  0.00000000E+00  0.00000000E+00  0.00000000E+00
  0.00000000E+00  0.00000000E+00  0.00000000E+00
  0.00000000E+00  0.00000000E+00  0.00000000E+00
  0.00000000E+00  0.00000000E+00  0.00000000E+00
  0.00000000E+00  0.00000000E+00  0.00000000E+00
  0.00000000E+00  0.00000000E+00  0.00000000E+00
  0.00000000E+00  0.00000000E+00  0.00000000E+00
  0.00000000E+00  0.00000000E+00  0.00000000E+00
  0.00000000E+00  0.00000000E+00  0.00000000E+00
  0.00000000E+00  0.00000000E+00  0.00000000E+00
  0.00000000E+00  0.00000000E+00  0.00000000E+00
  0.00000000E+00  0.00000000E+00  0.00000000E+00
  0.00000000E+00  0.00000000E+00  0.00000000E+00
  0.00000000E+00  0.00000000E+00  0.00000000E+00
  0.00000000E+00  0.00000000E+00  0.00000000E+00
  0.00000000E+00  0.00000000E+00  0.00000000E+00
  0.00000000E+00  0.00000000E+00  0.00000000E+00
  0.00000000E+00  0.00000000E+00  0.00000000E+00
  0.00000000E+00  0.00000000E+00  0.00000000E+00
  0.00000000E+00  0.00000000E+00  0.00000000E+00
  0.00000000E+00  0.00000000E+00  0.00000000E+00
  0.00000000E+00  0.00000000E+00  0.00000000E+00
  0.00000000E+00  0.00000000E+00  0.00000000E+00
  0.00000000E+00  0.00000000E+00  0.00000000E+00
  0.00000000E+00  0.00000000E+00  0.00000000E+00
  0.00000000E+00  0.00000000E+00  0.00000000E+00
  0.00000000E+00  0.00000000E+00  0.00000000E+00
  0.00000000E+00  0.00000000E+00  0.00000000E+00
  0.00000000E+00  0.00000000E+00  0.00000000E+00
  0.00000000E+00  0.00000000E+00  0.00000000E+00
  0.00000000E+00  0.00000000E+00  0.00000000E+00
  0.00000000E+00  0.00000000E+00  0.00000000E+00
  0.00000000E+00  0.00000000E+00  0.00000000E+00
  0.00000000E+00  0.00000000E+00  0.00000000E+00
  0.00000000E+00  0.00000000E+00  0.00000000E+00
  0.00000000E+00  0.00000000E+00  0.00000000E+00
  0.00000000E+00  0.00000000E+00  0.00000000E+00
  0.00000000E+00  0.00000000E+00  0.00000000E+00
  0.00000000E+00  0.00000000E+00  0.00000000E+00
  0.00000000E+00  0.00000000E+00  0.00000000E+00
  0.00000000E+00  0.00000000E+00  0.00000000E+00
