Ge+Si
    1.000000000
   16.002676010    0.000000000    0.000000000
    0.000000000   16.973402023    0.000000000
    0.000000000    0.000000000   13.293919563
Ge  Si 
48     108
Direct
    0.913237751    0.910024285    0.000000019
    0.538237751    0.521135390    0.050156742
    0.163237810    0.132246494    0.100313440
    0.788237810    0.743357420    0.150470227
    0.413237810    0.354468584    0.200626925
    0.038237691    0.965579510    0.250783652
    0.413237691    0.910024285    0.000000022
    0.038237717    0.521135330    0.050156742
    0.663237751    0.132246435    0.100313440
    0.288237691    0.743357420    0.150470182
    0.913237810    0.354468465    0.200626925
    0.538237810    0.965579748    0.250783741
    0.038237728    0.660024226    0.000000019
    0.663237751    0.271135300    0.050156724
    0.288237810    0.882246375    0.100313447
    0.913237810    0.493357420    0.150470182
    0.538237691    0.104468405    0.200626895
    0.163237691    0.715579629    0.250783652
    0.538237691    0.660024226    0.000000019
    0.163237706    0.271135300    0.050156724
    0.788237751    0.882246375    0.100313447
    0.413237691    0.493357480    0.150470182
    0.038237751    0.104468465    0.200626940
    0.663237691    0.715579629    0.250783682
    0.288237751    0.660024226    0.000000019
    0.913237751    0.271135300    0.050156724
    0.538237810    0.882246375    0.100313447
    0.163237810    0.493357420    0.150470182
    0.788237810    0.104468465    0.200626895
    0.413237810    0.715579510    0.250783652
    0.788237691    0.660024166    0.000000000
    0.413237721    0.271135300    0.050156724
    0.038237784    0.882246375    0.100313447
    0.663237751    0.493357420    0.150470167
    0.288237691    0.104468465    0.200626895
    0.913237810    0.715579629    0.250783682
    0.163237721    0.910024285    0.000000019
    0.788237691    0.521135330    0.050156742
    0.413237810    0.132246494    0.100313470
    0.038237751    0.743357420    0.150470227
    0.663237810    0.354468584    0.200626880
    0.288237691    0.965579510    0.250783652
    0.663237691    0.910024285    0.000000027
    0.288237751    0.521135330    0.050156724
    0.913237751    0.132246494    0.100313470
    0.538237810    0.743357420    0.150470227
    0.163237691    0.354468465    0.200626880
    0.788237810    0.965579748    0.250783652
    0.289308190    0.721878290    0.370058954
    0.289308190    0.555211663    0.574325264
    0.289308190    0.388544917    0.778591633
    0.622641563    0.721878290    0.370058954
    0.622641563    0.555211663    0.574325264
    0.622641563    0.388544917    0.778591633
    0.955974877    0.721878290    0.370058954
    0.955974877    0.555211663    0.574325264
    0.955974877    0.388544917    0.778591633
    0.289308190    0.055211663    0.370058954
    0.289308190    0.888544977    0.574325264
    0.289308190    0.721878290    0.778591633
    0.622641563    0.055211663    0.370058954
    0.622641563    0.888544977    0.574325264
    0.622641563    0.721878290    0.778591633
    0.955974877    0.055211663    0.370058954
    0.955974877    0.888544977    0.574325264
    0.955974877    0.721878290    0.778591633
    0.289308190    0.388545036    0.370058954
    0.289308190    0.221878290    0.574325264
    0.289308190    0.055211663    0.778591633
    0.622641563    0.388545036    0.370058954
    0.622641563    0.221878290    0.574325264
    0.622641563    0.055211663    0.778591633
    0.955974877    0.388545036    0.370058954
    0.955974877    0.221878290    0.574325264
    0.955974877    0.055211663    0.778591633
    0.372641534    0.805211663    0.472192138
    0.372641534    0.638545036    0.676458359
    0.372641534    0.471878290    0.880724788
    0.705974877    0.805211663    0.472192138
    0.705974877    0.638545036    0.676458359
    0.705974877    0.471878290    0.880724788
    0.039308190    0.805211663    0.472192138
    0.039308190    0.638545036    0.676458359
    0.039308190    0.471878290    0.880724788
    0.372641534    0.138545036    0.472192138
    0.372641534    0.971878290    0.676458359
    0.372641534    0.805211604    0.880724788
    0.705974877    0.138545036    0.472192138
    0.705974877    0.971878290    0.676458359
    0.705974877    0.805211604    0.880724788
    0.039308190    0.138545036    0.472192138
    0.039308190    0.971878290    0.676458359
    0.039308190    0.805211604    0.880724788
    0.372641534    0.471878290    0.472192138
    0.372641534    0.305211663    0.676458359
    0.372641534    0.138545036    0.880724788
    0.705974877    0.471878290    0.472192138
    0.705974877    0.305211663    0.676458359
    0.705974877    0.138545036    0.880724788
    0.039308190    0.471878290    0.472192138
    0.039308190    0.305211663    0.676458359
    0.039308190    0.138545036    0.880724788
    0.455974877    0.888545036    0.370058954
    0.455974877    0.721878290    0.574325264
    0.455974877    0.555211544    0.778591633
    0.789308190    0.888545036    0.370058954
    0.789308190    0.721878290    0.574325264
    0.789308190    0.555211544    0.778591633
    0.122641563    0.888545036    0.370058954
    0.122641563    0.721878290    0.574325264
    0.122641563    0.555211544    0.778591633
    0.455974877    0.221878290    0.370058954
    0.455974877    0.055211663    0.574325264
    0.455974877    0.888544917    0.778591633
    0.789308190    0.221878290    0.370058954
    0.789308190    0.055211663    0.574325264
    0.789308190    0.888544917    0.778591633
    0.122641563    0.221878290    0.370058954
    0.122641563    0.055211663    0.574325264
    0.122641563    0.888544917    0.778591633
    0.455974877    0.555211663    0.370058954
    0.455974877    0.388545036    0.574325264
    0.455974877    0.221878290    0.778591633
    0.789308190    0.555211663    0.370058954
    0.789308190    0.388545036    0.574325264
    0.789308190    0.221878290    0.778591633
    0.122641563    0.555211663    0.370058954
    0.122641563    0.388545036    0.574325264
    0.122641563    0.221878290    0.778591633
    0.539308190    0.971878350    0.472192138
    0.539308190    0.805211663    0.676458359
    0.539308190    0.638545036    0.880724788
    0.872641563    0.971878350    0.472192138
    0.872641563    0.805211663    0.676458359
    0.872641563    0.638545036    0.880724788
    0.205974817    0.971878350    0.472192138
    0.205974817    0.805211663    0.676458359
    0.205974817    0.638545036    0.880724788
    0.539308190    0.305211782    0.472192138
    0.539308190    0.138545036    0.676458359
    0.539308190    0.971878350    0.880724788
    0.872641563    0.305211782    0.472192138
    0.872641563    0.138545036    0.676458359
    0.872641563    0.971878350    0.880724788
    0.205974817    0.305211782    0.472192138
    0.205974817    0.138545036    0.676458359
    0.205974817    0.971878350    0.880724788
    0.539308190    0.638545036    0.472192138
    0.539308190    0.471878290    0.676458359
    0.539308190    0.305211663    0.880724788
    0.872641563    0.638545036    0.472192138
    0.872641563    0.471878290    0.676458359
    0.872641563    0.305211663    0.880724788
    0.205974817    0.638545036    0.472192138
    0.205974817    0.471878290    0.676458359
    0.205974817    0.305211663    0.880724788
