Automatic KPOINTS generated
0
Gamma
2 2 1
0 0 0
