Ge+Si                                   
   1.00000000000000     
     5.6578001980000003    0.0000000000000000    0.0000000000000000
     0.0000000000000000   16.9734001160000005    0.0000000000000000
     0.0000000000000000    0.0000000000000000   11.3658399580000005
   Ge   Si
    36    24
Direct
  0.0000000000000000  0.9943054909999987  0.0000000000000000
  0.0000000000000000  0.8276388649999973  0.2488949150000010
  0.0000000000000000  0.6609721179999966  0.4977898599999975
  0.0000000000000000  0.3276388350000019  0.0000000000000000
  0.0000000000000000  0.1609721479999990  0.2488949150000010
  0.0000000000000000  0.9943054319999973  0.4977898599999975
  0.0000000000000000  0.6609721179999966  0.0000000000000000
  0.0000000000000000  0.4943054619999998  0.2488949150000010
  0.0000000000000000  0.3276387749999969  0.4977898599999975
  0.2499999850000023  0.0776388419999989  0.1244474570000023
  0.2499999850000023  0.9109721179999966  0.3733424249999970
  0.2499999850000023  0.7443054909999987  0.6222373840000017
  0.2499999850000023  0.4109721179999966  0.1244474570000023
  0.2499999850000023  0.2443054319999973  0.3733424249999970
  0.2499999850000023  0.0776387229999997  0.6222373840000017
  0.2499999850000023  0.7443054909999987  0.1244474570000023
  0.2499999850000023  0.5776387450000016  0.3733424249999970
  0.2499999850000023  0.4109720889999977  0.6222373840000017
  0.4999999699999975  0.1609721629999967  0.0000000000000000
  0.4999999699999975  0.9943054909999987  0.2488949150000010
  0.4999999699999975  0.8276388049999994  0.4977898599999975
  0.4999999699999975  0.4943054619999998  0.0000000000000000
  0.4999999699999975  0.3276387749999969  0.2488949150000010
  0.4999999699999975  0.1609720889999977  0.4977898599999975
  0.4999999699999975  0.8276388649999973  0.0000000000000000
  0.4999999699999975  0.6609721179999966  0.2488949150000010
  0.4999999699999975  0.4943054619999998  0.4977898599999975
  0.7500000000000000  0.2443054769999975  0.1244474570000023
  0.7500000000000000  0.0776387900000017  0.3733424249999970
  0.7500000000000000  0.9109721179999966  0.6222373840000017
  0.7500000000000000  0.5776388649999973  0.1244474570000023
  0.7500000000000000  0.4109721780000015  0.3733424249999970
  0.7500000000000000  0.2443054619999998  0.6222373840000017
  0.7500000000000000  0.9109721780000015  0.1244474570000023
  0.7500000000000000  0.7443054909999987  0.3733424249999970
  0.7500000000000000  0.5776387450000016  0.6222373840000017
  0.1088625419999971  0.0762038009999984  0.6222374439999996
  0.6088625189999988  0.4262038469999965  0.6977899669999985
  0.1088623999999996  0.7762038709999999  0.7733424310000032
  0.6088625189999988  0.1262040140000025  0.8488948350000030
  0.1088626379999980  0.4762041569999980  0.9244474170000032
  0.6088626379999980  0.8262043000000006  0.9999998810000008
  0.3588625189999988  0.8262038829999980  0.6222373840000017
  0.8588624599999974  0.1762039660000028  0.6977897880000015
  0.3588625189999988  0.5262038709999999  0.7733423709999983
  0.8588623999999996  0.8762040140000025  0.8488948350000030
  0.3588626379999980  0.2262041569999980  0.9244472979999969
  0.8588626379999980  0.5762043000000006  0.9999998810000008
  0.1088625419999971  0.5762038230000002  0.6222373840000017
  0.6088625189999988  0.9262038469999965  0.6977899669999985
  0.1088623999999996  0.2762038709999999  0.7733424310000032
  0.6088625189999988  0.6262040140000025  0.8488948350000030
  0.1088626379999980  0.9762040379999988  0.9244474170000032
  0.6088626379999980  0.3262043000000006  0.9999998810000008
  0.3588625189999988  0.3262037929999977  0.6222374439999996
  0.8588624599999974  0.6762039070000014  0.6977899669999985
  0.3588625189999988  0.0262038709999999  0.7733424310000032
  0.8588623999999996  0.3762040140000025  0.8488948350000030
  0.3588626379999980  0.7262040379999988  0.9244474170000032
  0.8588626379999980  0.0762040620000022  0.0000000000000000
 
  0.00000000E+00  0.00000000E+00  0.00000000E+00
  0.00000000E+00  0.00000000E+00  0.00000000E+00
  0.00000000E+00  0.00000000E+00  0.00000000E+00
  0.00000000E+00  0.00000000E+00  0.00000000E+00
  0.00000000E+00  0.00000000E+00  0.00000000E+00
  0.00000000E+00  0.00000000E+00  0.00000000E+00
  0.00000000E+00  0.00000000E+00  0.00000000E+00
  0.00000000E+00  0.00000000E+00  0.00000000E+00
  0.00000000E+00  0.00000000E+00  0.00000000E+00
  0.00000000E+00  0.00000000E+00  0.00000000E+00
  0.00000000E+00  0.00000000E+00  0.00000000E+00
  0.00000000E+00  0.00000000E+00  0.00000000E+00
  0.00000000E+00  0.00000000E+00  0.00000000E+00
  0.00000000E+00  0.00000000E+00  0.00000000E+00
  0.00000000E+00  0.00000000E+00  0.00000000E+00
  0.00000000E+00  0.00000000E+00  0.00000000E+00
  0.00000000E+00  0.00000000E+00  0.00000000E+00
  0.00000000E+00  0.00000000E+00  0.00000000E+00
  0.00000000E+00  0.00000000E+00  0.00000000E+00
  0.00000000E+00  0.00000000E+00  0.00000000E+00
  0.00000000E+00  0.00000000E+00  0.00000000E+00
  0.00000000E+00  0.00000000E+00  0.00000000E+00
  0.00000000E+00  0.00000000E+00  0.00000000E+00
  0.00000000E+00  0.00000000E+00  0.00000000E+00
  0.00000000E+00  0.00000000E+00  0.00000000E+00
  0.00000000E+00  0.00000000E+00  0.00000000E+00
  0.00000000E+00  0.00000000E+00  0.00000000E+00
  0.00000000E+00  0.00000000E+00  0.00000000E+00
  0.00000000E+00  0.00000000E+00  0.00000000E+00
  0.00000000E+00  0.00000000E+00  0.00000000E+00
  0.00000000E+00  0.00000000E+00  0.00000000E+00
  0.00000000E+00  0.00000000E+00  0.00000000E+00
  0.00000000E+00  0.00000000E+00  0.00000000E+00
  0.00000000E+00  0.00000000E+00  0.00000000E+00
  0.00000000E+00  0.00000000E+00  0.00000000E+00
  0.00000000E+00  0.00000000E+00  0.00000000E+00
  0.00000000E+00  0.00000000E+00  0.00000000E+00
  0.00000000E+00  0.00000000E+00  0.00000000E+00
  0.00000000E+00  0.00000000E+00  0.00000000E+00
  0.00000000E+00  0.00000000E+00  0.00000000E+00
  0.00000000E+00  0.00000000E+00  0.00000000E+00
  0.00000000E+00  0.00000000E+00  0.00000000E+00
  0.00000000E+00  0.00000000E+00  0.00000000E+00
  0.00000000E+00  0.00000000E+00  0.00000000E+00
  0.00000000E+00  0.00000000E+00  0.00000000E+00
  0.00000000E+00  0.00000000E+00  0.00000000E+00
  0.00000000E+00  0.00000000E+00  0.00000000E+00
  0.00000000E+00  0.00000000E+00  0.00000000E+00
  0.00000000E+00  0.00000000E+00  0.00000000E+00
  0.00000000E+00  0.00000000E+00  0.00000000E+00
  0.00000000E+00  0.00000000E+00  0.00000000E+00
  0.00000000E+00  0.00000000E+00  0.00000000E+00
  0.00000000E+00  0.00000000E+00  0.00000000E+00
  0.00000000E+00  0.00000000E+00  0.00000000E+00
  0.00000000E+00  0.00000000E+00  0.00000000E+00
  0.00000000E+00  0.00000000E+00  0.00000000E+00
  0.00000000E+00  0.00000000E+00  0.00000000E+00
  0.00000000E+00  0.00000000E+00  0.00000000E+00
  0.00000000E+00  0.00000000E+00  0.00000000E+00
  0.00000000E+00  0.00000000E+00  0.00000000E+00
