Automatic KPOINTS generated
0
Gamma
6 2 3
0 0 0
