Ge+Si
    1.000000000
    8.001338005    0.000000000    0.000000000
    0.000000000   16.002676010    0.000000000
    0.000000000    0.000000000   16.672992706
Ge  Si 
48     72
Direct
    0.991458297    0.995729148    0.000000000
    0.741458297    0.870729148    0.169669583
    0.491458297    0.745729148    0.339339197
    0.991458237    0.495729089    0.000000000
    0.741458297    0.370729119    0.169669583
    0.478517294    0.652344942    0.424174041
    0.491458237    0.245729119    0.000000000
    0.241458267    0.120729133    0.169669583
    0.741458297    0.495729089    0.424174041
    0.741458297    0.120729133    0.169669583
    0.241458282    0.620729089    0.169669583
    0.991458237    0.495729089    0.339339197
    0.978517056    0.735678077    1.000000119
    0.991458297    0.870729148    0.254504412
    0.741458297    0.745729148    0.424174041
    0.241458237    0.495729089    0.084834792
    0.991458237    0.370729089    0.254504412
    0.991458297    0.620729089    0.254504412
    0.741458297    0.245729148    0.084834792
    0.491458297    0.120729148    0.254504412
    0.241458282    0.995729148    0.424174041
    0.741458297    0.745729089    0.084834792
    0.491458267    0.620729089    0.254504412
    0.241458267    0.495729119    0.424174041
    0.991458297    0.245729133    0.000000000
    0.491458237    0.745729089    0.000000000
    0.491458297    0.995729148    0.339339197
    0.741458237    0.495729089    0.084834792
    0.991458237    0.745729148    0.000000000
    0.991458297    0.745729148    0.339339197
    0.241458267    0.870729148    0.169669583
    0.728517175    0.152344704    1.000000119
    0.228517294    0.235678196    0.424174041
    0.491458267    0.495729119    0.000000000
    0.241458312    0.370729148    0.169669583
    0.991458297    0.245729148    0.339339197
    0.241458282    0.245729119    0.084834792
    0.978517294    0.652344942    0.424174041
    0.741458297    0.995729148    0.424174041
    0.741458237    0.995729148    0.084834792
    0.491458267    0.870729148    0.254504412
    0.241458252    0.745729089    0.424174041
    0.228517115    0.152344704    1.000000119
    0.741458237    0.245729089    0.424174041
    0.991458297    0.995729148    0.339339197
    0.491458267    0.995729148    0.000000000
    0.241458252    0.245729089    0.424174041
    0.491458267    0.370729119    0.254504412
    0.978517294    0.985678196    0.424174041
    0.728517234    0.819011450    0.539339244
    0.478517175    0.652344763    0.654504478
    0.228517234    0.485678136    0.769669712
    0.978517175    0.319011390    0.884834886
    0.741458297    0.620729148    0.169669583
    0.978517294    0.319011539    0.424174041
    0.728517234    0.152344853    0.539339244
    0.478517175    0.985678136    0.654504478
    0.228517234    0.819011509    0.769669712
    0.978517175    0.652344763    0.884834886
    0.728517175    0.485678077    1.000000119
    0.991458297    0.120729133    0.254504412
    0.728517234    0.485678196    0.539339244
    0.478517175    0.319011509    0.654504478
    0.228517234    0.152344868    0.769669712
    0.978517175    0.985678136    0.884834886
    0.728517175    0.819011390    1.000000119
    0.478517294    0.985678196    0.424174041
    0.228517249    0.819011450    0.539339244
    0.978517234    0.652344763    0.654504478
    0.728517294    0.485678136    0.769669592
    0.478517175    0.319011390    0.884834886
    0.241458282    0.745729089    0.084834792
    0.478517294    0.319011539    0.424174041
    0.228517249    0.152344853    0.539339244
    0.978517234    0.985678136    0.654504478
    0.728517294    0.819011509    0.769669592
    0.478517175    0.652344763    0.884834886
    0.228517115    0.485678077    1.000000119
    0.491458297    0.245729119    0.339339197
    0.228517249    0.485678196    0.539339244
    0.978517234    0.319011509    0.654504478
    0.728517294    0.152344868    0.769669592
    0.478517175    0.985678136    0.884834886
    0.228517115    0.819011390    1.000000119
    0.728517354    0.235678196    0.424174041
    0.478517294    0.069011487    0.539339244
    0.228517264    0.902344763    0.654504478
    0.978517294    0.735678136    0.769669712
    0.728517234    0.569011450    0.884834886
    0.478517234    0.402344644    1.000000119
    0.728517354    0.569011629    0.424174041
    0.478517294    0.402344882    0.539339244
    0.228517264    0.235678196    0.654504478
    0.978517294    0.069011539    0.769669712
    0.728517234    0.902344823    0.884834886
    0.478517234    0.735678077    1.000000119
    0.728517354    0.902344942    0.424174041
    0.478517294    0.735678196    0.539339244
    0.228517264    0.569011509    0.654504478
    0.978517294    0.402344853    0.769669712
    0.728517234    0.235678121    0.884834886
    0.478517234    0.069011383    1.000000119
    0.491458297    0.495729148    0.339339197
    0.978517234    0.069011487    0.539339244
    0.728517175    0.902344763    0.654504478
    0.478517294    0.735678136    0.769669592
    0.228517175    0.569011450    0.884834886
    0.978517056    0.402344644    1.000000119
    0.228517294    0.569011629    0.424174041
    0.978517234    0.402344882    0.539339244
    0.728517175    0.235678196    0.654504478
    0.478517294    0.069011539    0.769669592
    0.228517175    0.902344823    0.884834886
    0.241458282    0.995729148    0.084834792
    0.228517294    0.902344942    0.424174041
    0.978517234    0.735678196    0.539339244
    0.728517175    0.569011509    0.654504478
    0.478517294    0.402344853    0.769669592
    0.228517175    0.235678121    0.884834886
    0.978517056    0.069011383    1.000000119
