fcc Si+fcc Ge                           
   1.00000000000000     
    12.2536525170000008    0.0000000000000000    0.0000000000000000
   -14.7043830199999999    9.1697938909999994    0.0000000000000000
     0.0000000000000000    0.0000000000000000    8.4432255870000006
   Si   Ge
    24    24
Direct
  0.0000000000000000  0.0000000000000000  0.0000000000000000
  0.4285714290000016  0.6071428569999995  0.0867317590000027
  0.8571428569999995  0.2142857139999990  0.1734635170000018
  0.2857142860000010  0.8214285709999984  0.2601952759999975
  0.7142857139999990  0.4285714290000016  0.3469270339999966
  0.1428571430000005  0.0357142860000010  0.4336587929999993
  0.0000000000000000  0.5000000000000000  0.0000000000000000
  0.4285714290000016  0.1071428569999995  0.0867317590000027
  0.8571428569999995  0.7142857139999990  0.1734635170000018
  0.2857142860000010  0.3214285709999984  0.2601952759999975
  0.7142857139999990  0.9285714290000016  0.3469270339999966
  0.1428571430000005  0.5357142860000010  0.4336587929999993
  0.2500000000000000  0.7500000000000000  0.0000000000000000
  0.6785714290000016  0.3571428569999995  0.0867317590000027
  0.1071428569999995  0.9642857139999990  0.1734635170000018
  0.5357142860000010  0.5714285709999984  0.2601952759999975
  0.9642857139999990  0.1785714290000016  0.3469270339999966
  0.3928571430000005  0.7857142860000010  0.4336587929999993
  0.2500000000000000  0.2500000000000000  0.0000000000000000
  0.6785714290000016  0.8571428569999995  0.0867317590000027
  0.1071428569999995  0.4642857139999990  0.1734635170000018
  0.5357142860000010  0.0714285709999984  0.2601952759999975
  0.9642857139999990  0.6785714290000016  0.3469270339999966
  0.3928571430000005  0.2857142860000010  0.4336587929999993
  0.8688524590000029  0.2790697670000029  0.4928778669999971
  0.4402810300000013  0.6719269100000034  0.5824584779999995
  0.0117096020000034  0.0647840529999968  0.6720390899999984
  0.5831381730000018  0.4576411959999973  0.7616197019999973
  0.1545667449999968  0.8504983389999978  0.8512003140000033
  0.7259953160000023  0.2433554819999983  0.9407809260000022
  0.8688524590000029  0.7790697670000029  0.4928778669999971
  0.4402810300000013  0.1719269100000034  0.5824584779999995
  0.0117096020000034  0.5647840529999968  0.6720390899999984
  0.5831381730000018  0.9576411959999973  0.7616197019999973
  0.1545667449999968  0.3504983389999978  0.8512003140000033
  0.7259953160000023  0.7433554819999983  0.9407809260000022
  0.6188524590000029  0.5290697670000029  0.4928778669999971
  0.1902810300000013  0.9219269100000034  0.5824584779999995
  0.7617096020000034  0.3147840529999968  0.6720390899999984
  0.3331381730000018  0.7076411959999973  0.7616197019999973
  0.9045667449999968  0.1004983389999978  0.8512003140000033
  0.4759953160000023  0.4933554819999983  0.9407809260000022
  0.6188524590000029  0.0290697670000029  0.4928778669999971
  0.1902810300000013  0.4219269100000034  0.5824584779999995
  0.7617096020000034  0.8147840529999968  0.6720390899999984
  0.3331381730000018  0.2076411959999973  0.7616197019999973
  0.9045667449999968  0.6004983389999978  0.8512003140000033
  0.4759953160000023  0.9933554819999983  0.9407809260000022
 
  0.00000000E+00  0.00000000E+00  0.00000000E+00
  0.00000000E+00  0.00000000E+00  0.00000000E+00
  0.00000000E+00  0.00000000E+00  0.00000000E+00
  0.00000000E+00  0.00000000E+00  0.00000000E+00
  0.00000000E+00  0.00000000E+00  0.00000000E+00
  0.00000000E+00  0.00000000E+00  0.00000000E+00
  0.00000000E+00  0.00000000E+00  0.00000000E+00
  0.00000000E+00  0.00000000E+00  0.00000000E+00
  0.00000000E+00  0.00000000E+00  0.00000000E+00
  0.00000000E+00  0.00000000E+00  0.00000000E+00
  0.00000000E+00  0.00000000E+00  0.00000000E+00
  0.00000000E+00  0.00000000E+00  0.00000000E+00
  0.00000000E+00  0.00000000E+00  0.00000000E+00
  0.00000000E+00  0.00000000E+00  0.00000000E+00
  0.00000000E+00  0.00000000E+00  0.00000000E+00
  0.00000000E+00  0.00000000E+00  0.00000000E+00
  0.00000000E+00  0.00000000E+00  0.00000000E+00
  0.00000000E+00  0.00000000E+00  0.00000000E+00
  0.00000000E+00  0.00000000E+00  0.00000000E+00
  0.00000000E+00  0.00000000E+00  0.00000000E+00
  0.00000000E+00  0.00000000E+00  0.00000000E+00
  0.00000000E+00  0.00000000E+00  0.00000000E+00
  0.00000000E+00  0.00000000E+00  0.00000000E+00
  0.00000000E+00  0.00000000E+00  0.00000000E+00
  0.00000000E+00  0.00000000E+00  0.00000000E+00
  0.00000000E+00  0.00000000E+00  0.00000000E+00
  0.00000000E+00  0.00000000E+00  0.00000000E+00
  0.00000000E+00  0.00000000E+00  0.00000000E+00
  0.00000000E+00  0.00000000E+00  0.00000000E+00
  0.00000000E+00  0.00000000E+00  0.00000000E+00
  0.00000000E+00  0.00000000E+00  0.00000000E+00
  0.00000000E+00  0.00000000E+00  0.00000000E+00
  0.00000000E+00  0.00000000E+00  0.00000000E+00
  0.00000000E+00  0.00000000E+00  0.00000000E+00
  0.00000000E+00  0.00000000E+00  0.00000000E+00
  0.00000000E+00  0.00000000E+00  0.00000000E+00
  0.00000000E+00  0.00000000E+00  0.00000000E+00
  0.00000000E+00  0.00000000E+00  0.00000000E+00
  0.00000000E+00  0.00000000E+00  0.00000000E+00
  0.00000000E+00  0.00000000E+00  0.00000000E+00
  0.00000000E+00  0.00000000E+00  0.00000000E+00
  0.00000000E+00  0.00000000E+00  0.00000000E+00
  0.00000000E+00  0.00000000E+00  0.00000000E+00
  0.00000000E+00  0.00000000E+00  0.00000000E+00
  0.00000000E+00  0.00000000E+00  0.00000000E+00
  0.00000000E+00  0.00000000E+00  0.00000000E+00
  0.00000000E+00  0.00000000E+00  0.00000000E+00
  0.00000000E+00  0.00000000E+00  0.00000000E+00
