fcc Si+fcc Ge
    1.000000000
   12.253652517    0.000000000    0.000000000
  -14.704383020    9.169793891    0.000000000
    0.000000000    0.000000000    8.443225587
Si    Ge   
24     24
Direct
    0.000000000    0.000000000    0.000000000
    0.428571429    0.607142857    0.086731759
    0.857142857    0.214285714    0.173463517
    0.285714286    0.821428571    0.260195276
    0.714285714    0.428571429    0.346927034
    0.142857143    0.035714286    0.433658793
    0.000000000    0.500000000    0.000000000
    0.428571429    0.107142857    0.086731759
    0.857142857    0.714285714    0.173463517
    0.285714286    0.321428571    0.260195276
    0.714285714    0.928571429    0.346927034
    0.142857143    0.535714286    0.433658793
    0.250000000    0.750000000    0.000000000
    0.678571429    0.357142857    0.086731759
    0.107142857    0.964285714    0.173463517
    0.535714286    0.571428571    0.260195276
    0.964285714    0.178571429    0.346927034
    0.392857143    0.785714286    0.433658793
    0.250000000    0.250000000    0.000000000
    0.678571429    0.857142857    0.086731759
    0.107142857    0.464285714    0.173463517
    0.535714286    0.071428571    0.260195276
    0.964285714    0.678571429    0.346927034
    0.392857143    0.285714286    0.433658793
    0.868852459    0.279069767    0.492877867
    0.440281030    0.671926910    0.582458478
    0.011709602    0.064784053    0.672039090
    0.583138173    0.457641196    0.761619702
    0.154566745    0.850498339    0.851200314
    0.725995316    0.243355482    0.940780926
    0.868852459    0.779069767    0.492877867
    0.440281030    0.171926910    0.582458478
    0.011709602    0.564784053    0.672039090
    0.583138173    0.957641196    0.761619702
    0.154566745    0.350498339    0.851200314
    0.725995316    0.743355482    0.940780926
    0.618852459    0.529069767    0.492877867
    0.190281030    0.921926910    0.582458478
    0.761709602    0.314784053    0.672039090
    0.333138173    0.707641196    0.761619702
    0.904566745    0.100498339    0.851200314
    0.475995316    0.493355482    0.940780926
    0.618852459    0.029069767    0.492877867
    0.190281030    0.421926910    0.582458478
    0.761709602    0.814784053    0.672039090
    0.333138173    0.207641196    0.761619702
    0.904566745    0.600498339    0.851200314
    0.475995316    0.993355482    0.940780926
