Ge
 1.0000000000000000
     8.0013374931944963    0.0000000000000000    0.0000000000000000
     4.0006687465972490    6.9293615333593310    0.0000000000000000
     0.0000000000000000    0.0000000000000000   62.0490933828921811
 Ge 
  56
Direct
  0.0000000000000000  0.0000000000000000  0.3223254186259277
  0.9999999999999998  0.0000000000000001  0.3618086589312771
  0.0000000000000000  0.5000000000000000  0.3223254186259277
  0.0000000000000000  0.5000000000000000  0.3618086589312771
  0.5000000000000000  0.0000000000000000  0.3223254186259277
  0.5000000000000000  0.0000000000000001  0.3618086589312771
  0.4999999999999999  0.5000000000000001  0.3223254186259277
  0.5000000000000000  0.5000000000000000  0.3618086589312771
  0.6666666666666667  0.6666666666666667  0.3749697390330602
  0.6666666666666663  0.6666666666666667  0.4144529793384096
  0.6666666666666667  0.1666666666666667  0.3749697390330602
  0.6666666666666667  0.1666666666666667  0.4144529793384096
  0.1666666666666668  0.6666666666666667  0.3749697390330602
  0.1666666666666668  0.6666666666666670  0.4144529793384096
  0.1666666666666667  0.1666666666666669  0.3749697390330602
  0.1666666666666667  0.1666666666666669  0.4144529793384096
  0.3333333333333335  0.3333333333333334  0.4276140594401928
  0.3333333333333335  0.3333333333333334  0.4670972997455421
  0.3333333333333335  0.8333333333333334  0.4276140594401928
  0.3333333333333334  0.8333333333333335  0.4670972997455421
  0.8333333333333337  0.3333333333333334  0.4276140594401928
  0.8333333333333335  0.3333333333333335  0.4670972997455421
  0.8333333333333337  0.8333333333333334  0.4276140594401928
  0.8333333333333334  0.8333333333333335  0.4670972997455421
  0.0000000000000000  0.0000000000000002  0.4802583798473253
  0.0000000000000000  0.0000000000000002  0.5197416201526748
  0.0000000000000000  0.5000000000000002  0.4802583798473253
  0.0000000000000000  0.5000000000000002  0.5197416201526748
  0.4999999999999996  0.0000000000000003  0.4802583798473253
  0.5000000000000000  0.0000000000000002  0.5197416201526748
  0.5000000000000001  0.5000000000000003  0.4802583798473253
  0.4999999999999996  0.5000000000000002  0.5197416201526748
  0.6666666666666670  0.6666666666666667  0.5329027002544579
  0.6666666666666665  0.6666666666666670  0.5723859405598073
  0.6666666666666670  0.1666666666666667  0.5329027002544579
  0.6666666666666665  0.1666666666666670  0.5723859405598073
  0.1666666666666670  0.6666666666666667  0.5329027002544579
  0.1666666666666666  0.6666666666666670  0.5723859405598073
  0.1666666666666670  0.1666666666666669  0.5329027002544579
  0.1666666666666661  0.1666666666666670  0.5723859405598073
  0.3333333333333335  0.3333333333333335  0.5855470206615905
  0.3333333333333339  0.3333333333333337  0.6250302609669398
  0.3333333333333334  0.8333333333333335  0.5855470206615905
  0.3333333333333338  0.8333333333333338  0.6250302609669398
  0.8333333333333335  0.3333333333333335  0.5855470206615905
  0.8333333333333336  0.3333333333333337  0.6250302609669398
  0.8333333333333334  0.8333333333333335  0.5855470206615904
  0.8333333333333330  0.8333333333333338  0.6250302609669398
  0.0000000000000000  0.0000000000000004  0.6381913410687229
  0.9999999999999991  0.0000000000000007  0.6776745813740723
  0.0000000000000000  0.5000000000000004  0.6381913410687229
  0.9999999999999993  0.5000000000000007  0.6776745813740723
  0.4999999999999991  0.0000000000000007  0.6381913410687229
  0.5000000000000000  0.0000000000000007  0.6776745813740723
  0.4999999999999991  0.5000000000000007  0.6381913410687228
  0.4999999999999991  0.5000000000000007  0.6776745813740723
