Ge+Sn
    1.000000000
   19.599195480    0.000000000    0.000000000
   -6.533064842   18.478298187    0.000000000
    0.000000000    0.000000000   25.604219437
Ge  Sn 
192     144
Direct
    0.984533846    0.494844645    0.000000015
    0.797033846    0.432344615    0.078125201
    0.609533787    0.369844615    0.156250432
    0.422033846    0.307344615    0.234375596
    0.234533906    0.244844630    0.312500775
    0.047033846    0.182344645    0.390625983
    0.234533846    0.744844615    0.000000015
    0.047033850    0.682344615    0.078125201
    0.859533787    0.619844615    0.156250432
    0.672033846    0.557344615    0.234375596
    0.484533906    0.494844615    0.312500775
    0.297033846    0.432344645    0.390625983
    0.984533846    0.994844615    0.000000019
    0.797033846    0.932344615    0.078125209
    0.609533787    0.869844615    0.156250417
    0.422033846    0.807344615    0.234375596
    0.234533906    0.744844675    0.312500745
    0.047033846    0.682344615    0.390625983
    0.234533861    0.244844630    0.000000019
    0.047033854    0.182344630    0.078125209
    0.859533787    0.119844601    0.156250417
    0.672033906    0.057344597    0.234375596
    0.484533906    0.994844615    0.312500745
    0.297033846    0.932344615    0.390625983
    0.484533846    0.494844615    0.000000019
    0.297033846    0.432344615    0.078125209
    0.109533817    0.369844615    0.156250417
    0.922033846    0.307344615    0.234375596
    0.734533906    0.244844615    0.312500745
    0.547033846    0.182344615    0.390625983
    0.734533846    0.744844615    0.000000019
    0.547033846    0.682344615    0.078125209
    0.359533787    0.619844615    0.156250417
    0.172033831    0.557344615    0.234375596
    0.984533846    0.494844645    0.312500775
    0.797033846    0.432344615    0.390625983
    0.484533876    0.994844615    0.000000009
    0.297033876    0.932344615    0.078125201
    0.109533831    0.869844615    0.156250417
    0.922033846    0.807344615    0.234375596
    0.734533906    0.744844675    0.312500775
    0.547033846    0.682344615    0.390625954
    0.734533846    0.244844615    0.000000008
    0.547033846    0.182344645    0.078125201
    0.359533817    0.119844623    0.156250417
    0.172033846    0.057344630    0.234375596
    0.984533846    0.994844615    0.312500775
    0.797033846    0.932344615    0.390625983
    0.109533846    0.869844615    0.000000003
    0.922033846    0.807344615    0.078125201
    0.734533787    0.744844615    0.156250402
    0.547033846    0.682344615    0.234375566
    0.359533906    0.619844615    0.312500745
    0.172033846    0.557344615    0.390625983
    0.109533854    0.369844645    0.000000020
    0.922033846    0.307344615    0.078125216
    0.734533787    0.244844615    0.156250417
    0.547033846    0.182344615    0.234375596
    0.359533906    0.119844623    0.312500775
    0.172033846    0.057344612    0.390625954
    0.359533846    0.619844615    0.000000020
    0.172033831    0.557344615    0.078125216
    0.984533787    0.494844645    0.156250417
    0.797033846    0.432344615    0.234375596
    0.609533906    0.369844615    0.312500745
    0.422033846    0.307344615    0.390625954
    0.609533846    0.869844615    0.000000021
    0.422033846    0.807344615    0.078125224
    0.234533802    0.744844556    0.156250432
    0.047033843    0.682344615    0.234375596
    0.859533906    0.619844615    0.312500775
    0.672033846    0.557344556    0.390625983
    0.359533846    0.119844638    0.000000017
    0.172033861    0.057344627    0.078125209
    0.984533787    0.994844615    0.156250417
    0.797033846    0.932344615    0.234375596
    0.609533906    0.869844675    0.312500775
    0.422033846    0.807344615    0.390625954
    0.609533846    0.369844615    0.000000017
    0.422033846    0.307344615    0.078125209
    0.234533846    0.244844586    0.156250417
    0.047033876    0.182344601    0.234375596
    0.859533906    0.119844601    0.312500745
    0.672033906    0.057344589    0.390625983
    0.859533846    0.619844615    0.000000017
    0.672033846    0.557344615    0.078125209
    0.484533846    0.494844586    0.156250417
    0.297033876    0.432344586    0.234375596
    0.109533899    0.369844586    0.312500745
    0.922033846    0.307344586    0.390625983
    0.859533846    0.119844563    0.000000022
    0.672033846    0.057344586    0.078125224
    0.484533846    0.994844556    0.156250417
    0.297033906    0.932344556    0.234375596
    0.109533928    0.869844556    0.312500805
    0.922033906    0.807344556    0.390625983
    0.109533869    0.744844675    0.000000009
    0.922033846    0.682344615    0.078125209
    0.734533846    0.619844615    0.156250417
    0.547033906    0.557344615    0.234375596
    0.359533906    0.494844645    0.312500745
    0.172033846    0.432344645    0.390625983
    0.109533839    0.244844615    0.000000019
    0.922033846    0.182344615    0.078125201
    0.734533787    0.119844608    0.156250417
    0.547033787    0.057344612    0.234375596
    0.359533846    0.994844615    0.312500775
    0.172033787    0.932344615    0.390625954
    0.359533846    0.494844615    0.000000019
    0.172033802    0.432344586    0.078125216
    0.984533787    0.369844586    0.156250417
    0.797033787    0.307344586    0.234375596
    0.609533846    0.244844601    0.312500775
    0.422033846    0.182344586    0.390625954
    0.609533846    0.744844615    0.000000020
    0.422033846    0.682344615    0.078125209
    0.234533831    0.619844615    0.156250417
    0.047033835    0.557344615    0.234375596
    0.859533906    0.494844615    0.312500775
    0.672033846    0.432344615    0.390625983
    0.359533846    0.994844615    0.000000016
    0.172033846    0.932344615    0.078125209
    0.984533846    0.869844615    0.156250432
    0.797033846    0.807344615    0.234375596
    0.609533906    0.744844615    0.312500775
    0.422033787    0.682344556    0.390625983
    0.609533846    0.244844645    0.000000016
    0.422033846    0.182344615    0.078125209
    0.234533831    0.119844623    0.156250432
    0.047033869    0.057344630    0.234375596
    0.859533906    0.994844615    0.312500775
    0.672033906    0.932344675    0.390625983
    0.859533846    0.494844615    0.000000017
    0.672033846    0.432344615    0.078125209
    0.484533846    0.369844586    0.156250432
    0.297033876    0.307344586    0.234375596
    0.109533891    0.244844586    0.312500775
    0.922033846    0.182344586    0.390625983
    0.859533906    0.994844615    0.000000000
    0.672033846    0.932344615    0.078125201
    0.484533846    0.869844615    0.156250387
    0.297033876    0.807344615    0.234375566
    0.109533943    0.744844556    0.312500775
    0.922033906    0.682344615    0.390625954
    0.984533846    0.869844675    0.000000024
    0.797033787    0.807344615    0.078125224
    0.609533787    0.744844615    0.156250417
    0.422033787    0.682344675    0.234375626
    0.234533906    0.619844675    0.312500805
    0.047033846    0.557344615    0.390625983
    0.984533846    0.369844615    0.000000007
    0.797033846    0.307344615    0.078125209
    0.609533787    0.244844601    0.156250417
    0.422033846    0.182344586    0.234375596
    0.234533846    0.119844586    0.312500745
    0.047033846    0.057344574    0.390625954
    0.234533876    0.619844615    0.000000007
    0.047033843    0.557344615    0.078125209
    0.859533846    0.494844615    0.156250417
    0.672033906    0.432344615    0.234375596
    0.484533906    0.369844615    0.312500745
    0.297033906    0.307344615    0.390625954
    0.484533846    0.869844615    0.000000007
    0.297033846    0.807344615    0.078125209
    0.109533831    0.744844615    0.156250417
    0.922033846    0.682344615    0.234375596
    0.734533906    0.619844615    0.312500745
    0.547033906    0.557344615    0.390625954
    0.234533846    0.119844615    0.000000017
    0.047033846    0.057344612    0.078125209
    0.859533787    0.994844615    0.156250402
    0.672033846    0.932344615    0.234375596
    0.484533846    0.869844615    0.312500775
    0.297033846    0.807344556    0.390625954
    0.484533876    0.369844645    0.000000017
    0.297033846    0.307344615    0.078125209
    0.109533839    0.244844630    0.156250402
    0.922033846    0.182344630    0.234375596
    0.734533906    0.119844630    0.312500775
    0.547033906    0.057344627    0.390625954
    0.734533846    0.619844615    0.000000017
    0.547033846    0.557344615    0.078125209
    0.359533817    0.494844645    0.156250417
    0.172033846    0.432344615    0.234375596
    0.984533846    0.369844615    0.312500745
    0.797033846    0.307344615    0.390625983
    0.734533846    0.119844615    0.000000014
    0.547033787    0.057344597    0.078125216
    0.359533787    0.994844556    0.156250417
    0.172033817    0.932344615    0.234375596
    0.984533846    0.869844615    0.312500775
    0.797033846    0.807344556    0.390625954
    0.252981067    0.374452710    0.471299171
    0.294647813    0.999452710    0.560904741
    0.336314589    0.624452591    0.650510252
    0.377981246    0.249452710    0.740115702
    0.419648021    0.874452591    0.829721272
    0.461314797    0.499452591    0.919326723
    0.586314380    0.374452710    0.471299171
    0.627981126    0.999452710    0.560904741
    0.669647872    0.624452591    0.650510252
    0.711314678    0.249452710    0.740115702
    0.752981424    0.874452591    0.829721272
    0.794648111    0.499452591    0.919326723
    0.919647694    0.374452710    0.471299171
    0.961314440    0.999452710    0.560904741
    0.002981186    0.624452591    0.650510252
    0.044648051    0.249452710    0.740115702
    0.086314686    0.874452591    0.829721272
    0.127981544    0.499452591    0.919326723
    0.086314380    0.874452710    0.471299171
    0.127981126    0.499452591    0.560904741
    0.169647887    0.124452591    0.650510252
    0.211314589    0.749452591    0.740115702
    0.252981335    0.374452591    0.829721272
    0.294648170    0.999452531    0.919326782
    0.419647723    0.874452710    0.471299171
    0.461314529    0.499452591    0.560904741
    0.502981246    0.124452591    0.650510252
    0.544647932    0.749452591    0.740115702
    0.586314678    0.374452591    0.829721272
    0.627981484    0.999452531    0.919326782
    0.752981007    0.874452710    0.471299171
    0.794647932    0.499452591    0.560904741
    0.836314499    0.124452591    0.650510252
    0.877981365    0.749452591    0.740115702
    0.919648051    0.374452591    0.829721272
    0.961314797    0.999452531    0.919326782
    0.336314380    0.624452710    0.471299201
    0.377981126    0.249452710    0.560904741
    0.419647872    0.874452591    0.650510252
    0.461314589    0.499452591    0.740115702
    0.502981365    0.124452591    0.829721272
    0.544648170    0.749452591    0.919326782
    0.669647813    0.624452710    0.471299201
    0.711314559    0.249452710    0.560904741
    0.752981246    0.874452591    0.650510252
    0.794647932    0.499452591    0.740115702
    0.836314738    0.124452591    0.829721272
    0.877981484    0.749452591    0.919326782
    0.002981067    0.624452710    0.471299201
    0.044647932    0.249452710    0.560904741
    0.086314447    0.874452591    0.650510252
    0.127981424    0.499452591    0.740115702
    0.169648051    0.124452591    0.829721272
    0.211314797    0.749452591    0.919326782
    0.169647723    0.124452710    0.471299171
    0.211314470    0.749452591    0.560904741
    0.252981216    0.374452591    0.650510252
    0.294647902    0.999452651    0.740115702
    0.336314678    0.624452591    0.829721272
    0.377981484    0.249452591    0.919326723
    0.502981126    0.124452710    0.471299171
    0.544647872    0.749452591    0.560904741
    0.586314619    0.374452591    0.650510252
    0.627981305    0.999452651    0.740115702
    0.669648051    0.624452591    0.829721272
    0.711314797    0.249452591    0.919326723
    0.836314380    0.124452710    0.471299171
    0.877981246    0.749452591    0.560904741
    0.919647872    0.374452591    0.650510252
    0.961314738    0.999452651    0.740115702
    0.002981424    0.624452591    0.829721272
    0.044648170    0.249452591    0.919326723
    0.211314380    0.499452710    0.471299171
    0.252981126    0.124452710    0.560904741
    0.294647872    0.749452591    0.650510252
    0.336314619    0.374452591    0.740115702
    0.377981335    0.999452472    0.829721272
    0.419648111    0.624452591    0.919326782
    0.544647753    0.499452710    0.471299171
    0.586314499    0.124452710    0.560904741
    0.627981246    0.749452591    0.650510252
    0.669647992    0.374452591    0.740115702
    0.711314738    0.999452472    0.829721272
    0.752981484    0.624452591    0.919326782
    0.877981126    0.499452710    0.471299171
    0.919647932    0.124452710    0.560904741
    0.961314738    0.749452591    0.650510252
    0.002981424    0.374452591    0.740115702
    0.044648170    0.999452472    0.829721272
    0.086314924    0.624452591    0.919326782
    0.377981097    0.999452710    0.471299171
    0.419647813    0.624452591    0.560904741
    0.461314529    0.249452591    0.650510252
    0.502981365    0.874452591    0.740115702
    0.544648111    0.499452591    0.829721272
    0.586314738    0.124452591    0.919326782
    0.711314440    0.999452710    0.471299171
    0.752981126    0.624452591    0.560904741
    0.794647932    0.249452591    0.650510252
    0.836314738    0.874452591    0.740115702
    0.877981424    0.499452591    0.829721272
    0.919648111    0.124452591    0.919326782
    0.044647813    0.999452710    0.471299171
    0.086314566    0.624452591    0.560904741
    0.127981305    0.249452591    0.650510252
    0.169648051    0.874452591    0.740115702
    0.211314797    0.499452591    0.829721272
    0.252981424    0.124452591    0.919326782
    0.294647723    0.749452829    0.471299201
    0.336314440    0.374452710    0.560904741
    0.377981216    0.999452651    0.650510252
    0.419647932    0.624452591    0.740115702
    0.461314648    0.249452591    0.829721272
    0.502981484    0.874452591    0.919326723
    0.627981067    0.749452829    0.471299201
    0.669647753    0.374452710    0.560904741
    0.711314499    0.999452651    0.650510252
    0.752981246    0.624452591    0.740115702
    0.794648051    0.249452591    0.829721272
    0.836314738    0.874452591    0.919326723
    0.961314380    0.749452829    0.471299201
    0.002981186    0.374452710    0.560904741
    0.044647813    0.999452651    0.650510252
    0.086314686    0.624452591    0.740115702
    0.127981424    0.249452591    0.829721272
    0.169648051    0.874452591    0.919326723
    0.127981037    0.249452710    0.471299171
    0.169647783    0.874452591    0.560904741
    0.211314529    0.499452591    0.650510252
    0.252981275    0.124452591    0.740115702
    0.294647992    0.749452591    0.829721212
    0.336314738    0.374452591    0.919326782
    0.461314410    0.249452710    0.471299171
    0.502981186    0.874452591    0.560904741
    0.544647932    0.499452591    0.650510252
    0.586314619    0.124452591    0.740115702
    0.627981305    0.749452591    0.829721212
    0.669648111    0.374452591    0.919326782
    0.794647753    0.249452710    0.471299171
    0.836314559    0.874452591    0.560904741
    0.877981246    0.499452591    0.650510252
    0.919647992    0.124452591    0.740115702
    0.961314797    0.749452591    0.829721212
    0.002981424    0.374452591    0.919326782
