C 
 1.0000000000000000
     3.5668000000000002    0.0000000000000000    0.0000000000000000
     0.0000000000000000    3.5668000000000002    0.0000000000000000
     0.0000000000000000    0.0000000000000000   60.5090999999999966
 C  
  48
Direct
  0.0000000000000000  0.0000000000000000  0.3305287964950727
  0.2500000000000000  0.2500000000000000  0.3452654228868055
  0.0000000000000000  0.5000000000000000  0.3600020492785383
  0.2500000000000000  0.7500000000000000  0.3747386756702711
  0.5000000000000000  0.0000000000000000  0.3600020492785383
  0.7500000000000000  0.2500000000000000  0.3747386756702711
  0.5000000000000000  0.5000000000000000  0.3305287964950727
  0.7500000000000000  0.7500000000000000  0.3452654228868055
  0.0000000000000000  0.0000000000000000  0.3894753020620039
  0.2500000000000000  0.2500000000000000  0.4042119284537367
  0.0000000000000000  0.5000000000000000  0.4189485548454696
  0.2500000000000000  0.7500000000000000  0.4336851812372024
  0.5000000000000000  0.0000000000000000  0.4189485548454696
  0.7500000000000000  0.2500000000000000  0.4336851812372024
  0.5000000000000000  0.5000000000000000  0.3894753020620039
  0.7500000000000000  0.7500000000000000  0.4042119284537367
  0.0000000000000000  0.0000000000000000  0.4484218076289352
  0.2500000000000000  0.2500000000000000  0.4631584340206680
  0.0000000000000000  0.5000000000000000  0.4778950604124008
  0.2500000000000000  0.7500000000000000  0.4926316868041336
  0.5000000000000000  0.0000000000000000  0.4778950604124008
  0.7500000000000000  0.2500000000000000  0.4926316868041336
  0.5000000000000000  0.5000000000000000  0.4484218076289352
  0.7500000000000000  0.7500000000000000  0.4631584340206680
  0.0000000000000000  0.0000000000000000  0.5073683131958664
  0.2500000000000000  0.2500000000000000  0.5221049395875992
  0.0000000000000000  0.5000000000000000  0.5368415659793321
  0.2500000000000000  0.7500000000000000  0.5515781923710649
  0.5000000000000000  0.0000000000000000  0.5368415659793321
  0.7500000000000000  0.2500000000000000  0.5515781923710649
  0.5000000000000000  0.5000000000000000  0.5073683131958664
  0.7500000000000000  0.7500000000000000  0.5221049395875992
  0.0000000000000000  0.0000000000000000  0.5663148187627977
  0.2500000000000000  0.2500000000000000  0.5810514451545306
  0.0000000000000000  0.5000000000000000  0.5957880715462632
  0.2500000000000000  0.7500000000000000  0.6105246979379961
  0.5000000000000000  0.0000000000000000  0.5957880715462632
  0.7500000000000000  0.2500000000000000  0.6105246979379961
  0.5000000000000000  0.5000000000000000  0.5663148187627977
  0.7500000000000000  0.7500000000000000  0.5810514451545306
  0.0000000000000000  0.0000000000000000  0.6252613243297288
  0.2500000000000000  0.2500000000000000  0.6399979507214617
  0.0000000000000000  0.5000000000000000  0.6547345771131946
  0.2500000000000000  0.7500000000000000  0.6694712035049274
  0.5000000000000000  0.0000000000000000  0.6547345771131946
  0.7500000000000000  0.2500000000000000  0.6694712035049274
  0.5000000000000000  0.5000000000000000  0.6252613243297288
  0.7500000000000000  0.7500000000000000  0.6399979507214617
