Si+Sn                                   
   1.00000000000000     
     9.4067678449999992    0.0000000000000000    0.0000000000000000
     0.0000000000000000   13.3031797409999992    0.0000000000000000
     0.0000000000000000    0.0000000000000000   25.4000091549999993
   Si   Sn
    72    48
Direct
  0.6666666870000029  0.6451839799999988  0.0000000009999965
  0.6666666269999979  0.3951838910000021  0.0755963769999966
  0.6666666269999979  0.1451838170000030  0.1511927549999967
  0.6666665670000000  0.8951837420000004  0.2267891469999981
  0.6666665670000000  0.6451836820000025  0.3023855089999969
  0.6666665079999987  0.3951835040000020  0.3779819610000033
  0.3333333129999971  0.3118506069999967  0.0000000009999965
  0.3333333129999971  0.0618505369999980  0.0755963769999966
  0.3333332839999983  0.8118504879999975  0.1511927549999967
  0.3333332540000029  0.5618504290000033  0.2267891469999981
  0.3333331939999979  0.3118503090000004  0.3023855089999969
  0.3333331640000026  0.0618501900000012  0.3779819610000033
  0.0000000000000000  0.9785172939999995  0.0000000009999965
  0.9999999400000021  0.7285171750000003  0.0755963769999966
  0.9999999400000021  0.4785171150000025  0.1511927549999967
  0.9999998810000008  0.2285170560000012  0.2267891469999981
  0.9999998210000030  0.9785169359999983  0.3023855089999969
  0.9999998210000030  0.7285168169999992  0.3779819610000033
  0.6666666870000029  0.1451839209999974  0.0000000020000002
  0.6666666870000029  0.8951838609999996  0.0755963769999966
  0.6666666269999979  0.6451838019999983  0.1511927549999967
  0.6666665670000000  0.3951837420000004  0.2267891170000027
  0.6666665079999987  0.1451836230000012  0.3023855089999969
  0.6666665079999987  0.8951835630000033  0.3779819310000008
  0.3333333730000021  0.8118506670000016  0.0000000000000000
  0.3333333429999996  0.5618506069999967  0.0755963769999966
  0.3333333129999971  0.3118505779999978  0.1511927549999967
  0.3333332839999983  0.0618505070000026  0.2267891469999981
  0.3333331939999979  0.8118504290000033  0.3023855089999969
  0.3333331640000026  0.5618503090000004  0.3779819310000008
  0.0000000000000000  0.4785172939999995  0.0000000000000000
  0.9999999400000021  0.2285172050000028  0.0755963769999966
  0.9999999400000021  0.9785171150000025  0.1511927549999967
  0.9999998810000008  0.7285170560000012  0.2267891170000027
  0.9999998210000030  0.4785169359999983  0.3023855089999969
  0.9999998210000030  0.2285168769999970  0.3779819610000033
  0.9166667459999971  0.6451839209999974  0.0000000009999965
  0.9166667459999971  0.3951838019999983  0.0755963849999972
  0.9166667459999971  0.1451837870000006  0.1511927549999967
  0.9166666870000029  0.8951836820000025  0.2267891469999981
  0.9166666269999979  0.6451835630000033  0.3023855089999969
  0.9166666269999979  0.3951834439999971  0.3779819610000033
  0.5833333730000021  0.3118506369999992  0.0000000020000002
  0.5833333129999971  0.0618505589999998  0.0755963699999995
  0.5833333129999971  0.8118504879999975  0.1511927549999967
  0.5833332540000029  0.5618504290000033  0.2267891170000027
  0.5833332540000029  0.3118503090000004  0.3023855089999969
  0.5833331939999979  0.0618502499999991  0.3779819310000008
  0.2500000000000000  0.9785172939999995  0.0000000020000002
  0.2499999699999975  0.7285171750000003  0.0755963769999966
  0.2499999249999973  0.4785171750000003  0.1511927549999967
  0.2499999110000033  0.2285171150000025  0.2267891170000027
  0.2499998210000030  0.9785169359999983  0.3023855089999969
  0.2499997910000005  0.7285168169999992  0.3779819310000008
  0.9166667459999971  0.1451839360000022  0.0000000089999972
  0.9166666870000029  0.8951838609999996  0.0755963769999966
  0.9166666269999979  0.6451838019999983  0.1511927549999967
  0.9166665670000000  0.3951837420000004  0.2267891170000027
  0.9166665079999987  0.1451836230000012  0.3023855089999969
  0.9166665079999987  0.8951834439999971  0.3779819310000008
  0.5833333129999971  0.8118505480000024  0.0000000000000000
  0.5833332540000029  0.5618504879999975  0.0755963769999966
  0.5833332540000029  0.3118504290000033  0.1511927549999967
  0.5833331939999979  0.0618503649999980  0.2267891170000027
  0.5833331939999979  0.8118502499999991  0.3023855089999969
  0.5833331349999966  0.5618501309999999  0.3779819310000008
  0.2499999850000023  0.4785172639999971  0.0000000009999965
  0.2499999549999998  0.2285172050000028  0.0755963769999966
  0.2499999249999973  0.9785171150000025  0.1511927549999967
  0.2499998660000031  0.7285170560000012  0.2267891170000027
  0.2499998509999983  0.4785169359999983  0.3023855089999969
  0.2499998210000030  0.2285168169999992  0.3779819610000033
  0.9390096659999969  0.1108083720000010  0.4631761609999998
  0.6890096659999969  0.8608083720000010  0.5535020829999979
  0.4390096659999969  0.6108083129999997  0.6438280340000020
  0.1890096659999969  0.3608083129999997  0.7341539259999976
  0.9390096659999969  0.1108082530000019  0.8244798180000004
  0.6890096659999969  0.8608082530000019  0.9148057100000031
  0.9390096659999969  0.6108083720000010  0.4631761609999998
  0.6890096659999969  0.3608083720000010  0.5535020829999979
  0.4390096659999969  0.1108083720000010  0.6438280340000020
  0.1890096659999969  0.8608082530000019  0.7341539259999976
  0.9390096659999969  0.6108082530000019  0.8244798180000004
  0.6890096659999969  0.3608081940000005  0.9148057100000031
  0.4390096659999969  0.1108083720000010  0.4631761609999998
  0.1890096659999969  0.8608083720000010  0.5535020829999979
  0.9390096659999969  0.6108083129999997  0.6438280340000020
  0.6890096659999969  0.3608083129999997  0.7341539259999976
  0.4390096659999969  0.1108082530000019  0.8244798180000004
  0.1890095469999977  0.8608082530000019  0.9148057100000031
  0.4390096659999969  0.6108083720000010  0.4631761609999998
  0.1890096659999969  0.3608083720000010  0.5535020829999979
  0.9390096659999969  0.1108083720000010  0.6438280340000020
  0.6890096659999969  0.8608082530000019  0.7341539259999976
  0.4390096659999969  0.6108082530000019  0.8244798180000004
  0.1890095469999977  0.3608081940000005  0.9148057100000031
  0.6890096659999969  0.4858083720000010  0.4631761609999998
  0.4390096659999969  0.2358083430000022  0.5535020829999979
  0.1890096659999969  0.9858082530000019  0.6438280340000020
  0.9390095469999977  0.7358082530000019  0.7341539259999976
  0.6890095469999977  0.4858081940000005  0.8244798180000004
  0.4390095469999977  0.2358081940000005  0.9148057100000031
  0.6890096659999969  0.9858083129999997  0.4631761609999998
  0.4390096659999969  0.7358083129999997  0.5535020829999979
  0.1890096659999969  0.4858082530000019  0.6438280340000020
  0.9390095469999977  0.2358082089999982  0.7341539259999976
  0.6890095469999977  0.9858082530000019  0.8244798180000004
  0.4390095469999977  0.7358081340000027  0.9148057100000031
  0.1890096659999969  0.4858083720000010  0.4631761609999998
  0.9390096659999969  0.2358083430000022  0.5535020829999979
  0.6890096659999969  0.9858082530000019  0.6438280340000020
  0.4390095469999977  0.7358082530000019  0.7341539259999976
  0.1890096659999969  0.4858081940000005  0.8244798180000004
  0.9390096659999969  0.2358081940000005  0.9148057100000031
  0.1890096659999969  0.9858083129999997  0.4631761609999998
  0.9390096659999969  0.7358083129999997  0.5535020829999979
  0.6890096659999969  0.4858082530000019  0.6438280340000020
  0.4390095469999977  0.2358082089999982  0.7341539259999976
  0.1890096659999969  0.9858082530000019  0.8244798180000004
  0.9390096659999969  0.7358081340000027  0.9148057100000031
 
  0.00000000E+00  0.00000000E+00  0.00000000E+00
  0.00000000E+00  0.00000000E+00  0.00000000E+00
  0.00000000E+00  0.00000000E+00  0.00000000E+00
  0.00000000E+00  0.00000000E+00  0.00000000E+00
  0.00000000E+00  0.00000000E+00  0.00000000E+00
  0.00000000E+00  0.00000000E+00  0.00000000E+00
  0.00000000E+00  0.00000000E+00  0.00000000E+00
  0.00000000E+00  0.00000000E+00  0.00000000E+00
  0.00000000E+00  0.00000000E+00  0.00000000E+00
  0.00000000E+00  0.00000000E+00  0.00000000E+00
  0.00000000E+00  0.00000000E+00  0.00000000E+00
  0.00000000E+00  0.00000000E+00  0.00000000E+00
  0.00000000E+00  0.00000000E+00  0.00000000E+00
  0.00000000E+00  0.00000000E+00  0.00000000E+00
  0.00000000E+00  0.00000000E+00  0.00000000E+00
  0.00000000E+00  0.00000000E+00  0.00000000E+00
  0.00000000E+00  0.00000000E+00  0.00000000E+00
  0.00000000E+00  0.00000000E+00  0.00000000E+00
  0.00000000E+00  0.00000000E+00  0.00000000E+00
  0.00000000E+00  0.00000000E+00  0.00000000E+00
  0.00000000E+00  0.00000000E+00  0.00000000E+00
  0.00000000E+00  0.00000000E+00  0.00000000E+00
  0.00000000E+00  0.00000000E+00  0.00000000E+00
  0.00000000E+00  0.00000000E+00  0.00000000E+00
  0.00000000E+00  0.00000000E+00  0.00000000E+00
  0.00000000E+00  0.00000000E+00  0.00000000E+00
  0.00000000E+00  0.00000000E+00  0.00000000E+00
  0.00000000E+00  0.00000000E+00  0.00000000E+00
  0.00000000E+00  0.00000000E+00  0.00000000E+00
  0.00000000E+00  0.00000000E+00  0.00000000E+00
  0.00000000E+00  0.00000000E+00  0.00000000E+00
  0.00000000E+00  0.00000000E+00  0.00000000E+00
  0.00000000E+00  0.00000000E+00  0.00000000E+00
  0.00000000E+00  0.00000000E+00  0.00000000E+00
  0.00000000E+00  0.00000000E+00  0.00000000E+00
  0.00000000E+00  0.00000000E+00  0.00000000E+00
  0.00000000E+00  0.00000000E+00  0.00000000E+00
  0.00000000E+00  0.00000000E+00  0.00000000E+00
  0.00000000E+00  0.00000000E+00  0.00000000E+00
  0.00000000E+00  0.00000000E+00  0.00000000E+00
  0.00000000E+00  0.00000000E+00  0.00000000E+00
  0.00000000E+00  0.00000000E+00  0.00000000E+00
  0.00000000E+00  0.00000000E+00  0.00000000E+00
  0.00000000E+00  0.00000000E+00  0.00000000E+00
  0.00000000E+00  0.00000000E+00  0.00000000E+00
  0.00000000E+00  0.00000000E+00  0.00000000E+00
  0.00000000E+00  0.00000000E+00  0.00000000E+00
  0.00000000E+00  0.00000000E+00  0.00000000E+00
  0.00000000E+00  0.00000000E+00  0.00000000E+00
  0.00000000E+00  0.00000000E+00  0.00000000E+00
  0.00000000E+00  0.00000000E+00  0.00000000E+00
  0.00000000E+00  0.00000000E+00  0.00000000E+00
  0.00000000E+00  0.00000000E+00  0.00000000E+00
  0.00000000E+00  0.00000000E+00  0.00000000E+00
  0.00000000E+00  0.00000000E+00  0.00000000E+00
  0.00000000E+00  0.00000000E+00  0.00000000E+00
  0.00000000E+00  0.00000000E+00  0.00000000E+00
  0.00000000E+00  0.00000000E+00  0.00000000E+00
  0.00000000E+00  0.00000000E+00  0.00000000E+00
  0.00000000E+00  0.00000000E+00  0.00000000E+00
  0.00000000E+00  0.00000000E+00  0.00000000E+00
  0.00000000E+00  0.00000000E+00  0.00000000E+00
  0.00000000E+00  0.00000000E+00  0.00000000E+00
  0.00000000E+00  0.00000000E+00  0.00000000E+00
  0.00000000E+00  0.00000000E+00  0.00000000E+00
  0.00000000E+00  0.00000000E+00  0.00000000E+00
  0.00000000E+00  0.00000000E+00  0.00000000E+00
  0.00000000E+00  0.00000000E+00  0.00000000E+00
  0.00000000E+00  0.00000000E+00  0.00000000E+00
  0.00000000E+00  0.00000000E+00  0.00000000E+00
  0.00000000E+00  0.00000000E+00  0.00000000E+00
  0.00000000E+00  0.00000000E+00  0.00000000E+00
  0.00000000E+00  0.00000000E+00  0.00000000E+00
  0.00000000E+00  0.00000000E+00  0.00000000E+00
  0.00000000E+00  0.00000000E+00  0.00000000E+00
  0.00000000E+00  0.00000000E+00  0.00000000E+00
  0.00000000E+00  0.00000000E+00  0.00000000E+00
  0.00000000E+00  0.00000000E+00  0.00000000E+00
  0.00000000E+00  0.00000000E+00  0.00000000E+00
  0.00000000E+00  0.00000000E+00  0.00000000E+00
  0.00000000E+00  0.00000000E+00  0.00000000E+00
  0.00000000E+00  0.00000000E+00  0.00000000E+00
  0.00000000E+00  0.00000000E+00  0.00000000E+00
  0.00000000E+00  0.00000000E+00  0.00000000E+00
  0.00000000E+00  0.00000000E+00  0.00000000E+00
  0.00000000E+00  0.00000000E+00  0.00000000E+00
  0.00000000E+00  0.00000000E+00  0.00000000E+00
  0.00000000E+00  0.00000000E+00  0.00000000E+00
  0.00000000E+00  0.00000000E+00  0.00000000E+00
  0.00000000E+00  0.00000000E+00  0.00000000E+00
  0.00000000E+00  0.00000000E+00  0.00000000E+00
  0.00000000E+00  0.00000000E+00  0.00000000E+00
  0.00000000E+00  0.00000000E+00  0.00000000E+00
  0.00000000E+00  0.00000000E+00  0.00000000E+00
  0.00000000E+00  0.00000000E+00  0.00000000E+00
  0.00000000E+00  0.00000000E+00  0.00000000E+00
  0.00000000E+00  0.00000000E+00  0.00000000E+00
  0.00000000E+00  0.00000000E+00  0.00000000E+00
  0.00000000E+00  0.00000000E+00  0.00000000E+00
  0.00000000E+00  0.00000000E+00  0.00000000E+00
  0.00000000E+00  0.00000000E+00  0.00000000E+00
  0.00000000E+00  0.00000000E+00  0.00000000E+00
  0.00000000E+00  0.00000000E+00  0.00000000E+00
  0.00000000E+00  0.00000000E+00  0.00000000E+00
  0.00000000E+00  0.00000000E+00  0.00000000E+00
  0.00000000E+00  0.00000000E+00  0.00000000E+00
  0.00000000E+00  0.00000000E+00  0.00000000E+00
  0.00000000E+00  0.00000000E+00  0.00000000E+00
  0.00000000E+00  0.00000000E+00  0.00000000E+00
  0.00000000E+00  0.00000000E+00  0.00000000E+00
  0.00000000E+00  0.00000000E+00  0.00000000E+00
  0.00000000E+00  0.00000000E+00  0.00000000E+00
  0.00000000E+00  0.00000000E+00  0.00000000E+00
  0.00000000E+00  0.00000000E+00  0.00000000E+00
  0.00000000E+00  0.00000000E+00  0.00000000E+00
  0.00000000E+00  0.00000000E+00  0.00000000E+00
  0.00000000E+00  0.00000000E+00  0.00000000E+00
  0.00000000E+00  0.00000000E+00  0.00000000E+00
  0.00000000E+00  0.00000000E+00  0.00000000E+00
  0.00000000E+00  0.00000000E+00  0.00000000E+00
