Automatic KPOINTS generated
0
Gamma
2 3 5
0 0 0
