fcc Si+fcc Ge
    1.000000000
    9.491638425    0.000000000    0.000000000
    0.000000000   13.423203790    0.000000000
    0.000000000    0.000000000   24.092923856
Si    Ge   
72     72
Direct
    0.104609929    0.074561404    0.908686882
    0.000000000    0.750000000    0.080416665
    0.000000000    0.500000000    0.160833329
    0.000000000    0.250000000    0.241249994
    0.000000000    0.000000000    0.321666659
    0.104609929    0.824561404    0.493396442
    0.354609929    0.574561404    0.908686882
    0.333333333    0.083333333    0.080416665
    0.333333333    0.833333333    0.160833329
    0.333333333    0.583333333    0.241249994
    0.333333333    0.333333333    0.321666659
    0.354609929    0.324561404    0.493396442
    0.666666667    0.666666667    0.000000000
    0.687943262    0.241228070    0.908686882
    0.666666667    0.166666667    0.160833329
    0.666666667    0.916666667    0.241249994
    0.666666667    0.666666667    0.321666659
    0.666666667    0.416666667    0.402083324
    0.000000000    0.500000000    0.000000000
    0.000000000    0.250000000    0.080416665
    0.000000000    0.000000000    0.160833329
    0.000000000    0.750000000    0.241249994
    0.000000000    0.500000000    0.321666659
    0.000000000    0.250000000    0.402083324
    0.021276596    0.907894737    0.908686882
    0.333333333    0.583333333    0.080416665
    0.333333333    0.333333333    0.160833329
    0.333333333    0.083333333    0.241249994
    0.333333333    0.833333333    0.321666659
    0.021276596    0.657894737    0.493396442
    0.666666667    0.166666667    0.000000000
    0.666666667    0.916666667    0.080416665
    0.666666667    0.666666667    0.160833329
    0.666666667    0.416666667    0.241249994
    0.687943262    0.991228070    0.493396442
    0.666666667    0.916666667    0.402083324
    0.687943262    0.741228070    0.908686882
    0.083333333    0.083333333    0.080416665
    0.083333333    0.833333333    0.160833329
    0.083333333    0.583333333    0.241249994
    0.083333333    0.333333333    0.321666659
    0.687943262    0.491228070    0.493396442
    0.416666667    0.666666667    0.000000000
    0.416666667    0.416666667    0.080416665
    0.416666667    0.166666667    0.160833329
    0.416666667    0.916666667    0.241249994
    0.416666667    0.666666667    0.321666659
    0.416666667    0.416666667    0.402083324
    0.750000000    0.000000000    0.000000000
    0.750000000    0.750000000    0.080416665
    0.750000000    0.500000000    0.160833329
    0.750000000    0.250000000    0.241249994
    0.750000000    0.000000000    0.321666659
    0.750000000    0.750000000    0.402083324
    0.083333333    0.833333333    0.000000000
    0.083333333    0.583333333    0.080416665
    0.083333333    0.333333333    0.160833329
    0.083333333    0.083333333    0.241249994
    0.083333333    0.833333333    0.321666659
    0.083333333    0.583333333    0.402083324
    0.104609929    0.574561404    0.908686882
    0.416666667    0.916666667    0.080416665
    0.416666667    0.666666667    0.160833329
    0.416666667    0.416666667    0.241249994
    0.416666667    0.166666667    0.321666659
    0.104609929    0.324561404    0.493396442
    0.750000000    0.500000000    0.000000000
    0.750000000    0.250000000    0.080416665
    0.750000000    0.000000000    0.160833329
    0.750000000    0.750000000    0.241249994
    0.750000000    0.500000000    0.321666659
    0.750000000    0.250000000    0.402083324
    0.021276596    0.157894737    0.493396442
    0.021276596    0.407894737    0.576454530
    0.021276596    0.657894737    0.659512618
    0.021276596    0.907894737    0.742570706
    0.021276596    0.157894737    0.825628794
    0.021276596    0.407894737    0.908686882
    0.354609929    0.824561404    0.493396442
    0.354609929    0.074561404    0.576454530
    0.354609929    0.324561404    0.659512618
    0.354609929    0.574561404    0.742570706
    0.354609929    0.824561404    0.825628794
    0.354609929    0.074561404    0.908686882
    0.083333333    0.083333333    0.402083324
    0.687943262    0.741228070    0.576454530
    0.687943262    0.991228070    0.659512618
    0.687943262    0.241228070    0.742570706
    0.687943262    0.491228070    0.825628794
    0.083333333    0.333333333    0.000000000
    0.333333333    0.583333333    0.402083324
    0.021276596    0.907894737    0.576454530
    0.021276596    0.157894737    0.659512618
    0.021276596    0.407894737    0.742570706
    0.021276596    0.657894737    0.825628794
    0.333333333    0.833333333    0.000000000
    0.333333333    0.083333333    0.402083324
    0.354609929    0.574561404    0.576454530
    0.354609929    0.824561404    0.659512618
    0.354609929    0.074561404    0.742570706
    0.354609929    0.324561404    0.825628794
    0.333333333    0.333333333    0.000000000
    0.666666667    0.166666667    0.321666659
    0.687943262    0.241228070    0.576454530
    0.687943262    0.491228070    0.659512618
    0.687943262    0.741228070    0.742570706
    0.687943262    0.991228070    0.825628794
    0.666666667    0.416666667    0.080416665
    0.000000000    0.750000000    0.402083324
    0.104609929    0.074561404    0.576454530
    0.104609929    0.324561404    0.659512618
    0.104609929    0.574561404    0.742570706
    0.104609929    0.824561404    0.825628794
    0.000000000    0.000000000    0.000000000
    0.437943262    0.491228070    0.493396442
    0.437943262    0.741228070    0.576454530
    0.437943262    0.991228070    0.659512618
    0.437943262    0.241228070    0.742570706
    0.437943262    0.491228070    0.825628794
    0.437943262    0.741228070    0.908686882
    0.771276596    0.157894737    0.493396442
    0.771276596    0.407894737    0.576454530
    0.771276596    0.657894737    0.659512618
    0.771276596    0.907894737    0.742570706
    0.771276596    0.157894737    0.825628794
    0.771276596    0.407894737    0.908686882
    0.416666667    0.916666667    0.402083324
    0.104609929    0.574561404    0.576454530
    0.104609929    0.824561404    0.659512618
    0.104609929    0.074561404    0.742570706
    0.104609929    0.324561404    0.825628794
    0.416666667    0.166666667    0.000000000
    0.437943262    0.991228070    0.493396442
    0.437943262    0.241228070    0.576454530
    0.437943262    0.491228070    0.659512618
    0.437943262    0.741228070    0.742570706
    0.437943262    0.991228070    0.825628794
    0.437943262    0.241228070    0.908686882
    0.771276596    0.657894737    0.493396442
    0.771276596    0.907894737    0.576454530
    0.771276596    0.157894737    0.659512618
    0.771276596    0.407894737    0.742570706
    0.771276596    0.657894737    0.825628794
    0.771276596    0.907894737    0.908686882
