Si+C                                    
   1.00000000000000     
    16.2930011750000006    0.0000000000000000    0.0000000000000000
   -10.8620004649999995   12.1440858840000008    0.0000000000000000
     0.0000000000000000    0.0000000000000000    7.0064740179999996
   Si   C 
    36    84
Direct
  0.9743584989999974  0.9829056259999973  0.0000000020000002
  0.6743584279999979  0.7829055790000012  0.1733267010000006
  0.3743584159999997  0.5829055310000015  0.3466534020000012
  0.3076917830000028  0.9829056259999973  0.0000000020000002
  0.0076917259999973  0.7829055790000012  0.1733267010000006
  0.7076916689999990  0.5829055310000015  0.3466534020000012
  0.6410250659999974  0.9829056259999973  0.0000000020000002
  0.3410250250000004  0.7829055790000012  0.1733267010000006
  0.0410249870000001  0.5829055310000015  0.3466534020000012
  0.1576919700000019  0.6329056020000010  0.0866631720000015
  0.8576919440000026  0.4329055250000025  0.2599898870000033
  0.5576919319999973  0.2329055069999981  0.4333165290000025
  0.4910252090000000  0.6329056020000010  0.0866631720000015
  0.1910251529999982  0.4329055250000025  0.2599898870000033
  0.8910251860000002  0.2329055069999981  0.4333165290000025
  0.8243584630000029  0.6329056020000010  0.0866631720000015
  0.5243583920000034  0.4329055250000025  0.2599898870000033
  0.2243584989999974  0.2329055069999981  0.4333165290000025
  0.1410251559999978  0.4829055960000019  0.0000000000000000
  0.8410251139999971  0.2829054890000009  0.1733267010000006
  0.5410251019999990  0.0829054339999971  0.3466534020000012
  0.4743584389999995  0.4829055960000019  0.0000000000000000
  0.1743583829999977  0.2829054890000009  0.1733267010000006
  0.8743583560000019  0.0829054339999971  0.3466534020000012
  0.8076916930000024  0.4829055960000019  0.0000000000000000
  0.5076916809999972  0.2829054890000009  0.1733267010000006
  0.2076916250000025  0.0829054339999971  0.3466534020000012
  0.9910252090000000  0.1329056619999989  0.0866631789999985
  0.6910251380000005  0.9329056139999992  0.2599898870000033
  0.3910251860000002  0.7329055670000031  0.4333165290000025
  0.3243584630000029  0.1329056619999989  0.0866631789999985
  0.0243584139999982  0.9329056139999992  0.2599898870000033
  0.7243584389999995  0.7329055670000031  0.4333165290000025
  0.6576916579999974  0.1329056619999989  0.0866631789999985
  0.3576916159999968  0.9329056139999992  0.2599898870000033
  0.0576916520000026  0.7329055670000031  0.4333165290000025
  0.1359258889999992  0.2069571019999970  0.5743682980000031
  0.3787831069999967  0.1783857349999991  0.6882002950000015
  0.6216403250000013  0.1498141289999992  0.8020323510000011
  0.4216401580000024  0.3498142959999981  0.5743682980000031
  0.6644973750000034  0.3212428089999975  0.6882002950000015
  0.9073545930000009  0.2926713230000004  0.8020323510000011
  0.7073543670000007  0.4926713999999990  0.5743682980000031
  0.9502116439999995  0.4640999140000019  0.6882002950000015
  0.1930689220000019  0.4355284569999966  0.8020323510000011
  0.9930687550000030  0.6355285639999977  0.5743682980000031
  0.2359259719999969  0.6069570780000006  0.6882002950000015
  0.4787833090000007  0.5783856509999978  0.8020323510000011
  0.2787830230000026  0.7783856989999975  0.5743682980000031
  0.5216402410000001  0.7498142720000018  0.6882002950000015
  0.7644974589999975  0.7212427850000012  0.8020323510000011
  0.5644973519999965  0.9212428929999987  0.5743682980000031
  0.8073545689999975  0.8926714059999981  0.6882002950000015
  0.0502117870000021  0.8640999200000010  0.8020323510000011
  0.8502115610000018  0.0641000270000021  0.5743682980000031
  0.0930688380000007  0.0355284210000022  0.6882002950000015
  0.3359259960000003  0.0069570539999972  0.8020323510000011
  0.9716400499999978  0.2998142840000000  0.6312842370000027
  0.2144973870000015  0.2712428270000018  0.7451161740000032
  0.4573546049999990  0.2426713110000023  0.8589482309999994
  0.2573542590000031  0.4426714180000033  0.6312841769999977
  0.5002115369999984  0.4140999620000017  0.7451162930000024
  0.7430687550000030  0.3855284449999985  0.8589482309999994
  0.5430686469999984  0.5855286119999974  0.6312841769999977
  0.7859258650000029  0.5569571260000004  0.7451162930000024
  0.0287832019999996  0.5283856389999997  0.8589482309999994
  0.8287829759999994  0.7283857460000007  0.6312841769999977
  0.0716402529999982  0.6998141999999987  0.7451162930000024
  0.3144975299999970  0.6712428330000009  0.8589482309999994
  0.1144971330000004  0.8712428810000006  0.6312841769999977
  0.3573544620000035  0.8426713939999999  0.7451162930000024
  0.6002115610000018  0.8140999080000029  0.8589482309999994
  0.4002115730000000  0.0141000750000018  0.6312842370000027
  0.6430688499999988  0.9855284690000019  0.7451162930000024
  0.8859260680000034  0.9569570419999991  0.8589482309999994
  0.6859257220000003  0.1569571499999967  0.6312842370000027
  0.9287829399999978  0.1283856630000031  0.7451162930000024
  0.1716402169999967  0.0998141769999989  0.8589482309999994
  0.7787831429999983  0.2783857579999989  0.5743682980000031
  0.0216403009999979  0.2498142419999994  0.6882002950000015
  0.2644975779999967  0.2212428149999965  0.8020323510000011
  0.0644974710000028  0.4212428929999987  0.5743682980000031
  0.3073546290000024  0.3926713760000027  0.6882002950000015
  0.5502117280000007  0.3640998899999985  0.8020323510000011
  0.3502116200000032  0.5641000270000021  0.5743682980000031
  0.5930688380000007  0.5355285409999979  0.6882002950000015
  0.8359260559999981  0.5069570539999972  0.8020323510000011
  0.6359258290000014  0.7069571609999983  0.5743682980000031
  0.8787831069999967  0.6783856750000012  0.6882002950000015
  0.1216403920000033  0.6498142479999984  0.8020323510000011
  0.9216401580000024  0.8498142959999981  0.5743682980000031
  0.1644974350000012  0.8212428690000024  0.6882002950000015
  0.4073545339999995  0.7926713230000004  0.8020323510000011
  0.2073544559999974  0.9926714899999993  0.5743682980000031
  0.4502116740000019  0.9641000629999965  0.6882003549999993
  0.6930689810000032  0.9355285760000029  0.8020323510000011
  0.4930687250000005  0.1355285639999977  0.5743682980000031
  0.7359259130000027  0.1069571969999998  0.6882003549999993
  0.9787832499999993  0.0783857110000028  0.8020323510000011
  0.3287830350000007  0.2283857319999996  0.6312841769999977
  0.5716403130000032  0.1998141999999987  0.7451162930000024
  0.8144975900000020  0.1712427140000017  0.8589482309999994
  0.6144971849999976  0.3712428810000006  0.6312841769999977
  0.8573544620000035  0.3426713939999999  0.7451162930000024
  0.1002117399999989  0.3140999379999982  0.8589482309999994
  0.9002114529999972  0.5140999560000026  0.6312841769999977
  0.1430688499999988  0.4855285579999986  0.7451162930000024
  0.3859260680000034  0.4569571019999970  0.8589482309999994
  0.1859256629999990  0.6569571499999967  0.6312841769999977
  0.4287830000000028  0.6283856630000031  0.7451161740000032
  0.6716402169999967  0.5998141769999989  0.8589482309999994
  0.4716401100000027  0.7998142240000021  0.6312841769999977
  0.7144974469999994  0.7712427379999980  0.7451162930000024
  0.9573546649999969  0.7426713110000023  0.8589482309999994
  0.7573544380000001  0.9426714180000033  0.6312841769999977
  0.0002117160000026  0.9140999319999992  0.7451162930000024
  0.2430689930000014  0.8855285639999977  0.8589482309999994
  0.0430686469999984  0.0855286119999974  0.6312841769999977
  0.2859259250000008  0.0569571260000004  0.7451162930000024
  0.5287831429999983  0.0283856389999997  0.8589482309999994
 
  0.00000000E+00  0.00000000E+00  0.00000000E+00
  0.00000000E+00  0.00000000E+00  0.00000000E+00
  0.00000000E+00  0.00000000E+00  0.00000000E+00
  0.00000000E+00  0.00000000E+00  0.00000000E+00
  0.00000000E+00  0.00000000E+00  0.00000000E+00
  0.00000000E+00  0.00000000E+00  0.00000000E+00
  0.00000000E+00  0.00000000E+00  0.00000000E+00
  0.00000000E+00  0.00000000E+00  0.00000000E+00
  0.00000000E+00  0.00000000E+00  0.00000000E+00
  0.00000000E+00  0.00000000E+00  0.00000000E+00
  0.00000000E+00  0.00000000E+00  0.00000000E+00
  0.00000000E+00  0.00000000E+00  0.00000000E+00
  0.00000000E+00  0.00000000E+00  0.00000000E+00
  0.00000000E+00  0.00000000E+00  0.00000000E+00
  0.00000000E+00  0.00000000E+00  0.00000000E+00
  0.00000000E+00  0.00000000E+00  0.00000000E+00
  0.00000000E+00  0.00000000E+00  0.00000000E+00
  0.00000000E+00  0.00000000E+00  0.00000000E+00
  0.00000000E+00  0.00000000E+00  0.00000000E+00
  0.00000000E+00  0.00000000E+00  0.00000000E+00
  0.00000000E+00  0.00000000E+00  0.00000000E+00
  0.00000000E+00  0.00000000E+00  0.00000000E+00
  0.00000000E+00  0.00000000E+00  0.00000000E+00
  0.00000000E+00  0.00000000E+00  0.00000000E+00
  0.00000000E+00  0.00000000E+00  0.00000000E+00
  0.00000000E+00  0.00000000E+00  0.00000000E+00
  0.00000000E+00  0.00000000E+00  0.00000000E+00
  0.00000000E+00  0.00000000E+00  0.00000000E+00
  0.00000000E+00  0.00000000E+00  0.00000000E+00
  0.00000000E+00  0.00000000E+00  0.00000000E+00
  0.00000000E+00  0.00000000E+00  0.00000000E+00
  0.00000000E+00  0.00000000E+00  0.00000000E+00
  0.00000000E+00  0.00000000E+00  0.00000000E+00
  0.00000000E+00  0.00000000E+00  0.00000000E+00
  0.00000000E+00  0.00000000E+00  0.00000000E+00
  0.00000000E+00  0.00000000E+00  0.00000000E+00
  0.00000000E+00  0.00000000E+00  0.00000000E+00
  0.00000000E+00  0.00000000E+00  0.00000000E+00
  0.00000000E+00  0.00000000E+00  0.00000000E+00
  0.00000000E+00  0.00000000E+00  0.00000000E+00
  0.00000000E+00  0.00000000E+00  0.00000000E+00
  0.00000000E+00  0.00000000E+00  0.00000000E+00
  0.00000000E+00  0.00000000E+00  0.00000000E+00
  0.00000000E+00  0.00000000E+00  0.00000000E+00
  0.00000000E+00  0.00000000E+00  0.00000000E+00
  0.00000000E+00  0.00000000E+00  0.00000000E+00
  0.00000000E+00  0.00000000E+00  0.00000000E+00
  0.00000000E+00  0.00000000E+00  0.00000000E+00
  0.00000000E+00  0.00000000E+00  0.00000000E+00
  0.00000000E+00  0.00000000E+00  0.00000000E+00
  0.00000000E+00  0.00000000E+00  0.00000000E+00
  0.00000000E+00  0.00000000E+00  0.00000000E+00
  0.00000000E+00  0.00000000E+00  0.00000000E+00
  0.00000000E+00  0.00000000E+00  0.00000000E+00
  0.00000000E+00  0.00000000E+00  0.00000000E+00
  0.00000000E+00  0.00000000E+00  0.00000000E+00
  0.00000000E+00  0.00000000E+00  0.00000000E+00
  0.00000000E+00  0.00000000E+00  0.00000000E+00
  0.00000000E+00  0.00000000E+00  0.00000000E+00
  0.00000000E+00  0.00000000E+00  0.00000000E+00
  0.00000000E+00  0.00000000E+00  0.00000000E+00
  0.00000000E+00  0.00000000E+00  0.00000000E+00
  0.00000000E+00  0.00000000E+00  0.00000000E+00
  0.00000000E+00  0.00000000E+00  0.00000000E+00
  0.00000000E+00  0.00000000E+00  0.00000000E+00
  0.00000000E+00  0.00000000E+00  0.00000000E+00
  0.00000000E+00  0.00000000E+00  0.00000000E+00
  0.00000000E+00  0.00000000E+00  0.00000000E+00
  0.00000000E+00  0.00000000E+00  0.00000000E+00
  0.00000000E+00  0.00000000E+00  0.00000000E+00
  0.00000000E+00  0.00000000E+00  0.00000000E+00
  0.00000000E+00  0.00000000E+00  0.00000000E+00
  0.00000000E+00  0.00000000E+00  0.00000000E+00
  0.00000000E+00  0.00000000E+00  0.00000000E+00
  0.00000000E+00  0.00000000E+00  0.00000000E+00
  0.00000000E+00  0.00000000E+00  0.00000000E+00
  0.00000000E+00  0.00000000E+00  0.00000000E+00
  0.00000000E+00  0.00000000E+00  0.00000000E+00
  0.00000000E+00  0.00000000E+00  0.00000000E+00
  0.00000000E+00  0.00000000E+00  0.00000000E+00
  0.00000000E+00  0.00000000E+00  0.00000000E+00
  0.00000000E+00  0.00000000E+00  0.00000000E+00
  0.00000000E+00  0.00000000E+00  0.00000000E+00
  0.00000000E+00  0.00000000E+00  0.00000000E+00
  0.00000000E+00  0.00000000E+00  0.00000000E+00
  0.00000000E+00  0.00000000E+00  0.00000000E+00
  0.00000000E+00  0.00000000E+00  0.00000000E+00
  0.00000000E+00  0.00000000E+00  0.00000000E+00
  0.00000000E+00  0.00000000E+00  0.00000000E+00
  0.00000000E+00  0.00000000E+00  0.00000000E+00
  0.00000000E+00  0.00000000E+00  0.00000000E+00
  0.00000000E+00  0.00000000E+00  0.00000000E+00
  0.00000000E+00  0.00000000E+00  0.00000000E+00
  0.00000000E+00  0.00000000E+00  0.00000000E+00
  0.00000000E+00  0.00000000E+00  0.00000000E+00
  0.00000000E+00  0.00000000E+00  0.00000000E+00
  0.00000000E+00  0.00000000E+00  0.00000000E+00
  0.00000000E+00  0.00000000E+00  0.00000000E+00
  0.00000000E+00  0.00000000E+00  0.00000000E+00
  0.00000000E+00  0.00000000E+00  0.00000000E+00
  0.00000000E+00  0.00000000E+00  0.00000000E+00
  0.00000000E+00  0.00000000E+00  0.00000000E+00
  0.00000000E+00  0.00000000E+00  0.00000000E+00
  0.00000000E+00  0.00000000E+00  0.00000000E+00
  0.00000000E+00  0.00000000E+00  0.00000000E+00
  0.00000000E+00  0.00000000E+00  0.00000000E+00
  0.00000000E+00  0.00000000E+00  0.00000000E+00
  0.00000000E+00  0.00000000E+00  0.00000000E+00
  0.00000000E+00  0.00000000E+00  0.00000000E+00
  0.00000000E+00  0.00000000E+00  0.00000000E+00
  0.00000000E+00  0.00000000E+00  0.00000000E+00
  0.00000000E+00  0.00000000E+00  0.00000000E+00
  0.00000000E+00  0.00000000E+00  0.00000000E+00
  0.00000000E+00  0.00000000E+00  0.00000000E+00
  0.00000000E+00  0.00000000E+00  0.00000000E+00
  0.00000000E+00  0.00000000E+00  0.00000000E+00
  0.00000000E+00  0.00000000E+00  0.00000000E+00
  0.00000000E+00  0.00000000E+00  0.00000000E+00
  0.00000000E+00  0.00000000E+00  0.00000000E+00
  0.00000000E+00  0.00000000E+00  0.00000000E+00
