Ge+Si                                   
   1.00000000000000     
    16.9734001160000005    0.0000000000000000    0.0000000000000000
     0.0000000000000000   17.8915348049999992    0.0000000000000000
     0.0000000000000000    0.0000000000000000   11.2616443630000003
   Ge   Si
    72   120
Direct
  0.1303789620000018  0.8262044189999997  0.3971792159999978
  0.9637124540000030  0.0762038980000028  0.0000000000000000
  0.7970457079999989  0.4262040260000006  0.0794358630000005
  0.6303790210000031  0.7762041089999983  0.1588717099999997
  0.4637122749999989  0.1262043710000000  0.2383075799999972
  0.2970455290000018  0.4762046339999984  0.3177434500000018
  0.4637122749999989  0.8262044189999997  0.3971792159999978
  0.2970457670000002  0.0762038980000028  0.0000000000000000
  0.1303790959999986  0.4262040260000006  0.0794358630000005
  0.9637123939999981  0.7762041089999983  0.1588717099999997
  0.7970456480000010  0.1262043710000000  0.2383075799999972
  0.6303789019999968  0.4762046339999984  0.3177434500000018
  0.7970456480000010  0.8262044189999997  0.3971792159999978
  0.6303791400000023  0.0762038980000028  0.0000000000000000
  0.4637124540000030  0.4262040260000006  0.0794358630000005
  0.2970457380000013  0.7762041089999983  0.1588717099999997
  0.1303790059999983  0.1262043710000000  0.2383075799999972
  0.9637122749999989  0.4762046339999984  0.3177434500000018
  0.2137122150000010  0.5762047770000009  0.3971794249999974
  0.0470457670000002  0.8262039419999994  0.0000000109999974
  0.8803790810000010  0.1762042049999977  0.0794358180000003
  0.7137123349999968  0.5262042279999974  0.1588716950000020
  0.5470456480000010  0.8762044910000029  0.2383075649999995
  0.3803789620000018  0.2262046339999984  0.3177434500000018
  0.5470455880000031  0.5762047770000009  0.3971794249999974
  0.3803791110000034  0.8262039419999994  0.0000000109999974
  0.2137124090000029  0.1762042049999977  0.0794358180000003
  0.0470457260000003  0.5262042279999974  0.1588716950000020
  0.8803790210000031  0.8762044910000029  0.2383075649999995
  0.7137122749999989  0.2262046339999984  0.3177434500000018
  0.8803789019999968  0.5762047770000009  0.3971794249999974
  0.7137123939999981  0.8262039419999994  0.0000000109999974
  0.5470457079999989  0.1762042049999977  0.0794358180000003
  0.3803790509999985  0.5262042279999974  0.1588716950000020
  0.2137123199999991  0.8762044910000029  0.2383075649999995
  0.0470456150000018  0.2262046339999984  0.3177434500000018
  0.1303789019999968  0.3262045379999989  0.3971793059999982
  0.9637123939999981  0.5762039419999994  0.0000000049999969
  0.7970457079999989  0.9262041449999998  0.0794358779999982
  0.6303790210000031  0.2762041089999983  0.1588716799999972
  0.4637122749999989  0.6262043710000000  0.2383075799999972
  0.2970455880000031  0.9762043950000034  0.3177434500000018
  0.4637122150000010  0.3262045379999989  0.3971793059999982
  0.2970457670000002  0.5762039419999994  0.0000000049999969
  0.1303790660000033  0.9262041449999998  0.0794358779999982
  0.9637123939999981  0.2762041089999983  0.1588716799999972
  0.7970456480000010  0.6262043710000000  0.2383075799999972
  0.6303789620000018  0.9762043950000034  0.3177434500000018
  0.7970455880000031  0.3262045379999989  0.3971793059999982
  0.6303790810000010  0.5762039419999994  0.0000000049999969
  0.4637124240000006  0.9262041449999998  0.0794358779999982
  0.2970457380000013  0.2762041089999983  0.1588716799999972
  0.1303790059999983  0.6262043710000000  0.2383075799999972
  0.9637122749999989  0.9762043950000034  0.3177434500000018
  0.2137122749999989  0.0762045379999989  0.3971792760000028
  0.0470457710000005  0.3262039119999969  0.0000000149999977
  0.8803790810000010  0.6762040260000006  0.0794358630000005
  0.7137123349999968  0.0262041089999983  0.1588717249999974
  0.5470456480000010  0.3762042520000008  0.2383075649999995
  0.3803789019999968  0.7262046339999984  0.3177434210000030
  0.5470456480000010  0.0762045379999989  0.3971792760000028
  0.3803791110000034  0.3262039119999969  0.0000000149999977
  0.2137124389999983  0.6762040260000006  0.0794358630000005
  0.0470457300000007  0.0262041089999983  0.1588717249999974
  0.8803790210000031  0.3762042520000008  0.2383075649999995
  0.7137122150000010  0.7262046339999984  0.3177434210000030
  0.8803789620000018  0.0762045379999989  0.3971792760000028
  0.7137124540000030  0.3262039119999969  0.0000000149999977
  0.5470457079999989  0.6762040260000006  0.0794358630000005
  0.3803790509999985  0.0262041089999983  0.1588717249999974
  0.2137123199999991  0.3762042520000008  0.2383075649999995
  0.0470455700000016  0.7262046339999984  0.3177434210000030
  0.1017797220000034  0.6946610210000017  0.3971794249999974
  0.1517797859999988  0.5446609259999988  0.6383076310000035
  0.2017798569999982  0.3946608600000019  0.8794358370000026
  0.4017797710000011  0.7946609259999988  0.3971794249999974
  0.4517798720000030  0.6446608899999973  0.6383076310000035
  0.5017799139999966  0.4946608249999969  0.8794358370000026
  0.7017798420000005  0.8946610090000036  0.3971794249999974
  0.7517798539999987  0.7446609140000007  0.6383076310000035
  0.8017799850000031  0.5946608779999991  0.8794358370000026
  0.2017797379999990  0.3946609500000022  0.3971794249999974
  0.2517797949999974  0.2446608839999982  0.6383076310000035
  0.3017798659999968  0.0946608040000001  0.8794358370000026
  0.5017797349999995  0.4946609440000032  0.3971794249999974
  0.5517798070000026  0.3446608779999991  0.6383076310000035
  0.6017798780000021  0.1946608129999987  0.8794358370000026
  0.8017797469999977  0.5946609379999970  0.3971794249999974
  0.8517797590000029  0.4446608720000000  0.6383076310000035
  0.9017798900000003  0.2946608359999985  0.8794358370000026
  0.0017796890000028  0.9946609140000007  0.3971794249999974
  0.0517797620000024  0.8446608779999991  0.6383076310000035
  0.1017798330000019  0.6946607830000033  0.8794358370000026
  0.3017796869999998  0.0946609300000034  0.3971794249999974
  0.3517797889999983  0.9446608419999976  0.6383076310000035
  0.4017798300000024  0.7946608069999996  0.8794358370000026
  0.6017796989999979  0.1946609319999979  0.3971794249999974
  0.6517797710000011  0.0446608549999965  0.6383076310000035
  0.7017799019999984  0.8946607709999981  0.8794358370000026
  0.9017798300000024  0.2946609850000002  0.3971794249999974
  0.9517798420000005  0.1446609050000021  0.6383076310000035
  0.0017800330000028  0.9946608540000028  0.8794358370000026
  0.1017796989999979  0.9446609020000025  0.5177434679999990
  0.1517797710000011  0.7946608069999996  0.7588717940000009
  0.2017798569999982  0.6446607110000002  0.9999999400000021
  0.2017797379999990  0.6446610090000036  0.5177434679999990
  0.2517797949999974  0.4946609739999985  0.7588717940000009
  0.3017798959999993  0.3446608479999966  0.9999999400000021
  0.5017797949999974  0.7446609739999985  0.5177434679999990
  0.5517798659999968  0.5946608779999991  0.7588717940000009
  0.6017798780000021  0.4446608129999987  0.9999999400000021
  0.8017797469999977  0.8446609379999970  0.5177434679999990
  0.8517798780000021  0.6946609020000025  0.7588717940000009
  0.9017798900000003  0.5446608069999996  0.9999999400000021
  0.0017796750000016  0.2446609289999984  0.5177434679999990
  0.0517798659999968  0.0946608929999968  0.7588717940000009
  0.1017799380000000  0.9446607830000033  0.9999999400000021
  0.3017797170000023  0.3446609080000016  0.5177434679999990
  0.3517798190000008  0.1946608570000024  0.7588717940000009
  0.4017798599999978  0.0446607579999991  0.9999999400000021
  0.6017797590000029  0.4446609620000004  0.5177434679999990
  0.6517798300000024  0.2946608960000034  0.7588717940000009
  0.7017799019999984  0.1446608010000006  0.9999999400000021
  0.9017797110000032  0.5446609850000002  0.5177434679999990
  0.9517798420000005  0.3946609199999997  0.7588717940000009
  0.0017799139999966  0.2446607950000015  0.9999999400000021
  0.4017796810000007  0.0446609259999988  0.5177434679999990
  0.4517797829999992  0.8946608299999994  0.7588717940000009
  0.5017798539999987  0.7446607349999965  0.9999999400000021
  0.7017797829999992  0.1446609349999974  0.5177434679999990
  0.7517798539999987  0.9946608540000028  0.7588717940000009
  0.8017798659999968  0.8446607589999999  0.9999999400000021
  0.2017797230000014  0.8946609500000022  0.3971794249999974
  0.2517798240000033  0.7446608540000028  0.6383076310000035
  0.3017798959999993  0.5946607589999999  0.8794358370000026
  0.0017796980000000  0.4946609440000032  0.3971794249999974
  0.0517797620000024  0.3446609080000016  0.6383076310000035
  0.1017798410000026  0.1946607980000010  0.8794358370000026
  0.3017797170000023  0.5946609379999970  0.3971794249999974
  0.3517797889999983  0.4446609020000025  0.6383076310000035
  0.4017798900000003  0.2946608069999996  0.8794358370000026
  0.6017796989999979  0.6946609620000004  0.3971794249999974
  0.6517797710000011  0.5446608660000010  0.6383076310000035
  0.7017798420000005  0.3946608010000006  0.8794358370000026
  0.9017798900000003  0.7946609850000002  0.3971794249999974
  0.9517799019999984  0.6446608899999973  0.6383076310000035
  0.0017799139999966  0.4946608249999969  0.8794358370000026
  0.1017796989999979  0.1946609319999979  0.3971794249999974
  0.1517797710000011  0.0446608700000013  0.6383076310000035
  0.2017798420000005  0.8946607709999981  0.8794358370000026
  0.4017797710000011  0.2946609560000013  0.3971794249999974
  0.4517798420000005  0.1446609050000021  0.6383076310000035
  0.5017799139999966  0.9946608540000028  0.8794358370000026
  0.7017797230000014  0.3946609199999997  0.3971794249999974
  0.7517797949999974  0.2446608389999980  0.6383076310000035
  0.8017798659999968  0.0946607739999976  0.8794358370000026
  0.5017796750000016  0.9946609140000007  0.3971794249999974
  0.5517798070000026  0.8446608779999991  0.6383076310000035
  0.6017798780000021  0.6946607830000033  0.8794358370000026
  0.8017797469999977  0.0946609149999986  0.3971794249999974
  0.8517798190000008  0.9446609020000025  0.6383076310000035
  0.9017798900000003  0.7946608069999996  0.8794358370000026
  0.0017796750000016  0.7446609140000007  0.5177434679999990
  0.0517798659999968  0.5946608779999991  0.7588717940000009
  0.1017798190000008  0.4446608129999987  0.9999999400000021
  0.3017797170000023  0.8446609969999983  0.5177434679999990
  0.3517798190000008  0.6946609020000025  0.7588717940000009
  0.4017798300000024  0.5446608069999996  0.9999999400000021
  0.6017797590000029  0.9446609620000004  0.5177434679999990
  0.6517797710000011  0.7946609259999988  0.7588717940000009
  0.7017799019999984  0.6446608299999994  0.9999999400000021
  0.1017796989999979  0.4446609620000004  0.5177434679999990
  0.1517797859999988  0.2946608960000034  0.7588717940000009
  0.2017798569999982  0.1446608010000006  0.9999999400000021
  0.4017797710000011  0.5446610449999980  0.5177434679999990
  0.4517797829999992  0.3946609500000022  0.7588717940000009
  0.5017798539999987  0.2446608690000005  0.9999999400000021
  0.7017797829999992  0.6446608899999973  0.5177434679999990
  0.7517798539999987  0.4946608249999969  0.7588717940000009
  0.8017799260000018  0.3446607589999999  0.9999999400000021
  0.2017797230000014  0.1446609500000022  0.5177434679999990
  0.2517797949999974  0.9946608540000028  0.7588717940000009
  0.3017798959999993  0.8446607589999999  0.9999999400000021
  0.5017797349999995  0.2446609440000032  0.5177434679999990
  0.5517798070000026  0.0946608710000021  0.7588717940000009
  0.6017798190000008  0.9446607830000033  0.9999999400000021
  0.8017796869999998  0.3446609080000016  0.5177434679999990
  0.8517797590000029  0.1946608570000024  0.7588717940000009
  0.9017798300000024  0.0446607470000018  0.9999999400000021
  0.9017797110000032  0.0446609299999992  0.5177434679999990
  0.9517798420000005  0.8946608299999994  0.7588717940000009
  0.0017799139999966  0.7446607349999965  0.9999999400000021
 
  0.00000000E+00  0.00000000E+00  0.00000000E+00
  0.00000000E+00  0.00000000E+00  0.00000000E+00
  0.00000000E+00  0.00000000E+00  0.00000000E+00
  0.00000000E+00  0.00000000E+00  0.00000000E+00
  0.00000000E+00  0.00000000E+00  0.00000000E+00
  0.00000000E+00  0.00000000E+00  0.00000000E+00
  0.00000000E+00  0.00000000E+00  0.00000000E+00
  0.00000000E+00  0.00000000E+00  0.00000000E+00
  0.00000000E+00  0.00000000E+00  0.00000000E+00
  0.00000000E+00  0.00000000E+00  0.00000000E+00
  0.00000000E+00  0.00000000E+00  0.00000000E+00
  0.00000000E+00  0.00000000E+00  0.00000000E+00
  0.00000000E+00  0.00000000E+00  0.00000000E+00
  0.00000000E+00  0.00000000E+00  0.00000000E+00
  0.00000000E+00  0.00000000E+00  0.00000000E+00
  0.00000000E+00  0.00000000E+00  0.00000000E+00
  0.00000000E+00  0.00000000E+00  0.00000000E+00
  0.00000000E+00  0.00000000E+00  0.00000000E+00
  0.00000000E+00  0.00000000E+00  0.00000000E+00
  0.00000000E+00  0.00000000E+00  0.00000000E+00
  0.00000000E+00  0.00000000E+00  0.00000000E+00
  0.00000000E+00  0.00000000E+00  0.00000000E+00
  0.00000000E+00  0.00000000E+00  0.00000000E+00
  0.00000000E+00  0.00000000E+00  0.00000000E+00
  0.00000000E+00  0.00000000E+00  0.00000000E+00
  0.00000000E+00  0.00000000E+00  0.00000000E+00
  0.00000000E+00  0.00000000E+00  0.00000000E+00
  0.00000000E+00  0.00000000E+00  0.00000000E+00
  0.00000000E+00  0.00000000E+00  0.00000000E+00
  0.00000000E+00  0.00000000E+00  0.00000000E+00
  0.00000000E+00  0.00000000E+00  0.00000000E+00
  0.00000000E+00  0.00000000E+00  0.00000000E+00
  0.00000000E+00  0.00000000E+00  0.00000000E+00
  0.00000000E+00  0.00000000E+00  0.00000000E+00
  0.00000000E+00  0.00000000E+00  0.00000000E+00
  0.00000000E+00  0.00000000E+00  0.00000000E+00
  0.00000000E+00  0.00000000E+00  0.00000000E+00
  0.00000000E+00  0.00000000E+00  0.00000000E+00
  0.00000000E+00  0.00000000E+00  0.00000000E+00
  0.00000000E+00  0.00000000E+00  0.00000000E+00
  0.00000000E+00  0.00000000E+00  0.00000000E+00
  0.00000000E+00  0.00000000E+00  0.00000000E+00
  0.00000000E+00  0.00000000E+00  0.00000000E+00
  0.00000000E+00  0.00000000E+00  0.00000000E+00
  0.00000000E+00  0.00000000E+00  0.00000000E+00
  0.00000000E+00  0.00000000E+00  0.00000000E+00
  0.00000000E+00  0.00000000E+00  0.00000000E+00
  0.00000000E+00  0.00000000E+00  0.00000000E+00
  0.00000000E+00  0.00000000E+00  0.00000000E+00
  0.00000000E+00  0.00000000E+00  0.00000000E+00
  0.00000000E+00  0.00000000E+00  0.00000000E+00
  0.00000000E+00  0.00000000E+00  0.00000000E+00
  0.00000000E+00  0.00000000E+00  0.00000000E+00
  0.00000000E+00  0.00000000E+00  0.00000000E+00
  0.00000000E+00  0.00000000E+00  0.00000000E+00
  0.00000000E+00  0.00000000E+00  0.00000000E+00
  0.00000000E+00  0.00000000E+00  0.00000000E+00
  0.00000000E+00  0.00000000E+00  0.00000000E+00
  0.00000000E+00  0.00000000E+00  0.00000000E+00
  0.00000000E+00  0.00000000E+00  0.00000000E+00
  0.00000000E+00  0.00000000E+00  0.00000000E+00
  0.00000000E+00  0.00000000E+00  0.00000000E+00
  0.00000000E+00  0.00000000E+00  0.00000000E+00
  0.00000000E+00  0.00000000E+00  0.00000000E+00
  0.00000000E+00  0.00000000E+00  0.00000000E+00
  0.00000000E+00  0.00000000E+00  0.00000000E+00
  0.00000000E+00  0.00000000E+00  0.00000000E+00
  0.00000000E+00  0.00000000E+00  0.00000000E+00
  0.00000000E+00  0.00000000E+00  0.00000000E+00
  0.00000000E+00  0.00000000E+00  0.00000000E+00
  0.00000000E+00  0.00000000E+00  0.00000000E+00
  0.00000000E+00  0.00000000E+00  0.00000000E+00
  0.00000000E+00  0.00000000E+00  0.00000000E+00
  0.00000000E+00  0.00000000E+00  0.00000000E+00
  0.00000000E+00  0.00000000E+00  0.00000000E+00
  0.00000000E+00  0.00000000E+00  0.00000000E+00
  0.00000000E+00  0.00000000E+00  0.00000000E+00
  0.00000000E+00  0.00000000E+00  0.00000000E+00
  0.00000000E+00  0.00000000E+00  0.00000000E+00
  0.00000000E+00  0.00000000E+00  0.00000000E+00
  0.00000000E+00  0.00000000E+00  0.00000000E+00
  0.00000000E+00  0.00000000E+00  0.00000000E+00
  0.00000000E+00  0.00000000E+00  0.00000000E+00
  0.00000000E+00  0.00000000E+00  0.00000000E+00
  0.00000000E+00  0.00000000E+00  0.00000000E+00
  0.00000000E+00  0.00000000E+00  0.00000000E+00
  0.00000000E+00  0.00000000E+00  0.00000000E+00
  0.00000000E+00  0.00000000E+00  0.00000000E+00
  0.00000000E+00  0.00000000E+00  0.00000000E+00
  0.00000000E+00  0.00000000E+00  0.00000000E+00
  0.00000000E+00  0.00000000E+00  0.00000000E+00
  0.00000000E+00  0.00000000E+00  0.00000000E+00
  0.00000000E+00  0.00000000E+00  0.00000000E+00
  0.00000000E+00  0.00000000E+00  0.00000000E+00
  0.00000000E+00  0.00000000E+00  0.00000000E+00
  0.00000000E+00  0.00000000E+00  0.00000000E+00
  0.00000000E+00  0.00000000E+00  0.00000000E+00
  0.00000000E+00  0.00000000E+00  0.00000000E+00
  0.00000000E+00  0.00000000E+00  0.00000000E+00
  0.00000000E+00  0.00000000E+00  0.00000000E+00
  0.00000000E+00  0.00000000E+00  0.00000000E+00
  0.00000000E+00  0.00000000E+00  0.00000000E+00
  0.00000000E+00  0.00000000E+00  0.00000000E+00
  0.00000000E+00  0.00000000E+00  0.00000000E+00
  0.00000000E+00  0.00000000E+00  0.00000000E+00
  0.00000000E+00  0.00000000E+00  0.00000000E+00
  0.00000000E+00  0.00000000E+00  0.00000000E+00
  0.00000000E+00  0.00000000E+00  0.00000000E+00
  0.00000000E+00  0.00000000E+00  0.00000000E+00
  0.00000000E+00  0.00000000E+00  0.00000000E+00
  0.00000000E+00  0.00000000E+00  0.00000000E+00
  0.00000000E+00  0.00000000E+00  0.00000000E+00
  0.00000000E+00  0.00000000E+00  0.00000000E+00
  0.00000000E+00  0.00000000E+00  0.00000000E+00
  0.00000000E+00  0.00000000E+00  0.00000000E+00
  0.00000000E+00  0.00000000E+00  0.00000000E+00
  0.00000000E+00  0.00000000E+00  0.00000000E+00
  0.00000000E+00  0.00000000E+00  0.00000000E+00
  0.00000000E+00  0.00000000E+00  0.00000000E+00
  0.00000000E+00  0.00000000E+00  0.00000000E+00
  0.00000000E+00  0.00000000E+00  0.00000000E+00
  0.00000000E+00  0.00000000E+00  0.00000000E+00
  0.00000000E+00  0.00000000E+00  0.00000000E+00
  0.00000000E+00  0.00000000E+00  0.00000000E+00
  0.00000000E+00  0.00000000E+00  0.00000000E+00
  0.00000000E+00  0.00000000E+00  0.00000000E+00
  0.00000000E+00  0.00000000E+00  0.00000000E+00
  0.00000000E+00  0.00000000E+00  0.00000000E+00
  0.00000000E+00  0.00000000E+00  0.00000000E+00
  0.00000000E+00  0.00000000E+00  0.00000000E+00
  0.00000000E+00  0.00000000E+00  0.00000000E+00
  0.00000000E+00  0.00000000E+00  0.00000000E+00
  0.00000000E+00  0.00000000E+00  0.00000000E+00
  0.00000000E+00  0.00000000E+00  0.00000000E+00
  0.00000000E+00  0.00000000E+00  0.00000000E+00
  0.00000000E+00  0.00000000E+00  0.00000000E+00
  0.00000000E+00  0.00000000E+00  0.00000000E+00
  0.00000000E+00  0.00000000E+00  0.00000000E+00
  0.00000000E+00  0.00000000E+00  0.00000000E+00
  0.00000000E+00  0.00000000E+00  0.00000000E+00
  0.00000000E+00  0.00000000E+00  0.00000000E+00
  0.00000000E+00  0.00000000E+00  0.00000000E+00
  0.00000000E+00  0.00000000E+00  0.00000000E+00
  0.00000000E+00  0.00000000E+00  0.00000000E+00
  0.00000000E+00  0.00000000E+00  0.00000000E+00
  0.00000000E+00  0.00000000E+00  0.00000000E+00
  0.00000000E+00  0.00000000E+00  0.00000000E+00
  0.00000000E+00  0.00000000E+00  0.00000000E+00
  0.00000000E+00  0.00000000E+00  0.00000000E+00
  0.00000000E+00  0.00000000E+00  0.00000000E+00
  0.00000000E+00  0.00000000E+00  0.00000000E+00
  0.00000000E+00  0.00000000E+00  0.00000000E+00
  0.00000000E+00  0.00000000E+00  0.00000000E+00
  0.00000000E+00  0.00000000E+00  0.00000000E+00
  0.00000000E+00  0.00000000E+00  0.00000000E+00
  0.00000000E+00  0.00000000E+00  0.00000000E+00
  0.00000000E+00  0.00000000E+00  0.00000000E+00
  0.00000000E+00  0.00000000E+00  0.00000000E+00
  0.00000000E+00  0.00000000E+00  0.00000000E+00
  0.00000000E+00  0.00000000E+00  0.00000000E+00
  0.00000000E+00  0.00000000E+00  0.00000000E+00
  0.00000000E+00  0.00000000E+00  0.00000000E+00
  0.00000000E+00  0.00000000E+00  0.00000000E+00
  0.00000000E+00  0.00000000E+00  0.00000000E+00
  0.00000000E+00  0.00000000E+00  0.00000000E+00
  0.00000000E+00  0.00000000E+00  0.00000000E+00
  0.00000000E+00  0.00000000E+00  0.00000000E+00
  0.00000000E+00  0.00000000E+00  0.00000000E+00
  0.00000000E+00  0.00000000E+00  0.00000000E+00
  0.00000000E+00  0.00000000E+00  0.00000000E+00
  0.00000000E+00  0.00000000E+00  0.00000000E+00
  0.00000000E+00  0.00000000E+00  0.00000000E+00
  0.00000000E+00  0.00000000E+00  0.00000000E+00
  0.00000000E+00  0.00000000E+00  0.00000000E+00
  0.00000000E+00  0.00000000E+00  0.00000000E+00
  0.00000000E+00  0.00000000E+00  0.00000000E+00
  0.00000000E+00  0.00000000E+00  0.00000000E+00
  0.00000000E+00  0.00000000E+00  0.00000000E+00
  0.00000000E+00  0.00000000E+00  0.00000000E+00
  0.00000000E+00  0.00000000E+00  0.00000000E+00
  0.00000000E+00  0.00000000E+00  0.00000000E+00
  0.00000000E+00  0.00000000E+00  0.00000000E+00
  0.00000000E+00  0.00000000E+00  0.00000000E+00
  0.00000000E+00  0.00000000E+00  0.00000000E+00
  0.00000000E+00  0.00000000E+00  0.00000000E+00
  0.00000000E+00  0.00000000E+00  0.00000000E+00
  0.00000000E+00  0.00000000E+00  0.00000000E+00
  0.00000000E+00  0.00000000E+00  0.00000000E+00
  0.00000000E+00  0.00000000E+00  0.00000000E+00
  0.00000000E+00  0.00000000E+00  0.00000000E+00
  0.00000000E+00  0.00000000E+00  0.00000000E+00
  0.00000000E+00  0.00000000E+00  0.00000000E+00
