Ge+Si
    1.000000000
   16.973400116    0.000000000    0.000000000
    0.000000000   17.891534805    0.000000000
    0.000000000    0.000000000   11.261644363
Ge  Si 
72     120
Direct
    0.130378962    0.826204419    0.397179216
    0.963712454    0.076203898    0.000000000
    0.797045708    0.426204026    0.079435863
    0.630379021    0.776204109    0.158871710
    0.463712275    0.126204371    0.238307580
    0.297045529    0.476204634    0.317743450
    0.463712275    0.826204419    0.397179216
    0.297045767    0.076203898    0.000000000
    0.130379096    0.426204026    0.079435863
    0.963712394    0.776204109    0.158871710
    0.797045648    0.126204371    0.238307580
    0.630378902    0.476204634    0.317743450
    0.797045648    0.826204419    0.397179216
    0.630379140    0.076203898    0.000000000
    0.463712454    0.426204026    0.079435863
    0.297045738    0.776204109    0.158871710
    0.130379006    0.126204371    0.238307580
    0.963712275    0.476204634    0.317743450
    0.213712215    0.576204777    0.397179425
    0.047045767    0.826203942    0.000000011
    0.880379081    0.176204205    0.079435818
    0.713712335    0.526204228    0.158871695
    0.547045648    0.876204491    0.238307565
    0.380378962    0.226204634    0.317743450
    0.547045588    0.576204777    0.397179425
    0.380379111    0.826203942    0.000000011
    0.213712409    0.176204205    0.079435818
    0.047045726    0.526204228    0.158871695
    0.880379021    0.876204491    0.238307565
    0.713712275    0.226204634    0.317743450
    0.880378902    0.576204777    0.397179425
    0.713712394    0.826203942    0.000000011
    0.547045708    0.176204205    0.079435818
    0.380379051    0.526204228    0.158871695
    0.213712320    0.876204491    0.238307565
    0.047045615    0.226204634    0.317743450
    0.130378902    0.326204538    0.397179306
    0.963712394    0.576203942    0.000000005
    0.797045708    0.926204145    0.079435878
    0.630379021    0.276204109    0.158871680
    0.463712275    0.626204371    0.238307580
    0.297045588    0.976204395    0.317743450
    0.463712215    0.326204538    0.397179306
    0.297045767    0.576203942    0.000000005
    0.130379066    0.926204145    0.079435878
    0.963712394    0.276204109    0.158871680
    0.797045648    0.626204371    0.238307580
    0.630378962    0.976204395    0.317743450
    0.797045588    0.326204538    0.397179306
    0.630379081    0.576203942    0.000000005
    0.463712424    0.926204145    0.079435878
    0.297045738    0.276204109    0.158871680
    0.130379006    0.626204371    0.238307580
    0.963712275    0.976204395    0.317743450
    0.213712275    0.076204538    0.397179276
    0.047045771    0.326203912    0.000000015
    0.880379081    0.676204026    0.079435863
    0.713712335    0.026204109    0.158871725
    0.547045648    0.376204252    0.238307565
    0.380378902    0.726204634    0.317743421
    0.547045648    0.076204538    0.397179276
    0.380379111    0.326203912    0.000000015
    0.213712439    0.676204026    0.079435863
    0.047045730    0.026204109    0.158871725
    0.880379021    0.376204252    0.238307565
    0.713712215    0.726204634    0.317743421
    0.880378962    0.076204538    0.397179276
    0.713712454    0.326203912    0.000000015
    0.547045708    0.676204026    0.079435863
    0.380379051    0.026204109    0.158871725
    0.213712320    0.376204252    0.238307565
    0.047045570    0.726204634    0.317743421
    0.101779722    0.694661021    0.397179425
    0.151779786    0.544660926    0.638307631
    0.201779857    0.394660860    0.879435837
    0.401779771    0.794660926    0.397179425
    0.451779872    0.644660890    0.638307631
    0.501779914    0.494660825    0.879435837
    0.701779842    0.894661009    0.397179425
    0.751779854    0.744660914    0.638307631
    0.801779985    0.594660878    0.879435837
    0.201779738    0.394660950    0.397179425
    0.251779795    0.244660884    0.638307631
    0.301779866    0.094660804    0.879435837
    0.501779735    0.494660944    0.397179425
    0.551779807    0.344660878    0.638307631
    0.601779878    0.194660813    0.879435837
    0.801779747    0.594660938    0.397179425
    0.851779759    0.444660872    0.638307631
    0.901779890    0.294660836    0.879435837
    0.001779689    0.994660914    0.397179425
    0.051779762    0.844660878    0.638307631
    0.101779833    0.694660783    0.879435837
    0.301779687    0.094660930    0.397179425
    0.351779789    0.944660842    0.638307631
    0.401779830    0.794660807    0.879435837
    0.601779699    0.194660932    0.397179425
    0.651779771    0.044660855    0.638307631
    0.701779902    0.894660771    0.879435837
    0.901779830    0.294660985    0.397179425
    0.951779842    0.144660905    0.638307631
    0.001780033    0.994660854    0.879435837
    0.101779699    0.944660902    0.517743468
    0.151779771    0.794660807    0.758871794
    0.201779857    0.644660711    0.999999940
    0.201779738    0.644661009    0.517743468
    0.251779795    0.494660974    0.758871794
    0.301779896    0.344660848    0.999999940
    0.501779795    0.744660974    0.517743468
    0.551779866    0.594660878    0.758871794
    0.601779878    0.444660813    0.999999940
    0.801779747    0.844660938    0.517743468
    0.851779878    0.694660902    0.758871794
    0.901779890    0.544660807    0.999999940
    0.001779675    0.244660929    0.517743468
    0.051779866    0.094660893    0.758871794
    0.101779938    0.944660783    0.999999940
    0.301779717    0.344660908    0.517743468
    0.351779819    0.194660857    0.758871794
    0.401779860    0.044660758    0.999999940
    0.601779759    0.444660962    0.517743468
    0.651779830    0.294660896    0.758871794
    0.701779902    0.144660801    0.999999940
    0.901779711    0.544660985    0.517743468
    0.951779842    0.394660920    0.758871794
    0.001779914    0.244660795    0.999999940
    0.401779681    0.044660926    0.517743468
    0.451779783    0.894660830    0.758871794
    0.501779854    0.744660735    0.999999940
    0.701779783    0.144660935    0.517743468
    0.751779854    0.994660854    0.758871794
    0.801779866    0.844660759    0.999999940
    0.201779723    0.894660950    0.397179425
    0.251779824    0.744660854    0.638307631
    0.301779896    0.594660759    0.879435837
    0.001779698    0.494660944    0.397179425
    0.051779762    0.344660908    0.638307631
    0.101779841    0.194660798    0.879435837
    0.301779717    0.594660938    0.397179425
    0.351779789    0.444660902    0.638307631
    0.401779890    0.294660807    0.879435837
    0.601779699    0.694660962    0.397179425
    0.651779771    0.544660866    0.638307631
    0.701779842    0.394660801    0.879435837
    0.901779890    0.794660985    0.397179425
    0.951779902    0.644660890    0.638307631
    0.001779914    0.494660825    0.879435837
    0.101779699    0.194660932    0.397179425
    0.151779771    0.044660870    0.638307631
    0.201779842    0.894660771    0.879435837
    0.401779771    0.294660956    0.397179425
    0.451779842    0.144660905    0.638307631
    0.501779914    0.994660854    0.879435837
    0.701779723    0.394660920    0.397179425
    0.751779795    0.244660839    0.638307631
    0.801779866    0.094660774    0.879435837
    0.501779675    0.994660914    0.397179425
    0.551779807    0.844660878    0.638307631
    0.601779878    0.694660783    0.879435837
    0.801779747    0.094660915    0.397179425
    0.851779819    0.944660902    0.638307631
    0.901779890    0.794660807    0.879435837
    0.001779675    0.744660914    0.517743468
    0.051779866    0.594660878    0.758871794
    0.101779819    0.444660813    0.999999940
    0.301779717    0.844660997    0.517743468
    0.351779819    0.694660902    0.758871794
    0.401779830    0.544660807    0.999999940
    0.601779759    0.944660962    0.517743468
    0.651779771    0.794660926    0.758871794
    0.701779902    0.644660830    0.999999940
    0.101779699    0.444660962    0.517743468
    0.151779786    0.294660896    0.758871794
    0.201779857    0.144660801    0.999999940
    0.401779771    0.544661045    0.517743468
    0.451779783    0.394660950    0.758871794
    0.501779854    0.244660869    0.999999940
    0.701779783    0.644660890    0.517743468
    0.751779854    0.494660825    0.758871794
    0.801779926    0.344660759    0.999999940
    0.201779723    0.144660950    0.517743468
    0.251779795    0.994660854    0.758871794
    0.301779896    0.844660759    0.999999940
    0.501779735    0.244660944    0.517743468
    0.551779807    0.094660871    0.758871794
    0.601779819    0.944660783    0.999999940
    0.801779687    0.344660908    0.517743468
    0.851779759    0.194660857    0.758871794
    0.901779830    0.044660747    0.999999940
    0.901779711    0.044660930    0.517743468
    0.951779842    0.894660830    0.758871794
    0.001779914    0.744660735    0.999999940
