C+Si
    1.000000000
   13.345743179    0.000000000    0.000000000
   -6.672872543   11.557754517    0.000000000
    0.000000612    0.000001296   17.351549149
C   Si 
308     72
Direct
    0.825397253    0.543650508    0.563733220
    0.301587492    0.924603105    0.089010566
    0.682539821    0.829364955    0.207691237
    0.063492298    0.734126747    0.326371908
    0.444444656    0.638888597    0.445052654
    0.253968477    0.686507583    0.563733220
    0.730158925    0.067460209    0.089010566
    0.111111283    0.972222149    0.207691237
    0.492063761    0.876983881    0.326371908
    0.873016238    0.781745732    0.445052594
    0.682539940    0.829364896    0.563733101
    0.158730388    0.210317418    0.089010559
    0.539682746    0.115079314    0.207691267
    0.920635343    0.019841040    0.326371849
    0.301587820    0.924602926    0.445052683
    0.111111403    0.972221851    0.563733220
    0.587301791    0.353174508    0.089010559
    0.968254149    0.257936448    0.207691237
    0.349206686    0.162698254    0.326371908
    0.730159044    0.067460023    0.445052594
    0.539682865    0.115079165    0.563733280
    0.015873194    0.496031702    0.089010581
    0.396825671    0.400793582    0.207691267
    0.777778149    0.305555373    0.326371908
    0.158730745    0.210317209    0.445052654
    0.968254209    0.257936150    0.563733280
    0.444444627    0.638888836    0.089010574
    0.825396955    0.543650746    0.207691237
    0.206349492    0.448412538    0.326371908
    0.587301970    0.353174359    0.445052654
    0.396825790    0.400793403    0.563733220
    0.873016059    0.781745970    0.089010559
    0.253968477    0.686507881    0.207691237
    0.634920955    0.591269672    0.326371908
    0.015873432    0.496031493    0.445052654
    0.634921074    0.591269493    0.593403459
    0.730158925    0.067460306    0.000000071
    0.111111283    0.972222149    0.118680738
    0.492063761    0.876984000    0.237361431
    0.873016357    0.781745911    0.356042117
    0.253968716    0.686507702    0.474722803
    0.063492537    0.734126627    0.593403399
    0.158730358    0.210317448    0.000000065
    0.539682746    0.115079306    0.118680708
    0.920635283    0.019841162    0.237361401
    0.301587701    0.924603045    0.356042087
    0.682540178    0.829364777    0.474722803
    0.492063999    0.876983881    0.593403459
    0.587301791    0.353174567    0.000000052
    0.968254209    0.257936418    0.118680716
    0.349206686    0.162698299    0.237361401
    0.730159283    0.067460120    0.356042117
    0.111111641    0.972221911    0.474722803
    0.920635223    0.019840864    0.593403459
    0.015873149    0.496031731    0.000000069
    0.396825552    0.400793582    0.118680716
    0.777778029    0.305555373    0.237361401
    0.158730507    0.210317269    0.356042087
    0.539682984    0.115079038    0.474722803
    0.349206924    0.162698239    0.593403459
    0.444444627    0.638888955    0.000000053
    0.825397015    0.543650806    0.118680730
    0.206349492    0.448412627    0.237361401
    0.587301970    0.353174508    0.356042117
    0.968254447    0.257936299    0.474722832
    0.777778149    0.305555135    0.593403459
    0.873015940    0.781746030    0.000000048
    0.253968477    0.686507821    0.118680701
    0.634920955    0.591269672    0.237361401
    0.015873432    0.496031553    0.356042087
    0.396826029    0.400793433    0.474722832
    0.206349611    0.448412478    0.593403518
    0.301587433    0.924603224    0.000000062
    0.682539821    0.829365075    0.118680693
    0.063492179    0.734126866    0.237361357
    0.444444895    0.638888776    0.356042117
    0.825397134    0.543650508    0.474722773
    0.325397015    0.543650389    0.563733280
    0.801587462    0.924603045    0.089010566
    0.182539821    0.829365015    0.207691163
    0.563492417    0.734126806    0.326371849
    0.944444776    0.638888657    0.445052594
    0.753968716    0.686507583    0.563733280
    0.230159044    0.067460246    0.089010596
    0.611111283    0.972222149    0.207691237
    0.992063761    0.876983941    0.326371849
    0.373016119    0.781745791    0.445052594
    0.182539940    0.829364777    0.563733220
    0.658730388    0.210317403    0.089010574
    0.039682746    0.115079291    0.207691237
    0.420635223    0.019841112    0.326371849
    0.801587582    0.924602926    0.445052594
    0.611111403    0.972221911    0.563733220
    0.087301850    0.353174508    0.089010566
    0.468254209    0.257936388    0.207691237
    0.849206686    0.162698179    0.326371849
    0.230159044    0.067460135    0.445052654
    0.039682627    0.115079060    0.563733280
    0.515873194    0.496031702    0.089010559
    0.896825552    0.400793612    0.207691237
    0.277778149    0.305555403    0.326371908
    0.658730507    0.210317224    0.445052594
    0.468254328    0.257936239    0.563733220
    0.944444656    0.638888836    0.089010522
    0.325397015    0.543650687    0.207691267
    0.706349611    0.448412508    0.326371908
    0.087301970    0.353174418    0.445052594
    0.896825552    0.400793284    0.563733280
    0.373016000    0.781745970    0.089010537
    0.753968418    0.686507881    0.207691237
    0.134920716    0.591269672    0.326371849
    0.515873313    0.496031463    0.445052654
    0.134921074    0.591269553    0.593403399
    0.230158895    0.067460284    0.000000017
    0.611111343    0.972222149    0.118680678
    0.992063701    0.876984000    0.237361357
    0.373016238    0.781745851    0.356042027
    0.753968716    0.686507702    0.474722773
    0.563492537    0.734126627    0.593403339
    0.658730388    0.210317433    0.000000027
    0.039682865    0.115079269    0.118680678
    0.420635223    0.019841123    0.237361312
    0.801587582    0.924602926    0.356042027
    0.182540178    0.829364777    0.474722773
    0.992063880    0.876983821    0.593403459
    0.087301694    0.353174597    0.000000018
    0.468254149    0.257936418    0.118680708
    0.849206507    0.162698269    0.237361312
    0.230158925    0.067460075    0.356041998
    0.611111522    0.972221911    0.474722713
    0.420635462    0.019840980    0.593403399
    0.515873194    0.496031761    0.000000028
    0.896825612    0.400793552    0.118680701
    0.277778029    0.305555433    0.237361357
    0.658730388    0.210317209    0.356042027
    0.039682865    0.115079090    0.474722713
    0.849206686    0.162698060    0.593403459
    0.944444537    0.638888955    0.000000004
    0.325397015    0.543650806    0.118680701
    0.706349373    0.448412687    0.237361357
    0.087301970    0.353174478    0.356042027
    0.468254328    0.257936299    0.474722654
    0.277777910    0.305555344    0.593403459
    0.373016000    0.781746030    0.000000037
    0.753968477    0.686507881    0.118680716
    0.134920835    0.591269732    0.237361312
    0.515873313    0.496031523    0.356041998
    0.896825790    0.400793374    0.474722773
    0.706349611    0.448412418    0.593403399
    0.801587403    0.924603224    0.000000000
    0.182539821    0.829365075    0.118680708
    0.563492298    0.734126925    0.237361357
    0.944444776    0.638888717    0.356042087
    0.325397015    0.543650627    0.474722713
    0.539683104    0.615079045    0.563733280
    0.015873194    0.996031702    0.089010581
    0.396825552    0.900793612    0.207691237
    0.777778149    0.805555344    0.326371908
    0.158730507    0.710317254    0.445052654
    0.968254447    0.757936180    0.563733220
    0.444444627    0.138888806    0.089010559
    0.825396895    0.043650664    0.207691237
    0.206349492    0.948412478    0.326371849
    0.587301970    0.853174329    0.445052654
    0.396825790    0.900793433    0.563733280
    0.873016119    0.281745970    0.089010566
    0.253968477    0.186507791    0.207691163
    0.634921074    0.091269650    0.326371908
    0.015873432    0.996031404    0.445052594
    0.825397134    0.043650459    0.563733280
    0.301587492    0.424603105    0.089010566
    0.682539821    0.329364955    0.207691237
    0.063492417    0.234126836    0.326371938
    0.444444895    0.138888687    0.445052654
    0.253968716    0.186507717    0.563733280
    0.730158925    0.567460299    0.089010559
    0.111111283    0.472222179    0.207691237
    0.492063999    0.376984000    0.326371938
    0.873016357    0.281745821    0.445052654
    0.682539940    0.329364836    0.563733339
    0.158730388    0.710317373    0.089010529
    0.539682746    0.615079284    0.207691267
    0.920635223    0.519841135    0.326371849
    0.301587582    0.424602896    0.445052564
    0.111111403    0.472222060    0.563733280
    0.587301672    0.853174627    0.089010529
    0.968254149    0.757936418    0.207691163
    0.349206448    0.662698388    0.326371819
    0.730159044    0.567460060    0.445052654
    0.349206686    0.662698090    0.593403459
    0.444444597    0.138888851    0.000000035
    0.825397074    0.043650683    0.118680701
    0.206349492    0.948412538    0.237361357
    0.587301970    0.853174388    0.356042027
    0.968254447    0.757936180    0.474722773
    0.777778387    0.805555284    0.593403399
    0.873016119    0.281746000    0.000000020
    0.253968596    0.186507821    0.118680693
    0.634921074    0.091269717    0.237361357
    0.015873432    0.996031582    0.356042027
    0.396826029    0.900793374    0.474722713
    0.206349850    0.948412299    0.593403459
    0.301587462    0.424603164    0.000000025
    0.682539880    0.329364985    0.118680708
    0.063492298    0.234126821    0.237361357
    0.444444656    0.138888732    0.356042027
    0.825397253    0.043650553    0.474722713
    0.634921074    0.091269575    0.593403459
    0.730158925    0.567460299    0.000000023
    0.111111403    0.472222120    0.118680730
    0.492063761    0.376984000    0.237361357
    0.873016238    0.281745821    0.356042087
    0.253968716    0.186507568    0.474722773
    0.063492298    0.234126672    0.593403459
    0.158730239    0.710317492    0.000000021
    0.539682686    0.615079343    0.118680693
    0.920635045    0.519841135    0.237361357
    0.301587582    0.424603075    0.356042087
    0.682539940    0.329364926    0.474722713
    0.492063761    0.376983792    0.593403339
    0.587301672    0.853174567    0.000000032
    0.968254149    0.757936358    0.118680701
    0.349206567    0.662698269    0.237361357
    0.730158925    0.567460060    0.356042027
    0.111111641    0.472221881    0.474722773
    0.920635462    0.519841015    0.593403399
    0.015873156    0.996031702    0.000000027
    0.396825612    0.900793493    0.118680701
    0.777777970    0.805555344    0.237361357
    0.158730507    0.710317254    0.356042027
    0.539682984    0.615079045    0.474722773
    0.039682865    0.615079045    0.563733220
    0.515873194    0.996031642    0.089010559
    0.896825552    0.900793493    0.207691237
    0.277778149    0.805555344    0.326371908
    0.658730507    0.710317194    0.445052654
    0.468254328    0.757936299    0.563733220
    0.944444656    0.138888836    0.089010566
    0.325397015    0.043650653    0.207691163
    0.706349611    0.948412478    0.326371908
    0.087301970    0.853174269    0.445052594
    0.896825671    0.900793314    0.563733280
    0.373016030    0.281745940    0.089010566
    0.753968358    0.186507806    0.207691237
    0.134920955    0.091269657    0.326371938
    0.515873432    0.996031463    0.445052654
    0.325397253    0.043650568    0.563733280
    0.801587462    0.424603134    0.089010566
    0.182539940    0.329364926    0.207691163
    0.563492537    0.234126791    0.326371908
    0.944444776    0.138888553    0.445052654
    0.753968716    0.186507702    0.563733280
    0.230158806    0.567460239    0.089010537
    0.611111283    0.472222090    0.207691267
    0.992063880    0.376983970    0.326371908
    0.373016357    0.281745762    0.445052505
    0.182540178    0.329364866    0.563733280
    0.658730209    0.710317433    0.089010537
    0.039682746    0.615079284    0.207691163
    0.420635104    0.519841135    0.326371849
    0.801587701    0.424602836    0.445052594
    0.611111641    0.472221941    0.563733280
    0.087301850    0.853174567    0.089010522
    0.468254209    0.757936418    0.207691267
    0.849206686    0.662698269    0.326371908
    0.230159044    0.567460120    0.445052594
    0.849206686    0.662698150    0.593403518
    0.944444478    0.138888851    0.000000082
    0.325396776    0.043650754    0.118680708
    0.706349373    0.948412538    0.237361401
    0.087301970    0.853174448    0.356042117
    0.468254328    0.757936180    0.474722803
    0.277778149    0.805555224    0.593403459
    0.373015970    0.281746030    0.000000055
    0.753968298    0.186507866    0.118680716
    0.134920835    0.091269732    0.237361431
    0.515873313    0.996031582    0.356042087
    0.896825790    0.900793433    0.474722803
    0.706349611    0.948412418    0.593403459
    0.801587403    0.424603164    0.000000054
    0.182539821    0.329365015    0.118680730
    0.563492179    0.234126955    0.237361431
    0.944444895    0.138888717    0.356042087
    0.325397491    0.043650601    0.474722773
    0.134921074    0.091269463    0.593403518
    0.230158865    0.567460299    0.000000069
    0.611111224    0.472222149    0.118680716
    0.992063761    0.376984000    0.237361401
    0.373016238    0.281745821    0.356042087
    0.753968596    0.186507627    0.474722803
    0.563492537    0.234126776    0.593403459
    0.658730209    0.710317433    0.000000053
    0.039682627    0.615079343    0.118680693
    0.420635104    0.519841194    0.237361401
    0.801587582    0.424603045    0.356042117
    0.182540178    0.329364777    0.474722803
    0.992063880    0.376983762    0.593403459
    0.087301679    0.853174567    0.000000052
    0.468254060    0.757936418    0.118680716
    0.849206567    0.662698209    0.237361401
    0.230159044    0.567460060    0.356042117
    0.611111522    0.472221911    0.474722803
    0.420635223    0.519840837    0.593403459
    0.515873134    0.996031642    0.000000060
    0.896825552    0.900793433    0.118680730
    0.277778029    0.805555344    0.237361431
    0.658730388    0.710317135    0.356042117
    0.039682865    0.615078986    0.474722803
    0.014827028    0.000000000    0.593403518
    0.348160386    0.000000000    0.774113059
    0.681493878    0.000000000    0.954822481
    0.681493700    0.333333343    0.593403518
    0.014827132    0.333333343    0.774113059
    0.348160625    0.333333343    0.954822481
    0.348160386    0.666666687    0.593403518
    0.681493700    0.666666687    0.774113059
    0.014827251    0.666666687    0.954822481
    0.348160416    0.000000000    0.638580918
    0.681493759    0.000000000    0.819290340
    0.014827251    0.000000000    0.999999940
    0.014827013    0.333333343    0.638580918
    0.348160386    0.333333343    0.819290340
    0.681493878    0.333333343    0.999999940
    0.681493759    0.666666687    0.638580918
    0.014827132    0.666666687    0.819290400
    0.348160625    0.666666687    0.999999821
    0.348160386    0.166666672    0.593403518
    0.681493759    0.166666672    0.774113059
    0.014827132    0.166666672    0.954822481
    0.014827028    0.500000000    0.593403518
    0.348160386    0.500000000    0.774113059
    0.681493878    0.500000000    0.954822481
    0.681493700    0.833333373    0.593403518
    0.014827132    0.833333373    0.774113059
    0.348160505    0.833333373    0.954822481
    0.681493819    0.166666687    0.638580918
    0.014827251    0.166666687    0.819290340
    0.348160625    0.166666687    0.999999821
    0.348160386    0.500000000    0.638580918
    0.681493878    0.500000000    0.819290340
    0.014827251    0.500000000    0.999999821
    0.014827132    0.833333433    0.638580918
    0.348160505    0.833333433    0.819290340
    0.681493759    0.833333433    0.999999821
    0.514827013    0.000000000    0.593403518
    0.848160446    0.000000000    0.774113059
    0.181493878    0.000000000    0.954822481
    0.181493700    0.333333343    0.593403518
    0.514827073    0.333333343    0.774113059
    0.848160565    0.333333343    0.954822481
    0.848160386    0.666666687    0.593403518
    0.181493759    0.666666687    0.774113059
    0.514827251    0.666666687    0.954822481
    0.848160386    0.000000014    0.638580859
    0.181493878    0.000000014    0.819290340
    0.514827251    0.000000014    0.999999821
    0.514827073    0.333333343    0.638580918
    0.848160505    0.333333343    0.819290340
    0.181493878    0.333333343    0.999999821
    0.181493640    0.666666687    0.638580918
    0.514827073    0.666666687    0.819290340
    0.848160386    0.666666687    0.999999821
    0.848160386    0.166666672    0.593403518
    0.181493759    0.166666672    0.774113059
    0.514827251    0.166666672    0.954822481
    0.514827013    0.500000000    0.593403518
    0.848160386    0.500000000    0.774113059
    0.181493878    0.500000000    0.954822481
    0.181493714    0.833333313    0.593403518
    0.514827073    0.833333313    0.774113059
    0.848160505    0.833333313    0.954822481
    0.181493640    0.166666687    0.638580918
    0.514827073    0.166666687    0.819290340
    0.848160505    0.166666687    0.999999940
    0.848160446    0.500000000    0.638580918
    0.181493878    0.500000000    0.819290340
    0.514827251    0.500000000    0.999999821
    0.514827013    0.833333373    0.638580918
    0.848160386    0.833333373    0.819290340
    0.181493878    0.833333373    0.999999940
