Ge+Sn
    1.000000000
   19.599195480    0.000000000    0.000000000
    6.533064842   18.478298187    0.000000000
    0.000000000    0.000000000   21.473073959
Ge  Sn 
192     144
Direct
    0.941464424    0.974913359    0.000000018
    0.503964424    0.787413359    0.093155503
    0.066464484    0.599913359    0.186311007
    0.628964424    0.412413418    0.279466420
    0.191464424    0.224913478    0.372621983
    0.753964186    0.037413359    0.465777338
    0.441464454    0.974913359    0.000000022
    0.003964441    0.787413359    0.093155503
    0.566464424    0.599913359    0.186310992
    0.128964424    0.412413359    0.279466420
    0.691464424    0.224913418    0.372621953
    0.253964305    0.037413359    0.465777487
    0.191464439    0.224913329    0.000000022
    0.753964424    0.037413348    0.093155503
    0.316464424    0.849913359    0.186310992
    0.878964424    0.662413418    0.279466420
    0.441464424    0.474913478    0.372621953
    0.003964305    0.287413359    0.465777487
    0.941464484    0.474913329    0.000000022
    0.503964424    0.287413329    0.093155503
    0.066464424    0.099913359    0.186310992
    0.628964424    0.912413359    0.279466420
    0.191464424    0.724913478    0.372621953
    0.753964186    0.537413359    0.465777487
    0.691464424    0.224913359    0.000000000
    0.253964424    0.037413381    0.093155503
    0.816464424    0.849913359    0.186310992
    0.378964424    0.662413418    0.279466420
    0.941464424    0.474913418    0.372621983
    0.503964186    0.287413359    0.465777516
    0.441464454    0.474913329    0.000000000
    0.003964454    0.287413359    0.093155503
    0.566464424    0.099913374    0.186310992
    0.128964424    0.912413418    0.279466420
    0.691464424    0.724913478    0.372621983
    0.253964305    0.537413359    0.465777516
    0.191464454    0.724913359    0.000000000
    0.753964484    0.537413359    0.093155503
    0.316464484    0.349913388    0.186310992
    0.878964424    0.162413403    0.279466420
    0.441464424    0.974913418    0.372621983
    0.003964186    0.787413359    0.465777516
    0.691464424    0.724913359    0.000000011
    0.253964424    0.537413359    0.093155488
    0.816464424    0.349913359    0.186310992
    0.378964424    0.162413388    0.279466480
    0.941464424    0.974913418    0.372621953
    0.503964305    0.787413299    0.465777427
    0.066464439    0.099913336    0.000000023
    0.628964424    0.912413359    0.093155503
    0.191464424    0.724913359    0.186310977
    0.753964424    0.537413359    0.279466420
    0.316464424    0.349913418    0.372621953
    0.878964424    0.162413359    0.465777487
    0.566464484    0.099913321    0.000000010
    0.128964439    0.912413359    0.093155503
    0.691464424    0.724913359    0.186310992
    0.253964424    0.537413359    0.279466480
    0.816464424    0.349913359    0.372621953
    0.378964305    0.162413299    0.465777427
    0.316464424    0.349913359    0.000000010
    0.878964424    0.162413344    0.093155503
    0.441464424    0.974913359    0.186310992
    0.003964424    0.787413418    0.279466480
    0.566464424    0.599913478    0.372621953
    0.128964186    0.412413299    0.465777427
    0.066464446    0.599913359    0.000000010
    0.628964424    0.412413329    0.093155503
    0.191464484    0.224913359    0.186310992
    0.753964424    0.037413366    0.279466480
    0.316464424    0.849913478    0.372621953
    0.878964186    0.662413359    0.465777427
    0.816464484    0.349913329    0.000000023
    0.378964514    0.162413359    0.093155503
    0.941464484    0.974913359    0.186310992
    0.503964484    0.787413359    0.279466480
    0.066464484    0.599913359    0.372621953
    0.628964305    0.412413359    0.465777487
    0.566464484    0.599913359    0.000000023
    0.128964469    0.412413388    0.093155503
    0.691464484    0.224913374    0.186310992
    0.253964424    0.037413437    0.279466480
    0.816464424    0.849913418    0.372621953
    0.378964305    0.662413359    0.465777487
    0.316464484    0.849913359    0.000000023
    0.878964484    0.662413359    0.093155503
    0.441464484    0.474913418    0.186310992
    0.003964484    0.287413418    0.279466480
    0.566464424    0.099913470    0.372621953
    0.128964186    0.912413359    0.465777487
    0.816464484    0.849913359    0.000000003
    0.378964514    0.662413418    0.093155511
    0.941464484    0.474913388    0.186310977
    0.503964543    0.287413388    0.279466480
    0.066464484    0.099913426    0.372621953
    0.628964305    0.912413359    0.465777427
    0.191464424    0.099913329    0.000000018
    0.753964424    0.912413359    0.093155496
    0.316464424    0.724913359    0.186310992
    0.878964424    0.537413359    0.279466510
    0.441464424    0.349913359    0.372621983
    0.003964305    0.162413299    0.465777516
    0.941464424    0.349913329    0.000000018
    0.503964424    0.162413359    0.093155496
    0.066464424    0.974913359    0.186310992
    0.628964424    0.787413359    0.279466510
    0.191464424    0.599913359    0.372621983
    0.753964186    0.412413299    0.465777516
    0.691464365    0.099913336    0.000000004
    0.253964394    0.912413359    0.093155496
    0.816464424    0.724913359    0.186310992
    0.378964365    0.537413359    0.279466480
    0.941464424    0.349913359    0.372621983
    0.503964305    0.162413359    0.465777367
    0.441464484    0.349913359    0.000000006
    0.003964453    0.162413374    0.093155496
    0.566464484    0.974913418    0.186310992
    0.128964424    0.787413359    0.279466480
    0.691464424    0.599913359    0.372622013
    0.253964305    0.412413359    0.465777487
    0.191464469    0.599913359    0.000000006
    0.753964424    0.412413359    0.093155496
    0.316464484    0.224913403    0.186310992
    0.878964424    0.037413388    0.279466480
    0.441464543    0.849913359    0.372622013
    0.003964305    0.662413359    0.465777487
    0.941464424    0.849913418    0.000000006
    0.503964424    0.662413418    0.093155496
    0.066464484    0.474913418    0.186310992
    0.628964424    0.287413448    0.279466480
    0.191464543    0.099913388    0.372622013
    0.753964186    0.912413478    0.465777487
    0.691464424    0.599913359    0.000000018
    0.253964454    0.412413359    0.093155496
    0.816464424    0.224913374    0.186310977
    0.378964484    0.037413400    0.279466480
    0.941464424    0.849913418    0.372621953
    0.503964305    0.662413359    0.465777487
    0.441464454    0.849913359    0.000000018
    0.003964434    0.662413418    0.093155496
    0.566464424    0.474913388    0.186310977
    0.128964484    0.287413388    0.279466480
    0.691464424    0.099913403    0.372621953
    0.253964305    0.912413299    0.465777487
    0.066464432    0.974913359    0.000000017
    0.628964424    0.787413359    0.093155496
    0.191464424    0.599913359    0.186310992
    0.753964424    0.412413359    0.279466510
    0.316464543    0.224913418    0.372621924
    0.878964186    0.037413299    0.465777427
    0.566464484    0.974913359    0.000000017
    0.128964439    0.787413359    0.093155503
    0.691464424    0.599913359    0.186310977
    0.253964484    0.412413359    0.279466480
    0.816464424    0.224913418    0.372621953
    0.378964305    0.037413359    0.465777338
    0.316464454    0.224913359    0.000000017
    0.878964424    0.037413359    0.093155503
    0.441464424    0.849913359    0.186310977
    0.003964484    0.662413359    0.279466480
    0.566464424    0.474913418    0.372621953
    0.128964424    0.287413359    0.465777338
    0.066464461    0.474913329    0.000000017
    0.628964424    0.287413359    0.093155503
    0.191464484    0.099913374    0.186310977
    0.753964424    0.912413418    0.279466480
    0.316464424    0.724913359    0.372621953
    0.878964424    0.537413359    0.465777338
    0.816464484    0.224913359    0.000000029
    0.378964484    0.037413385    0.093155511
    0.941464484    0.849913359    0.186310992
    0.503964484    0.662413359    0.279466420
    0.066464484    0.474913418    0.372621953
    0.628964305    0.287413359    0.465777427
    0.566464484    0.474913359    0.000000029
    0.128964484    0.287413388    0.093155511
    0.691464424    0.099913396    0.186310992
    0.253964484    0.912413418    0.279466420
    0.816464424    0.724913418    0.372621953
    0.378964305    0.537413359    0.465777427
    0.316464454    0.724913359    0.000000027
    0.878964424    0.537413359    0.093155511
    0.441464424    0.349913359    0.186310992
    0.003964484    0.162413359    0.279466420
    0.566464424    0.974913359    0.372621983
    0.128964305    0.787413359    0.465777427
    0.816464543    0.724913418    0.000000043
    0.378964514    0.537413418    0.093155488
    0.941464543    0.349913388    0.186310992
    0.503964484    0.162413433    0.279466480
    0.066464484    0.974913478    0.372621953
    0.628964305    0.787413359    0.465777427
    0.991010249    0.657676935    0.465777516
    0.866010189    0.532676816    0.572622001
    0.741010189    0.407676697    0.679466486
    0.616010189    0.282676548    0.786310911
    0.491010129    0.157676399    0.893155515
    0.366010129    0.032676294    0.999999940
    0.991010249    0.324343592    0.465777516
    0.866010189    0.199343473    0.572622001
    0.741010189    0.074343339    0.679466486
    0.616010189    0.949343204    0.786310911
    0.491010129    0.824343085    0.893155515
    0.366010129    0.699342966    0.999999940
    0.991010249    0.991010249    0.465777516
    0.866010189    0.866010129    0.572622001
    0.741010189    0.741009951    0.679466486
    0.616010189    0.616009831    0.786310911
    0.491010129    0.491009712    0.893155515
    0.366010129    0.366009593    0.999999940
    0.491010249    0.824343622    0.465777516
    0.366010219    0.699343503    0.572622001
    0.241010219    0.574343324    0.679466486
    0.116010167    0.449343175    0.786310971
    0.991010129    0.324343055    0.893155515
    0.866010129    0.199342936    0.999999940
    0.491010249    0.491010368    0.465777516
    0.366010219    0.366010189    0.572622001
    0.241010219    0.241010040    0.679466486
    0.116010167    0.116009913    0.786310971
    0.991010129    0.991009772    0.893155515
    0.866010129    0.866009712    0.999999940
    0.491010249    0.157676876    0.465777516
    0.366010219    0.032676764    0.572622001
    0.241010219    0.907676637    0.679466486
    0.116010167    0.782676458    0.786310971
    0.991010129    0.657676339    0.893155515
    0.866010129    0.532676280    0.999999940
    0.241010249    0.907676935    0.465777516
    0.116010226    0.782676756    0.572622001
    0.991010189    0.657676637    0.679466486
    0.866010189    0.532676518    0.786310911
    0.741010129    0.407676429    0.893155515
    0.616010129    0.282676280    0.999999940
    0.241010249    0.574343681    0.465777516
    0.116010226    0.449343532    0.572622001
    0.991010189    0.324343383    0.679466486
    0.866010189    0.199343234    0.786310911
    0.741010129    0.074343123    0.893155515
    0.616010129    0.949343026    0.999999940
    0.241010249    0.241010264    0.465777516
    0.116010226    0.116010129    0.572622001
    0.991010189    0.991010010    0.679466486
    0.866010189    0.866009831    0.786310911
    0.741010129    0.741009712    0.893155515
    0.616010129    0.616009593    0.999999940
    0.741010249    0.741010249    0.465777516
    0.616010249    0.616010129    0.572622001
    0.491010219    0.491010010    0.679466486
    0.366010159    0.366009861    0.786310971
    0.241010144    0.241009742    0.893155515
    0.116010129    0.116009608    0.999999940
    0.741010249    0.407676876    0.465777516
    0.616010249    0.282676727    0.572622001
    0.491010219    0.157676622    0.679466486
    0.366010159    0.032676473    0.786310971
    0.241010144    0.907676339    0.893155515
    0.116010129    0.782676220    0.999999940
    0.741010249    0.074343577    0.465777516
    0.616010249    0.949343443    0.572622001
    0.491010219    0.824343324    0.679466486
    0.366010159    0.699343204    0.786310971
    0.241010144    0.574343085    0.893155515
    0.116010129    0.449342906    0.999999940
    0.366010249    0.949343562    0.465777576
    0.241010219    0.824343443    0.572622001
    0.116010211    0.699343324    0.679466486
    0.991010129    0.574343145    0.786310971
    0.866010129    0.449343026    0.893155515
    0.741010129    0.324342906    0.999999940
    0.366010249    0.616010308    0.465777576
    0.241010219    0.491010129    0.572622001
    0.116010211    0.366010040    0.679466486
    0.991010129    0.241009876    0.786310971
    0.866010129    0.116009749    0.893155515
    0.741010129    0.991009653    0.999999940
    0.366010249    0.282676965    0.465777576
    0.241010219    0.157676816    0.572622001
    0.116010211    0.032676701    0.679466486
    0.991010129    0.907676518    0.786310971
    0.866010129    0.782676458    0.893155515
    0.741010129    0.657676339    0.999999940
    0.866010308    0.782677054    0.465777516
    0.741010249    0.657676935    0.572622001
    0.616010249    0.532676697    0.679466486
    0.491010189    0.407676578    0.786310971
    0.366010189    0.282676458    0.893155515
    0.241010174    0.157676324    0.999999940
    0.866010308    0.449343622    0.465777516
    0.741010249    0.324343383    0.572622001
    0.616010249    0.199343294    0.679466486
    0.491010189    0.074343145    0.786310971
    0.366010189    0.949343026    0.893155515
    0.241010174    0.824342906    0.999999940
    0.866010308    0.116010211    0.465777516
    0.741010249    0.991010070    0.572622001
    0.616010249    0.866009951    0.679466486
    0.491010189    0.741009831    0.786310971
    0.366010189    0.616009712    0.893155515
    0.241010174    0.491009593    0.999999940
    0.116010241    0.699343681    0.465777516
    0.991010249    0.574343503    0.572622001
    0.866010189    0.449343354    0.679466486
    0.741010129    0.324343234    0.786310971
    0.616010129    0.199343085    0.893155515
    0.491010129    0.074342959    0.999999940
    0.116010241    0.366010278    0.465777516
    0.991010249    0.241010144    0.572622001
    0.866010189    0.116010033    0.679466486
    0.741010129    0.991009891    0.786310971
    0.616010129    0.866009772    0.893155515
    0.491010129    0.741009653    0.999999940
    0.116010241    0.032676905    0.465777516
    0.991010249    0.907676756    0.572622001
    0.866010189    0.782676637    0.679466486
    0.741010129    0.657676458    0.786310971
    0.616010129    0.532676458    0.893155515
    0.491010129    0.407676280    0.999999940
    0.616010249    0.866010368    0.465777576
    0.491010219    0.741010189    0.572622001
    0.366010219    0.616010010    0.679466486
    0.241010159    0.491009921    0.786310971
    0.116010137    0.366009831    0.893155515
    0.991010129    0.241009653    0.999999940
    0.616010249    0.532676995    0.465777576
    0.491010219    0.407676816    0.572622001
    0.366010219    0.282676697    0.679466486
    0.241010159    0.157676548    0.786310971
    0.116010137    0.032676414    0.893155515
    0.991010129    0.907676280    0.999999940
    0.616010249    0.199343577    0.465777576
    0.491010219    0.074343428    0.572622001
    0.366010219    0.949343324    0.679466486
    0.241010159    0.824343145    0.786310971
    0.116010137    0.699343085    0.893155515
    0.991010129    0.574342966    0.999999940
