Ge+Sn                                   
   1.00000000000000     
    11.3156003950000006    0.0000000000000000    0.0000000000000000
     0.0000000000000000   16.0026760099999983    0.0000000000000000
     0.0000000000000000    0.0000000000000000   25.6042156220000017
   Ge   Sn
    96    72
Direct
  0.9706627730000008  0.4559941589999994  0.0000000180000015
  0.7206627130000030  0.0809941369999976  0.0781252089999995
  0.4706627730000008  0.7059941289999969  0.1562504170000025
  0.2206628920000000  0.3309942480000032  0.2343755659999971
  0.9706627130000030  0.9559941289999969  0.3125007749999966
  0.7206627130000030  0.5809941289999969  0.3906260429999975
  0.4706627730000008  0.4559941589999994  0.0000000180000015
  0.2206627580000031  0.0809941369999976  0.0781252089999995
  0.9706627730000008  0.7059941289999969  0.1562504170000025
  0.7206628320000021  0.3309942480000032  0.2343755659999971
  0.4706628320000021  0.9559941289999969  0.3125007749999966
  0.2206627730000008  0.5809941289999969  0.3906260429999975
  0.9706627730000008  0.9559941289999969  0.0000000160000013
  0.7206627130000030  0.5809941289999969  0.0781252159999966
  0.4706627730000008  0.2059941289999969  0.1562504019999977
  0.2206628920000000  0.8309943679999989  0.2343755659999971
  0.9706627130000030  0.4559941289999969  0.3125008049999991
  0.7206627130000030  0.0809941289999969  0.3906260130000021
  0.4706627730000008  0.9559941289999969  0.0000000160000013
  0.2206627580000031  0.5809941289999969  0.0781252159999966
  0.9706627730000008  0.2059941289999969  0.1562504019999977
  0.7206628320000021  0.8309943679999989  0.2343755659999971
  0.4706628320000021  0.4559941289999969  0.3125008049999991
  0.2206627730000008  0.0809941289999969  0.3906260130000021
  0.9706627730000008  0.7059941289999969  0.0000000209999982
  0.7206627130000030  0.3309941289999969  0.0781252089999995
  0.4706627730000008  0.9559941289999969  0.1562504019999977
  0.2206628920000000  0.5809942480000032  0.2343755959999996
  0.9706627130000030  0.2059941890000019  0.3125008049999991
  0.7206627130000030  0.8309941289999969  0.3906260429999975
  0.4706627730000008  0.7059941289999969  0.0000000209999982
  0.2206627580000031  0.3309941289999969  0.0781252089999995
  0.9706627730000008  0.9559941289999969  0.1562504019999977
  0.7206628320000021  0.5809942480000032  0.2343755959999996
  0.4706628320000021  0.2059941890000019  0.3125008049999991
  0.2206627730000008  0.8309941289999969  0.3906260429999975
  0.9706627730000008  0.2059941440000017  0.0000000169999979
  0.7206627130000030  0.8309941289999969  0.0781252089999995
  0.4706627730000008  0.4559941289999969  0.1562504019999977
  0.2206628920000000  0.0809942480000032  0.2343755959999996
  0.9706627130000030  0.7059942480000032  0.3125007749999966
  0.7206627130000030  0.3309941289999969  0.3906260130000021
  0.4706627730000008  0.2059941440000017  0.0000000169999979
  0.2206627580000031  0.8309941289999969  0.0781252089999995
  0.9706627730000008  0.4559941289999969  0.1562504019999977
  0.7206628320000021  0.0809942480000032  0.2343755959999996
  0.4706628320000021  0.7059942480000032  0.3125007749999966
  0.2206627730000008  0.3309941289999969  0.3906260130000021
  0.3456627429999983  0.5809941890000019  0.0000000260000022
  0.0956627580000031  0.2059941589999994  0.0781252089999995
  0.8456627730000008  0.8309941289999969  0.1562504019999977
  0.5956628320000021  0.4559942480000032  0.2343755659999971
  0.3456627730000008  0.0809941890000019  0.3125008049999991
  0.0956627130000030  0.7059941289999969  0.3906260429999975
  0.8456628320000021  0.5809941890000019  0.0000000260000022
  0.5956627730000008  0.2059941589999994  0.0781252089999995
  0.3456628019999997  0.8309941289999969  0.1562504019999977
  0.0956628839999993  0.4559942480000032  0.2343755659999971
  0.8456628320000021  0.0809941890000019  0.3125008049999991
  0.5956627730000008  0.7059941289999969  0.3906260429999975
  0.3456627429999983  0.0809941369999976  0.0000000129999975
  0.0956627580000031  0.7059941289999969  0.0781252089999995
  0.8456627730000008  0.3309941289999969  0.1562504019999977
  0.5956628320000021  0.9559942480000032  0.2343755959999996
  0.3456627730000008  0.5809942480000032  0.3125007749999966
  0.0956627130000030  0.2059940099999977  0.3906260130000021
  0.8456628320000021  0.0809941369999976  0.0000000129999975
  0.5956627730000008  0.7059941289999969  0.0781252089999995
  0.3456628019999997  0.3309941289999969  0.1562504019999977
  0.0956628839999993  0.9559942480000032  0.2343755959999996
  0.8456628320000021  0.5809942480000032  0.3125007749999966
  0.5956627730000008  0.2059940099999977  0.3906260130000021
  0.3456627429999983  0.8309941890000019  0.0000000000000000
  0.0956627580000031  0.4559941890000019  0.0781252089999995
  0.8456627730000008  0.0809941739999971  0.1562504019999977
  0.5956628320000021  0.7059943080000011  0.2343755659999971
  0.3456627730000008  0.3309942480000032  0.3125007749999966
  0.0956627130000030  0.9559941289999969  0.3906259829999996
  0.8456628320000021  0.8309941890000019  0.0000000000000000
  0.5956627730000008  0.4559941890000019  0.0781252089999995
  0.3456628019999997  0.0809941739999971  0.1562504019999977
  0.0956628839999993  0.7059943080000011  0.2343755659999971
  0.8456628320000021  0.3309942480000032  0.3125007749999966
  0.5956627730000008  0.9559941289999969  0.3906259829999996
  0.3456627429999983  0.3309941289999969  0.0000000180000015
  0.0956627580000031  0.9559941289999969  0.0781252159999966
  0.8456627730000008  0.5809941289999969  0.1562504019999977
  0.5956628320000021  0.2059942480000032  0.2343755959999996
  0.3456627730000008  0.8309941289999969  0.3125007749999966
  0.0956627130000030  0.4559941289999969  0.3906260130000021
  0.8456628320000021  0.3309941289999969  0.0000000180000015
  0.5956627730000008  0.9559941289999969  0.0781252159999966
  0.3456628019999997  0.5809941289999969  0.1562504019999977
  0.0956628839999993  0.2059942480000032  0.2343755959999996
  0.8456628320000021  0.8309941289999969  0.3125007749999966
  0.5956627730000008  0.4559941289999969  0.3906260130000021
  0.1160714250000012  0.6091744900000009  0.4712992310000033
  0.1160713430000015  0.8591746090000001  0.5609048009999995
  0.1160713430000015  0.1091747279999993  0.6505103710000029
  0.1160712240000024  0.3591749670000013  0.7401158210000034
  0.1160712240000024  0.6091749670000013  0.8297213319999983
  0.1160712240000024  0.8591750860000005  0.9193268419999967
  0.4494048059999969  0.9425078630000030  0.4712992310000033
  0.4494047459999990  0.1925078630000030  0.5609048009999995
  0.4494047459999990  0.4425079820000022  0.6505103710000029
  0.4494046570000023  0.6925082209999971  0.7401158210000034
  0.4494046570000023  0.9425083400000034  0.8297213319999983
  0.4494045969999974  0.1925084590000026  0.9193268419999967
  0.7827381489999965  0.2758412359999980  0.4712992310000033
  0.7827380900000023  0.5258412359999980  0.5609048009999995
  0.7827382090000015  0.7758414750000000  0.6505103710000029
  0.7827379109999981  0.0258414750000000  0.7401158210000034
  0.7827379699999995  0.2758415939999992  0.8297213319999983
  0.7827379699999995  0.5258418319999976  0.9193268419999967
  0.1160714549999966  0.1091744900000009  0.4712992310000033
  0.1160713430000015  0.3591746090000001  0.5609047410000016
  0.1160713430000015  0.6091747279999993  0.6505103710000029
  0.1160713430000015  0.8591748480000021  0.7401158210000034
  0.1160712240000024  0.1091749670000013  0.8297213319999983
  0.1160712240000024  0.3591750860000005  0.9193268419999967
  0.4494048059999969  0.4425078630000030  0.4712992310000033
  0.4494047760000015  0.6925079820000022  0.5609047410000016
  0.4494048059999969  0.9425082209999971  0.6505103710000029
  0.4494046869999977  0.1925082209999971  0.7401158210000034
  0.4494047159999965  0.4425083400000034  0.8297213319999983
  0.4494045380000031  0.6925085780000018  0.9193268419999967
  0.7827382090000015  0.7758411769999967  0.4712992310000033
  0.7827380299999973  0.0258412359999980  0.5609047410000016
  0.7827380900000023  0.2758414750000000  0.6505103710000029
  0.7827380299999973  0.5258414750000000  0.7401158210000034
  0.7827379109999981  0.7758415939999992  0.8297213319999983
  0.7827379699999995  0.0258417129999984  0.9193268419999967
  0.1994047459999990  0.9425078630000030  0.4712992310000033
  0.1994046720000000  0.1925078630000030  0.5609047410000016
  0.1994047159999965  0.4425079820000022  0.6505103710000029
  0.1994045530000008  0.6925081010000014  0.7401158210000034
  0.1994045530000008  0.9425082209999971  0.8297213319999983
  0.1994045670000020  0.1925083400000034  0.9193268419999967
  0.5327381489999965  0.2758412359999980  0.4712992310000033
  0.5327380299999973  0.5258412359999980  0.5609048009999995
  0.5327380900000023  0.7758414750000000  0.6505103710000029
  0.5327380299999973  0.0258415939999992  0.7401158210000034
  0.5327377919999989  0.2758415939999992  0.8297213319999983
  0.5327379109999981  0.5258417129999984  0.9193268419999967
  0.8660714029999994  0.6091745499999988  0.4712992310000033
  0.8660714029999994  0.8591746090000001  0.5609048009999995
  0.8660713430000015  0.1091747279999993  0.6505103710000029
  0.8660712240000024  0.3591748480000021  0.7401158210000034
  0.8660712240000024  0.6091749670000013  0.8297213319999983
  0.8660712240000024  0.8591750860000005  0.9193268419999967
  0.1994047609999967  0.4425079820000022  0.4712992310000033
  0.1994047020000025  0.6925079820000022  0.5609048009999995
  0.1994046570000023  0.9425081010000014  0.6505103109999979
  0.1994046720000000  0.1925084590000026  0.7401158210000034
  0.1994045670000020  0.4425083400000034  0.8297213909999996
  0.1994045080000006  0.6925085780000018  0.9193268419999967
  0.5327381489999965  0.7758411769999967  0.4712992310000033
  0.5327380900000023  0.0258412359999980  0.5609048009999995
  0.5327379699999995  0.2758414750000000  0.6505103710000029
  0.5327379699999995  0.5258414750000000  0.7401158210000034
  0.5327379699999995  0.7758415939999992  0.8297213319999983
  0.5327378510000003  0.0258417129999984  0.9193268419999967
  0.8660714029999994  0.1091744900000009  0.4712992310000033
  0.8660713430000015  0.3591746090000001  0.5609048009999995
  0.8660714029999994  0.6091747279999993  0.6505103710000029
  0.8660712840000002  0.8591748480000021  0.7401158210000034
  0.8660712240000024  0.1091748480000021  0.8297213319999983
  0.8660711650000010  0.3591750860000005  0.9193268419999967
 
  0.00000000E+00  0.00000000E+00  0.00000000E+00
  0.00000000E+00  0.00000000E+00  0.00000000E+00
  0.00000000E+00  0.00000000E+00  0.00000000E+00
  0.00000000E+00  0.00000000E+00  0.00000000E+00
  0.00000000E+00  0.00000000E+00  0.00000000E+00
  0.00000000E+00  0.00000000E+00  0.00000000E+00
  0.00000000E+00  0.00000000E+00  0.00000000E+00
  0.00000000E+00  0.00000000E+00  0.00000000E+00
  0.00000000E+00  0.00000000E+00  0.00000000E+00
  0.00000000E+00  0.00000000E+00  0.00000000E+00
  0.00000000E+00  0.00000000E+00  0.00000000E+00
  0.00000000E+00  0.00000000E+00  0.00000000E+00
  0.00000000E+00  0.00000000E+00  0.00000000E+00
  0.00000000E+00  0.00000000E+00  0.00000000E+00
  0.00000000E+00  0.00000000E+00  0.00000000E+00
  0.00000000E+00  0.00000000E+00  0.00000000E+00
  0.00000000E+00  0.00000000E+00  0.00000000E+00
  0.00000000E+00  0.00000000E+00  0.00000000E+00
  0.00000000E+00  0.00000000E+00  0.00000000E+00
  0.00000000E+00  0.00000000E+00  0.00000000E+00
  0.00000000E+00  0.00000000E+00  0.00000000E+00
  0.00000000E+00  0.00000000E+00  0.00000000E+00
  0.00000000E+00  0.00000000E+00  0.00000000E+00
  0.00000000E+00  0.00000000E+00  0.00000000E+00
  0.00000000E+00  0.00000000E+00  0.00000000E+00
  0.00000000E+00  0.00000000E+00  0.00000000E+00
  0.00000000E+00  0.00000000E+00  0.00000000E+00
  0.00000000E+00  0.00000000E+00  0.00000000E+00
  0.00000000E+00  0.00000000E+00  0.00000000E+00
  0.00000000E+00  0.00000000E+00  0.00000000E+00
  0.00000000E+00  0.00000000E+00  0.00000000E+00
  0.00000000E+00  0.00000000E+00  0.00000000E+00
  0.00000000E+00  0.00000000E+00  0.00000000E+00
  0.00000000E+00  0.00000000E+00  0.00000000E+00
  0.00000000E+00  0.00000000E+00  0.00000000E+00
  0.00000000E+00  0.00000000E+00  0.00000000E+00
  0.00000000E+00  0.00000000E+00  0.00000000E+00
  0.00000000E+00  0.00000000E+00  0.00000000E+00
  0.00000000E+00  0.00000000E+00  0.00000000E+00
  0.00000000E+00  0.00000000E+00  0.00000000E+00
  0.00000000E+00  0.00000000E+00  0.00000000E+00
  0.00000000E+00  0.00000000E+00  0.00000000E+00
  0.00000000E+00  0.00000000E+00  0.00000000E+00
  0.00000000E+00  0.00000000E+00  0.00000000E+00
  0.00000000E+00  0.00000000E+00  0.00000000E+00
  0.00000000E+00  0.00000000E+00  0.00000000E+00
  0.00000000E+00  0.00000000E+00  0.00000000E+00
  0.00000000E+00  0.00000000E+00  0.00000000E+00
  0.00000000E+00  0.00000000E+00  0.00000000E+00
  0.00000000E+00  0.00000000E+00  0.00000000E+00
  0.00000000E+00  0.00000000E+00  0.00000000E+00
  0.00000000E+00  0.00000000E+00  0.00000000E+00
  0.00000000E+00  0.00000000E+00  0.00000000E+00
  0.00000000E+00  0.00000000E+00  0.00000000E+00
  0.00000000E+00  0.00000000E+00  0.00000000E+00
  0.00000000E+00  0.00000000E+00  0.00000000E+00
  0.00000000E+00  0.00000000E+00  0.00000000E+00
  0.00000000E+00  0.00000000E+00  0.00000000E+00
  0.00000000E+00  0.00000000E+00  0.00000000E+00
  0.00000000E+00  0.00000000E+00  0.00000000E+00
  0.00000000E+00  0.00000000E+00  0.00000000E+00
  0.00000000E+00  0.00000000E+00  0.00000000E+00
  0.00000000E+00  0.00000000E+00  0.00000000E+00
  0.00000000E+00  0.00000000E+00  0.00000000E+00
  0.00000000E+00  0.00000000E+00  0.00000000E+00
  0.00000000E+00  0.00000000E+00  0.00000000E+00
  0.00000000E+00  0.00000000E+00  0.00000000E+00
  0.00000000E+00  0.00000000E+00  0.00000000E+00
  0.00000000E+00  0.00000000E+00  0.00000000E+00
  0.00000000E+00  0.00000000E+00  0.00000000E+00
  0.00000000E+00  0.00000000E+00  0.00000000E+00
  0.00000000E+00  0.00000000E+00  0.00000000E+00
  0.00000000E+00  0.00000000E+00  0.00000000E+00
  0.00000000E+00  0.00000000E+00  0.00000000E+00
  0.00000000E+00  0.00000000E+00  0.00000000E+00
  0.00000000E+00  0.00000000E+00  0.00000000E+00
  0.00000000E+00  0.00000000E+00  0.00000000E+00
  0.00000000E+00  0.00000000E+00  0.00000000E+00
  0.00000000E+00  0.00000000E+00  0.00000000E+00
  0.00000000E+00  0.00000000E+00  0.00000000E+00
  0.00000000E+00  0.00000000E+00  0.00000000E+00
  0.00000000E+00  0.00000000E+00  0.00000000E+00
  0.00000000E+00  0.00000000E+00  0.00000000E+00
  0.00000000E+00  0.00000000E+00  0.00000000E+00
  0.00000000E+00  0.00000000E+00  0.00000000E+00
  0.00000000E+00  0.00000000E+00  0.00000000E+00
  0.00000000E+00  0.00000000E+00  0.00000000E+00
  0.00000000E+00  0.00000000E+00  0.00000000E+00
  0.00000000E+00  0.00000000E+00  0.00000000E+00
  0.00000000E+00  0.00000000E+00  0.00000000E+00
  0.00000000E+00  0.00000000E+00  0.00000000E+00
  0.00000000E+00  0.00000000E+00  0.00000000E+00
  0.00000000E+00  0.00000000E+00  0.00000000E+00
  0.00000000E+00  0.00000000E+00  0.00000000E+00
  0.00000000E+00  0.00000000E+00  0.00000000E+00
  0.00000000E+00  0.00000000E+00  0.00000000E+00
  0.00000000E+00  0.00000000E+00  0.00000000E+00
  0.00000000E+00  0.00000000E+00  0.00000000E+00
  0.00000000E+00  0.00000000E+00  0.00000000E+00
  0.00000000E+00  0.00000000E+00  0.00000000E+00
  0.00000000E+00  0.00000000E+00  0.00000000E+00
  0.00000000E+00  0.00000000E+00  0.00000000E+00
  0.00000000E+00  0.00000000E+00  0.00000000E+00
  0.00000000E+00  0.00000000E+00  0.00000000E+00
  0.00000000E+00  0.00000000E+00  0.00000000E+00
  0.00000000E+00  0.00000000E+00  0.00000000E+00
  0.00000000E+00  0.00000000E+00  0.00000000E+00
  0.00000000E+00  0.00000000E+00  0.00000000E+00
  0.00000000E+00  0.00000000E+00  0.00000000E+00
  0.00000000E+00  0.00000000E+00  0.00000000E+00
  0.00000000E+00  0.00000000E+00  0.00000000E+00
  0.00000000E+00  0.00000000E+00  0.00000000E+00
  0.00000000E+00  0.00000000E+00  0.00000000E+00
  0.00000000E+00  0.00000000E+00  0.00000000E+00
  0.00000000E+00  0.00000000E+00  0.00000000E+00
  0.00000000E+00  0.00000000E+00  0.00000000E+00
  0.00000000E+00  0.00000000E+00  0.00000000E+00
  0.00000000E+00  0.00000000E+00  0.00000000E+00
  0.00000000E+00  0.00000000E+00  0.00000000E+00
  0.00000000E+00  0.00000000E+00  0.00000000E+00
  0.00000000E+00  0.00000000E+00  0.00000000E+00
  0.00000000E+00  0.00000000E+00  0.00000000E+00
  0.00000000E+00  0.00000000E+00  0.00000000E+00
  0.00000000E+00  0.00000000E+00  0.00000000E+00
  0.00000000E+00  0.00000000E+00  0.00000000E+00
  0.00000000E+00  0.00000000E+00  0.00000000E+00
  0.00000000E+00  0.00000000E+00  0.00000000E+00
  0.00000000E+00  0.00000000E+00  0.00000000E+00
  0.00000000E+00  0.00000000E+00  0.00000000E+00
  0.00000000E+00  0.00000000E+00  0.00000000E+00
  0.00000000E+00  0.00000000E+00  0.00000000E+00
  0.00000000E+00  0.00000000E+00  0.00000000E+00
  0.00000000E+00  0.00000000E+00  0.00000000E+00
  0.00000000E+00  0.00000000E+00  0.00000000E+00
  0.00000000E+00  0.00000000E+00  0.00000000E+00
  0.00000000E+00  0.00000000E+00  0.00000000E+00
  0.00000000E+00  0.00000000E+00  0.00000000E+00
  0.00000000E+00  0.00000000E+00  0.00000000E+00
  0.00000000E+00  0.00000000E+00  0.00000000E+00
  0.00000000E+00  0.00000000E+00  0.00000000E+00
  0.00000000E+00  0.00000000E+00  0.00000000E+00
  0.00000000E+00  0.00000000E+00  0.00000000E+00
  0.00000000E+00  0.00000000E+00  0.00000000E+00
  0.00000000E+00  0.00000000E+00  0.00000000E+00
  0.00000000E+00  0.00000000E+00  0.00000000E+00
  0.00000000E+00  0.00000000E+00  0.00000000E+00
  0.00000000E+00  0.00000000E+00  0.00000000E+00
  0.00000000E+00  0.00000000E+00  0.00000000E+00
  0.00000000E+00  0.00000000E+00  0.00000000E+00
  0.00000000E+00  0.00000000E+00  0.00000000E+00
  0.00000000E+00  0.00000000E+00  0.00000000E+00
  0.00000000E+00  0.00000000E+00  0.00000000E+00
  0.00000000E+00  0.00000000E+00  0.00000000E+00
  0.00000000E+00  0.00000000E+00  0.00000000E+00
  0.00000000E+00  0.00000000E+00  0.00000000E+00
  0.00000000E+00  0.00000000E+00  0.00000000E+00
  0.00000000E+00  0.00000000E+00  0.00000000E+00
  0.00000000E+00  0.00000000E+00  0.00000000E+00
  0.00000000E+00  0.00000000E+00  0.00000000E+00
  0.00000000E+00  0.00000000E+00  0.00000000E+00
  0.00000000E+00  0.00000000E+00  0.00000000E+00
  0.00000000E+00  0.00000000E+00  0.00000000E+00
  0.00000000E+00  0.00000000E+00  0.00000000E+00
  0.00000000E+00  0.00000000E+00  0.00000000E+00
  0.00000000E+00  0.00000000E+00  0.00000000E+00
  0.00000000E+00  0.00000000E+00  0.00000000E+00
  0.00000000E+00  0.00000000E+00  0.00000000E+00
  0.00000000E+00  0.00000000E+00  0.00000000E+00
