Ge+Ge                                   
   1.00000000000000     
    17.8915348049999992    0.0000000000000000    0.0000000000000000
   -16.1023807529999985    7.7987394329999997    0.0000000000000000
     0.0000003200000000   -0.0000000730000000   15.6283388139999992
   Ge
    96
Direct
  0.6357643010000018  0.8810895680000002  0.5830535890000021
  0.0228133239999977  0.9771866800000026  0.0000000089999972
  0.1807081549999978  0.8192918299999974  0.0830535589999997
  0.3386029899999983  0.6613969799999992  0.1661071179999993
  0.4964978100000010  0.5035021899999990  0.2491606919999967
  0.6543926000000013  0.3456073999999987  0.3322142359999987
  0.2673435210000008  0.7495105859999995  0.5207635760000002
  0.3122870620000029  0.6877129080000017  0.0207634160000012
  0.4701818819999986  0.5298180580000036  0.1038169560000028
  0.6280767319999967  0.3719232680000033  0.1868705449999979
  0.7859715820000019  0.2140284030000004  0.2699241039999976
  0.7673432830000024  0.7495106459999974  0.5207634570000010
  0.0831327439999967  0.9337209460000011  0.6868706939999996
  0.5228132610000031  0.4771866500000002  0.0000000000000000
  0.6807081099999976  0.3192918299999974  0.0830535520000026
  0.8386029600000029  0.1613970100000017  0.1661070879999968
  0.9778694509999966  0.5389844179999983  0.5000000000000000
  0.1543926000000013  0.8456073999999987  0.3322142359999987
  0.5831328630000030  0.9337210059999990  0.6868706349999982
  0.8122870919999983  0.1877129080000017  0.0207635650000029
  0.9701818229999972  0.0298181269999986  0.1038170679999979
  0.1280766730000025  0.8719232680000033  0.1868706939999996
  0.2859715219999970  0.7140283580000002  0.2699242229999967
  0.4438663720000022  0.5561336279999978  0.3529777820000035
  0.5831331010000014  0.4337209460000011  0.6868706349999982
  0.5228132610000031  0.9771866800000026  0.0000000100000008
  0.6807081099999976  0.8192918900000024  0.0830535520000026
  0.8386029600000029  0.6613970399999971  0.1661070879999968
  0.2673435210000008  0.7495105859999995  0.5207635760000002
  0.1543926000000013  0.3456073999999987  0.3322142359999987
  0.4778695700000029  0.5389843580000004  0.5000000000000000
  0.8122872710000024  0.6877128479999968  0.0207635410000009
  0.9701821210000006  0.5298180580000036  0.1038170980000004
  0.1280769110000008  0.3719232380000008  0.1868706349999982
  0.2859717609999990  0.2140283880000027  0.2699242229999967
  0.4438667300000034  0.0561335200000030  0.3529777529999976
  0.7936591510000000  0.2231946890000032  0.6661071179999993
  0.0228133869999994  0.4771866500000002  0.0000000120000010
  0.1807081999999980  0.3192918299999974  0.0830535440000020
  0.3386030500000032  0.1613969799999992  0.1661071179999993
  0.2673432830000024  0.2495106909999976  0.5207635760000002
  0.6543926599999992  0.8456073400000008  0.3322142359999987
  0.9778694509999966  0.0389844179999983  0.5000000000000000
  0.3122870620000029  0.1877128779999993  0.0207635519999982
  0.4701818819999986  0.0298180859999988  0.1038170980000004
  0.6280767319999967  0.8719232680000033  0.1868706790000019
  0.7673432830000024  0.2495106309999997  0.5207635760000002
  0.9438663720000022  0.5561335089999986  0.3529777820000035
  0.2673434020000016  0.2495103030000010  0.9152678250000008
  0.3122874499999995  0.1877124909999992  0.4152678250000008
  0.8122874499999995  0.1877125500000005  0.4152677949999983
  0.7936590910000021  0.7231947180000020  0.6661071179999993
  0.9515538220000010  0.5652998690000004  0.7491607070000015
  0.1094486710000027  0.4074050190000023  0.8322142959999965
  0.5568171740000025  0.9600365160000024  0.9360312219999969
  0.9438664320000001  0.0561335499999984  0.3529776629999972
  0.9252380129999977  0.5916158559999971  0.6038169859999982
  0.0831327439999967  0.4337209460000011  0.6868705750000004
  0.2410275940000020  0.2758261259999983  0.7699241640000025
  0.3989224430000036  0.1179312470000013  0.8529777529999976
  0.7673432830000024  0.7495102880000033  0.9152678250000008
  0.9964978100000010  0.0035021540000031  0.2491606620000013
  0.1357642409999968  0.3810895680000002  0.5830535289999972
  0.2936589720000029  0.2231947029999972  0.6661071179999993
  0.4515538220000010  0.0652998910000022  0.7491607070000015
  0.6094485520000035  0.9074050190000023  0.8322142359999987
  0.0568171740000025  0.4600364570000011  0.9360313419999997
  0.4964978400000035  0.0035021899999990  0.2491606620000013
  0.4252378939999986  0.0916158329999988  0.6038171049999974
  0.6017612220000004  0.3982388379999975  0.4360313119999972
  0.7410275940000020  0.7758261560000008  0.7699242830000017
  0.8989224430000036  0.6179312470000013  0.8529778119999989
  0.2673435210000008  0.7495101689999970  0.9152677659999995
  0.6017614599999987  0.8982387189999983  0.4360312820000019
  0.6357643600000031  0.3810895680000002  0.5830535289999972
  0.8122875090000008  0.6877124909999992  0.4152677949999983
  0.9515539410000002  0.0652998910000022  0.7491607070000015
  0.1094486710000027  0.9074050190000023  0.8322142959999965
  0.5568171740000025  0.4600363970000032  0.9360313419999997
  0.7859715219999970  0.7140284179999981  0.2699242229999967
  0.9252380129999977  0.0916158260000017  0.6038171049999974
  0.3122873310000003  0.6877126099999984  0.4152677359999970
  0.2410275940000020  0.7758261560000008  0.7699242229999967
  0.3989224430000036  0.6179312470000013  0.8529778119999989
  0.7673434020000016  0.2495102439999997  0.9152677659999995
  0.1017612220000004  0.3982387779999996  0.4360313119999972
  0.1357642409999968  0.8810895680000002  0.5830535890000021
  0.2936589720000029  0.7231947180000020  0.6661071179999993
  0.4515538220000010  0.5652999879999996  0.7491607070000015
  0.6094485520000035  0.4074050779999965  0.8322142359999987
  0.0568174120000009  0.9600363970000032  0.9360313419999997
  0.9964977500000032  0.5035022499999968  0.2491606620000013
  0.4252382519999998  0.5916157360000014  0.6038171049999974
  0.3122874499999995  0.1877124909999992  0.4152678250000008
  0.7410278320000003  0.2758260969999995  0.7699242229999967
  0.8989226819999985  0.1179312169999989  0.8529778119999989
 
  0.00000000E+00  0.00000000E+00  0.00000000E+00
  0.00000000E+00  0.00000000E+00  0.00000000E+00
  0.00000000E+00  0.00000000E+00  0.00000000E+00
  0.00000000E+00  0.00000000E+00  0.00000000E+00
  0.00000000E+00  0.00000000E+00  0.00000000E+00
  0.00000000E+00  0.00000000E+00  0.00000000E+00
  0.00000000E+00  0.00000000E+00  0.00000000E+00
  0.00000000E+00  0.00000000E+00  0.00000000E+00
  0.00000000E+00  0.00000000E+00  0.00000000E+00
  0.00000000E+00  0.00000000E+00  0.00000000E+00
  0.00000000E+00  0.00000000E+00  0.00000000E+00
  0.00000000E+00  0.00000000E+00  0.00000000E+00
  0.00000000E+00  0.00000000E+00  0.00000000E+00
  0.00000000E+00  0.00000000E+00  0.00000000E+00
  0.00000000E+00  0.00000000E+00  0.00000000E+00
  0.00000000E+00  0.00000000E+00  0.00000000E+00
  0.00000000E+00  0.00000000E+00  0.00000000E+00
  0.00000000E+00  0.00000000E+00  0.00000000E+00
  0.00000000E+00  0.00000000E+00  0.00000000E+00
  0.00000000E+00  0.00000000E+00  0.00000000E+00
  0.00000000E+00  0.00000000E+00  0.00000000E+00
  0.00000000E+00  0.00000000E+00  0.00000000E+00
  0.00000000E+00  0.00000000E+00  0.00000000E+00
  0.00000000E+00  0.00000000E+00  0.00000000E+00
  0.00000000E+00  0.00000000E+00  0.00000000E+00
  0.00000000E+00  0.00000000E+00  0.00000000E+00
  0.00000000E+00  0.00000000E+00  0.00000000E+00
  0.00000000E+00  0.00000000E+00  0.00000000E+00
  0.00000000E+00  0.00000000E+00  0.00000000E+00
  0.00000000E+00  0.00000000E+00  0.00000000E+00
  0.00000000E+00  0.00000000E+00  0.00000000E+00
  0.00000000E+00  0.00000000E+00  0.00000000E+00
  0.00000000E+00  0.00000000E+00  0.00000000E+00
  0.00000000E+00  0.00000000E+00  0.00000000E+00
  0.00000000E+00  0.00000000E+00  0.00000000E+00
  0.00000000E+00  0.00000000E+00  0.00000000E+00
  0.00000000E+00  0.00000000E+00  0.00000000E+00
  0.00000000E+00  0.00000000E+00  0.00000000E+00
  0.00000000E+00  0.00000000E+00  0.00000000E+00
  0.00000000E+00  0.00000000E+00  0.00000000E+00
  0.00000000E+00  0.00000000E+00  0.00000000E+00
  0.00000000E+00  0.00000000E+00  0.00000000E+00
  0.00000000E+00  0.00000000E+00  0.00000000E+00
  0.00000000E+00  0.00000000E+00  0.00000000E+00
  0.00000000E+00  0.00000000E+00  0.00000000E+00
  0.00000000E+00  0.00000000E+00  0.00000000E+00
  0.00000000E+00  0.00000000E+00  0.00000000E+00
  0.00000000E+00  0.00000000E+00  0.00000000E+00
  0.00000000E+00  0.00000000E+00  0.00000000E+00
  0.00000000E+00  0.00000000E+00  0.00000000E+00
  0.00000000E+00  0.00000000E+00  0.00000000E+00
  0.00000000E+00  0.00000000E+00  0.00000000E+00
  0.00000000E+00  0.00000000E+00  0.00000000E+00
  0.00000000E+00  0.00000000E+00  0.00000000E+00
  0.00000000E+00  0.00000000E+00  0.00000000E+00
  0.00000000E+00  0.00000000E+00  0.00000000E+00
  0.00000000E+00  0.00000000E+00  0.00000000E+00
  0.00000000E+00  0.00000000E+00  0.00000000E+00
  0.00000000E+00  0.00000000E+00  0.00000000E+00
  0.00000000E+00  0.00000000E+00  0.00000000E+00
  0.00000000E+00  0.00000000E+00  0.00000000E+00
  0.00000000E+00  0.00000000E+00  0.00000000E+00
  0.00000000E+00  0.00000000E+00  0.00000000E+00
  0.00000000E+00  0.00000000E+00  0.00000000E+00
  0.00000000E+00  0.00000000E+00  0.00000000E+00
  0.00000000E+00  0.00000000E+00  0.00000000E+00
  0.00000000E+00  0.00000000E+00  0.00000000E+00
  0.00000000E+00  0.00000000E+00  0.00000000E+00
  0.00000000E+00  0.00000000E+00  0.00000000E+00
  0.00000000E+00  0.00000000E+00  0.00000000E+00
  0.00000000E+00  0.00000000E+00  0.00000000E+00
  0.00000000E+00  0.00000000E+00  0.00000000E+00
  0.00000000E+00  0.00000000E+00  0.00000000E+00
  0.00000000E+00  0.00000000E+00  0.00000000E+00
  0.00000000E+00  0.00000000E+00  0.00000000E+00
  0.00000000E+00  0.00000000E+00  0.00000000E+00
  0.00000000E+00  0.00000000E+00  0.00000000E+00
  0.00000000E+00  0.00000000E+00  0.00000000E+00
  0.00000000E+00  0.00000000E+00  0.00000000E+00
  0.00000000E+00  0.00000000E+00  0.00000000E+00
  0.00000000E+00  0.00000000E+00  0.00000000E+00
  0.00000000E+00  0.00000000E+00  0.00000000E+00
  0.00000000E+00  0.00000000E+00  0.00000000E+00
  0.00000000E+00  0.00000000E+00  0.00000000E+00
  0.00000000E+00  0.00000000E+00  0.00000000E+00
  0.00000000E+00  0.00000000E+00  0.00000000E+00
  0.00000000E+00  0.00000000E+00  0.00000000E+00
  0.00000000E+00  0.00000000E+00  0.00000000E+00
  0.00000000E+00  0.00000000E+00  0.00000000E+00
  0.00000000E+00  0.00000000E+00  0.00000000E+00
  0.00000000E+00  0.00000000E+00  0.00000000E+00
  0.00000000E+00  0.00000000E+00  0.00000000E+00
  0.00000000E+00  0.00000000E+00  0.00000000E+00
  0.00000000E+00  0.00000000E+00  0.00000000E+00
  0.00000000E+00  0.00000000E+00  0.00000000E+00
  0.00000000E+00  0.00000000E+00  0.00000000E+00
