Ge+Ge
    1.000000000
   17.891534805    0.000000000    0.000000000
  -16.102380753    7.798739433    0.000000000
    0.000000320   -0.000000073   15.628338814
Ge 
96
Direct
    0.635764301    0.881089568    0.583053589
    0.022813324    0.977186680    0.000000009
    0.180708155    0.819291830    0.083053559
    0.338602990    0.661396980    0.166107118
    0.496497810    0.503502190    0.249160692
    0.654392600    0.345607400    0.332214236
    0.267343521    0.749510586    0.520763576
    0.312287062    0.687712908    0.020763416
    0.470181882    0.529818058    0.103816956
    0.628076732    0.371923268    0.186870545
    0.785971582    0.214028403    0.269924104
    0.767343283    0.749510646    0.520763457
    0.083132744    0.933720946    0.686870694
    0.522813261    0.477186650    0.000000000
    0.680708110    0.319291830    0.083053552
    0.838602960    0.161397010    0.166107088
    0.977869451    0.538984418    0.500000000
    0.154392600    0.845607400    0.332214236
    0.583132863    0.933721006    0.686870635
    0.812287092    0.187712908    0.020763565
    0.970181823    0.029818127    0.103817068
    0.128076673    0.871923268    0.186870694
    0.285971522    0.714028358    0.269924223
    0.443866372    0.556133628    0.352977782
    0.583133101    0.433720946    0.686870635
    0.522813261    0.977186680    0.000000010
    0.680708110    0.819291890    0.083053552
    0.838602960    0.661397040    0.166107088
    0.267343521    0.749510586    0.520763576
    0.154392600    0.345607400    0.332214236
    0.477869570    0.538984358    0.500000000
    0.812287271    0.687712848    0.020763541
    0.970182121    0.529818058    0.103817098
    0.128076911    0.371923238    0.186870635
    0.285971761    0.214028388    0.269924223
    0.443866730    0.056133520    0.352977753
    0.793659151    0.223194689    0.666107118
    0.022813387    0.477186650    0.000000012
    0.180708200    0.319291830    0.083053544
    0.338603050    0.161396980    0.166107118
    0.267343283    0.249510691    0.520763576
    0.654392660    0.845607340    0.332214236
    0.977869451    0.038984418    0.500000000
    0.312287062    0.187712878    0.020763552
    0.470181882    0.029818086    0.103817098
    0.628076732    0.871923268    0.186870679
    0.767343283    0.249510631    0.520763576
    0.943866372    0.556133509    0.352977782
    0.267343402    0.249510303    0.915267825
    0.312287450    0.187712491    0.415267825
    0.812287450    0.187712550    0.415267795
    0.793659091    0.723194718    0.666107118
    0.951553822    0.565299869    0.749160707
    0.109448671    0.407405019    0.832214296
    0.556817174    0.960036516    0.936031222
    0.943866432    0.056133550    0.352977663
    0.925238013    0.591615856    0.603816986
    0.083132744    0.433720946    0.686870575
    0.241027594    0.275826126    0.769924164
    0.398922443    0.117931247    0.852977753
    0.767343283    0.749510288    0.915267825
    0.996497810    0.003502154    0.249160662
    0.135764241    0.381089568    0.583053529
    0.293658972    0.223194703    0.666107118
    0.451553822    0.065299891    0.749160707
    0.609448552    0.907405019    0.832214236
    0.056817174    0.460036457    0.936031342
    0.496497840    0.003502190    0.249160662
    0.425237894    0.091615833    0.603817105
    0.601761222    0.398238838    0.436031312
    0.741027594    0.775826156    0.769924283
    0.898922443    0.617931247    0.852977812
    0.267343521    0.749510169    0.915267766
    0.601761460    0.898238719    0.436031282
    0.635764360    0.381089568    0.583053529
    0.812287509    0.687712491    0.415267795
    0.951553941    0.065299891    0.749160707
    0.109448671    0.907405019    0.832214296
    0.556817174    0.460036397    0.936031342
    0.785971522    0.714028418    0.269924223
    0.925238013    0.091615826    0.603817105
    0.312287331    0.687712610    0.415267736
    0.241027594    0.775826156    0.769924223
    0.398922443    0.617931247    0.852977812
    0.767343402    0.249510244    0.915267766
    0.101761222    0.398238778    0.436031312
    0.135764241    0.881089568    0.583053589
    0.293658972    0.723194718    0.666107118
    0.451553822    0.565299988    0.749160707
    0.609448552    0.407405078    0.832214236
    0.056817412    0.960036397    0.936031342
    0.996497750    0.503502250    0.249160662
    0.425238252    0.591615736    0.603817105
    0.312287450    0.187712491    0.415267825
    0.741027832    0.275826097    0.769924223
    0.898922682    0.117931217    0.852977812
