C+Si
    1.000000000
   13.345744133    0.000000000    0.000000000
    6.672872066   11.557753563    0.000000000
    0.000000000    0.000000471   17.351543427
C   Si 
308     72
Direct
    0.090206265    0.772551179    0.563733339
    0.852111220    0.963027716    0.089010589
    0.661635041    0.915408611    0.207691267
    0.471158683    0.867789447    0.326371998
    0.280682445    0.820170343    0.445052683
    0.233063459    0.058265526    0.563733339
    0.994968355    0.248742059    0.089010574
    0.804492116    0.201122925    0.207691267
    0.614015818    0.153503776    0.326371998
    0.423539579    0.105884634    0.445052683
    0.375920594    0.343979865    0.563733339
    0.137825489    0.534456313    0.089010574
    0.947349310    0.486837268    0.207691267
    0.756873012    0.439218104    0.326371998
    0.566396713    0.391598940    0.445052713
    0.661634922    0.915408373    0.563733339
    0.423539788    0.105884910    0.089010574
    0.233063594    0.058265779    0.207691237
    0.042587291    0.010646618    0.326371998
    0.852111042    0.963027477    0.445052683
    0.518777728    0.629694045    0.563733339
    0.280682653    0.820170641    0.089010559
    0.090206414    0.772551477    0.207691237
    0.899730265    0.724932373    0.326371908
    0.709253788    0.677313149    0.445052683
    0.804491997    0.201122656    0.563733339
    0.566396952    0.391599178    0.089010559
    0.375920743    0.343980074    0.207691297
    0.185444549    0.296360940    0.326371938
    0.994968116    0.248741776    0.445052683
    0.947349131    0.486836940    0.563733339
    0.709254026    0.677313507    0.089010566
    0.518777847    0.629694343    0.207691237
    0.328301549    0.582075238    0.326371968
    0.137825251    0.534456074    0.445052683
    0.185444355    0.296360761    0.593403518
    0.137825519    0.534456432    0.000000045
    0.947349310    0.486837268    0.118680738
    0.756873012    0.439218163    0.237361461
    0.566396713    0.391599000    0.356042176
    0.375920534    0.343979865    0.474722832
    0.471158624    0.867789328    0.593403518
    0.423539817    0.105884999    0.000000066
    0.233063594    0.058265861    0.118680738
    0.042587318    0.010646729    0.237361461
    0.852110982    0.963027537    0.356042176
    0.661634803    0.915408432    0.474722832
    0.328301430    0.582075059    0.593403518
    0.280682683    0.820170760    0.000000044
    0.090206407    0.772551596    0.118680738
    0.899730206    0.724932432    0.237361461
    0.709253848    0.677313268    0.356042176
    0.518777609    0.629694164    0.474722832
    0.614015758    0.153503582    0.593403518
    0.566397011    0.391599268    0.000000044
    0.375920743    0.343980134    0.118680760
    0.185444474    0.296361029    0.237361461
    0.994968176    0.248741850    0.356042176
    0.804491937    0.201122731    0.474722832
    0.756872892    0.439217865    0.593403518
    0.709254146    0.677313626    0.000000039
    0.518777847    0.629694402    0.118680775
    0.328301609    0.582075298    0.237361461
    0.137825310    0.534456134    0.356042176
    0.947349072    0.486837029    0.474722832
    0.042587161    0.010646407    0.593403518
    0.994968414    0.248742104    0.000000058
    0.804492116    0.201122969    0.118680753
    0.614015937    0.153503835    0.237361461
    0.423539579    0.105884671    0.356042176
    0.233063400    0.058265541    0.474722892
    0.899730027    0.724932194    0.593403518
    0.852111220    0.963027894    0.000000034
    0.661634982    0.915408731    0.118680730
    0.471158773    0.867789626    0.237361446
    0.280682474    0.820170403    0.356042147
    0.090206243    0.772551298    0.474722803
    0.161634862    0.915408373    0.563733339
    0.923539758    0.105884880    0.089010574
    0.733063579    0.058265753    0.207691297
    0.542587280    0.010646593    0.326371998
    0.352110982    0.963027477    0.445052713
    0.304491997    0.201122716    0.563733339
    0.066396914    0.391599208    0.089010574
    0.875920713    0.343980134    0.207691267
    0.685444415    0.296360940    0.326371998
    0.494968116    0.248741820    0.445052683
    0.590206265    0.772551239    0.563733339
    0.352111191    0.963027775    0.089010574
    0.161634997    0.915408611    0.207691267
    0.971158683    0.867789447    0.326371998
    0.780682385    0.820170343    0.445052713
    0.447349072    0.486836940    0.563733339
    0.209254056    0.677313507    0.089010574
    0.018777799    0.629694402    0.207691297
    0.828301668    0.582075298    0.326371938
    0.637825251    0.534456074    0.445052713
    0.733063459    0.058265507    0.563733339
    0.494968414    0.248742044    0.089010537
    0.304492176    0.201122925    0.207691267
    0.114016011    0.153503805    0.326371938
    0.923539639    0.105884627    0.445052683
    0.875920653    0.343979806    0.563733280
    0.637825549    0.534456372    0.089010552
    0.447349370    0.486837238    0.207691208
    0.256873071    0.439218074    0.326371998
    0.066396788    0.391598940    0.445052683
    0.018777808    0.629694104    0.563733339
    0.780682743    0.820170641    0.089010544
    0.590206504    0.772551477    0.207691267
    0.399730235    0.724932313    0.326371998
    0.209253937    0.677313209    0.445052683
    0.114015818    0.153503567    0.593403459
    0.066396974    0.391599238    0.000000029
    0.875920713    0.343980104    0.118680738
    0.685444534    0.296360999    0.237361416
    0.494968176    0.248741820    0.356042147
    0.304491997    0.201122701    0.474722803
    0.256872892    0.439217895    0.593403459
    0.209254116    0.677313566    0.000000005
    0.018777853    0.629694462    0.118680708
    0.828301668    0.582075298    0.237361372
    0.637825370    0.534456134    0.356042147
    0.447349131    0.486837000    0.474722803
    0.542587221    0.010646427    0.593403459
    0.494968385    0.248742118    0.000000042
    0.304492146    0.201122969    0.118680730
    0.114015952    0.153503850    0.237361401
    0.923539639    0.105884686    0.356042147
    0.733063400    0.058265567    0.474722803
    0.399730086    0.724932253    0.593403459
    0.352111250    0.963027894    0.000000047
    0.161634982    0.915408790    0.118680738
    0.971158803    0.867789686    0.237361401
    0.780682445    0.820170522    0.356042176
    0.590206265    0.772551358    0.474722832
    0.685444355    0.296360821    0.593403459
    0.637825549    0.534456491    0.000000047
    0.447349280    0.486837357    0.118680738
    0.256873071    0.439218223    0.237361401
    0.066396758    0.391599059    0.356042176
    0.875920534    0.343979925    0.474722832
    0.971158683    0.867789328    0.593403459
    0.923539937    0.105884999    0.000000015
    0.733063638    0.058265861    0.118680708
    0.542587459    0.010646712    0.237361416
    0.352111161    0.963027537    0.356042147
    0.161634922    0.915408432    0.474722803
    0.828301489    0.582075000    0.593403459
    0.780682683    0.820170701    0.000000000
    0.590206444    0.772551596    0.118680686
    0.399730265    0.724932492    0.237361401
    0.209253907    0.677313268    0.356042147
    0.018777704    0.629694164    0.474722743
    0.161634862    0.415408403    0.563733339
    0.923539758    0.605884910    0.089010559
    0.733063579    0.558265865    0.207691267
    0.542587280    0.510646641    0.326371998
    0.352110982    0.463027507    0.445052683
    0.447349131    0.986836910    0.563733339
    0.209254056    0.177313447    0.089010611
    0.018777858    0.129694343    0.207691267
    0.828301549    0.082075179    0.326371998
    0.637825251    0.034456030    0.445052713
    0.304491997    0.701122642    0.563733339
    0.066396967    0.891599178    0.089010537
    0.875920713    0.843980074    0.207691237
    0.685444534    0.796360970    0.326371908
    0.494968116    0.748741806    0.445052624
    0.590206265    0.272551209    0.563733339
    0.352111220    0.463027716    0.089010544
    0.161634952    0.415408611    0.207691297
    0.971158803    0.367789507    0.326371938
    0.780682385    0.320170313    0.445052683
    0.875920534    0.843979776    0.563733339
    0.637825489    0.034456331    0.089010559
    0.447349280    0.986837149    0.207691297
    0.256873071    0.939218044    0.326371938
    0.066396691    0.891598880    0.445052683
    0.733063459    0.558265567    0.563733280
    0.494968414    0.748742104    0.089010552
    0.304492205    0.701122999    0.207691208
    0.114015885    0.653503835    0.326371998
    0.923539639    0.605884671    0.445052683
    0.018777752    0.129694119    0.563733339
    0.780682683    0.320170641    0.089010574
    0.590206444    0.272551507    0.207691312
    0.399730176    0.224932358    0.326371998
    0.209253877    0.177313223    0.445052683
    0.256872952    0.939217865    0.593403459
    0.209254116    0.177313551    0.000000021
    0.018777851    0.129694432    0.118680730
    0.828301668    0.082075298    0.237361401
    0.637825370    0.034456134    0.356042147
    0.447349131    0.986837029    0.474722803
    0.114015758    0.653503597    0.593403459
    0.066396944    0.891599298    0.000000026
    0.875920713    0.843980193    0.118680730
    0.685444534    0.796361089    0.237361401
    0.494968176    0.748741865    0.356042176
    0.304491997    0.701122761    0.474722803
    0.399730086    0.224932194    0.593403518
    0.352111250    0.463027865    0.000000047
    0.161635011    0.415408701    0.118680730
    0.971158803    0.367789596    0.237361401
    0.780682504    0.320170432    0.356042176
    0.590206265    0.272551298    0.474722803
    0.685444355    0.796360731    0.593403459
    0.637825489    0.034456402    0.000000042
    0.447349280    0.986837268    0.118680753
    0.256873101    0.939218163    0.237361416
    0.066396765    0.891599000    0.356042147
    0.875920534    0.843979836    0.474722832
    0.542587221    0.510646522    0.593403459
    0.494968414    0.748742163    0.000000005
    0.304492146    0.701123059    0.118680738
    0.114015944    0.653503954    0.237361401
    0.923539639    0.605884731    0.356042147
    0.733063400    0.558265626    0.474722832
    0.828301489    0.082075059    0.593403459
    0.780682743    0.320170730    0.000000005
    0.590206444    0.272551596    0.118680738
    0.399730265    0.224932447    0.237361401
    0.209253922    0.177313298    0.356042147
    0.018777706    0.129694194    0.474722832
    0.971158564    0.367789358    0.593403518
    0.923539758    0.605885029    0.000000032
    0.733063519    0.558265924    0.118680723
    0.542587340    0.510646760    0.237361416
    0.352110982    0.463027596    0.356042176
    0.161634773    0.415408492    0.474722803
    0.090206265    0.272551209    0.563733339
    0.852111220    0.463027745    0.089010574
    0.661634982    0.415408641    0.207691297
    0.471158683    0.367789477    0.326371998
    0.280682385    0.320170343    0.445052713
    0.375920594    0.843979836    0.563733339
    0.137825489    0.034456320    0.089010566
    0.947349310    0.986837208    0.207691267
    0.756873012    0.939218044    0.326371998
    0.566396713    0.891598880    0.445052683
    0.233063400    0.558265448    0.563733339
    0.994968355    0.748741984    0.089010544
    0.804492116    0.701122880    0.207691267
    0.614015937    0.653503776    0.326371938
    0.423539519    0.605884552    0.445052683
    0.518777728    0.129694045    0.563733339
    0.280682683    0.320170581    0.089010522
    0.090206422    0.272551447    0.207691267
    0.899730265    0.224932343    0.326371938
    0.709253848    0.177313194    0.445052683
    0.661634922    0.415408403    0.563733280
    0.423539788    0.605884969    0.089010559
    0.233063608    0.558265805    0.207691208
    0.042587291    0.510646641    0.326371998
    0.852110982    0.463027537    0.445052683
    0.947349131    0.986836970    0.563733339
    0.709254026    0.177313477    0.089010552
    0.518777907    0.129694358    0.207691297
    0.328301549    0.082075208    0.326371998
    0.137825236    0.034456071    0.445052683
    0.804491997    0.701122642    0.563733339
    0.566396952    0.891599238    0.089010566
    0.375920713    0.843980074    0.207691297
    0.185444385    0.796360970    0.326371998
    0.994968116    0.748741746    0.445052683
    0.185444295    0.796360731    0.593403518
    0.137825549    0.034456421    0.000000058
    0.947349310    0.986837268    0.118680753
    0.756873071    0.939218163    0.237361461
    0.566396773    0.891599000    0.356042176
    0.375920594    0.843979836    0.474722832
    0.328301489    0.082075000    0.593403518
    0.280682683    0.320170701    0.000000066
    0.090206459    0.272551537    0.118680760
    0.899730206    0.224932417    0.237361476
    0.709253907    0.177313268    0.356042176
    0.518777728    0.129694134    0.474722832
    0.471158624    0.367789358    0.593403518
    0.423539817    0.605885029    0.000000044
    0.233063549    0.558265924    0.118680760
    0.042587310    0.510646760    0.237361476
    0.852110982    0.463027596    0.356042176
    0.661634803    0.415408492    0.474722832
    0.756872892    0.939217865    0.593403518
    0.709254146    0.177313551    0.000000044
    0.518777907    0.129694417    0.118680760
    0.328301638    0.082075261    0.237361476
    0.137825340    0.034456115    0.356042206
    0.947349131    0.986836970    0.474722832
    0.614015758    0.653503656    0.593403518
    0.566396952    0.891599357    0.000000039
    0.375920683    0.843980193    0.118680775
    0.185444474    0.796361029    0.237361461
    0.994968176    0.748741865    0.356042176
    0.804491937    0.701122761    0.474722892
    0.899730027    0.224932149    0.593403459
    0.852111280    0.463027835    0.000000039
    0.661634982    0.415408701    0.118680730
    0.471158773    0.367789567    0.237361416
    0.280682445    0.320170403    0.356042176
    0.090206236    0.272551298    0.474722832
    0.042587280    0.510646462    0.593403518
    0.994968474    0.748742163    0.000000055
    0.804492235    0.701122999    0.118680753
    0.614015937    0.653503895    0.237361461
    0.423539639    0.605884671    0.356042176
    0.233063459    0.558265567    0.474722832
    0.000000000    0.681493819    0.954822659
    0.000000000    0.014827055    0.593403578
    0.000000000    0.348160446    0.774113178
    0.333333343    0.014827132    0.954822659
    0.333333343    0.348160386    0.593403578
    0.333333343    0.681493819    0.774113178
    0.666666687    0.348160386    0.954822659
    0.666666687    0.681493759    0.593403578
    0.666666687    0.014827132    0.774113178
    0.000000000    0.014827251    1.000000000
    0.000000000    0.348160416    0.638580918
    0.000000000    0.681493819    0.819290519
    0.333333343    0.348160505    1.000000000
    0.333333343    0.681493819    0.638580918
    0.333333343    0.014827132    0.819290519
    0.666666746    0.681493998    1.000000000
    0.666666746    0.014827132    0.638580918
    0.666666746    0.348160505    0.819290519
    0.166666672    0.848160446    0.954822659
    0.166666672    0.181493714    0.593403578
    0.166666672    0.514827132    0.774113178
    0.500000060    0.181493759    0.954822659
    0.500000000    0.514827073    0.593403578
    0.500000000    0.848160505    0.774113178
    0.833333373    0.514827251    0.954822659
    0.833333373    0.848160446    0.593403578
    0.833333373    0.181493759    0.774112999
    0.166666687    0.181493759    1.000000000
    0.166666687    0.514827073    0.638580918
    0.166666687    0.848160505    0.819290400
    0.500000000    0.514827132    1.000000000
    0.500000000    0.848160326    0.638580918
    0.500000000    0.181493759    0.819290400
    0.833333313    0.848160446    1.000000000
    0.833333313    0.181493714    0.638580918
    0.833333313    0.514827132    0.819290519
    0.000000000    0.181493759    0.954822659
    0.000000000    0.514827073    0.593403578
    0.000000000    0.848160446    0.774113178
    0.333333343    0.514827251    0.954822659
    0.333333343    0.848160505    0.593403578
    0.333333343    0.181493878    0.774113178
    0.666666687    0.848160446    0.954822659
    0.666666687    0.181493714    0.593403578
    0.666666687    0.514827132    0.774113178
    0.000000014    0.514827251    1.000000000
    0.000000014    0.848160446    0.638580918
    0.000000014    0.181493878    0.819290519
    0.333333373    0.848160446    1.000000000
    0.333333373    0.181493714    0.638580918
    0.333333373    0.514827073    0.819290400
    0.666666746    0.181493878    1.000000000
    0.666666746    0.514827073    0.638580918
    0.666666746    0.848160505    0.819290400
    0.166666672    0.348160386    0.954822659
    0.166666672    0.681493759    0.593403578
    0.166666672    0.014827132    0.774113178
    0.500000000    0.681493759    0.954822659
    0.500000000    0.014827051    0.593403578
    0.500000000    0.348160475    0.774113178
    0.833333313    0.014827132    0.954822659
    0.833333313    0.348160416    0.593403578
    0.833333313    0.681493759    0.774113178
    0.166666687    0.681493878    1.000000000
    0.166666687    0.014827132    0.638580978
    0.166666687    0.348160386    0.819290519
    0.500000000    0.014827251    1.000000000
    0.500000000    0.348160416    0.638580918
    0.500000000    0.681493759    0.819290519
    0.833333373    0.348160505    1.000000000
    0.833333373    0.681493700    0.638580918
    0.833333373    0.014827013    0.819290519
