Sn+Si                                   
   1.00000000000000     
    15.8952283859999994    0.0000000000000000    0.0000000000000000
   -10.5968198779999998   11.8476047520000005    0.0000000000000000
     0.0000000000000000    0.0000000000000000    6.6635937690000002
   Sn   Si
    24    36
Direct
  0.9871792200000016  0.0128207639999971  0.0000000180000015
  0.8371791840000000  0.1628208610000001  0.2177548559999991
  0.6871791479999985  0.3128209710000007  0.4355097119999982
  0.4871792200000016  0.5128207799999984  0.0000000160000013
  0.3371791539999975  0.6628208160000000  0.2177548410000014
  0.1871791330000008  0.8128209710000007  0.4355097119999982
  0.2871792319999997  0.9628206490000011  0.1088772640000002
  0.1371792409999983  0.1128207450000005  0.3266319929999995
  0.9871791599999966  0.2628208400000034  0.5443869229999976
  0.7871793509999989  0.4628206490000011  0.1088772270000007
  0.6371793149999974  0.6128208040000018  0.3266320529999973
  0.4871792790000029  0.7628208400000034  0.5443869229999976
  0.9871792200000016  0.5128207799999984  0.0000000000000000
  0.8371791840000000  0.6628208759999978  0.2177548259999966
  0.6871791479999985  0.8128209710000007  0.4355096520000004
  0.4871792200000016  0.0128207770000017  0.0000000060000005
  0.3371792140000025  0.1628208610000001  0.2177548559999991
  0.1871791330000008  0.3128209710000007  0.4355097119999982
  0.2871792319999997  0.4628206490000011  0.1088772270000007
  0.1371791959999982  0.6128207450000005  0.3266321119999986
  0.9871791599999966  0.7628208400000034  0.5443868039999984
  0.7871792319999997  0.9628206490000011  0.1088772190000000
  0.6371792549999995  0.1128208639999997  0.3266320529999973
  0.4871792200000016  0.2628208400000034  0.5443868039999984
  0.9829056259999973  0.6410251260000024  0.5443868640000034
  0.7829055790000012  0.3410250250000004  0.7266323569999997
  0.5829054120000023  0.0410249350000029  0.9088777300000004
  0.9829056259999973  0.3076917830000028  0.5443868640000034
  0.7829055790000012  0.0076917150000000  0.7266323569999997
  0.5829054120000023  0.7076916689999990  0.9088777300000004
  0.9829056259999973  0.9743584989999974  0.5443868640000034
  0.7829055790000012  0.6743583680000000  0.7266323569999997
  0.5829054120000023  0.3743582959999969  0.9088777300000004
  0.6329056619999989  0.6576917169999987  0.6355093720000013
  0.4329055850000003  0.3576916159999968  0.8177548649999977
  0.2329055220000029  0.0576915779999965  0.0000002379999984
  0.6329056619999989  0.3243584630000029  0.6355093720000013
  0.4329055850000003  0.0243583689999980  0.8177548649999977
  0.2329055220000029  0.7243583200000003  0.0000002379999984
  0.6329056619999989  0.9910252090000000  0.6355093720000013
  0.4329055850000003  0.6910251380000005  0.8177548649999977
  0.2329055220000029  0.3910250659999974  0.0000002379999984
  0.4829056259999973  0.8076917530000003  0.5443868640000034
  0.2829055489999988  0.5076916220000030  0.7266323569999997
  0.0829054419999977  0.2076916099999977  0.9088777300000004
  0.4829056259999973  0.4743584389999995  0.5443868640000034
  0.2829055489999988  0.1743583530000024  0.7266323569999997
  0.0829054419999977  0.8743582959999969  0.9088777300000004
  0.4829056259999973  0.1410251410000001  0.5443868640000034
  0.2829055489999988  0.8410250539999993  0.7266323569999997
  0.0829054419999977  0.5410249829999998  0.9088777300000004
  0.1329056769999966  0.8243585230000008  0.6355094910000005
  0.9329055549999978  0.5243583920000034  0.8177548649999977
  0.7329055069999981  0.2243583799999982  0.0000002379999984
  0.1329056769999966  0.4910252090000000  0.6355094910000005
  0.9329055549999978  0.1910251079999981  0.8177548649999977
  0.7329055069999981  0.8910251260000024  0.0000002379999984
  0.1329056769999966  0.1576919560000007  0.6355094910000005
  0.9329055549999978  0.8576918839999976  0.8177548649999977
  0.7329055069999981  0.5576919319999973  0.0000002379999984
 
  0.00000000E+00  0.00000000E+00  0.00000000E+00
  0.00000000E+00  0.00000000E+00  0.00000000E+00
  0.00000000E+00  0.00000000E+00  0.00000000E+00
  0.00000000E+00  0.00000000E+00  0.00000000E+00
  0.00000000E+00  0.00000000E+00  0.00000000E+00
  0.00000000E+00  0.00000000E+00  0.00000000E+00
  0.00000000E+00  0.00000000E+00  0.00000000E+00
  0.00000000E+00  0.00000000E+00  0.00000000E+00
  0.00000000E+00  0.00000000E+00  0.00000000E+00
  0.00000000E+00  0.00000000E+00  0.00000000E+00
  0.00000000E+00  0.00000000E+00  0.00000000E+00
  0.00000000E+00  0.00000000E+00  0.00000000E+00
  0.00000000E+00  0.00000000E+00  0.00000000E+00
  0.00000000E+00  0.00000000E+00  0.00000000E+00
  0.00000000E+00  0.00000000E+00  0.00000000E+00
  0.00000000E+00  0.00000000E+00  0.00000000E+00
  0.00000000E+00  0.00000000E+00  0.00000000E+00
  0.00000000E+00  0.00000000E+00  0.00000000E+00
  0.00000000E+00  0.00000000E+00  0.00000000E+00
  0.00000000E+00  0.00000000E+00  0.00000000E+00
  0.00000000E+00  0.00000000E+00  0.00000000E+00
  0.00000000E+00  0.00000000E+00  0.00000000E+00
  0.00000000E+00  0.00000000E+00  0.00000000E+00
  0.00000000E+00  0.00000000E+00  0.00000000E+00
  0.00000000E+00  0.00000000E+00  0.00000000E+00
  0.00000000E+00  0.00000000E+00  0.00000000E+00
  0.00000000E+00  0.00000000E+00  0.00000000E+00
  0.00000000E+00  0.00000000E+00  0.00000000E+00
  0.00000000E+00  0.00000000E+00  0.00000000E+00
  0.00000000E+00  0.00000000E+00  0.00000000E+00
  0.00000000E+00  0.00000000E+00  0.00000000E+00
  0.00000000E+00  0.00000000E+00  0.00000000E+00
  0.00000000E+00  0.00000000E+00  0.00000000E+00
  0.00000000E+00  0.00000000E+00  0.00000000E+00
  0.00000000E+00  0.00000000E+00  0.00000000E+00
  0.00000000E+00  0.00000000E+00  0.00000000E+00
  0.00000000E+00  0.00000000E+00  0.00000000E+00
  0.00000000E+00  0.00000000E+00  0.00000000E+00
  0.00000000E+00  0.00000000E+00  0.00000000E+00
  0.00000000E+00  0.00000000E+00  0.00000000E+00
  0.00000000E+00  0.00000000E+00  0.00000000E+00
  0.00000000E+00  0.00000000E+00  0.00000000E+00
  0.00000000E+00  0.00000000E+00  0.00000000E+00
  0.00000000E+00  0.00000000E+00  0.00000000E+00
  0.00000000E+00  0.00000000E+00  0.00000000E+00
  0.00000000E+00  0.00000000E+00  0.00000000E+00
  0.00000000E+00  0.00000000E+00  0.00000000E+00
  0.00000000E+00  0.00000000E+00  0.00000000E+00
  0.00000000E+00  0.00000000E+00  0.00000000E+00
  0.00000000E+00  0.00000000E+00  0.00000000E+00
  0.00000000E+00  0.00000000E+00  0.00000000E+00
  0.00000000E+00  0.00000000E+00  0.00000000E+00
  0.00000000E+00  0.00000000E+00  0.00000000E+00
  0.00000000E+00  0.00000000E+00  0.00000000E+00
  0.00000000E+00  0.00000000E+00  0.00000000E+00
  0.00000000E+00  0.00000000E+00  0.00000000E+00
  0.00000000E+00  0.00000000E+00  0.00000000E+00
  0.00000000E+00  0.00000000E+00  0.00000000E+00
  0.00000000E+00  0.00000000E+00  0.00000000E+00
  0.00000000E+00  0.00000000E+00  0.00000000E+00
