Sn+Si                                   
   1.00000000000000     
    12.9784002300000001    0.0000000000000000    0.0000000000000000
     0.0000000000000000   19.4675998690000007    0.0000000000000000
     0.0000000000000000    0.0000000000000000   17.7122459409999990
   Sn   Si
    72   144
Direct
  0.9925526379999994  0.6666666870000029  0.0000000000000000
  0.7425526379999994  0.6666666870000029  0.1831840429999971
  0.4925526979999972  0.6666666870000029  0.3663679659999985
  0.9925526379999994  0.3333333429999996  0.0000000000000000
  0.7425526379999994  0.3333333429999996  0.1831840429999971
  0.4925526979999972  0.3333333429999996  0.3663679659999985
  0.9925526379999994  0.0000000000000000  0.0000000000000000
  0.7425526379999994  0.0000000000000000  0.1831840429999971
  0.4925526979999972  0.0000000000000000  0.3663679659999985
  0.4925526680000019  0.6666666870000029  0.0000000000000000
  0.2425526680000019  0.6666666870000029  0.1831840429999971
  0.9925526979999972  0.6666666870000029  0.3663679659999985
  0.4925526680000019  0.3333333429999996  0.0000000000000000
  0.2425526680000019  0.3333333429999996  0.1831840429999971
  0.9925526979999972  0.3333333429999996  0.3663679659999985
  0.4925526680000019  0.0000000000000000  0.0000000000000000
  0.2425526680000019  0.0000000000000000  0.1831840429999971
  0.9925526979999972  0.0000000000000000  0.3663679659999985
  0.1175526600000012  0.9166667459999971  0.0915920059999991
  0.8675526979999972  0.9166667459999971  0.2747760119999967
  0.6175526379999994  0.9166667459999971  0.4579600690000021
  0.1175526600000012  0.5833334330000000  0.0915920059999991
  0.8675526979999972  0.5833334330000000  0.2747760119999967
  0.6175526379999994  0.5833334330000000  0.4579600690000021
  0.1175526600000012  0.2500000000000000  0.0915920059999991
  0.8675526979999972  0.2500000000000000  0.2747760119999967
  0.6175526379999994  0.2500000000000000  0.4579600690000021
  0.6175526379999994  0.9166667459999971  0.0915920059999991
  0.3675527270000032  0.9166667459999971  0.2747760119999967
  0.1175526749999989  0.9166667459999971  0.4579600690000021
  0.6175526379999994  0.5833334330000000  0.0915920059999991
  0.3675527270000032  0.5833334330000000  0.2747760119999967
  0.1175526749999989  0.5833334330000000  0.4579600690000021
  0.6175526379999994  0.2500000000000000  0.0915920059999991
  0.3675527270000032  0.2500000000000000  0.2747760119999967
  0.1175526749999989  0.2500000000000000  0.4579600690000021
  0.2425526680000019  0.8333333129999971  0.0000000000000000
  0.9925526379999994  0.8333333129999971  0.1831840429999971
  0.7425526979999972  0.8333333129999971  0.3663679659999985
  0.2425526680000019  0.5000000000000000  0.0000000000000000
  0.9925526379999994  0.5000000000000000  0.1831840429999971
  0.7425526979999972  0.5000000000000000  0.3663679659999985
  0.2425526680000019  0.1666666719999981  0.0000000000000000
  0.9925526379999994  0.1666666719999981  0.1831840429999971
  0.7425526979999972  0.1666666719999981  0.3663679659999985
  0.7425526379999994  0.8333333129999971  0.0000000000000000
  0.4925526680000019  0.8333333129999971  0.1831840429999971
  0.2425527270000032  0.8333333129999971  0.3663679659999985
  0.7425526379999994  0.5000000000000000  0.0000000000000000
  0.4925526680000019  0.5000000000000000  0.1831840429999971
  0.2425527270000032  0.5000000000000000  0.3663679659999985
  0.7425526379999994  0.1666666719999981  0.0000000000000000
  0.4925526680000019  0.1666666719999981  0.1831840429999971
  0.2425527270000032  0.1666666719999981  0.3663679659999985
  0.3675526680000019  0.7500000599999979  0.0915920059999991
  0.1175527199999991  0.7500000599999979  0.2747760119999967
  0.8675526979999972  0.7500000599999979  0.4579600690000021
  0.3675526680000019  0.4166667160000017  0.0915920059999991
  0.1175527199999991  0.4166667160000017  0.2747760119999967
  0.8675526979999972  0.4166667160000017  0.4579600690000021
  0.3675526680000019  0.0833333429999996  0.0915920059999991
  0.1175527199999991  0.0833333429999996  0.2747760119999967
  0.8675526979999972  0.0833333429999996  0.4579600690000021
  0.8675526379999994  0.7500000599999979  0.0915920059999991
  0.6175526979999972  0.7500000599999979  0.2747760119999967
  0.3675526379999994  0.7500000599999979  0.4579600690000021
  0.8675526379999994  0.4166667160000017  0.0915920059999991
  0.6175526979999972  0.4166667160000017  0.2747760119999967
  0.3675526379999994  0.4166667160000017  0.4579600690000021
  0.8675526379999994  0.0833333429999996  0.0915920059999991
  0.6175526979999972  0.0833333429999996  0.2747760119999967
  0.3675526379999994  0.0833333429999996  0.4579600690000021
  0.9785172939999995  0.4999999699999975  0.4579600690000021
  0.7285171750000003  0.4999999400000021  0.5663679840000029
  0.4785171150000025  0.4999998810000008  0.6747760769999971
  0.2285170560000012  0.4999997910000005  0.7831839919999979
  0.9785169359999983  0.4999997319999991  0.8915919069999987
  0.7285168169999992  0.4999997019999967  0.0000000000000000
  0.3118506069999967  0.6666666870000029  0.4579600690000021
  0.0618505070000026  0.6666666269999979  0.5663679840000029
  0.8118504290000033  0.6666665670000000  0.6747759579999979
  0.5618503689999983  0.6666665079999987  0.7831839919999979
  0.3118501900000012  0.6666664480000009  0.8915920259999979
  0.0618500710000021  0.6666663889999995  0.0000000000000000
  0.6451839799999988  0.8333334330000000  0.4579600690000021
  0.3951838910000021  0.8333333730000021  0.5663679840000029
  0.1451837420000004  0.8333333129999971  0.6747760769999971
  0.8951836820000025  0.8333331939999979  0.7831839919999979
  0.6451835630000033  0.8333331349999966  0.8915920259999979
  0.3951834439999971  0.8333330749999988  0.0000000000000000
  0.9785172939999995  0.0000000000000000  0.4579600690000021
  0.7285171750000003  0.9999999400000021  0.5663679840000029
  0.4785171150000025  0.9999998810000008  0.6747759579999979
  0.2285169960000033  0.9999998210000030  0.7831839919999979
  0.9785169359999983  0.9999997019999967  0.8915920259999979
  0.7285168169999992  0.9999997019999967  0.0000000000000000
  0.3118506069999967  0.1666666570000004  0.4579600690000021
  0.0618505440000021  0.1666666120000002  0.5663679840000029
  0.8118504290000033  0.1666665380000012  0.6747759579999979
  0.5618504290000033  0.1666664780000033  0.7831839919999979
  0.3118503090000004  0.1666664179999984  0.8915920259999979
  0.0618501900000012  0.1666663439999994  0.9999998810000008
  0.6451839799999988  0.3333333429999996  0.4579600690000021
  0.3951838309999971  0.3333332540000029  0.5663679840000029
  0.1451838019999983  0.3333331939999979  0.6747759579999979
  0.8951837420000004  0.3333331640000026  0.7831839919999979
  0.6451835630000033  0.3333330749999988  0.8915920259999979
  0.3951835040000020  0.3333329860000021  0.9999998810000008
  0.1451839659999976  0.8333333730000021  0.4579600690000021
  0.8951838019999983  0.8333332540000029  0.5663679840000029
  0.6451838019999983  0.8333331939999979  0.6747760769999971
  0.3951837420000004  0.8333331349999966  0.7831839919999979
  0.1451835630000033  0.8333331349999966  0.8915920259999979
  0.8951834439999971  0.8333330749999988  0.0000000000000000
  0.1451839360000022  0.3333333129999971  0.4579600690000021
  0.8951838609999996  0.3333332839999983  0.5663679840000029
  0.6451838019999983  0.3333331939999979  0.6747759579999979
  0.3951837420000004  0.3333331349999966  0.7831839919999979
  0.1451836230000012  0.3333330749999988  0.8915920259999979
  0.8951834439999971  0.3333329860000021  0.9999998810000008
  0.4785173240000020  0.5000000000000000  0.4579600690000021
  0.2285171899999980  0.4999999110000033  0.5663679840000029
  0.9785171150000025  0.4999998810000008  0.6747759579999979
  0.7285170560000012  0.4999998210000030  0.7831839919999979
  0.4785169359999983  0.4999997319999991  0.8915920259999979
  0.2285168169999992  0.4999996720000013  0.9999998810000008
  0.8118506670000016  0.6666667459999971  0.4579600690000021
  0.5618506069999967  0.6666666870000029  0.5663679840000029
  0.3118504879999975  0.6666665670000000  0.6747760769999971
  0.0618504030000011  0.6666665079999987  0.7831839919999979
  0.8118502499999991  0.6666664480000009  0.8915920259999979
  0.5618501309999999  0.6666663889999995  0.0000000000000000
  0.4785172939999995  0.0000000000000000  0.4579600690000021
  0.2285172050000028  0.9999999400000021  0.5663679840000029
  0.9785171150000025  0.9999998810000008  0.6747759579999979
  0.7285170560000012  0.9999998210000030  0.7831839919999979
  0.4785169359999983  0.9999997620000016  0.8915920259999979
  0.2285168169999992  0.9999996419999988  0.0000000000000000
  0.8118506069999967  0.1666666870000029  0.4579600690000021
  0.5618504879999975  0.1666665970000025  0.5663679840000029
  0.3118504580000021  0.1666665380000012  0.6747759579999979
  0.0618504030000011  0.1666664780000033  0.7831839919999979
  0.8118502499999991  0.1666664030000007  0.8915920259999979
  0.5618501900000012  0.1666663439999994  0.0000000000000000
  0.1451839799999988  0.7083333730000021  0.4579600690000021
  0.8951838609999996  0.7083333129999971  0.5663679840000029
  0.6451838019999983  0.7083332540000029  0.6747759579999979
  0.3951836820000025  0.7083331939999979  0.7831839919999979
  0.1451835630000033  0.7083331349999966  0.8915920259999979
  0.8951834439999971  0.7083330749999988  0.0000000000000000
  0.4785172939999995  0.8750001189999992  0.4579600690000021
  0.2285171600000027  0.8750000000000000  0.5663679840000029
  0.9785171150000025  0.8750000000000000  0.6747760769999971
  0.7285170560000012  0.8749998810000008  0.7831839919999979
  0.4785168769999970  0.8749998210000030  0.8915920259999979
  0.2285168169999992  0.8749997620000016  0.0000000000000000
  0.1451839509999999  0.2083333429999996  0.4579600690000021
  0.8951838609999996  0.2083332839999983  0.5663679840000029
  0.6451838019999983  0.2083332240000004  0.6747760769999971
  0.3951836820000025  0.2083331500000014  0.7831839919999979
  0.1451835630000033  0.2083330749999988  0.8915920259999979
  0.8951834439999971  0.2083330299999986  0.0000000000000000
  0.4785173240000020  0.3750000000000000  0.4579600690000021
  0.2285172050000028  0.3749999400000021  0.5663679840000029
  0.9785171150000025  0.3749998810000008  0.6747759579999979
  0.7285170560000012  0.3749998210000030  0.7831839919999979
  0.4785169359999983  0.3749997319999991  0.8915920259999979
  0.2285168169999992  0.3749997019999967  0.0000000000000000
  0.8118506670000016  0.5416666870000029  0.4579600690000021
  0.5618505480000024  0.5416666269999979  0.5663679840000029
  0.3118504580000021  0.5416665670000000  0.6747760769999971
  0.0618504099999981  0.5416665079999987  0.7831839919999979
  0.8118503090000004  0.5416664480000009  0.8915920259999979
  0.5618501900000012  0.5416663889999995  0.0000000000000000
  0.8118506670000016  0.0416666830000025  0.4579600690000021
  0.5618505480000024  0.0416665859999981  0.5663679840000029
  0.3118504879999975  0.0416665340000009  0.6747759579999979
  0.0618504099999981  0.0416664669999989  0.7831839919999979
  0.8118503090000004  0.0416663920000033  0.8915920259999979
  0.5618501900000012  0.0416663179999972  0.0000000000000000
  0.9785172939999995  0.8750000599999979  0.4579600690000021
  0.7285171750000003  0.8750000000000000  0.5663679840000029
  0.4785171150000025  0.8749998810000008  0.6747760769999971
  0.2285170560000012  0.8749998210000030  0.7831839919999979
  0.9785169359999983  0.8749998210000030  0.8915920259999979
  0.7285168169999992  0.8749997019999967  0.0000000000000000
  0.9785172939999995  0.3750000000000000  0.4579600690000021
  0.7285171750000003  0.3749999400000021  0.5663679840000029
  0.4785171150000025  0.3749999110000033  0.6747760769999971
  0.2285170560000012  0.3749997910000005  0.7831839919999979
  0.9785169359999983  0.3749997620000016  0.8915920259999979
  0.7285168169999992  0.3749997319999991  0.0000000000000000
  0.3118506670000016  0.5416666870000029  0.4579600690000021
  0.0618505289999973  0.5416666269999979  0.5663679840000029
  0.8118504290000033  0.5416665670000000  0.6747760769999971
  0.5618504290000033  0.5416665079999987  0.7831839919999979
  0.3118502499999991  0.5416664480000009  0.8915920259999979
  0.0618500710000021  0.5416663889999995  0.0000000000000000
  0.6451839799999988  0.7083333129999971  0.4579600690000021
  0.3951838609999996  0.7083332540000029  0.5663679840000029
  0.1451838170000030  0.7083331939999979  0.6747759579999979
  0.8951836820000025  0.7083331349999966  0.7831839919999979
  0.6451835630000033  0.7083330749999988  0.8915920259999979
  0.3951835040000020  0.7083329559999996  0.0000000000000000
  0.3118506670000016  0.0416666570000004  0.4579600690000021
  0.0618505400000018  0.0416665859999981  0.5663679840000029
  0.8118504879999975  0.0416665190000032  0.6747759579999979
  0.5618504290000033  0.0416664520000012  0.7831839919999979
  0.3118503090000004  0.0416664070000010  0.8915920259999979
  0.0618501309999999  0.0416663330000020  0.0000000000000000
  0.6451840399999966  0.2083333429999996  0.4579600690000021
  0.3951838910000021  0.2083332540000029  0.5663679840000029
  0.1451838309999971  0.2083331939999979  0.6747759579999979
  0.8951837420000004  0.2083331349999966  0.7831839919999979
  0.6451836230000012  0.2083330749999988  0.8915920259999979
  0.3951835040000020  0.2083329860000021  0.0000000000000000
 
  0.00000000E+00  0.00000000E+00  0.00000000E+00
  0.00000000E+00  0.00000000E+00  0.00000000E+00
  0.00000000E+00  0.00000000E+00  0.00000000E+00
  0.00000000E+00  0.00000000E+00  0.00000000E+00
  0.00000000E+00  0.00000000E+00  0.00000000E+00
  0.00000000E+00  0.00000000E+00  0.00000000E+00
  0.00000000E+00  0.00000000E+00  0.00000000E+00
  0.00000000E+00  0.00000000E+00  0.00000000E+00
  0.00000000E+00  0.00000000E+00  0.00000000E+00
  0.00000000E+00  0.00000000E+00  0.00000000E+00
  0.00000000E+00  0.00000000E+00  0.00000000E+00
  0.00000000E+00  0.00000000E+00  0.00000000E+00
  0.00000000E+00  0.00000000E+00  0.00000000E+00
  0.00000000E+00  0.00000000E+00  0.00000000E+00
  0.00000000E+00  0.00000000E+00  0.00000000E+00
  0.00000000E+00  0.00000000E+00  0.00000000E+00
  0.00000000E+00  0.00000000E+00  0.00000000E+00
  0.00000000E+00  0.00000000E+00  0.00000000E+00
  0.00000000E+00  0.00000000E+00  0.00000000E+00
  0.00000000E+00  0.00000000E+00  0.00000000E+00
  0.00000000E+00  0.00000000E+00  0.00000000E+00
  0.00000000E+00  0.00000000E+00  0.00000000E+00
  0.00000000E+00  0.00000000E+00  0.00000000E+00
  0.00000000E+00  0.00000000E+00  0.00000000E+00
  0.00000000E+00  0.00000000E+00  0.00000000E+00
  0.00000000E+00  0.00000000E+00  0.00000000E+00
  0.00000000E+00  0.00000000E+00  0.00000000E+00
  0.00000000E+00  0.00000000E+00  0.00000000E+00
  0.00000000E+00  0.00000000E+00  0.00000000E+00
  0.00000000E+00  0.00000000E+00  0.00000000E+00
  0.00000000E+00  0.00000000E+00  0.00000000E+00
  0.00000000E+00  0.00000000E+00  0.00000000E+00
  0.00000000E+00  0.00000000E+00  0.00000000E+00
  0.00000000E+00  0.00000000E+00  0.00000000E+00
  0.00000000E+00  0.00000000E+00  0.00000000E+00
  0.00000000E+00  0.00000000E+00  0.00000000E+00
  0.00000000E+00  0.00000000E+00  0.00000000E+00
  0.00000000E+00  0.00000000E+00  0.00000000E+00
  0.00000000E+00  0.00000000E+00  0.00000000E+00
  0.00000000E+00  0.00000000E+00  0.00000000E+00
  0.00000000E+00  0.00000000E+00  0.00000000E+00
  0.00000000E+00  0.00000000E+00  0.00000000E+00
  0.00000000E+00  0.00000000E+00  0.00000000E+00
  0.00000000E+00  0.00000000E+00  0.00000000E+00
  0.00000000E+00  0.00000000E+00  0.00000000E+00
  0.00000000E+00  0.00000000E+00  0.00000000E+00
  0.00000000E+00  0.00000000E+00  0.00000000E+00
  0.00000000E+00  0.00000000E+00  0.00000000E+00
  0.00000000E+00  0.00000000E+00  0.00000000E+00
  0.00000000E+00  0.00000000E+00  0.00000000E+00
  0.00000000E+00  0.00000000E+00  0.00000000E+00
  0.00000000E+00  0.00000000E+00  0.00000000E+00
  0.00000000E+00  0.00000000E+00  0.00000000E+00
  0.00000000E+00  0.00000000E+00  0.00000000E+00
  0.00000000E+00  0.00000000E+00  0.00000000E+00
  0.00000000E+00  0.00000000E+00  0.00000000E+00
  0.00000000E+00  0.00000000E+00  0.00000000E+00
  0.00000000E+00  0.00000000E+00  0.00000000E+00
  0.00000000E+00  0.00000000E+00  0.00000000E+00
  0.00000000E+00  0.00000000E+00  0.00000000E+00
  0.00000000E+00  0.00000000E+00  0.00000000E+00
  0.00000000E+00  0.00000000E+00  0.00000000E+00
  0.00000000E+00  0.00000000E+00  0.00000000E+00
  0.00000000E+00  0.00000000E+00  0.00000000E+00
  0.00000000E+00  0.00000000E+00  0.00000000E+00
  0.00000000E+00  0.00000000E+00  0.00000000E+00
  0.00000000E+00  0.00000000E+00  0.00000000E+00
  0.00000000E+00  0.00000000E+00  0.00000000E+00
  0.00000000E+00  0.00000000E+00  0.00000000E+00
  0.00000000E+00  0.00000000E+00  0.00000000E+00
  0.00000000E+00  0.00000000E+00  0.00000000E+00
  0.00000000E+00  0.00000000E+00  0.00000000E+00
  0.00000000E+00  0.00000000E+00  0.00000000E+00
  0.00000000E+00  0.00000000E+00  0.00000000E+00
  0.00000000E+00  0.00000000E+00  0.00000000E+00
  0.00000000E+00  0.00000000E+00  0.00000000E+00
  0.00000000E+00  0.00000000E+00  0.00000000E+00
  0.00000000E+00  0.00000000E+00  0.00000000E+00
  0.00000000E+00  0.00000000E+00  0.00000000E+00
  0.00000000E+00  0.00000000E+00  0.00000000E+00
  0.00000000E+00  0.00000000E+00  0.00000000E+00
  0.00000000E+00  0.00000000E+00  0.00000000E+00
  0.00000000E+00  0.00000000E+00  0.00000000E+00
  0.00000000E+00  0.00000000E+00  0.00000000E+00
  0.00000000E+00  0.00000000E+00  0.00000000E+00
  0.00000000E+00  0.00000000E+00  0.00000000E+00
  0.00000000E+00  0.00000000E+00  0.00000000E+00
  0.00000000E+00  0.00000000E+00  0.00000000E+00
  0.00000000E+00  0.00000000E+00  0.00000000E+00
  0.00000000E+00  0.00000000E+00  0.00000000E+00
  0.00000000E+00  0.00000000E+00  0.00000000E+00
  0.00000000E+00  0.00000000E+00  0.00000000E+00
  0.00000000E+00  0.00000000E+00  0.00000000E+00
  0.00000000E+00  0.00000000E+00  0.00000000E+00
  0.00000000E+00  0.00000000E+00  0.00000000E+00
  0.00000000E+00  0.00000000E+00  0.00000000E+00
  0.00000000E+00  0.00000000E+00  0.00000000E+00
  0.00000000E+00  0.00000000E+00  0.00000000E+00
  0.00000000E+00  0.00000000E+00  0.00000000E+00
  0.00000000E+00  0.00000000E+00  0.00000000E+00
  0.00000000E+00  0.00000000E+00  0.00000000E+00
  0.00000000E+00  0.00000000E+00  0.00000000E+00
  0.00000000E+00  0.00000000E+00  0.00000000E+00
  0.00000000E+00  0.00000000E+00  0.00000000E+00
  0.00000000E+00  0.00000000E+00  0.00000000E+00
  0.00000000E+00  0.00000000E+00  0.00000000E+00
  0.00000000E+00  0.00000000E+00  0.00000000E+00
  0.00000000E+00  0.00000000E+00  0.00000000E+00
  0.00000000E+00  0.00000000E+00  0.00000000E+00
  0.00000000E+00  0.00000000E+00  0.00000000E+00
  0.00000000E+00  0.00000000E+00  0.00000000E+00
  0.00000000E+00  0.00000000E+00  0.00000000E+00
  0.00000000E+00  0.00000000E+00  0.00000000E+00
  0.00000000E+00  0.00000000E+00  0.00000000E+00
  0.00000000E+00  0.00000000E+00  0.00000000E+00
  0.00000000E+00  0.00000000E+00  0.00000000E+00
  0.00000000E+00  0.00000000E+00  0.00000000E+00
  0.00000000E+00  0.00000000E+00  0.00000000E+00
  0.00000000E+00  0.00000000E+00  0.00000000E+00
  0.00000000E+00  0.00000000E+00  0.00000000E+00
  0.00000000E+00  0.00000000E+00  0.00000000E+00
  0.00000000E+00  0.00000000E+00  0.00000000E+00
  0.00000000E+00  0.00000000E+00  0.00000000E+00
  0.00000000E+00  0.00000000E+00  0.00000000E+00
  0.00000000E+00  0.00000000E+00  0.00000000E+00
  0.00000000E+00  0.00000000E+00  0.00000000E+00
  0.00000000E+00  0.00000000E+00  0.00000000E+00
  0.00000000E+00  0.00000000E+00  0.00000000E+00
  0.00000000E+00  0.00000000E+00  0.00000000E+00
  0.00000000E+00  0.00000000E+00  0.00000000E+00
  0.00000000E+00  0.00000000E+00  0.00000000E+00
  0.00000000E+00  0.00000000E+00  0.00000000E+00
  0.00000000E+00  0.00000000E+00  0.00000000E+00
  0.00000000E+00  0.00000000E+00  0.00000000E+00
  0.00000000E+00  0.00000000E+00  0.00000000E+00
  0.00000000E+00  0.00000000E+00  0.00000000E+00
  0.00000000E+00  0.00000000E+00  0.00000000E+00
  0.00000000E+00  0.00000000E+00  0.00000000E+00
  0.00000000E+00  0.00000000E+00  0.00000000E+00
  0.00000000E+00  0.00000000E+00  0.00000000E+00
  0.00000000E+00  0.00000000E+00  0.00000000E+00
  0.00000000E+00  0.00000000E+00  0.00000000E+00
  0.00000000E+00  0.00000000E+00  0.00000000E+00
  0.00000000E+00  0.00000000E+00  0.00000000E+00
  0.00000000E+00  0.00000000E+00  0.00000000E+00
  0.00000000E+00  0.00000000E+00  0.00000000E+00
  0.00000000E+00  0.00000000E+00  0.00000000E+00
  0.00000000E+00  0.00000000E+00  0.00000000E+00
  0.00000000E+00  0.00000000E+00  0.00000000E+00
  0.00000000E+00  0.00000000E+00  0.00000000E+00
  0.00000000E+00  0.00000000E+00  0.00000000E+00
  0.00000000E+00  0.00000000E+00  0.00000000E+00
  0.00000000E+00  0.00000000E+00  0.00000000E+00
  0.00000000E+00  0.00000000E+00  0.00000000E+00
  0.00000000E+00  0.00000000E+00  0.00000000E+00
  0.00000000E+00  0.00000000E+00  0.00000000E+00
  0.00000000E+00  0.00000000E+00  0.00000000E+00
  0.00000000E+00  0.00000000E+00  0.00000000E+00
  0.00000000E+00  0.00000000E+00  0.00000000E+00
  0.00000000E+00  0.00000000E+00  0.00000000E+00
  0.00000000E+00  0.00000000E+00  0.00000000E+00
  0.00000000E+00  0.00000000E+00  0.00000000E+00
  0.00000000E+00  0.00000000E+00  0.00000000E+00
  0.00000000E+00  0.00000000E+00  0.00000000E+00
  0.00000000E+00  0.00000000E+00  0.00000000E+00
  0.00000000E+00  0.00000000E+00  0.00000000E+00
  0.00000000E+00  0.00000000E+00  0.00000000E+00
  0.00000000E+00  0.00000000E+00  0.00000000E+00
  0.00000000E+00  0.00000000E+00  0.00000000E+00
  0.00000000E+00  0.00000000E+00  0.00000000E+00
  0.00000000E+00  0.00000000E+00  0.00000000E+00
  0.00000000E+00  0.00000000E+00  0.00000000E+00
  0.00000000E+00  0.00000000E+00  0.00000000E+00
  0.00000000E+00  0.00000000E+00  0.00000000E+00
  0.00000000E+00  0.00000000E+00  0.00000000E+00
  0.00000000E+00  0.00000000E+00  0.00000000E+00
  0.00000000E+00  0.00000000E+00  0.00000000E+00
  0.00000000E+00  0.00000000E+00  0.00000000E+00
  0.00000000E+00  0.00000000E+00  0.00000000E+00
  0.00000000E+00  0.00000000E+00  0.00000000E+00
  0.00000000E+00  0.00000000E+00  0.00000000E+00
  0.00000000E+00  0.00000000E+00  0.00000000E+00
  0.00000000E+00  0.00000000E+00  0.00000000E+00
  0.00000000E+00  0.00000000E+00  0.00000000E+00
  0.00000000E+00  0.00000000E+00  0.00000000E+00
  0.00000000E+00  0.00000000E+00  0.00000000E+00
  0.00000000E+00  0.00000000E+00  0.00000000E+00
  0.00000000E+00  0.00000000E+00  0.00000000E+00
  0.00000000E+00  0.00000000E+00  0.00000000E+00
  0.00000000E+00  0.00000000E+00  0.00000000E+00
  0.00000000E+00  0.00000000E+00  0.00000000E+00
  0.00000000E+00  0.00000000E+00  0.00000000E+00
  0.00000000E+00  0.00000000E+00  0.00000000E+00
  0.00000000E+00  0.00000000E+00  0.00000000E+00
  0.00000000E+00  0.00000000E+00  0.00000000E+00
  0.00000000E+00  0.00000000E+00  0.00000000E+00
  0.00000000E+00  0.00000000E+00  0.00000000E+00
  0.00000000E+00  0.00000000E+00  0.00000000E+00
  0.00000000E+00  0.00000000E+00  0.00000000E+00
  0.00000000E+00  0.00000000E+00  0.00000000E+00
  0.00000000E+00  0.00000000E+00  0.00000000E+00
  0.00000000E+00  0.00000000E+00  0.00000000E+00
  0.00000000E+00  0.00000000E+00  0.00000000E+00
  0.00000000E+00  0.00000000E+00  0.00000000E+00
  0.00000000E+00  0.00000000E+00  0.00000000E+00
  0.00000000E+00  0.00000000E+00  0.00000000E+00
  0.00000000E+00  0.00000000E+00  0.00000000E+00
  0.00000000E+00  0.00000000E+00  0.00000000E+00
  0.00000000E+00  0.00000000E+00  0.00000000E+00
  0.00000000E+00  0.00000000E+00  0.00000000E+00
  0.00000000E+00  0.00000000E+00  0.00000000E+00
  0.00000000E+00  0.00000000E+00  0.00000000E+00
  0.00000000E+00  0.00000000E+00  0.00000000E+00
  0.00000000E+00  0.00000000E+00  0.00000000E+00
  0.00000000E+00  0.00000000E+00  0.00000000E+00
  0.00000000E+00  0.00000000E+00  0.00000000E+00
