Sn+Si
    1.000000000
   12.978400230    0.000000000    0.000000000
    0.000000000   19.467599869    0.000000000
    0.000000000    0.000000000   17.712245941
Sn  Si 
72     144
Direct
    0.992552638    0.666666687    0.000000000
    0.742552638    0.666666687    0.183184043
    0.492552698    0.666666687    0.366367966
    0.992552638    0.333333343    0.000000000
    0.742552638    0.333333343    0.183184043
    0.492552698    0.333333343    0.366367966
    0.992552638    0.000000000    0.000000000
    0.742552638    0.000000000    0.183184043
    0.492552698    0.000000000    0.366367966
    0.492552668    0.666666687    0.000000000
    0.242552668    0.666666687    0.183184043
    0.992552698    0.666666687    0.366367966
    0.492552668    0.333333343    0.000000000
    0.242552668    0.333333343    0.183184043
    0.992552698    0.333333343    0.366367966
    0.492552668    0.000000000    0.000000000
    0.242552668    0.000000000    0.183184043
    0.992552698    0.000000000    0.366367966
    0.117552660    0.916666746    0.091592006
    0.867552698    0.916666746    0.274776012
    0.617552638    0.916666746    0.457960069
    0.117552660    0.583333433    0.091592006
    0.867552698    0.583333433    0.274776012
    0.617552638    0.583333433    0.457960069
    0.117552660    0.250000000    0.091592006
    0.867552698    0.250000000    0.274776012
    0.617552638    0.250000000    0.457960069
    0.617552638    0.916666746    0.091592006
    0.367552727    0.916666746    0.274776012
    0.117552675    0.916666746    0.457960069
    0.617552638    0.583333433    0.091592006
    0.367552727    0.583333433    0.274776012
    0.117552675    0.583333433    0.457960069
    0.617552638    0.250000000    0.091592006
    0.367552727    0.250000000    0.274776012
    0.117552675    0.250000000    0.457960069
    0.242552668    0.833333313    0.000000000
    0.992552638    0.833333313    0.183184043
    0.742552698    0.833333313    0.366367966
    0.242552668    0.500000000    0.000000000
    0.992552638    0.500000000    0.183184043
    0.742552698    0.500000000    0.366367966
    0.242552668    0.166666672    0.000000000
    0.992552638    0.166666672    0.183184043
    0.742552698    0.166666672    0.366367966
    0.742552638    0.833333313    0.000000000
    0.492552668    0.833333313    0.183184043
    0.242552727    0.833333313    0.366367966
    0.742552638    0.500000000    0.000000000
    0.492552668    0.500000000    0.183184043
    0.242552727    0.500000000    0.366367966
    0.742552638    0.166666672    0.000000000
    0.492552668    0.166666672    0.183184043
    0.242552727    0.166666672    0.366367966
    0.367552668    0.750000060    0.091592006
    0.117552720    0.750000060    0.274776012
    0.867552698    0.750000060    0.457960069
    0.367552668    0.416666716    0.091592006
    0.117552720    0.416666716    0.274776012
    0.867552698    0.416666716    0.457960069
    0.367552668    0.083333343    0.091592006
    0.117552720    0.083333343    0.274776012
    0.867552698    0.083333343    0.457960069
    0.867552638    0.750000060    0.091592006
    0.617552698    0.750000060    0.274776012
    0.367552638    0.750000060    0.457960069
    0.867552638    0.416666716    0.091592006
    0.617552698    0.416666716    0.274776012
    0.367552638    0.416666716    0.457960069
    0.867552638    0.083333343    0.091592006
    0.617552698    0.083333343    0.274776012
    0.367552638    0.083333343    0.457960069
    0.978517294    0.499999970    0.457960069
    0.728517175    0.499999940    0.566367984
    0.478517115    0.499999881    0.674776077
    0.228517056    0.499999791    0.783183992
    0.978516936    0.499999732    0.891591907
    0.728516817    0.499999702    1.000000000
    0.311850607    0.666666687    0.457960069
    0.061850507    0.666666627    0.566367984
    0.811850429    0.666666567    0.674775958
    0.561850369    0.666666508    0.783183992
    0.311850190    0.666666448    0.891592026
    0.061850071    0.666666389    1.000000000
    0.645183980    0.833333433    0.457960069
    0.395183891    0.833333373    0.566367984
    0.145183742    0.833333313    0.674776077
    0.895183682    0.833333194    0.783183992
    0.645183563    0.833333135    0.891592026
    0.395183444    0.833333075    1.000000000
    0.978517294    0.000000000    0.457960069
    0.728517175    0.999999940    0.566367984
    0.478517115    0.999999881    0.674775958
    0.228516996    0.999999821    0.783183992
    0.978516936    0.999999702    0.891592026
    0.728516817    0.999999702    1.000000000
    0.311850607    0.166666657    0.457960069
    0.061850544    0.166666612    0.566367984
    0.811850429    0.166666538    0.674775958
    0.561850429    0.166666478    0.783183992
    0.311850309    0.166666418    0.891592026
    0.061850190    0.166666344    0.999999881
    0.645183980    0.333333343    0.457960069
    0.395183831    0.333333254    0.566367984
    0.145183802    0.333333194    0.674775958
    0.895183742    0.333333164    0.783183992
    0.645183563    0.333333075    0.891592026
    0.395183504    0.333332986    0.999999881
    0.145183966    0.833333373    0.457960069
    0.895183802    0.833333254    0.566367984
    0.645183802    0.833333194    0.674776077
    0.395183742    0.833333135    0.783183992
    0.145183563    0.833333135    0.891592026
    0.895183444    0.833333075    1.000000000
    0.145183936    0.333333313    0.457960069
    0.895183861    0.333333284    0.566367984
    0.645183802    0.333333194    0.674775958
    0.395183742    0.333333135    0.783183992
    0.145183623    0.333333075    0.891592026
    0.895183444    0.333332986    0.999999881
    0.478517324    0.500000000    0.457960069
    0.228517190    0.499999911    0.566367984
    0.978517115    0.499999881    0.674775958
    0.728517056    0.499999821    0.783183992
    0.478516936    0.499999732    0.891592026
    0.228516817    0.499999672    0.999999881
    0.811850667    0.666666746    0.457960069
    0.561850607    0.666666687    0.566367984
    0.311850488    0.666666567    0.674776077
    0.061850403    0.666666508    0.783183992
    0.811850250    0.666666448    0.891592026
    0.561850131    0.666666389    1.000000000
    0.478517294    0.000000000    0.457960069
    0.228517205    0.999999940    0.566367984
    0.978517115    0.999999881    0.674775958
    0.728517056    0.999999821    0.783183992
    0.478516936    0.999999762    0.891592026
    0.228516817    0.999999642    1.000000000
    0.811850607    0.166666687    0.457960069
    0.561850488    0.166666597    0.566367984
    0.311850458    0.166666538    0.674775958
    0.061850403    0.166666478    0.783183992
    0.811850250    0.166666403    0.891592026
    0.561850190    0.166666344    1.000000000
    0.145183980    0.708333373    0.457960069
    0.895183861    0.708333313    0.566367984
    0.645183802    0.708333254    0.674775958
    0.395183682    0.708333194    0.783183992
    0.145183563    0.708333135    0.891592026
    0.895183444    0.708333075    1.000000000
    0.478517294    0.875000119    0.457960069
    0.228517160    0.875000000    0.566367984
    0.978517115    0.875000000    0.674776077
    0.728517056    0.874999881    0.783183992
    0.478516877    0.874999821    0.891592026
    0.228516817    0.874999762    1.000000000
    0.145183951    0.208333343    0.457960069
    0.895183861    0.208333284    0.566367984
    0.645183802    0.208333224    0.674776077
    0.395183682    0.208333150    0.783183992
    0.145183563    0.208333075    0.891592026
    0.895183444    0.208333030    1.000000000
    0.478517324    0.375000000    0.457960069
    0.228517205    0.374999940    0.566367984
    0.978517115    0.374999881    0.674775958
    0.728517056    0.374999821    0.783183992
    0.478516936    0.374999732    0.891592026
    0.228516817    0.374999702    1.000000000
    0.811850667    0.541666687    0.457960069
    0.561850548    0.541666627    0.566367984
    0.311850458    0.541666567    0.674776077
    0.061850410    0.541666508    0.783183992
    0.811850309    0.541666448    0.891592026
    0.561850190    0.541666389    1.000000000
    0.811850667    0.041666683    0.457960069
    0.561850548    0.041666586    0.566367984
    0.311850488    0.041666534    0.674775958
    0.061850410    0.041666467    0.783183992
    0.811850309    0.041666392    0.891592026
    0.561850190    0.041666318    1.000000000
    0.978517294    0.875000060    0.457960069
    0.728517175    0.875000000    0.566367984
    0.478517115    0.874999881    0.674776077
    0.228517056    0.874999821    0.783183992
    0.978516936    0.874999821    0.891592026
    0.728516817    0.874999702    1.000000000
    0.978517294    0.375000000    0.457960069
    0.728517175    0.374999940    0.566367984
    0.478517115    0.374999911    0.674776077
    0.228517056    0.374999791    0.783183992
    0.978516936    0.374999762    0.891592026
    0.728516817    0.374999732    1.000000000
    0.311850667    0.541666687    0.457960069
    0.061850529    0.541666627    0.566367984
    0.811850429    0.541666567    0.674776077
    0.561850429    0.541666508    0.783183992
    0.311850250    0.541666448    0.891592026
    0.061850071    0.541666389    1.000000000
    0.645183980    0.708333313    0.457960069
    0.395183861    0.708333254    0.566367984
    0.145183817    0.708333194    0.674775958
    0.895183682    0.708333135    0.783183992
    0.645183563    0.708333075    0.891592026
    0.395183504    0.708332956    1.000000000
    0.311850667    0.041666657    0.457960069
    0.061850540    0.041666586    0.566367984
    0.811850488    0.041666519    0.674775958
    0.561850429    0.041666452    0.783183992
    0.311850309    0.041666407    0.891592026
    0.061850131    0.041666333    1.000000000
    0.645184040    0.208333343    0.457960069
    0.395183891    0.208333254    0.566367984
    0.145183831    0.208333194    0.674775958
    0.895183742    0.208333135    0.783183992
    0.645183623    0.208333075    0.891592026
    0.395183504    0.208332986    1.000000000
