Sn+Ge
    1.000000000
   11.239624023    0.000000000    0.000000000
    0.000000000   18.354230881    0.000000000
    0.000000000    0.000000000   11.095909119
Sn  Ge 
48     48
Direct
    0.940928936    0.477848351    0.000000002
    0.607595503    0.352848351    0.119377643
    0.274262190    0.227848351    0.238755211
    0.940928817    0.102848344    0.358132869
    0.607595325    0.977848291    0.477510542
    0.274261832    0.852848232    0.596888125
    0.940928936    0.977848351    0.000000007
    0.607595503    0.852848291    0.119377665
    0.274262190    0.727848291    0.238755211
    0.940928817    0.602848291    0.358132839
    0.607595325    0.477848291    0.477510542
    0.274261832    0.352848172    0.596888125
    0.190928906    0.727848351    0.000000007
    0.857595563    0.602848351    0.119377665
    0.524262190    0.477848351    0.238755271
    0.190928817    0.352848351    0.358132869
    0.857595444    0.227848321    0.477510542
    0.524261832    0.102848224    0.596888244
    0.190928906    0.227848351    0.000000000
    0.857595503    0.102848329    0.119377643
    0.524262190    0.977848351    0.238755226
    0.190928817    0.852848351    0.358132839
    0.857595444    0.727848291    0.477510452
    0.524261832    0.602848232    0.596888244
    0.940928876    0.727848351    0.000000000
    0.607595503    0.602848351    0.119377680
    0.274262190    0.477848351    0.238755211
    0.940928817    0.352848351    0.358132839
    0.607595325    0.227848306    0.477510542
    0.274261951    0.102848209    0.596888125
    0.940928936    0.227848351    0.000000005
    0.607595503    0.102848329    0.119377643
    0.274262190    0.977848351    0.238755211
    0.940928817    0.852848351    0.358132839
    0.607595444    0.727848291    0.477510542
    0.274261832    0.602848172    0.596888125
    0.190928966    0.477848381    0.000000024
    0.857595563    0.352848381    0.119377665
    0.524262190    0.227848381    0.238755226
    0.190928817    0.102848351    0.358132869
    0.857595444    0.977848351    0.477510542
    0.524261951    0.852848291    0.596888185
    0.190928951    0.977848351    0.000000010
    0.857595563    0.852848291    0.119377643
    0.524262190    0.727848291    0.238755226
    0.190928817    0.602848291    0.358132869
    0.857595444    0.477848291    0.477510542
    0.524261951    0.352848232    0.596888185
    0.945568740    0.076203801    0.596888244
    0.695568681    0.426203907    0.677510679
    0.445568681    0.776203990    0.758132935
    0.195568621    0.126204133    0.838755369
    0.945568681    0.476204157    0.919377565
    0.695568681    0.826204300    0.999999881
    0.445568740    0.076203801    0.596888244
    0.195568711    0.426203907    0.677510679
    0.945568681    0.776203990    0.758132935
    0.695568681    0.126204133    0.838755369
    0.445568681    0.476204157    0.919377565
    0.195568621    0.826204300    0.999999881
    0.070568725    0.826203942    0.596888244
    0.820568681    0.176204085    0.677510679
    0.570568681    0.526204109    0.758132935
    0.320568621    0.876204133    0.838755369
    0.070568621    0.226204157    0.919377804
    0.820568562    0.576204300    1.000000000
    0.570568740    0.826203942    0.596888244
    0.320568740    0.176204085    0.677510679
    0.070568711    0.526204109    0.758132935
    0.820568681    0.876204133    0.838755369
    0.570568681    0.226204157    0.919377804
    0.320568621    0.576204300    1.000000000
    0.945568740    0.576203823    0.596888244
    0.695568681    0.926203907    0.677510560
    0.445568681    0.276203990    0.758132994
    0.195568621    0.626204133    0.838755250
    0.945568681    0.976204157    0.919377565
    0.695568681    0.326204300    1.000000000
    0.445568740    0.576203823    0.596888244
    0.195568711    0.926203907    0.677510560
    0.945568681    0.276203990    0.758132994
    0.695568681    0.626204133    0.838755250
    0.445568681    0.976204157    0.919377565
    0.195568621    0.326204300    1.000000000
    0.070568725    0.326203823    0.596888244
    0.820568681    0.676203966    0.677510679
    0.570568681    0.026203990    0.758132935
    0.320568621    0.376204133    0.838755250
    0.070568621    0.726204157    0.919377565
    0.820568562    0.076204300    0.999999881
    0.570568740    0.326203823    0.596888244
    0.320568740    0.676203966    0.677510679
    0.070568711    0.026203990    0.758132935
    0.820568681    0.376204133    0.838755250
    0.570568681    0.726204157    0.919377565
    0.320568621    0.076204300    0.999999881
