Sn+Ge
    1.000000000
   12.978400230    0.000000000    0.000000000
    0.000000000   12.978400230    0.000000000
    0.000000000    0.000000000   19.583751678
Sn  Ge 
48     60
Direct
    0.992552638    0.499999970    0.000000000
    0.742552638    0.499999970    0.165678188
    0.492552757    0.499999970    0.331356287
    0.992552638    0.000000000    0.000000000
    0.742552638    0.000000000    0.165678188
    0.492552757    0.000000000    0.331356287
    0.492552608    0.499999970    0.000000000
    0.242552638    0.499999970    0.165678188
    0.992552698    0.499999970    0.331356287
    0.492552608    0.000000000    0.000000000
    0.242552638    0.000000000    0.165678188
    0.992552698    0.000000000    0.331356287
    0.117552646    0.874999940    0.082839087
    0.867552757    0.874999940    0.248517260
    0.617552698    0.874999940    0.414195418
    0.117552646    0.374999970    0.082839087
    0.867552757    0.374999970    0.248517260
    0.617552698    0.374999970    0.414195418
    0.617552578    0.874999940    0.082839087
    0.367552698    0.874999940    0.248517260
    0.117552668    0.874999940    0.414195418
    0.617552578    0.374999970    0.082839087
    0.367552698    0.374999970    0.248517260
    0.117552668    0.374999970    0.414195418
    0.242552638    0.749999940    0.000000000
    0.992552638    0.749999940    0.165678188
    0.742552757    0.749999940    0.331356287
    0.242552638    0.249999985    0.000000000
    0.992552638    0.249999985    0.165678188
    0.742552757    0.249999985    0.331356287
    0.742552578    0.749999940    0.000000000
    0.492552608    0.749999940    0.165678188
    0.242552698    0.749999940    0.331356287
    0.742552578    0.249999985    0.000000000
    0.492552608    0.249999985    0.165678188
    0.242552698    0.249999985    0.331356287
    0.367552638    0.624999940    0.082839087
    0.117552713    0.624999940    0.248517260
    0.867552698    0.624999940    0.414195418
    0.367552638    0.124999993    0.082839087
    0.117552713    0.124999993    0.248517260
    0.867552698    0.124999993    0.414195418
    0.867552638    0.624999940    0.082839087
    0.617552757    0.624999940    0.248517260
    0.367552698    0.624999940    0.414195418
    0.867552638    0.124999993    0.082839087
    0.617552757    0.124999993    0.248517260
    0.367552698    0.124999993    0.414195418
    0.476887584    0.583261669    0.526533484
    0.276887536    0.683261633    0.670984805
    0.076887488    0.783261657    0.815436304
    0.676887512    0.983261645    0.526533484
    0.476887465    0.083261609    0.670984805
    0.276887417    0.183261633    0.815436304
    0.876887560    0.383261651    0.526533484
    0.676887512    0.483261675    0.670984805
    0.476887465    0.583261728    0.815436304
    0.076887488    0.783261657    0.526533484
    0.876887560    0.883261621    0.670984805
    0.676887512    0.983261645    0.815436304
    0.276887536    0.183261633    0.526533484
    0.076887488    0.283261538    0.670984805
    0.876887441    0.383261621    0.815436304
    0.826887488    0.533261657    0.598759174
    0.626887441    0.633261681    0.743210614
    0.426887274    0.733261704    0.887661994
    0.426887512    0.733261645    0.598759174
    0.226887465    0.833261728    0.743210614
    0.026887417    0.933261693    0.887661994
    0.626887560    0.133261681    0.598759174
    0.426887512    0.233261585    0.743210614
    0.226887465    0.333261728    0.887661994
    0.026887536    0.933261633    0.598759174
    0.826887488    0.033261776    0.743210614
    0.626887321    0.133261681    0.887661994
    0.226887465    0.333261728    0.598759174
    0.026887417    0.433261693    0.743210614
    0.826887369    0.533261716    0.887661994
    0.776887417    0.683261633    0.526533484
    0.576887369    0.783261597    0.670984805
    0.376887321    0.883261621    0.815436304
    0.176887512    0.483261645    0.526533484
    0.976887524    0.583261669    0.670984805
    0.776887417    0.683261693    0.815436304
    0.376887560    0.883261681    0.526533484
    0.176887512    0.983261704    0.670984805
    0.976887465    0.083261728    0.815436304
    0.576887488    0.283261657    0.526533484
    0.376887441    0.383261740    0.670984805
    0.176887393    0.483261764    0.815436304
    0.976887584    0.083261728    0.526533484
    0.776887536    0.183261633    0.670984805
    0.576887488    0.283261776    0.815436304
    0.526887536    0.433261693    0.598759174
    0.326887488    0.533261716    0.743210614
    0.126887441    0.633261740    0.887661994
    0.726887703    0.833261669    0.598759174
    0.526887655    0.933261693    0.743210614
    0.326887488    0.033261776    0.887661994
    0.126887560    0.633261681    0.598759174
    0.926887512    0.733261704    0.743210614
    0.726887465    0.833261728    0.887661994
    0.326887608    0.033261657    0.598759174
    0.126887560    0.133261681    0.743210614
    0.926887453    0.233261704    0.887661994
    0.926887512    0.233261585    0.598759174
    0.726887465    0.333261728    0.743210614
    0.526887417    0.433261693    0.887661994
