Si+Sn                                   
   1.00000000000000     
    16.2930011750000006    0.0000000000000000    0.0000000000000000
     5.4310002329999998   15.3611879350000002    0.0000000000000000
     0.0000000000000000    0.0000000000000000   21.0721397400000008
   Si   Sn
   144    96
Direct
  0.1615729330000022  0.4541564290000011  0.0000000140000012
  0.1199062089999998  0.0791563619999991  0.0911226349999978
  0.0782394860000011  0.7041562799999994  0.1822452549999980
  0.0365727690000028  0.3291562799999994  0.2733678219999973
  0.9949060080000010  0.9541562799999994  0.3644904789999970
  0.9532392619999968  0.5791561599999966  0.4556131060000013
  0.4949063959999975  0.4541564290000011  0.0000000140000012
  0.4532396199999980  0.0791563619999991  0.0911226349999978
  0.4115729029999997  0.7041562799999994  0.1822452549999980
  0.3699061570000026  0.3291562799999994  0.2733678219999973
  0.3282394410000009  0.9541562799999994  0.3644904789999970
  0.2865726949999967  0.5791561599999966  0.4556131060000013
  0.8282396789999993  0.4541564290000011  0.0000000140000012
  0.7865728740000009  0.0791563619999991  0.0911226349999978
  0.7449061869999980  0.7041562799999994  0.1822452549999980
  0.7032395009999988  0.3291562799999994  0.2733678219999973
  0.6615727539999980  0.9541562799999994  0.3644904789999970
  0.6199060080000010  0.5791561599999966  0.4556131060000013
  0.9949062470000030  0.9541563989999986  0.0000000189999980
  0.9532395600000001  0.5791563390000007  0.0911226349999978
  0.9115728140000030  0.2041562799999994  0.1822452400000003
  0.8699060679999988  0.8291562799999994  0.2733678820000023
  0.8282393810000030  0.4541561599999966  0.3644904490000016
  0.7865726349999989  0.0791561599999966  0.4556130770000024
  0.3282396500000004  0.9541563989999986  0.0000000189999980
  0.2865729029999997  0.5791563390000007  0.0911226349999978
  0.2449061869999980  0.2041562799999994  0.1822452400000003
  0.2032394860000011  0.8291562799999994  0.2733678820000023
  0.1615727249999992  0.4541561599999966  0.3644904490000016
  0.1199059859999991  0.0791561599999966  0.4556130770000024
  0.6615730520000014  0.9541563989999986  0.0000000189999980
  0.6199062470000030  0.5791563390000007  0.0911226349999978
  0.5782395600000001  0.2041562799999994  0.1822452400000003
  0.5365728740000009  0.8291562799999994  0.2733678820000023
  0.4949060980000013  0.4541561599999966  0.3644904490000016
  0.4532393810000030  0.0791561599999966  0.4556130770000024
  0.0782395900000026  0.7041564579999999  0.0000000029999967
  0.0365728700000005  0.3291563690000032  0.0911226269999972
  0.9949061270000001  0.9541563390000007  0.1822452549999980
  0.9532394410000009  0.5791562799999994  0.2733678820000023
  0.9115726949999967  0.2041561599999966  0.3644904789999970
  0.8699059489999996  0.8291560409999974  0.4556131060000013
  0.4115729629999976  0.7041564579999999  0.0000000029999967
  0.3699062170000005  0.3291563690000032  0.0911226269999972
  0.3282395009999988  0.9541563390000007  0.1822452549999980
  0.2865727840000005  0.5791562799999994  0.2733678820000023
  0.2449060229999986  0.2041561599999966  0.3644904789999970
  0.2032393220000017  0.8291560409999974  0.4556131060000013
  0.7449063660000022  0.7041564579999999  0.0000000029999967
  0.7032395600000001  0.3291563690000032  0.0911226269999972
  0.6615728140000030  0.9541563390000007  0.1822452549999980
  0.6199061270000001  0.5791562799999994  0.2733678820000023
  0.5782394410000009  0.2041561599999966  0.3644904789999970
  0.5365726949999967  0.8291560409999974  0.4556131060000013
  0.2449062760000018  0.2041564140000034  0.0000000189999980
  0.2032395450000024  0.8291563390000007  0.0911226349999978
  0.1615728140000030  0.4541562799999994  0.1822452549999980
  0.1199061049999983  0.0791562799999994  0.2733678219999973
  0.0782393739999989  0.7041561599999966  0.3644903900000003
  0.0365726050000035  0.3291561599999966  0.4556131060000013
  0.5782397389999971  0.2041564140000034  0.0000000189999980
  0.5365729930000001  0.8291563390000007  0.0911226349999978
  0.4949062170000005  0.4541562799999994  0.1822452549999980
  0.4532395009999988  0.0791562799999994  0.2733678219999973
  0.4115727840000005  0.7041561599999966  0.3644903900000003
  0.3699060679999988  0.3291561599999966  0.4556131060000013
  0.9115730520000014  0.2041564140000034  0.0000000189999980
  0.8699062470000030  0.8291563390000007  0.0911226349999978
  0.8282395600000001  0.4541562799999994  0.1822452549999980
  0.7865727539999980  0.0791562799999994  0.2733678219999973
  0.7449060679999988  0.7041561599999966  0.3644903900000003
  0.7032393220000017  0.3291561599999966  0.4556131060000013
  0.0365729629999976  0.5791564579999999  0.0000000000000000
  0.9949062470000030  0.2041563539999984  0.0911226349999978
  0.9532395009999988  0.8291562799999994  0.1822452549999980
  0.9115727539999980  0.4541562799999994  0.2733678219999973
  0.8699060679999988  0.0791562200000016  0.3644904789999970
  0.8282393220000017  0.7041560409999974  0.4556131060000013
  0.3699063359999997  0.5791564579999999  0.0000000000000000
  0.3282395600000001  0.2041563539999984  0.0911226349999978
  0.2865728439999984  0.8291562799999994  0.1822452549999980
  0.2449061129999990  0.4541562799999994  0.2733678219999973
  0.2032393810000030  0.0791562200000016  0.3644904789999970
  0.1615726650000013  0.7041560409999974  0.4556131060000013
  0.7032397389999971  0.5791564579999999  0.0000000000000000
  0.6615729330000022  0.2041563539999984  0.0911226349999978
  0.6199062470000030  0.8291562799999994  0.1822452549999980
  0.5782394410000009  0.4541562799999994  0.2733678219999973
  0.5365727539999980  0.0791562200000016  0.3644904789999970
  0.4949060380000034  0.7041560409999974  0.4556131060000013
  0.2032396050000003  0.0791564210000004  0.0000000209999982
  0.1615728880000020  0.7041563390000007  0.0911226349999978
  0.1199061499999985  0.3291562799999994  0.1822452400000003
  0.0782394109999984  0.9541562799999994  0.2733678219999973
  0.0365726910000035  0.5791561599999966  0.3644904789999970
  0.9949059489999996  0.2041561599999966  0.4556131060000013
  0.5365729930000001  0.0791564210000004  0.0000000209999982
  0.4949062170000005  0.7041563390000007  0.0911226349999978
  0.4532395009999988  0.3291562799999994  0.1822452400000003
  0.4115727539999980  0.9541562799999994  0.2733678219999973
  0.3699060380000034  0.5791561599999966  0.3644904789999970
  0.3282393220000017  0.2041561599999966  0.4556131060000013
  0.8699064250000035  0.0791564210000004  0.0000000209999982
  0.8282396789999993  0.7041563390000007  0.0911226349999978
  0.7865729330000022  0.3291562799999994  0.1822452400000003
  0.7449061869999980  0.9541562799999994  0.2733678219999973
  0.7032395009999988  0.5791561599999966  0.3644904789999970
  0.6615727539999980  0.2041561599999966  0.4556131060000013
  0.2865729930000001  0.8291564579999999  0.0000000400000033
  0.2449062170000005  0.4541563690000032  0.0911226349999978
  0.2032395009999988  0.0791563020000012  0.1822452549999980
  0.1615727690000028  0.7041562799999994  0.2733678820000023
  0.1199060450000005  0.3291561599999966  0.3644904789999970
  0.0782393289999987  0.9541560409999974  0.4556131060000013
  0.6199063059999972  0.8291564579999999  0.0000000400000033
  0.5782395009999988  0.4541563690000032  0.0911226349999978
  0.5365728140000030  0.0791563020000012  0.1822452549999980
  0.4949060380000034  0.7041562799999994  0.2733678820000023
  0.4532393519999971  0.3291561599999966  0.3644904789999970
  0.4115726349999989  0.9541560409999974  0.4556131060000013
  0.9532396199999980  0.8291564579999999  0.0000000400000033
  0.9115729330000022  0.4541563690000032  0.0911226349999978
  0.8699061869999980  0.0791563020000012  0.1822452549999980
  0.8282394410000009  0.7041562799999994  0.2733678820000023
  0.7865728140000030  0.3291561599999966  0.3644904789999970
  0.7449060080000010  0.9541560409999974  0.4556131060000013
  0.1199062390000023  0.3291564290000011  0.0000000180000015
  0.0782395149999999  0.9541563390000007  0.0911226349999978
  0.0365727880000009  0.5791562799999994  0.1822452689999992
  0.9949060679999988  0.2041562799999994  0.2733678820000023
  0.9532393220000017  0.8291562799999994  0.3644904490000016
  0.9115725759999975  0.4541561599999966  0.4556131060000013
  0.4532396500000004  0.3291564290000011  0.0000000180000015
  0.4115729029999997  0.9541563390000007  0.0911226349999978
  0.3699061869999980  0.5791562799999994  0.1822452689999992
  0.3282394410000009  0.2041562799999994  0.2733678820000023
  0.2865726949999967  0.8291562799999994  0.3644904490000016
  0.2449059779999985  0.4541561599999966  0.4556131060000013
  0.7865730520000014  0.3291564290000011  0.0000000180000015
  0.7449062470000030  0.9541563390000007  0.0911226349999978
  0.7032395009999988  0.5791562799999994  0.1822452689999992
  0.6615728140000030  0.2041562799999994  0.2733678820000023
  0.6199060679999988  0.8291562799999994  0.3644904490000016
  0.5782393810000030  0.4541561599999966  0.4556131060000013
  0.0000000000000000  0.0179795080000034  0.4556131359999966
  0.0000000000000000  0.2679795029999994  0.5644904380000000
  0.0000000000000000  0.5179795620000007  0.6733677980000010
  0.0000000000000000  0.7679795620000007  0.7822450999999973
  0.0000000129999975  0.0179796219999986  0.8911225800000011
  0.0000000000000000  0.2679796219999986  0.0000000000000000
  0.2499999699999975  0.2679794729999969  0.4556131359999966
  0.2500000000000000  0.5179795029999994  0.5644904380000000
  0.2499999549999998  0.7679795620000007  0.6733677980000010
  0.2499999549999998  0.0179795029999994  0.7822450999999973
  0.2499999549999998  0.2679795029999994  0.8911225800000011
  0.2500000300000025  0.5179797409999978  0.0000000000000000
  0.5000000000000000  0.5179795029999994  0.4556131359999966
  0.5000000000000000  0.7679795029999994  0.5644904380000000
  0.4999999699999975  0.0179795029999994  0.6733677980000010
  0.4999999699999975  0.2679795029999994  0.7822450999999973
  0.5000000000000000  0.5179796219999986  0.8911225800000011
  0.4999999699999975  0.7679796219999986  0.0000000000000000
  0.7499999400000021  0.7679794430000015  0.4556131359999966
  0.7499999400000021  0.0179795029999994  0.5644904970000013
  0.7499998810000008  0.2679795029999994  0.6733677980000010
  0.7500000000000000  0.5179796219999986  0.7822452779999978
  0.7500000000000000  0.7679796219999986  0.8911225800000011
  0.7499998810000008  0.0179796219999986  0.0000000000000000
  0.0000000000000000  0.5179794430000015  0.4556131359999966
  0.0000000000000000  0.7679795029999994  0.5644904970000013
  0.9999999400000021  0.0179795029999994  0.6733677980000010
  0.9999999400000021  0.2679795029999994  0.7822450999999973
  0.0000000000000000  0.5179795029999994  0.8911225800000011
  0.0000000280000023  0.7679796219999986  0.0000000000000000
  0.2500000000000000  0.7679795029999994  0.4556131359999966
  0.2500000000000000  0.0179795029999994  0.5644904970000013
  0.2499999549999998  0.2679795029999994  0.6733677980000010
  0.2499999549999998  0.5179795029999994  0.7822450999999973
  0.2500000599999979  0.7679796219999986  0.8911225800000011
  0.2499999699999975  0.0179796219999986  0.0000000000000000
  0.4999999699999975  0.0179794800000010  0.4556131359999966
  0.5000000000000000  0.2679795029999994  0.5644904380000000
  0.4999999699999975  0.5179795620000007  0.6733677980000010
  0.4999999400000021  0.7679795620000007  0.7822450999999973
  0.4999999699999975  0.0179795029999994  0.8911225800000011
  0.4999999699999975  0.2679797409999978  0.0000000000000000
  0.7500000000000000  0.2679795319999982  0.4556131359999966
  0.7500000000000000  0.5179795029999994  0.5644904380000000
  0.7499999400000021  0.7679795620000007  0.6733677980000010
  0.7499998810000008  0.0179796219999986  0.7822450999999973
  0.7500000000000000  0.2679796219999986  0.8911226390000024
  0.7500000000000000  0.5179796219999986  0.0000000000000000
  0.0624999850000023  0.3304794729999969  0.4556131359999966
  0.0625000000000000  0.5804795029999994  0.5644904970000013
  0.0624999590000002  0.8304795620000007  0.6733677980000010
  0.0625000149999977  0.0804796219999986  0.7822450999999973
  0.0625000149999977  0.3304796219999986  0.8911226390000024
  0.0625000069999970  0.5804796219999986  0.0000000000000000
  0.3124999699999975  0.5804795029999994  0.4556131359999966
  0.3125000000000000  0.8304795029999994  0.5644904380000000
  0.3124999699999975  0.0804795029999994  0.6733677980000010
  0.3125000300000025  0.3304796219999986  0.7822450999999973
  0.3125000000000000  0.5804796219999986  0.8911226390000024
  0.3125000000000000  0.8304796219999986  0.0000000000000000
  0.5625000000000000  0.8304795029999994  0.4556131359999966
  0.5625000000000000  0.0804795029999994  0.5644904970000013
  0.5624999400000021  0.3304795029999994  0.6733677980000010
  0.5625000000000000  0.5804796219999986  0.7822450999999973
  0.5625000000000000  0.8304796219999986  0.8911226390000024
  0.5624998810000008  0.0804793829999966  0.0000000000000000
  0.8125000000000000  0.0804794579999992  0.4556131359999966
  0.8125000000000000  0.3304795029999994  0.5644904970000013
  0.8125000000000000  0.5804795029999994  0.6733677980000010
  0.8125000000000000  0.8304796219999986  0.7822452779999978
  0.8125000000000000  0.0804796219999986  0.8911226390000024
  0.8125000000000000  0.3304796219999986  0.0000000000000000
  0.0624999890000026  0.8304794430000015  0.4556131359999966
  0.0624999959999997  0.0804795029999994  0.5644904970000013
  0.0624999930000030  0.3304795029999994  0.6733677980000010
  0.0625000149999977  0.5804796219999986  0.7822450999999973
  0.0625000069999970  0.8304796219999986  0.8911226390000024
  0.0625000000000000  0.0804796219999986  0.0000000000000000
  0.3124999699999975  0.0804794949999987  0.4556131359999966
  0.3125000000000000  0.3304795029999994  0.5644904970000013
  0.3124999699999975  0.5804795620000007  0.6733677980000010
  0.3124999699999975  0.8304796219999986  0.7822452779999978
  0.3125000300000025  0.0804796219999986  0.8911225800000011
  0.3124999699999975  0.3304796219999986  0.0000000000000000
  0.5624999400000021  0.3304794729999969  0.4556131359999966
  0.5625000000000000  0.5804795029999994  0.5644904970000013
  0.5624999400000021  0.8304795620000007  0.6733677980000010
  0.5625000000000000  0.0804796219999986  0.7822452779999978
  0.5625000000000000  0.3304796219999986  0.8911225800000011
  0.5625000000000000  0.5804796219999986  0.0000000000000000
  0.8125000000000000  0.5804795029999994  0.4556131359999966
  0.8125000000000000  0.8304795029999994  0.5644904970000013
  0.8125000000000000  0.0804795029999994  0.6733677980000010
  0.8125000000000000  0.3304796219999986  0.7822450999999973
  0.8125000000000000  0.5804796219999986  0.8911225800000011
  0.8124998810000008  0.8304795029999994  0.0000000000000000
 
  0.00000000E+00  0.00000000E+00  0.00000000E+00
  0.00000000E+00  0.00000000E+00  0.00000000E+00
  0.00000000E+00  0.00000000E+00  0.00000000E+00
  0.00000000E+00  0.00000000E+00  0.00000000E+00
  0.00000000E+00  0.00000000E+00  0.00000000E+00
  0.00000000E+00  0.00000000E+00  0.00000000E+00
  0.00000000E+00  0.00000000E+00  0.00000000E+00
  0.00000000E+00  0.00000000E+00  0.00000000E+00
  0.00000000E+00  0.00000000E+00  0.00000000E+00
  0.00000000E+00  0.00000000E+00  0.00000000E+00
  0.00000000E+00  0.00000000E+00  0.00000000E+00
  0.00000000E+00  0.00000000E+00  0.00000000E+00
  0.00000000E+00  0.00000000E+00  0.00000000E+00
  0.00000000E+00  0.00000000E+00  0.00000000E+00
  0.00000000E+00  0.00000000E+00  0.00000000E+00
  0.00000000E+00  0.00000000E+00  0.00000000E+00
  0.00000000E+00  0.00000000E+00  0.00000000E+00
  0.00000000E+00  0.00000000E+00  0.00000000E+00
  0.00000000E+00  0.00000000E+00  0.00000000E+00
  0.00000000E+00  0.00000000E+00  0.00000000E+00
  0.00000000E+00  0.00000000E+00  0.00000000E+00
  0.00000000E+00  0.00000000E+00  0.00000000E+00
  0.00000000E+00  0.00000000E+00  0.00000000E+00
  0.00000000E+00  0.00000000E+00  0.00000000E+00
  0.00000000E+00  0.00000000E+00  0.00000000E+00
  0.00000000E+00  0.00000000E+00  0.00000000E+00
  0.00000000E+00  0.00000000E+00  0.00000000E+00
  0.00000000E+00  0.00000000E+00  0.00000000E+00
  0.00000000E+00  0.00000000E+00  0.00000000E+00
  0.00000000E+00  0.00000000E+00  0.00000000E+00
  0.00000000E+00  0.00000000E+00  0.00000000E+00
  0.00000000E+00  0.00000000E+00  0.00000000E+00
  0.00000000E+00  0.00000000E+00  0.00000000E+00
  0.00000000E+00  0.00000000E+00  0.00000000E+00
  0.00000000E+00  0.00000000E+00  0.00000000E+00
  0.00000000E+00  0.00000000E+00  0.00000000E+00
  0.00000000E+00  0.00000000E+00  0.00000000E+00
  0.00000000E+00  0.00000000E+00  0.00000000E+00
  0.00000000E+00  0.00000000E+00  0.00000000E+00
  0.00000000E+00  0.00000000E+00  0.00000000E+00
  0.00000000E+00  0.00000000E+00  0.00000000E+00
  0.00000000E+00  0.00000000E+00  0.00000000E+00
  0.00000000E+00  0.00000000E+00  0.00000000E+00
  0.00000000E+00  0.00000000E+00  0.00000000E+00
  0.00000000E+00  0.00000000E+00  0.00000000E+00
  0.00000000E+00  0.00000000E+00  0.00000000E+00
  0.00000000E+00  0.00000000E+00  0.00000000E+00
  0.00000000E+00  0.00000000E+00  0.00000000E+00
  0.00000000E+00  0.00000000E+00  0.00000000E+00
  0.00000000E+00  0.00000000E+00  0.00000000E+00
  0.00000000E+00  0.00000000E+00  0.00000000E+00
  0.00000000E+00  0.00000000E+00  0.00000000E+00
  0.00000000E+00  0.00000000E+00  0.00000000E+00
  0.00000000E+00  0.00000000E+00  0.00000000E+00
  0.00000000E+00  0.00000000E+00  0.00000000E+00
  0.00000000E+00  0.00000000E+00  0.00000000E+00
  0.00000000E+00  0.00000000E+00  0.00000000E+00
  0.00000000E+00  0.00000000E+00  0.00000000E+00
  0.00000000E+00  0.00000000E+00  0.00000000E+00
  0.00000000E+00  0.00000000E+00  0.00000000E+00
  0.00000000E+00  0.00000000E+00  0.00000000E+00
  0.00000000E+00  0.00000000E+00  0.00000000E+00
  0.00000000E+00  0.00000000E+00  0.00000000E+00
  0.00000000E+00  0.00000000E+00  0.00000000E+00
  0.00000000E+00  0.00000000E+00  0.00000000E+00
  0.00000000E+00  0.00000000E+00  0.00000000E+00
  0.00000000E+00  0.00000000E+00  0.00000000E+00
  0.00000000E+00  0.00000000E+00  0.00000000E+00
  0.00000000E+00  0.00000000E+00  0.00000000E+00
  0.00000000E+00  0.00000000E+00  0.00000000E+00
  0.00000000E+00  0.00000000E+00  0.00000000E+00
  0.00000000E+00  0.00000000E+00  0.00000000E+00
  0.00000000E+00  0.00000000E+00  0.00000000E+00
  0.00000000E+00  0.00000000E+00  0.00000000E+00
  0.00000000E+00  0.00000000E+00  0.00000000E+00
  0.00000000E+00  0.00000000E+00  0.00000000E+00
  0.00000000E+00  0.00000000E+00  0.00000000E+00
  0.00000000E+00  0.00000000E+00  0.00000000E+00
  0.00000000E+00  0.00000000E+00  0.00000000E+00
  0.00000000E+00  0.00000000E+00  0.00000000E+00
  0.00000000E+00  0.00000000E+00  0.00000000E+00
  0.00000000E+00  0.00000000E+00  0.00000000E+00
  0.00000000E+00  0.00000000E+00  0.00000000E+00
  0.00000000E+00  0.00000000E+00  0.00000000E+00
  0.00000000E+00  0.00000000E+00  0.00000000E+00
  0.00000000E+00  0.00000000E+00  0.00000000E+00
  0.00000000E+00  0.00000000E+00  0.00000000E+00
  0.00000000E+00  0.00000000E+00  0.00000000E+00
  0.00000000E+00  0.00000000E+00  0.00000000E+00
  0.00000000E+00  0.00000000E+00  0.00000000E+00
  0.00000000E+00  0.00000000E+00  0.00000000E+00
  0.00000000E+00  0.00000000E+00  0.00000000E+00
  0.00000000E+00  0.00000000E+00  0.00000000E+00
  0.00000000E+00  0.00000000E+00  0.00000000E+00
  0.00000000E+00  0.00000000E+00  0.00000000E+00
  0.00000000E+00  0.00000000E+00  0.00000000E+00
  0.00000000E+00  0.00000000E+00  0.00000000E+00
  0.00000000E+00  0.00000000E+00  0.00000000E+00
  0.00000000E+00  0.00000000E+00  0.00000000E+00
  0.00000000E+00  0.00000000E+00  0.00000000E+00
  0.00000000E+00  0.00000000E+00  0.00000000E+00
  0.00000000E+00  0.00000000E+00  0.00000000E+00
  0.00000000E+00  0.00000000E+00  0.00000000E+00
  0.00000000E+00  0.00000000E+00  0.00000000E+00
  0.00000000E+00  0.00000000E+00  0.00000000E+00
  0.00000000E+00  0.00000000E+00  0.00000000E+00
  0.00000000E+00  0.00000000E+00  0.00000000E+00
  0.00000000E+00  0.00000000E+00  0.00000000E+00
  0.00000000E+00  0.00000000E+00  0.00000000E+00
  0.00000000E+00  0.00000000E+00  0.00000000E+00
  0.00000000E+00  0.00000000E+00  0.00000000E+00
  0.00000000E+00  0.00000000E+00  0.00000000E+00
  0.00000000E+00  0.00000000E+00  0.00000000E+00
  0.00000000E+00  0.00000000E+00  0.00000000E+00
  0.00000000E+00  0.00000000E+00  0.00000000E+00
  0.00000000E+00  0.00000000E+00  0.00000000E+00
  0.00000000E+00  0.00000000E+00  0.00000000E+00
  0.00000000E+00  0.00000000E+00  0.00000000E+00
  0.00000000E+00  0.00000000E+00  0.00000000E+00
  0.00000000E+00  0.00000000E+00  0.00000000E+00
  0.00000000E+00  0.00000000E+00  0.00000000E+00
  0.00000000E+00  0.00000000E+00  0.00000000E+00
  0.00000000E+00  0.00000000E+00  0.00000000E+00
  0.00000000E+00  0.00000000E+00  0.00000000E+00
  0.00000000E+00  0.00000000E+00  0.00000000E+00
  0.00000000E+00  0.00000000E+00  0.00000000E+00
  0.00000000E+00  0.00000000E+00  0.00000000E+00
  0.00000000E+00  0.00000000E+00  0.00000000E+00
  0.00000000E+00  0.00000000E+00  0.00000000E+00
  0.00000000E+00  0.00000000E+00  0.00000000E+00
  0.00000000E+00  0.00000000E+00  0.00000000E+00
  0.00000000E+00  0.00000000E+00  0.00000000E+00
  0.00000000E+00  0.00000000E+00  0.00000000E+00
  0.00000000E+00  0.00000000E+00  0.00000000E+00
  0.00000000E+00  0.00000000E+00  0.00000000E+00
  0.00000000E+00  0.00000000E+00  0.00000000E+00
  0.00000000E+00  0.00000000E+00  0.00000000E+00
  0.00000000E+00  0.00000000E+00  0.00000000E+00
  0.00000000E+00  0.00000000E+00  0.00000000E+00
  0.00000000E+00  0.00000000E+00  0.00000000E+00
  0.00000000E+00  0.00000000E+00  0.00000000E+00
  0.00000000E+00  0.00000000E+00  0.00000000E+00
  0.00000000E+00  0.00000000E+00  0.00000000E+00
  0.00000000E+00  0.00000000E+00  0.00000000E+00
  0.00000000E+00  0.00000000E+00  0.00000000E+00
  0.00000000E+00  0.00000000E+00  0.00000000E+00
  0.00000000E+00  0.00000000E+00  0.00000000E+00
  0.00000000E+00  0.00000000E+00  0.00000000E+00
  0.00000000E+00  0.00000000E+00  0.00000000E+00
  0.00000000E+00  0.00000000E+00  0.00000000E+00
  0.00000000E+00  0.00000000E+00  0.00000000E+00
  0.00000000E+00  0.00000000E+00  0.00000000E+00
  0.00000000E+00  0.00000000E+00  0.00000000E+00
  0.00000000E+00  0.00000000E+00  0.00000000E+00
  0.00000000E+00  0.00000000E+00  0.00000000E+00
  0.00000000E+00  0.00000000E+00  0.00000000E+00
  0.00000000E+00  0.00000000E+00  0.00000000E+00
  0.00000000E+00  0.00000000E+00  0.00000000E+00
  0.00000000E+00  0.00000000E+00  0.00000000E+00
  0.00000000E+00  0.00000000E+00  0.00000000E+00
  0.00000000E+00  0.00000000E+00  0.00000000E+00
  0.00000000E+00  0.00000000E+00  0.00000000E+00
  0.00000000E+00  0.00000000E+00  0.00000000E+00
  0.00000000E+00  0.00000000E+00  0.00000000E+00
  0.00000000E+00  0.00000000E+00  0.00000000E+00
  0.00000000E+00  0.00000000E+00  0.00000000E+00
  0.00000000E+00  0.00000000E+00  0.00000000E+00
  0.00000000E+00  0.00000000E+00  0.00000000E+00
  0.00000000E+00  0.00000000E+00  0.00000000E+00
  0.00000000E+00  0.00000000E+00  0.00000000E+00
  0.00000000E+00  0.00000000E+00  0.00000000E+00
  0.00000000E+00  0.00000000E+00  0.00000000E+00
  0.00000000E+00  0.00000000E+00  0.00000000E+00
  0.00000000E+00  0.00000000E+00  0.00000000E+00
  0.00000000E+00  0.00000000E+00  0.00000000E+00
  0.00000000E+00  0.00000000E+00  0.00000000E+00
  0.00000000E+00  0.00000000E+00  0.00000000E+00
  0.00000000E+00  0.00000000E+00  0.00000000E+00
  0.00000000E+00  0.00000000E+00  0.00000000E+00
  0.00000000E+00  0.00000000E+00  0.00000000E+00
  0.00000000E+00  0.00000000E+00  0.00000000E+00
  0.00000000E+00  0.00000000E+00  0.00000000E+00
  0.00000000E+00  0.00000000E+00  0.00000000E+00
  0.00000000E+00  0.00000000E+00  0.00000000E+00
  0.00000000E+00  0.00000000E+00  0.00000000E+00
  0.00000000E+00  0.00000000E+00  0.00000000E+00
  0.00000000E+00  0.00000000E+00  0.00000000E+00
  0.00000000E+00  0.00000000E+00  0.00000000E+00
  0.00000000E+00  0.00000000E+00  0.00000000E+00
  0.00000000E+00  0.00000000E+00  0.00000000E+00
  0.00000000E+00  0.00000000E+00  0.00000000E+00
  0.00000000E+00  0.00000000E+00  0.00000000E+00
  0.00000000E+00  0.00000000E+00  0.00000000E+00
  0.00000000E+00  0.00000000E+00  0.00000000E+00
  0.00000000E+00  0.00000000E+00  0.00000000E+00
  0.00000000E+00  0.00000000E+00  0.00000000E+00
  0.00000000E+00  0.00000000E+00  0.00000000E+00
  0.00000000E+00  0.00000000E+00  0.00000000E+00
  0.00000000E+00  0.00000000E+00  0.00000000E+00
  0.00000000E+00  0.00000000E+00  0.00000000E+00
  0.00000000E+00  0.00000000E+00  0.00000000E+00
  0.00000000E+00  0.00000000E+00  0.00000000E+00
  0.00000000E+00  0.00000000E+00  0.00000000E+00
  0.00000000E+00  0.00000000E+00  0.00000000E+00
  0.00000000E+00  0.00000000E+00  0.00000000E+00
  0.00000000E+00  0.00000000E+00  0.00000000E+00
  0.00000000E+00  0.00000000E+00  0.00000000E+00
  0.00000000E+00  0.00000000E+00  0.00000000E+00
  0.00000000E+00  0.00000000E+00  0.00000000E+00
  0.00000000E+00  0.00000000E+00  0.00000000E+00
  0.00000000E+00  0.00000000E+00  0.00000000E+00
  0.00000000E+00  0.00000000E+00  0.00000000E+00
  0.00000000E+00  0.00000000E+00  0.00000000E+00
  0.00000000E+00  0.00000000E+00  0.00000000E+00
  0.00000000E+00  0.00000000E+00  0.00000000E+00
  0.00000000E+00  0.00000000E+00  0.00000000E+00
  0.00000000E+00  0.00000000E+00  0.00000000E+00
  0.00000000E+00  0.00000000E+00  0.00000000E+00
  0.00000000E+00  0.00000000E+00  0.00000000E+00
  0.00000000E+00  0.00000000E+00  0.00000000E+00
  0.00000000E+00  0.00000000E+00  0.00000000E+00
  0.00000000E+00  0.00000000E+00  0.00000000E+00
  0.00000000E+00  0.00000000E+00  0.00000000E+00
  0.00000000E+00  0.00000000E+00  0.00000000E+00
  0.00000000E+00  0.00000000E+00  0.00000000E+00
  0.00000000E+00  0.00000000E+00  0.00000000E+00
  0.00000000E+00  0.00000000E+00  0.00000000E+00
  0.00000000E+00  0.00000000E+00  0.00000000E+00
  0.00000000E+00  0.00000000E+00  0.00000000E+00
  0.00000000E+00  0.00000000E+00  0.00000000E+00
  0.00000000E+00  0.00000000E+00  0.00000000E+00
  0.00000000E+00  0.00000000E+00  0.00000000E+00
  0.00000000E+00  0.00000000E+00  0.00000000E+00
  0.00000000E+00  0.00000000E+00  0.00000000E+00
  0.00000000E+00  0.00000000E+00  0.00000000E+00
  0.00000000E+00  0.00000000E+00  0.00000000E+00
  0.00000000E+00  0.00000000E+00  0.00000000E+00
  0.00000000E+00  0.00000000E+00  0.00000000E+00
  0.00000000E+00  0.00000000E+00  0.00000000E+00
  0.00000000E+00  0.00000000E+00  0.00000000E+00
