Sn+Ge
    1.000000000
   12.978400230    0.000000000    0.000000000
    0.000000000   12.978400230    0.000000000
    0.000000000    0.000000000   19.583751678
Sn  Ge 
48     60
Direct
    0.992552638    0.499999970    0.000000000
    0.742552638    0.499999970    0.165678188
    0.492552757    0.499999970    0.331356287
    0.992552638    0.000000000    0.000000000
    0.742552638    0.000000000    0.165678188
    0.492552757    0.000000000    0.331356287
    0.492552608    0.499999970    0.000000000
    0.242552638    0.499999970    0.165678188
    0.992552698    0.499999970    0.331356287
    0.492552608    0.000000000    0.000000000
    0.242552638    0.000000000    0.165678188
    0.992552698    0.000000000    0.331356287
    0.117552646    0.874999940    0.082839087
    0.867552757    0.874999940    0.248517260
    0.617552698    0.874999940    0.414195418
    0.117552646    0.374999970    0.082839087
    0.867552757    0.374999970    0.248517260
    0.617552698    0.374999970    0.414195418
    0.617552578    0.874999940    0.082839087
    0.367552698    0.874999940    0.248517260
    0.117552668    0.874999940    0.414195418
    0.617552578    0.374999970    0.082839087
    0.367552698    0.374999970    0.248517260
    0.117552668    0.374999970    0.414195418
    0.242552638    0.749999940    0.000000000
    0.992552638    0.749999940    0.165678188
    0.742552757    0.749999940    0.331356287
    0.242552638    0.249999985    0.000000000
    0.992552638    0.249999985    0.165678188
    0.742552757    0.249999985    0.331356287
    0.742552578    0.749999940    0.000000000
    0.492552608    0.749999940    0.165678188
    0.242552698    0.749999940    0.331356287
    0.742552578    0.249999985    0.000000000
    0.492552608    0.249999985    0.165678188
    0.242552698    0.249999985    0.331356287
    0.367552638    0.624999940    0.082839087
    0.117552713    0.624999940    0.248517260
    0.867552698    0.624999940    0.414195418
    0.367552638    0.124999993    0.082839087
    0.117552713    0.124999993    0.248517260
    0.867552698    0.124999993    0.414195418
    0.867552638    0.624999940    0.082839087
    0.617552757    0.624999940    0.248517260
    0.367552698    0.624999940    0.414195418
    0.867552638    0.124999993    0.082839087
    0.617552757    0.124999993    0.248517260
    0.367552698    0.124999993    0.414195418
    0.019523263    0.428222895    0.526533484
    0.819523215    0.528222919    0.670984805
    0.619523108    0.628222942    0.815436304
    0.219523191    0.828222871    0.526533484
    0.019523144    0.928222835    0.670984805
    0.819523096    0.028222919    0.815436304
    0.419523239    0.228222892    0.526533484
    0.219523191    0.328222901    0.670984805
    0.019523144    0.428222954    0.815436304
    0.619523168    0.628222883    0.526533484
    0.419523120    0.728222847    0.670984805
    0.219523072    0.828222871    0.815436304
    0.819523215    0.028222919    0.526533484
    0.619523168    0.128222823    0.670984805
    0.419523120    0.228222862    0.815436304
    0.369523168    0.378222883    0.598759174
    0.169523120    0.478222907    0.743210614
    0.969522953    0.578222930    0.887661994
    0.969523191    0.578222871    0.598759174
    0.769523144    0.678222954    0.743210614
    0.569523096    0.778222919    0.887661994
    0.169523239    0.978222847    0.598759174
    0.969523191    0.078222871    0.743210614
    0.769523144    0.178222895    0.887661994
    0.569523215    0.778222859    0.598759174
    0.369523168    0.878222942    0.743210614
    0.169523001    0.978222966    0.887661994
    0.769523144    0.178222895    0.598759174
    0.569523096    0.278222919    0.743210614
    0.369523048    0.378222942    0.887661994
    0.319523096    0.528222859    0.526533484
    0.119523048    0.628222823    0.670984805
    0.919523001    0.728222847    0.815436304
    0.719523191    0.328222901    0.526533484
    0.519523144    0.428222895    0.670984805
    0.319523096    0.528222919    0.815436304
    0.919523180    0.728222907    0.526533484
    0.719523191    0.828222930    0.670984805
    0.519523144    0.928222954    0.815436304
    0.119523168    0.128222942    0.526533484
    0.919523120    0.228222981    0.670984805
    0.719523072    0.328222990    0.815436304
    0.519523203    0.928222895    0.526533484
    0.319523215    0.028222919    0.670984805
    0.119523168    0.128222942    0.815436304
    0.069523215    0.278222919    0.598759174
    0.869523168    0.378222942    0.743210614
    0.669523060    0.478222966    0.887661994
    0.269523263    0.678222895    0.598759174
    0.069523215    0.778222919    0.743210614
    0.869523168    0.878222942    0.887661994
    0.669523239    0.478222907    0.598759174
    0.469523162    0.578222930    0.743210614
    0.269523144    0.678222954    0.887661994
    0.869523168    0.878222883    0.598759174
    0.669523120    0.978222907    0.743210614
    0.469523072    0.078222990    0.887661994
    0.469523191    0.078222871    0.598759174
    0.269523144    0.178222895    0.743210614
    0.069523096    0.278222919    0.887661994
