Si+C
    1.000000000
   13.303179741    0.000000000    0.000000000
    6.651589394   11.520891190    0.000000000
    0.000000000    0.000000000   21.679416656
Si  C  
72     308
Direct
    0.000000000    0.318506181    0.289268821
    0.000000000    0.985172927    0.000000014
    0.000000000    0.651839554    0.144634426
    0.333333343    0.651839614    0.289268792
    0.333333343    0.318506300    0.000000009
    0.333333343    0.985172868    0.144634411
    0.666666687    0.985172927    0.289268792
    0.666666687    0.651839614    0.000000006
    0.666666687    0.318506241    0.144634411
    0.333333343    0.318506062    0.325427473
    0.333333343    0.985172868    0.036158625
    0.333333343    0.651839495    0.180793017
    1.000000000    0.985172808    0.325427473
    1.000000000    0.651839614    0.036158621
    1.000000000    0.318506271    0.180793017
    0.666666746    0.651839375    0.325427473
    0.666666746    0.318506211    0.036158632
    0.666666746    0.985172868    0.180793017
    0.500000000    0.318506241    0.289268792
    0.500000000    0.985172927    0.000000010
    0.500000000    0.651839554    0.144634411
    0.166666672    0.985172927    0.289268792
    0.166666672    0.651839674    0.000000001
    0.166666672    0.318506241    0.144634411
    0.833333373    0.651839614    0.289268792
    0.833333373    0.318506300    0.000000001
    0.833333373    0.985172927    0.144634411
    0.166666657    0.651839554    0.325427383
    0.166666657    0.318506300    0.036158580
    0.166666657    0.985172868    0.180792972
    0.833333433    0.318506181    0.325427413
    0.833333433    0.985172927    0.036158595
    0.833333433    0.651839495    0.180792987
    0.500000060    0.985172868    0.325427413
    0.500000060    0.651839614    0.036158599
    0.500000060    0.318506211    0.180793017
    0.166666672    0.485172927    0.289268792
    0.166666672    0.151839614    0.000000010
    0.166666672    0.818506241    0.144634411
    0.500000000    0.818506241    0.289268821
    0.500000000    0.485172987    0.000000016
    0.500000000    0.151839584    0.144634426
    0.833333373    0.151839629    0.289268792
    0.833333373    0.818506360    0.000000000
    0.833333373    0.485173017    0.144634381
    0.500000000    0.485172868    0.325427413
    0.500000000    0.151839614    0.036158595
    0.500000000    0.818506241    0.180792987
    0.166666672    0.151839569    0.325427383
    0.166666672    0.818506360    0.036158573
    0.166666672    0.485172927    0.180792972
    0.833333373    0.818506181    0.325427383
    0.833333373    0.485172927    0.036158573
    0.833333373    0.151839525    0.180792972
    0.000000000    0.818506241    0.289268792
    0.000000000    0.485172957    0.000000009
    0.000000000    0.151839554    0.144634411
    0.666666687    0.485172868    0.289268792
    0.666666687    0.151839599    0.000000009
    0.666666687    0.818506181    0.144634411
    0.333333313    0.151839495    0.289268792
    0.333333313    0.818506241    0.000000002
    0.333333313    0.485172868    0.144634381
    0.000000000    0.485172808    0.325427473
    0.000000000    0.151839659    0.036158618
    0.000000000    0.818506300    0.180793017
    0.333333343    0.818506122    0.325427473
    0.333333343    0.485172957    0.036158621
    0.333333343    0.151839599    0.180793017
    0.666666687    0.151839525    0.325427443
    0.666666687    0.818506300    0.036158618
    0.666666687    0.485172957    0.180792987
    0.454242289    0.461818397    0.876437724
    0.787575901    0.795151770    0.496484071
    0.454242647    0.461818457    0.591472447
    0.120909028    0.128484964    0.686460912
    0.787575781    0.795151651    0.781449258
    0.739956677    0.604675472    0.876437724
    0.073290229    0.938008845    0.496484071
    0.739956915    0.604675591    0.591472447
    0.406623363    0.271342099    0.686460912
    0.073289983    0.938008726    0.781449258
    0.597099483    0.033246756    0.876437783
    0.930433095    0.366580278    0.496484041
    0.597099721    0.033246994    0.591472447
    0.263766170    0.699913502    0.686460912
    0.930432856    0.366580129    0.781449258
    0.025670767    0.747532547    0.876437783
    0.359004498    0.080865994    0.496484071
    0.025671124    0.747532666    0.591472447
    0.692337692    0.414199233    0.686460912
    0.359004259    0.080865860    0.781449258
    0.882813632    0.176103950    0.876437724
    0.216147393    0.509437442    0.496484011
    0.882813990    0.176104128    0.591472447
    0.549480617    0.842770755    0.686460853
    0.216147065    0.509437323    0.781449258
    0.311385155    0.890389621    0.876437724
    0.644718826    0.223723173    0.496484011
    0.311385453    0.890389800    0.591472447
    0.978052080    0.557056487    0.686460793
    0.644718528    0.223723054    0.781449258
    0.168528020    0.318961143    0.876437724
    0.501861632    0.652294517    0.496484071
    0.168528304    0.318961233    0.591472447
    0.835194767    0.985627770    0.686460912
    0.501861393    0.652294397    0.781449258
    0.549480498    0.842770755    0.900184751
    0.216147423    0.509437442    0.425242722
    0.882814050    0.176104099    0.520231128
    0.549480557    0.842770696    0.615219593
    0.216147125    0.509437203    0.710207999
    0.882813752    0.176103890    0.805196404
    0.978051960    0.557056487    0.900184751
    0.644718826    0.223723188    0.425242722
    0.311385483    0.890389860    0.520231128
    0.978052020    0.557056487    0.615219533
    0.644718468    0.223722935    0.710207999
    0.311385155    0.890389621    0.805196404
    0.835194767    0.985627830    0.900184751
    0.501861632    0.652294576    0.425242722
    0.168528318    0.318961233    0.520231128
    0.835194886    0.985627830    0.615219533
    0.501861334    0.652294338    0.710207999
    0.168527961    0.318961024    0.805196404
    0.263766110    0.699913561    0.900184751
    0.930433095    0.366580307    0.425242722
    0.597099721    0.033246994    0.520231128
    0.263766289    0.699913561    0.615219533
    0.930432737    0.366580069    0.710207999
    0.597099364    0.033246756    0.805196404
    0.692337573    0.414199412    0.900184751
    0.359004557    0.080866024    0.425242722
    0.025671124    0.747532666    0.520231128
    0.692337692    0.414199293    0.615219593
    0.359004200    0.080865800    0.710207999
    0.025670767    0.747532427    0.805196404
    0.120909087    0.128484964    0.900184751
    0.787576020    0.795151711    0.425242752
    0.454242647    0.461818367    0.520231128
    0.120909207    0.128484964    0.615219593
    0.787575662    0.795151472    0.710207999
    0.454242349    0.461818159    0.805196404
    0.406623185    0.271342158    0.900184751
    0.073290318    0.938008845    0.425242692
    0.739956915    0.604675531    0.520231068
    0.406623602    0.271342218    0.615219533
    0.073289983    0.938008726    0.710207939
    0.739956558    0.604675353    0.805196404
    0.668528020    0.818961203    0.876437724
    0.001861572    0.152294561    0.496484041
    0.668528259    0.818961263    0.591472447
    0.335194767    0.485627770    0.686460912
    0.001861334    0.152294457    0.781449258
    0.097099476    0.533246815    0.876437724
    0.430433065    0.866580307    0.496484011
    0.097099729    0.533246994    0.591472447
    0.763766229    0.199913502    0.686460912
    0.430432856    0.866580188    0.781449258
    0.525670946    0.247532487    0.876437724
    0.859004557    0.580865979    0.496484011
    0.525671124    0.247532636    0.591472447
    0.192337751    0.914199293    0.686460853
    0.859004200    0.580865800    0.781449258
    0.954242289    0.961818278    0.876437724
    0.287575960    0.295151740    0.496484041
    0.954242527    0.961818397    0.591472447
    0.620909154    0.628485024    0.686460853
    0.287575603    0.295151532    0.781449258
    0.382813692    0.676103890    0.876437724
    0.716147423    0.009437561    0.496484011
    0.382814020    0.676104128    0.591472447
    0.049480557    0.342770815    0.686460793
    0.716147125    0.009437323    0.781449199
    0.811385214    0.390389681    0.876437724
    0.144718796    0.723723114    0.496484041
    0.811385453    0.390389860    0.591472447
    0.478051901    0.057056427    0.686460912
    0.144718587    0.723722994    0.781449258
    0.239956677    0.104675412    0.876437783
    0.573290229    0.438008845    0.496484071
    0.239956915    0.104675546    0.591472447
    0.906623363    0.771342099    0.686460912
    0.573289990    0.438008726    0.781449258
    0.620908916    0.628484905    0.900184751
    0.287575990    0.295151711    0.425242692
    0.954242587    0.961818397    0.520231068
    0.620909274    0.628485084    0.615219533
    0.287575662    0.295151532    0.710207939
    0.954242289    0.961818278    0.805196404
    0.478051841    0.057056427    0.900184751
    0.144718856    0.723723114    0.425242692
    0.811385453    0.390389800    0.520231068
    0.478052139    0.057056427    0.615219533
    0.144718528    0.723722994    0.710207939
    0.811385214    0.390389621    0.805196404
    0.906623304    0.771341980    0.900184751
    0.573290288    0.438008875    0.425242692
    0.239956856    0.104675502    0.520231068
    0.906623542    0.771342218    0.615219533
    0.573289931    0.438008666    0.710207939
    0.239956558    0.104675353    0.805196404
    0.335194647    0.485627711    0.900184751
    0.001861691    0.152294576    0.425242692
    0.668528259    0.818961203    0.520231068
    0.335194975    0.485627949    0.615219533
    0.001861334    0.152294397    0.710207939
    0.668528020    0.818961084    0.805196404
    0.763766110    0.199913502    0.900184751
    0.430433154    0.866580307    0.425242692
    0.097099714    0.533246934    0.520231068
    0.763766408    0.199913636    0.615219533
    0.430432796    0.866580129    0.710207939
    0.097099416    0.533246815    0.805196345
    0.192337573    0.914199173    0.900184751
    0.859004617    0.580865979    0.425242722
    0.525671184    0.247532621    0.520231128
    0.192337871    0.914199352    0.615219533
    0.859004319    0.580865800    0.710207939
    0.525670946    0.247532487    0.805196404
    0.049480319    0.342770576    0.900184751
    0.716147423    0.009437323    0.425242722
    0.382813990    0.676104009    0.520231128
    0.049480677    0.342770725    0.615219533
    0.716147125    0.009437203    0.710207999
    0.382813692    0.676103830    0.805196404
    0.597099483    0.533246815    0.876437783
    0.930433095    0.866580307    0.496484071
    0.597099721    0.533246994    0.591472447
    0.263766170    0.199913502    0.686460912
    0.930432856    0.866580188    0.781449258
    0.454242408    0.961818278    0.876437783
    0.787575960    0.295151711    0.496484071
    0.454242587    0.961818397    0.591472447
    0.120909028    0.628484905    0.686460912
    0.787575662    0.295151591    0.781449258
    0.882813752    0.676104009    0.876437783
    0.216147363    0.009437442    0.496484041
    0.882814050    0.676104128    0.591472447
    0.549480498    0.342770636    0.686460912
    0.216147125    0.009437323    0.781449258
    0.739956558    0.104675412    0.876437783
    0.073290244    0.438008964    0.496484011
    0.739956796    0.104675584    0.591472447
    0.406623483    0.771342218    0.686460793
    0.073289923    0.438008845    0.781449258
    0.168527961    0.818961084    0.876437724
    0.501861691    0.152294636    0.496484011
    0.168528318    0.818961263    0.591472447
    0.835194945    0.485627949    0.686460853
    0.501861453    0.152294517    0.781449258
    0.025670767    0.247532606    0.876437724
    0.359004498    0.580865979    0.496484071
    0.025671124    0.247532696    0.591472447
    0.692337632    0.914199233    0.686460912
    0.359004259    0.580865920    0.781449258
    0.311385214    0.390389681    0.876437783
    0.644718766    0.723723114    0.496484071
    0.311385453    0.390389830    0.591472447
    0.978051901    0.057056427    0.686460912
    0.644718587    0.723722994    0.781449258
    0.835194528    0.485627711    0.900184751
    0.501861632    0.152294576    0.425242722
    0.168528259    0.818961203    0.520231128
    0.835194945    0.485627949    0.615219533
    0.501861334    0.152294397    0.710207939
    0.168527961    0.818960965    0.805196404
    0.692337573    0.914199173    0.900184751
    0.359004587    0.580865979    0.425242692
    0.025671124    0.247532621    0.520231068
    0.692337871    0.914199352    0.615219533
    0.359004259    0.580865800    0.710207939
    0.025670886    0.247532427    0.805196404
    0.120908968    0.628484905    0.900184751
    0.787576020    0.295151711    0.425242722
    0.454242617    0.961818337    0.520231128
    0.120909266    0.628485084    0.615219533
    0.787575662    0.295151532    0.710207939
    0.454242289    0.961818159    0.805196404
    0.549480379    0.342770636    0.900184751
    0.216147423    0.009437561    0.425242722
    0.882814050    0.676104128    0.520231128
    0.549480677    0.342770815    0.615219533
    0.216147065    0.009437323    0.710207999
    0.882813752    0.676104009    0.805196404
    0.978051841    0.057056427    0.900184751
    0.644718826    0.723723173    0.425242662
    0.311385423    0.390389770    0.520231068
    0.978052080    0.057056427    0.615219533
    0.644718468    0.723722994    0.710207880
    0.311385095    0.390389681    0.805196345
    0.406623304    0.771341980    0.900184751
    0.073290370    0.438008875    0.425242692
    0.739956975    0.104675487    0.520231068
    0.406623662    0.771342218    0.615219533
    0.073290043    0.438008666    0.710207939
    0.739956677    0.104675353    0.805196404
    0.263766110    0.199913442    0.900184751
    0.930433154    0.866580307    0.425242722
    0.597099721    0.533246934    0.520231128
    0.263766408    0.199913636    0.615219533
    0.930432796    0.866580069    0.710207999
    0.597099483    0.533246756    0.805196404
    0.525671065    0.747532666    0.876437724
    0.859004498    0.080866002    0.496484041
    0.525671184    0.747532666    0.591472447
    0.192337573    0.414199233    0.686460912
    0.859004319    0.080865920    0.781449258
    0.954242289    0.461818278    0.876437724
    0.287575901    0.795151770    0.496484041
    0.954242587    0.461818397    0.591472447
    0.620909035    0.128484964    0.686460912
    0.287575662    0.795151651    0.781449258
    0.811385095    0.890389740    0.876437724
    0.144718811    0.223723218    0.496484011
    0.811385393    0.890389860    0.591472447
    0.478052020    0.557056487    0.686460853
    0.144718468    0.223723054    0.781449258
    0.239956498    0.604675472    0.876437724
    0.573290169    0.938008904    0.496484011
    0.239956796    0.604675472    0.591472447
    0.906623423    0.271342218    0.686460853
    0.573289931    0.938008726    0.781449258
    0.668528020    0.318961024    0.876437724
    0.001861691    0.652294457    0.496484041
    0.668528318    0.318961233    0.591472447
    0.335194767    0.985627711    0.686460912
    0.001861334    0.652294457    0.781449258
    0.097099416    0.033246994    0.876437724
    0.430433065    0.366580278    0.496484041
    0.097099751    0.033246994    0.591472447
    0.763766229    0.699913442    0.686460912
    0.430432856    0.366580188    0.781449258
    0.382813811    0.176103950    0.876437724
    0.716147363    0.509437323    0.496484071
    0.382814020    0.176104084    0.591472447
    0.049480438    0.842770636    0.686460912
    0.716147125    0.509437263    0.781449258
    0.478052080    0.557056487    0.900184751
    0.144718871    0.223723233    0.425242722
    0.811385512    0.890389919    0.520231128
    0.478052080    0.557056487    0.615219593
    0.144718528    0.223723054    0.710207939
    0.811385095    0.890389621    0.805196404
    0.763766229    0.699913561    0.900184751
    0.430433184    0.366580367    0.425242722
    0.097099774    0.033246994    0.520231128
    0.763766348    0.699913621    0.615219593
    0.430432796    0.366580129    0.710207999
    0.097099476    0.033246756    0.805196404
    0.620909154    0.128485084    0.900184751
    0.287576050    0.795151770    0.425242692
    0.954242647    0.461818427    0.520231068
    0.620909214    0.128485024    0.615219533
    0.287575662    0.795151532    0.710207999
    0.954242289    0.461818159    0.805196404
    0.049480438    0.842770755    0.900184751
    0.716147423    0.509437501    0.425242722
    0.382814020    0.176104158    0.520231068
    0.049480557    0.842770755    0.615219533
    0.716147065    0.509437263    0.710207999
    0.382813692    0.176103890    0.805196404
    0.906623304    0.271342158    0.900184751
    0.573290229    0.938008845    0.425242692
    0.239956826    0.604675531    0.520231068
    0.906623423    0.271342099    0.615219533
    0.573289871    0.938008666    0.710207999
    0.239956558    0.604675353    0.805196404
    0.335194647    0.985627830    0.900184751
    0.001861572    0.652294517    0.425242722
    0.668528318    0.318961203    0.520231128
    0.335194826    0.985627830    0.615219593
    0.001861215    0.652294338    0.710207999
    0.668527901    0.318961024    0.805196404
    0.192337632    0.414199412    0.900184751
    0.859004557    0.080866143    0.425242752
    0.525671184    0.747532785    0.520231128
    0.192337751    0.414199412    0.615219593
    0.859004200    0.080865860    0.710207999
    0.525670826    0.747532547    0.805196404
