Si+Sn
    1.000000000
    9.406767845    0.000000000    0.000000000
    0.000000000   15.361189842    0.000000000
    0.000000000    0.000000000   16.934631348
Si  Sn 
48     48
Direct
    0.069444448    0.921875000    0.000000004
    0.402777851    0.546875000    0.065463416
    0.736111283    0.171875000    0.130926833
    0.069444656    0.796875000    0.196390286
    0.402778029    0.421875119    0.261853635
    0.736111641    0.046874881    0.327317119
    0.069444455    0.421874970    0.000000002
    0.402777851    0.046874985    0.065463424
    0.736111283    0.671875000    0.130926833
    0.069444656    0.296875000    0.196390301
    0.402778029    0.921875000    0.261853635
    0.736111641    0.546874762    0.327317119
    0.819444478    0.171875015    0.000000000
    0.152777910    0.796875000    0.065463409
    0.486111283    0.421875000    0.130926833
    0.819444776    0.046874940    0.196390212
    0.152778149    0.671875000    0.261853665
    0.486111641    0.296874881    0.327317178
    0.819444478    0.671874940    0.000000000
    0.152777910    0.296874970    0.065463394
    0.486111283    0.921874940    0.130926833
    0.819444776    0.546874881    0.196390241
    0.152777910    0.171875000    0.261853665
    0.486111641    0.796874762    0.327317178
    0.069444448    0.171875000    0.000000006
    0.402777851    0.796875000    0.065463424
    0.736111283    0.421875000    0.130926833
    0.069444776    0.046874940    0.196390241
    0.402778029    0.671875000    0.261853635
    0.736111522    0.296874881    0.327317178
    0.069444455    0.671875000    0.000000004
    0.402777851    0.296875000    0.065463424
    0.736111283    0.921875000    0.130926833
    0.069444656    0.546874940    0.196390256
    0.402778029    0.171875000    0.261853635
    0.736111522    0.796874881    0.327317178
    0.819444478    0.921875000    0.000000000
    0.152777791    0.546875000    0.065463409
    0.486111283    0.171875000    0.130926833
    0.819444895    0.796875000    0.196390212
    0.152778149    0.421875000    0.261853635
    0.486111879    0.046874762    0.327317119
    0.819444478    0.421875000    0.000000000
    0.152777910    0.046874970    0.065463409
    0.486111283    0.671875000    0.130926833
    0.819444656    0.296875000    0.196390241
    0.152778149    0.921875119    0.261853665
    0.486111641    0.546874881    0.327317178
    0.362699777    0.399024129    0.414768666
    0.862699747    0.232357502    0.636004150
    0.362699717    0.065690756    0.857239604
    0.862699747    0.899024129    0.414768666
    0.362699717    0.732357502    0.636004150
    0.862699747    0.565690756    0.857239604
    0.362699717    0.732357502    0.470077544
    0.862699747    0.565690756    0.691313028
    0.362699598    0.399024010    0.912548482
    0.862699747    0.232357502    0.470077544
    0.362699717    0.065690756    0.691312909
    0.862699747    0.899024010    0.912548482
    0.862699747    0.399024129    0.414768696
    0.362699717    0.232357383    0.636004150
    0.862699747    0.065690756    0.857239604
    0.362699777    0.899024129    0.414768666
    0.862699747    0.732357442    0.636004150
    0.362699836    0.565690756    0.857239664
    0.862699747    0.732357502    0.470077485
    0.362699717    0.565690815    0.691312909
    0.862699866    0.399024010    0.912548482
    0.362699717    0.232357502    0.470077485
    0.862699747    0.065690756    0.691312909
    0.362699836    0.899024129    0.912548363
    0.112699747    0.649024129    0.414768696
    0.612699747    0.482357413    0.636004150
    0.112699747    0.315690756    0.857239604
    0.612699747    0.149024248    0.414768696
    0.112699747    0.982357502    0.636004150
    0.612699747    0.815690756    0.857239604
    0.612699747    0.482357502    0.470077485
    0.112699747    0.315690756    0.691312909
    0.612699866    0.149024010    0.912548482
    0.112699747    0.982357502    0.470077485
    0.612699747    0.815690756    0.691312909
    0.112699866    0.649024069    0.912548363
    0.612699747    0.649024129    0.414768666
    0.112699747    0.482357442    0.636004150
    0.612699747    0.315690756    0.857239604
    0.112699747    0.149024248    0.414768666
    0.612699747    0.982357502    0.636004150
    0.112699747    0.815690756    0.857239544
    0.112699628    0.482357532    0.470077544
    0.612699628    0.315690756    0.691313028
    0.112699628    0.149024129    0.912548482
    0.612699747    0.982357502    0.470077485
    0.112699747    0.815690756    0.691312909
    0.612699747    0.649024069    0.912548482
