Sn+Ge
    1.000000000
   12.978400230    0.000000000    0.000000000
  -12.978400230   12.978400230    0.000000000
    0.000000000    0.000000000   19.583751678
Sn  Ge 
48     60
Direct
    0.492552608    0.000000000    0.000000000
    0.242552638    0.000000000    0.165678188
    0.992552698    0.000000000    0.331356287
    0.992552638    0.000000000    0.000000000
    0.742552638    0.000000000    0.165678188
    0.492552757    0.000000000    0.331356287
    0.492552608    0.499999970    0.000000000
    0.242552638    0.499999970    0.165678188
    0.992552698    0.499999970    0.331356287
    0.992552638    0.499999970    0.000000000
    0.742552638    0.499999970    0.165678188
    0.492552698    0.499999970    0.331356287
    0.492552608    0.124999993    0.082839087
    0.242552668    0.124999993    0.248517260
    0.992552638    0.124999993    0.414195418
    0.992552638    0.124999993    0.082839087
    0.742552757    0.124999993    0.248517260
    0.492552698    0.124999993    0.414195418
    0.492552578    0.624999940    0.082839087
    0.242552638    0.624999940    0.248517260
    0.992552638    0.624999940    0.414195418
    0.992552638    0.624999940    0.082839087
    0.742552698    0.624999940    0.248517260
    0.492552698    0.624999940    0.414195418
    0.492552638    0.249999985    0.000000000
    0.242552638    0.249999985    0.165678188
    0.992552698    0.249999985    0.331356287
    0.992552638    0.249999985    0.000000000
    0.742552638    0.249999985    0.165678188
    0.492552757    0.249999985    0.331356287
    0.492552608    0.749999940    0.000000000
    0.242552593    0.749999940    0.165678188
    0.992552698    0.749999940    0.331356287
    0.992552638    0.749999940    0.000000000
    0.742552638    0.749999940    0.165678188
    0.492552698    0.749999940    0.331356287
    0.492552608    0.374999970    0.082839087
    0.242552668    0.374999970    0.248517260
    0.992552638    0.374999970    0.414195418
    0.992552638    0.374999970    0.082839087
    0.742552757    0.374999970    0.248517260
    0.492552698    0.374999970    0.414195418
    0.492552608    0.874999940    0.082839087
    0.242552698    0.874999940    0.248517260
    0.992552638    0.874999940    0.414195418
    0.992552638    0.874999940    0.082839087
    0.742552757    0.874999940    0.248517260
    0.492552757    0.874999940    0.414195418
    0.943870127    0.427460402    0.526533484
    0.843870103    0.527460396    0.670984805
    0.743870020    0.627460480    0.815436304
    0.143870115    0.227460399    0.526533484
    0.043870091    0.327460438    0.670984805
    0.943870068    0.427460462    0.815436304
    0.743870199    0.627460480    0.526533484
    0.643870115    0.727460504    0.670984805
    0.543870091    0.827460527    0.815436304
    0.543870151    0.827460468    0.526533484
    0.443870127    0.927460492    0.670984805
    0.343870103    0.027460456    0.815436304
    0.343870133    0.027460456    0.526533484
    0.243870109    0.127460480    0.670984805
    0.143870115    0.227460489    0.815436304
    0.043870211    0.577460408    0.598759174
    0.943870127    0.677460432    0.743210614
    0.843870103    0.777460515    0.887661994
    0.243870139    0.377460420    0.598759174
    0.143870115    0.477460444    0.743210614
    0.043870091    0.577460468    0.887661994
    0.843870163    0.777460456    0.598759174
    0.743870080    0.877460539    0.743210614
    0.643870056    0.977460563    0.887661994
    0.643870175    0.977460444    0.598759174
    0.543870151    0.077460408    0.743210614
    0.443870068    0.177460551    0.887661994
    0.443870068    0.177460551    0.598759174
    0.343870044    0.277460575    0.743210614
    0.243869990    0.377460599    0.887661994
    0.543870151    0.327460408    0.526533484
    0.443870127    0.427460432    0.670984805
    0.343870103    0.527460456    0.815436304
    0.343870133    0.527460456    0.526533484
    0.243870109    0.627460480    0.670984805
    0.143869996    0.727460504    0.815436304
    0.943870127    0.927460492    0.526533484
    0.843870103    0.027460456    0.670984805
    0.743870080    0.127460480    0.815436304
    0.143870115    0.727460444    0.526533484
    0.043870091    0.827460468    0.670984805
    0.943870068    0.927460551    0.815436304
    0.743870080    0.127460480    0.526533484
    0.643870056    0.227460489    0.670984805
    0.543869972    0.327460647    0.815436304
    0.843870163    0.277460426    0.598759174
    0.743870080    0.377460480    0.743210614
    0.643870056    0.477460504    0.887661994
    0.643870115    0.477460444    0.598759174
    0.543870091    0.577460468    0.743210614
    0.443870068    0.677460492    0.887661994
    0.443870127    0.677460432    0.598759174
    0.343870074    0.777460515    0.743210614
    0.243870050    0.877460539    0.887661994
    0.043870211    0.077460527    0.598759174
    0.943870187    0.177460551    0.743210614
    0.843870163    0.277460575    0.887661994
    0.243870080    0.877460480    0.598759174
    0.143869996    0.977460504    0.743210614
    0.043869972    0.077460527    0.887661994
