Si+Ge
    1.000000000
   16.293001175    0.000000000    0.000000000
    0.000000000   16.293001175    0.000000000
    0.000000000    0.000000000   13.293916702
Si  Ge 
108     48
Direct
    0.000000000    0.994067729    0.000000000
    0.000000000    0.827401042    0.204266384
    0.000000000    0.660734296    0.408532798
    0.333333343    0.994067729    0.000000000
    0.333333343    0.827401042    0.204266384
    0.333333343    0.660734296    0.408532798
    0.666666687    0.994067729    0.000000000
    0.666666687    0.827401042    0.204266384
    0.666666687    0.660734296    0.408532798
    0.000000000    0.327401042    0.000000000
    0.000000000    0.160734370    0.204266384
    0.000000000    0.994067669    0.408532798
    0.333333343    0.327401042    0.000000000
    0.333333343    0.160734370    0.204266384
    0.333333343    0.994067669    0.408532798
    0.666666687    0.327401042    0.000000000
    0.666666687    0.160734370    0.204266384
    0.666666687    0.994067669    0.408532798
    0.000000000    0.660734415    0.000000000
    0.000000000    0.494067699    0.204266384
    0.000000000    0.327401042    0.408532798
    0.333333343    0.660734415    0.000000000
    0.333333343    0.494067699    0.204266384
    0.333333343    0.327401042    0.408532798
    0.666666687    0.660734415    0.000000000
    0.666666687    0.494067699    0.204266384
    0.666666687    0.327401042    0.408532798
    0.083333336    0.077401049    0.102133200
    0.083333336    0.910734355    0.306399524
    0.083333336    0.744067669    0.510666013
    0.416666687    0.077401049    0.102133200
    0.416666687    0.910734355    0.306399524
    0.416666687    0.744067669    0.510666013
    0.750000000    0.077401049    0.102133200
    0.750000000    0.910734355    0.306399524
    0.750000000    0.744067669    0.510666013
    0.083333336    0.410734355    0.102133200
    0.083333336    0.244067669    0.306399524
    0.083333336    0.077400982    0.510666013
    0.416666687    0.410734355    0.102133200
    0.416666687    0.244067669    0.306399524
    0.416666687    0.077400982    0.510666013
    0.750000000    0.410734355    0.102133200
    0.750000000    0.244067669    0.306399524
    0.750000000    0.077400982    0.510666013
    0.083333336    0.744067729    0.102133200
    0.083333336    0.577401042    0.306399524
    0.083333336    0.410734355    0.510666013
    0.416666687    0.744067729    0.102133200
    0.416666687    0.577401042    0.306399524
    0.416666687    0.410734355    0.510666013
    0.750000000    0.744067729    0.102133200
    0.750000000    0.577401042    0.306399524
    0.750000000    0.410734355    0.510666013
    0.166666672    0.160734385    0.000000000
    0.166666672    0.994067669    0.204266384
    0.166666672    0.827400982    0.408532798
    0.500000000    0.160734385    0.000000000
    0.500000000    0.994067669    0.204266384
    0.500000000    0.827400982    0.408532798
    0.833333373    0.160734385    0.000000000
    0.833333373    0.994067669    0.204266384
    0.833333373    0.827400982    0.408532798
    0.166666672    0.494067699    0.000000000
    0.166666672    0.327401042    0.204266384
    0.166666672    0.160734311    0.408532798
    0.500000000    0.494067699    0.000000000
    0.500000000    0.327401042    0.204266384
    0.500000000    0.160734311    0.408532798
    0.833333373    0.494067699    0.000000000
    0.833333373    0.327401042    0.204266384
    0.833333373    0.160734311    0.408532798
    0.166666672    0.827401042    0.000000000
    0.166666672    0.660734355    0.204266384
    0.166666672    0.494067639    0.408532798
    0.500000000    0.827401042    0.000000000
    0.500000000    0.660734355    0.204266384
    0.500000000    0.494067639    0.408532798
    0.833333373    0.827401042    0.000000000
    0.833333373    0.660734355    0.204266384
    0.833333373    0.494067639    0.408532798
    0.250000000    0.244067714    0.102133200
    0.250000000    0.077401027    0.306399524
    0.250000000    0.910734355    0.510666013
    0.583333373    0.244067714    0.102133200
    0.583333373    0.077401027    0.306399524
    0.583333373    0.910734355    0.510666013
    0.916666687    0.244067714    0.102133200
    0.916666687    0.077401027    0.306399524
    0.916666687    0.910734355    0.510666013
    0.250000000    0.577401161    0.102133200
    0.250000000    0.410734445    0.306399524
    0.250000000    0.244067743    0.510666013
    0.583333373    0.577401161    0.102133200
    0.583333373    0.410734445    0.306399524
    0.583333373    0.244067743    0.510666013
    0.916666687    0.577401161    0.102133200
    0.916666687    0.410734445    0.306399524
    0.916666687    0.244067743    0.510666013
    0.250000000    0.910734355    0.102133200
    0.250000000    0.744067669    0.306399524
    0.250000000    0.577401042    0.510666013
    0.583333373    0.910734355    0.102133200
    0.583333373    0.744067669    0.306399524
    0.583333373    0.577401042    0.510666013
    0.916666687    0.910734355    0.102133200
    0.916666687    0.744067669    0.306399524
    0.916666687    0.577401042    0.510666013
    0.502616882    0.832990885    0.629941165
    0.113727927    0.457990766    0.680097997
    0.724838972    0.082990885    0.730254650
    0.335949898    0.707990885    0.780411422
    0.947061062    0.332990885    0.830568075
    0.558172107    0.957990766    0.880724847
    0.502616882    0.332990766    0.629941165
    0.113727927    0.957990706    0.680097997
    0.724838972    0.582990766    0.730254710
    0.335949898    0.207990766    0.780411422
    0.947061062    0.832990885    0.830568075
    0.558172107    0.457990766    0.880724788
    0.252616763    0.957990766    0.629941165
    0.863727808    0.582990766    0.680097997
    0.474838972    0.207990885    0.730254650
    0.085949898    0.832990885    0.780411363
    0.697061002    0.457990885    0.830568135
    0.308171868    0.082990885    0.880724788
    0.252616882    0.457990646    0.629941165
    0.863727808    0.082990646    0.680097997
    0.474838972    0.707990646    0.730254650
    0.085949898    0.332990646    0.780411363
    0.697061002    0.957990825    0.830568135
    0.308171988    0.582990646    0.880724788
    0.252616882    0.207990766    0.629941225
    0.863727808    0.832990766    0.680097997
    0.474838972    0.457990885    0.730254650
    0.085949898    0.082990885    0.780411363
    0.697061062    0.707990885    0.830568135
    0.308171988    0.332990885    0.880724847
    0.252616882    0.707990646    0.629941165
    0.863727808    0.332990646    0.680097997
    0.474838972    0.957990766    0.730254650
    0.085949898    0.582990766    0.780411363
    0.697061062    0.207990885    0.830568135
    0.308171868    0.832990646    0.880724788
    0.502616882    0.082990766    0.629941165
    0.113727927    0.707990766    0.680097997
    0.724838972    0.332990885    0.730254710
    0.335949898    0.957990825    0.780411422
    0.947061300    0.582991004    0.830568135
    0.558172107    0.207990766    0.880724847
    0.502616882    0.582990646    0.629941165
    0.113727927    0.207990766    0.680097997
    0.724838972    0.832990885    0.730254710
    0.335950017    0.457990885    0.780411422
    0.947061181    0.082990885    0.830568075
    0.558171868    0.707990646    0.880724788
