Automatic KPOINTS generated
0
Gamma
1 3 3
0 0 0
