Automatic KPOINTS generated
0
Gamma
3 2 5
0 0 0
