fcc Si+fcc Ge                           
   1.00000000000000     
    12.2536525170000008    0.0000000000000000    0.0000000000000000
   -14.7043830199999999    9.1697938909999994    0.0000000000000000
     0.0000000000000000    0.0000000000000000    8.4432255870000006
   Si   Ge
    24    24
Direct
  0.0000000000000000  0.0000000000000000  0.0000000000000000
  0.4285714290000016  0.6071428569999995  0.0867317590000027
  0.8571428569999995  0.2142857139999990  0.1734635170000018
  0.2857142860000010  0.8214285709999984  0.2601952759999975
  0.7142857139999990  0.4285714290000016  0.3469270339999966
  0.1428571430000005  0.0357142860000010  0.4336587929999993
  0.0000000000000000  0.5000000000000000  0.0000000000000000
  0.4285714290000016  0.1071428569999995  0.0867317590000027
  0.8571428569999995  0.7142857139999990  0.1734635170000018
  0.2857142860000010  0.3214285709999984  0.2601952759999975
  0.7142857139999990  0.9285714290000016  0.3469270339999966
  0.1428571430000005  0.5357142860000010  0.4336587929999993
  0.2500000000000000  0.7500000000000000  0.0000000000000000
  0.6785714290000016  0.3571428569999995  0.0867317590000027
  0.1071428569999995  0.9642857139999990  0.1734635170000018
  0.5357142860000010  0.5714285709999984  0.2601952759999975
  0.9642857139999990  0.1785714290000016  0.3469270339999966
  0.3928571430000005  0.7857142860000010  0.4336587929999993
  0.2500000000000000  0.2500000000000000  0.0000000000000000
  0.6785714290000016  0.8571428569999995  0.0867317590000027
  0.1071428569999995  0.4642857139999990  0.1734635170000018
  0.5357142860000010  0.0714285709999984  0.2601952759999975
  0.9642857139999990  0.6785714290000016  0.3469270339999966
  0.3928571430000005  0.2857142860000010  0.4336587929999993
  0.8770491800000002  0.2848837209999999  0.4928778669999971
  0.4484777520000023  0.6777408640000004  0.5824584779999995
  0.0199063230000007  0.0705980070000010  0.6720390899999984
  0.5913348950000028  0.4634551500000015  0.7616197019999973
  0.1627634660000012  0.8563122919999984  0.8512003140000033
  0.7341920369999997  0.2491694349999989  0.9407809260000022
  0.8770491800000002  0.7848837209999999  0.4928778669999971
  0.4484777520000023  0.1777408640000004  0.5824584779999995
  0.0199063230000007  0.5705980070000010  0.6720390899999984
  0.5913348950000028  0.9634551500000015  0.7616197019999973
  0.1627634660000012  0.3563122919999984  0.8512003140000033
  0.7341920369999997  0.7491694349999989  0.9407809260000022
  0.6270491800000002  0.5348837209999999  0.4928778669999971
  0.1984777520000023  0.9277408640000004  0.5824584779999995
  0.7699063230000007  0.3205980070000010  0.6720390899999984
  0.3413348950000028  0.7134551500000015  0.7616197019999973
  0.9127634660000012  0.1063122919999984  0.8512003140000033
  0.4841920369999997  0.4991694349999989  0.9407809260000022
  0.6270491800000002  0.0348837209999999  0.4928778669999971
  0.1984777520000023  0.4277408640000004  0.5824584779999995
  0.7699063230000007  0.8205980070000010  0.6720390899999984
  0.3413348950000028  0.2134551500000015  0.7616197019999973
  0.9127634660000012  0.6063122919999984  0.8512003140000033
  0.4841920369999997  0.9991694349999989  0.9407809260000022
 
  0.00000000E+00  0.00000000E+00  0.00000000E+00
  0.00000000E+00  0.00000000E+00  0.00000000E+00
  0.00000000E+00  0.00000000E+00  0.00000000E+00
  0.00000000E+00  0.00000000E+00  0.00000000E+00
  0.00000000E+00  0.00000000E+00  0.00000000E+00
  0.00000000E+00  0.00000000E+00  0.00000000E+00
  0.00000000E+00  0.00000000E+00  0.00000000E+00
  0.00000000E+00  0.00000000E+00  0.00000000E+00
  0.00000000E+00  0.00000000E+00  0.00000000E+00
  0.00000000E+00  0.00000000E+00  0.00000000E+00
  0.00000000E+00  0.00000000E+00  0.00000000E+00
  0.00000000E+00  0.00000000E+00  0.00000000E+00
  0.00000000E+00  0.00000000E+00  0.00000000E+00
  0.00000000E+00  0.00000000E+00  0.00000000E+00
  0.00000000E+00  0.00000000E+00  0.00000000E+00
  0.00000000E+00  0.00000000E+00  0.00000000E+00
  0.00000000E+00  0.00000000E+00  0.00000000E+00
  0.00000000E+00  0.00000000E+00  0.00000000E+00
  0.00000000E+00  0.00000000E+00  0.00000000E+00
  0.00000000E+00  0.00000000E+00  0.00000000E+00
  0.00000000E+00  0.00000000E+00  0.00000000E+00
  0.00000000E+00  0.00000000E+00  0.00000000E+00
  0.00000000E+00  0.00000000E+00  0.00000000E+00
  0.00000000E+00  0.00000000E+00  0.00000000E+00
  0.00000000E+00  0.00000000E+00  0.00000000E+00
  0.00000000E+00  0.00000000E+00  0.00000000E+00
  0.00000000E+00  0.00000000E+00  0.00000000E+00
  0.00000000E+00  0.00000000E+00  0.00000000E+00
  0.00000000E+00  0.00000000E+00  0.00000000E+00
  0.00000000E+00  0.00000000E+00  0.00000000E+00
  0.00000000E+00  0.00000000E+00  0.00000000E+00
  0.00000000E+00  0.00000000E+00  0.00000000E+00
  0.00000000E+00  0.00000000E+00  0.00000000E+00
  0.00000000E+00  0.00000000E+00  0.00000000E+00
  0.00000000E+00  0.00000000E+00  0.00000000E+00
  0.00000000E+00  0.00000000E+00  0.00000000E+00
  0.00000000E+00  0.00000000E+00  0.00000000E+00
  0.00000000E+00  0.00000000E+00  0.00000000E+00
  0.00000000E+00  0.00000000E+00  0.00000000E+00
  0.00000000E+00  0.00000000E+00  0.00000000E+00
  0.00000000E+00  0.00000000E+00  0.00000000E+00
  0.00000000E+00  0.00000000E+00  0.00000000E+00
  0.00000000E+00  0.00000000E+00  0.00000000E+00
  0.00000000E+00  0.00000000E+00  0.00000000E+00
  0.00000000E+00  0.00000000E+00  0.00000000E+00
  0.00000000E+00  0.00000000E+00  0.00000000E+00
  0.00000000E+00  0.00000000E+00  0.00000000E+00
  0.00000000E+00  0.00000000E+00  0.00000000E+00
