fcc Si+fcc Ge                           
   1.00000000000000     
    13.4232037900000005    0.0000000000000000    0.0000000000000000
    -6.7116018950000003   15.0075980760000007    0.0000000000000000
     0.0000000000000000    0.0000000000000000   12.5914855049999996
   Si   Ge
    36    66
Direct
  0.0000000000000000  0.6666666670000012  0.0000000000000000
  0.2999999999999972  0.4333333330000002  0.0973169729999981
  0.6000000000000014  0.2000000000000028  0.1946339449999996
  0.0000000000000000  0.3333333329999988  0.0000000000000000
  0.2999999999999972  0.1000000000000014  0.0973169729999981
  0.6000000000000014  0.8666666669999969  0.1946339449999996
  0.0000000000000000  0.0000000000000000  0.0000000000000000
  0.2999999999999972  0.7666666670000026  0.0973169729999981
  0.6000000000000014  0.5333333330000016  0.1946339449999996
  0.5000000000000000  0.6666666670000012  0.0000000000000000
  0.7999999999999972  0.4333333330000002  0.0973169729999981
  0.1000000000000014  0.2000000000000028  0.1946339449999996
  0.5000000000000000  0.3333333329999988  0.0000000000000000
  0.7999999999999972  0.1000000000000014  0.0973169729999981
  0.1000000000000014  0.8666666669999969  0.1946339449999996
  0.5000000000000000  0.0000000000000000  0.0000000000000000
  0.7999999999999972  0.7666666670000026  0.0973169729999981
  0.1000000000000014  0.5333333330000016  0.1946339449999996
  0.1499999999999986  0.7999999999999972  0.0486584860000008
  0.4500000000000028  0.5666666669999998  0.1459754589999989
  0.7500000000000000  0.3333333329999988  0.2432924319999969
  0.1499999999999986  0.4666666669999984  0.0486584860000008
  0.4500000000000028  0.2333333329999974  0.1459754589999989
  0.7500000000000000  0.0000000000000000  0.2432924319999969
  0.1499999999999986  0.1333333330000031  0.0486584860000008
  0.4500000000000028  0.8999999999999986  0.1459754589999989
  0.7500000000000000  0.6666666670000012  0.2432924319999969
  0.6499999999999986  0.7999999999999972  0.0486584860000008
  0.9500000000000028  0.5666666669999998  0.1459754589999989
  0.2500000000000000  0.3333333329999988  0.2432924319999969
  0.6499999999999986  0.4666666669999984  0.0486584860000008
  0.9500000000000028  0.2333333329999974  0.1459754589999989
  0.2500000000000000  0.0000000000000000  0.2432924319999969
  0.6499999999999986  0.1333333330000031  0.0486584860000008
  0.9500000000000028  0.8999999999999986  0.1459754589999989
  0.2500000000000000  0.6666666670000012  0.2432924319999969
  0.3436090229999991  0.3444785280000033  0.4206191849999996
  0.1436090230000033  0.4444785279999977  0.5211327000000026
  0.9436090230000005  0.5444785279999991  0.6216462160000020
  0.7436090229999976  0.6444785280000005  0.7221597320000015
  0.5436090230000019  0.7444785280000019  0.8226732469999973
  0.6769423559999979  0.6778118610000021  0.4206191849999996
  0.4769423560000021  0.7778118610000035  0.5211327000000026
  0.2769423559999993  0.8778118609999979  0.6216462160000020
  0.0769423560000035  0.9778118609999993  0.7221597320000015
  0.8769423560000007  0.0778118610000007  0.8226732469999973
  0.0102756889999966  0.0111451940000009  0.4206191849999996
  0.8102756890000009  0.1111451940000023  0.5211327000000026
  0.6102756889999981  0.2111451939999966  0.6216462160000020
  0.4102756890000023  0.3111451939999981  0.7221597320000015
  0.2102756889999995  0.4111451939999995  0.8226732469999973
  0.5102756889999966  0.0111451940000009  0.4206191849999996
  0.3102756890000009  0.1111451940000023  0.5211327000000026
  0.1102756889999981  0.2111451939999966  0.6216462160000020
  0.9102756890000023  0.3111451939999981  0.7221597320000015
  0.7102756889999995  0.4111451939999995  0.8226732469999973
  0.8436090229999991  0.3444785280000033  0.4206191849999996
  0.6436090230000033  0.4444785279999977  0.5211327000000026
  0.4436090230000005  0.5444785279999991  0.6216462160000020
  0.2436090229999976  0.6444785280000005  0.7221597320000015
  0.0436090230000019  0.7444785280000019  0.8226732469999973
  0.1769423559999979  0.6778118610000021  0.4206191849999996
  0.9769423560000021  0.7778118610000035  0.5211327000000026
  0.7769423559999993  0.8778118609999979  0.6216462160000020
  0.5769423560000035  0.9778118609999993  0.7221597320000015
  0.3769423560000007  0.0778118610000007  0.8226732469999973
  0.6936090230000005  0.5444785279999991  0.3703624270000034
  0.4936090229999976  0.6444785280000005  0.4708759419999993
  0.2936090230000019  0.7444785280000019  0.5713894579999987
  0.0936090229999991  0.8444785280000033  0.6719029739999982
  0.8936090230000033  0.9444785279999977  0.7724164890000011
  0.6936090230000005  0.0444785279999991  0.8729300050000006
  0.0269423559999993  0.8778118609999979  0.3703624270000034
  0.8269423560000035  0.9778118609999993  0.4708759419999993
  0.6269423560000007  0.0778118610000007  0.5713894579999987
  0.4269423559999979  0.1778118610000021  0.6719029739999982
  0.2269423560000021  0.2778118610000035  0.7724164890000011
  0.0269423559999993  0.3778118609999979  0.8729300050000006
  0.3602756889999981  0.2111451939999966  0.3703624270000034
  0.1602756890000023  0.3111451939999981  0.4708759419999993
  0.9602756889999995  0.4111451939999995  0.5713894579999987
  0.7602756889999966  0.5111451940000009  0.6719029739999982
  0.5602756890000009  0.6111451940000023  0.7724164890000011
  0.3602756889999981  0.7111451939999966  0.8729300050000006
  0.8602756889999981  0.2111451939999966  0.3703624270000034
  0.6602756890000023  0.3111451939999981  0.4708759419999993
  0.4602756889999995  0.4111451939999995  0.5713894579999987
  0.2602756889999966  0.5111451940000009  0.6719029739999982
  0.0602756890000009  0.6111451940000023  0.7724164890000011
  0.8602756889999981  0.7111451939999966  0.8729300050000006
  0.1936090230000005  0.5444785279999991  0.3703624270000034
  0.9936090229999976  0.6444785280000005  0.4708759419999993
  0.7936090230000019  0.7444785280000019  0.5713894579999987
  0.5936090229999991  0.8444785280000033  0.6719029739999982
  0.3936090230000033  0.9444785279999977  0.7724164890000011
  0.1936090230000005  0.0444785279999991  0.8729300050000006
  0.5269423559999993  0.8778118609999979  0.3703624270000034
  0.3269423560000035  0.9778118609999993  0.4708759419999993
  0.1269423560000007  0.0778118610000007  0.5713894579999987
  0.9269423559999979  0.1778118610000021  0.6719029739999982
  0.7269423560000021  0.2778118610000035  0.7724164890000011
  0.5269423559999993  0.3778118609999979  0.8729300050000006
 
  0.00000000E+00  0.00000000E+00  0.00000000E+00
  0.00000000E+00  0.00000000E+00  0.00000000E+00
  0.00000000E+00  0.00000000E+00  0.00000000E+00
  0.00000000E+00  0.00000000E+00  0.00000000E+00
  0.00000000E+00  0.00000000E+00  0.00000000E+00
  0.00000000E+00  0.00000000E+00  0.00000000E+00
  0.00000000E+00  0.00000000E+00  0.00000000E+00
  0.00000000E+00  0.00000000E+00  0.00000000E+00
  0.00000000E+00  0.00000000E+00  0.00000000E+00
  0.00000000E+00  0.00000000E+00  0.00000000E+00
  0.00000000E+00  0.00000000E+00  0.00000000E+00
  0.00000000E+00  0.00000000E+00  0.00000000E+00
  0.00000000E+00  0.00000000E+00  0.00000000E+00
  0.00000000E+00  0.00000000E+00  0.00000000E+00
  0.00000000E+00  0.00000000E+00  0.00000000E+00
  0.00000000E+00  0.00000000E+00  0.00000000E+00
  0.00000000E+00  0.00000000E+00  0.00000000E+00
  0.00000000E+00  0.00000000E+00  0.00000000E+00
  0.00000000E+00  0.00000000E+00  0.00000000E+00
  0.00000000E+00  0.00000000E+00  0.00000000E+00
  0.00000000E+00  0.00000000E+00  0.00000000E+00
  0.00000000E+00  0.00000000E+00  0.00000000E+00
  0.00000000E+00  0.00000000E+00  0.00000000E+00
  0.00000000E+00  0.00000000E+00  0.00000000E+00
  0.00000000E+00  0.00000000E+00  0.00000000E+00
  0.00000000E+00  0.00000000E+00  0.00000000E+00
  0.00000000E+00  0.00000000E+00  0.00000000E+00
  0.00000000E+00  0.00000000E+00  0.00000000E+00
  0.00000000E+00  0.00000000E+00  0.00000000E+00
  0.00000000E+00  0.00000000E+00  0.00000000E+00
  0.00000000E+00  0.00000000E+00  0.00000000E+00
  0.00000000E+00  0.00000000E+00  0.00000000E+00
  0.00000000E+00  0.00000000E+00  0.00000000E+00
  0.00000000E+00  0.00000000E+00  0.00000000E+00
  0.00000000E+00  0.00000000E+00  0.00000000E+00
  0.00000000E+00  0.00000000E+00  0.00000000E+00
  0.00000000E+00  0.00000000E+00  0.00000000E+00
  0.00000000E+00  0.00000000E+00  0.00000000E+00
  0.00000000E+00  0.00000000E+00  0.00000000E+00
  0.00000000E+00  0.00000000E+00  0.00000000E+00
  0.00000000E+00  0.00000000E+00  0.00000000E+00
  0.00000000E+00  0.00000000E+00  0.00000000E+00
  0.00000000E+00  0.00000000E+00  0.00000000E+00
  0.00000000E+00  0.00000000E+00  0.00000000E+00
  0.00000000E+00  0.00000000E+00  0.00000000E+00
  0.00000000E+00  0.00000000E+00  0.00000000E+00
  0.00000000E+00  0.00000000E+00  0.00000000E+00
  0.00000000E+00  0.00000000E+00  0.00000000E+00
  0.00000000E+00  0.00000000E+00  0.00000000E+00
  0.00000000E+00  0.00000000E+00  0.00000000E+00
  0.00000000E+00  0.00000000E+00  0.00000000E+00
  0.00000000E+00  0.00000000E+00  0.00000000E+00
  0.00000000E+00  0.00000000E+00  0.00000000E+00
  0.00000000E+00  0.00000000E+00  0.00000000E+00
  0.00000000E+00  0.00000000E+00  0.00000000E+00
  0.00000000E+00  0.00000000E+00  0.00000000E+00
  0.00000000E+00  0.00000000E+00  0.00000000E+00
  0.00000000E+00  0.00000000E+00  0.00000000E+00
  0.00000000E+00  0.00000000E+00  0.00000000E+00
  0.00000000E+00  0.00000000E+00  0.00000000E+00
  0.00000000E+00  0.00000000E+00  0.00000000E+00
  0.00000000E+00  0.00000000E+00  0.00000000E+00
  0.00000000E+00  0.00000000E+00  0.00000000E+00
  0.00000000E+00  0.00000000E+00  0.00000000E+00
  0.00000000E+00  0.00000000E+00  0.00000000E+00
  0.00000000E+00  0.00000000E+00  0.00000000E+00
  0.00000000E+00  0.00000000E+00  0.00000000E+00
  0.00000000E+00  0.00000000E+00  0.00000000E+00
  0.00000000E+00  0.00000000E+00  0.00000000E+00
  0.00000000E+00  0.00000000E+00  0.00000000E+00
  0.00000000E+00  0.00000000E+00  0.00000000E+00
  0.00000000E+00  0.00000000E+00  0.00000000E+00
  0.00000000E+00  0.00000000E+00  0.00000000E+00
  0.00000000E+00  0.00000000E+00  0.00000000E+00
  0.00000000E+00  0.00000000E+00  0.00000000E+00
  0.00000000E+00  0.00000000E+00  0.00000000E+00
  0.00000000E+00  0.00000000E+00  0.00000000E+00
  0.00000000E+00  0.00000000E+00  0.00000000E+00
  0.00000000E+00  0.00000000E+00  0.00000000E+00
  0.00000000E+00  0.00000000E+00  0.00000000E+00
  0.00000000E+00  0.00000000E+00  0.00000000E+00
  0.00000000E+00  0.00000000E+00  0.00000000E+00
  0.00000000E+00  0.00000000E+00  0.00000000E+00
  0.00000000E+00  0.00000000E+00  0.00000000E+00
  0.00000000E+00  0.00000000E+00  0.00000000E+00
  0.00000000E+00  0.00000000E+00  0.00000000E+00
  0.00000000E+00  0.00000000E+00  0.00000000E+00
  0.00000000E+00  0.00000000E+00  0.00000000E+00
  0.00000000E+00  0.00000000E+00  0.00000000E+00
  0.00000000E+00  0.00000000E+00  0.00000000E+00
  0.00000000E+00  0.00000000E+00  0.00000000E+00
  0.00000000E+00  0.00000000E+00  0.00000000E+00
  0.00000000E+00  0.00000000E+00  0.00000000E+00
  0.00000000E+00  0.00000000E+00  0.00000000E+00
  0.00000000E+00  0.00000000E+00  0.00000000E+00
  0.00000000E+00  0.00000000E+00  0.00000000E+00
  0.00000000E+00  0.00000000E+00  0.00000000E+00
  0.00000000E+00  0.00000000E+00  0.00000000E+00
  0.00000000E+00  0.00000000E+00  0.00000000E+00
  0.00000000E+00  0.00000000E+00  0.00000000E+00
  0.00000000E+00  0.00000000E+00  0.00000000E+00
  0.00000000E+00  0.00000000E+00  0.00000000E+00
