fcc Si+fcc Ge                           
   1.00000000000000     
     5.4800000000000004    0.0000000000000000    0.0000000000000000
     0.0000000000000000    5.4800000000000004    0.0000000000000000
     0.0000000000000000    0.0000000000000000   29.8500000000000014
   Si   Ge
    22    22
Direct
  0.2500000000000000  0.0000000000000000  0.0458961470000006
  0.7500000000000000  0.0000000000000000  0.1376884419999982
  0.2500000000000000  0.0000000000000000  0.2294807370000029
  0.7500000000000000  0.0000000000000000  0.3212730320000006
  0.2500000000000000  0.0000000000000000  0.4130653269999982
  0.7500000000000000  0.5000000000000000  0.0458961470000006
  0.2500000000000000  0.5000000000000000  0.1376884419999982
  0.7500000000000000  0.5000000000000000  0.2294807370000029
  0.2500000000000000  0.5000000000000000  0.3212730320000006
  0.7500000000000000  0.5000000000000000  0.4130653269999982
  0.0000000000000000  0.2500000000000000  0.0000000000000000
  0.5000000000000000  0.2500000000000000  0.0917922949999976
  0.0000000000000000  0.2500000000000000  0.1835845900000024
  0.5000000000000000  0.2500000000000000  0.2753768840000035
  0.0000000000000000  0.2500000000000000  0.3671691790000011
  0.5000000000000000  0.2500000000000000  0.4589614739999988
  0.5000000000000000  0.7500000000000000  0.0000000000000000
  0.0000000000000000  0.7500000000000000  0.0917922949999976
  0.5000000000000000  0.7500000000000000  0.1835845900000024
  0.0000000000000000  0.7500000000000000  0.2753768840000035
  0.5000000000000000  0.7500000000000000  0.3671691790000011
  0.0000000000000000  0.7500000000000000  0.4589614739999988
  0.6574074070000009  0.4074074070000009  0.5398659969999997
  0.1574074070000009  0.4074074070000009  0.6346733669999978
  0.6574074070000009  0.4074074070000009  0.7294807370000029
  0.1574074070000009  0.4074074070000009  0.8242881070000010
  0.6574074070000009  0.4074074070000009  0.9190954769999991
  0.1574074070000009  0.9074074070000009  0.5398659969999997
  0.6574074070000009  0.9074074070000009  0.6346733669999978
  0.1574074070000009  0.9074074070000009  0.7294807370000029
  0.6574074070000009  0.9074074070000009  0.8242881070000010
  0.1574074070000009  0.9074074070000009  0.9190954769999991
  0.4074074070000009  0.6574074070000009  0.4924623120000007
  0.9074074070000009  0.6574074070000009  0.5872696819999987
  0.4074074070000009  0.6574074070000009  0.6820770519999968
  0.9074074070000009  0.6574074070000009  0.7768844220000020
  0.4074074070000009  0.6574074070000009  0.8716917920000000
  0.9074074070000009  0.6574074070000009  0.9664991619999981
  0.9074074070000009  0.1574074070000009  0.4924623120000007
  0.4074074070000009  0.1574074070000009  0.5872696819999987
  0.9074074070000009  0.1574074070000009  0.6820770519999968
  0.4074074070000009  0.1574074070000009  0.7768844220000020
  0.9074074070000009  0.1574074070000009  0.8716917920000000
  0.4074074070000009  0.1574074070000009  0.9664991619999981
 
  0.00000000E+00  0.00000000E+00  0.00000000E+00
  0.00000000E+00  0.00000000E+00  0.00000000E+00
  0.00000000E+00  0.00000000E+00  0.00000000E+00
  0.00000000E+00  0.00000000E+00  0.00000000E+00
  0.00000000E+00  0.00000000E+00  0.00000000E+00
  0.00000000E+00  0.00000000E+00  0.00000000E+00
  0.00000000E+00  0.00000000E+00  0.00000000E+00
  0.00000000E+00  0.00000000E+00  0.00000000E+00
  0.00000000E+00  0.00000000E+00  0.00000000E+00
  0.00000000E+00  0.00000000E+00  0.00000000E+00
  0.00000000E+00  0.00000000E+00  0.00000000E+00
  0.00000000E+00  0.00000000E+00  0.00000000E+00
  0.00000000E+00  0.00000000E+00  0.00000000E+00
  0.00000000E+00  0.00000000E+00  0.00000000E+00
  0.00000000E+00  0.00000000E+00  0.00000000E+00
  0.00000000E+00  0.00000000E+00  0.00000000E+00
  0.00000000E+00  0.00000000E+00  0.00000000E+00
  0.00000000E+00  0.00000000E+00  0.00000000E+00
  0.00000000E+00  0.00000000E+00  0.00000000E+00
  0.00000000E+00  0.00000000E+00  0.00000000E+00
  0.00000000E+00  0.00000000E+00  0.00000000E+00
  0.00000000E+00  0.00000000E+00  0.00000000E+00
  0.00000000E+00  0.00000000E+00  0.00000000E+00
  0.00000000E+00  0.00000000E+00  0.00000000E+00
  0.00000000E+00  0.00000000E+00  0.00000000E+00
  0.00000000E+00  0.00000000E+00  0.00000000E+00
  0.00000000E+00  0.00000000E+00  0.00000000E+00
  0.00000000E+00  0.00000000E+00  0.00000000E+00
  0.00000000E+00  0.00000000E+00  0.00000000E+00
  0.00000000E+00  0.00000000E+00  0.00000000E+00
  0.00000000E+00  0.00000000E+00  0.00000000E+00
  0.00000000E+00  0.00000000E+00  0.00000000E+00
  0.00000000E+00  0.00000000E+00  0.00000000E+00
  0.00000000E+00  0.00000000E+00  0.00000000E+00
  0.00000000E+00  0.00000000E+00  0.00000000E+00
  0.00000000E+00  0.00000000E+00  0.00000000E+00
  0.00000000E+00  0.00000000E+00  0.00000000E+00
  0.00000000E+00  0.00000000E+00  0.00000000E+00
  0.00000000E+00  0.00000000E+00  0.00000000E+00
  0.00000000E+00  0.00000000E+00  0.00000000E+00
  0.00000000E+00  0.00000000E+00  0.00000000E+00
  0.00000000E+00  0.00000000E+00  0.00000000E+00
  0.00000000E+00  0.00000000E+00  0.00000000E+00
  0.00000000E+00  0.00000000E+00  0.00000000E+00
