Sn+Sn
    1.000000000
    6.489200115    0.000000000    0.000000000
   -6.489200115   12.978400230    0.000000000
    0.000000000    0.000000000   16.222999573
Sn 
48
Direct
    0.014894711    0.000000000    0.000000000
    0.514894664    0.000000000    0.200000003
    0.014894485    0.000000000    0.399999917
    0.014894605    0.499999970    0.200000003
    0.514894664    0.499999970    0.000000000
    0.014894711    0.000000000    0.500000000
    0.889894605    0.124999993    0.099999994
    0.389894605    0.624999940    0.500000000
    0.889894485    0.124999993    0.500000000
    0.889894485    0.124999993    1.000000000
    0.889894485    0.624999940    0.299999982
    0.389894485    0.124999993    0.299999982
    0.764894605    0.249999985    0.000000000
    0.639894605    0.374999970    1.000000000
    0.514894664    0.499999970    0.500000000
    0.264894664    0.749999940    0.000000000
    0.764894664    0.749999940    0.200000003
    0.264894485    0.749999940    0.399999917
    0.639894664    0.374999970    0.099999994
    0.264894664    0.749999940    0.500000000
    0.639894605    0.374999970    0.500000000
    0.389894605    0.624999940    1.000000000
    0.639894485    0.874999940    0.299999982
    0.139894485    0.874999940    0.500000000
    0.764894485    0.249999985    0.399999917
    0.014894605    0.499999970    0.700000048
    0.514894485    0.499999970    0.899999976
    0.514894485    0.499999970    0.399999917
    0.514894664    0.000000000    0.700000048
    0.014894485    0.000000000    0.899999976
    0.139894605    0.874999940    0.599999964
    0.639894485    0.874999940    0.800000012
    0.139894485    0.874999940    1.000000000
    0.639894664    0.374999970    0.599999964
    0.139894485    0.374999970    0.800000012
    0.264894605    0.249999985    0.200000003
    0.139894485    0.374999970    0.299999982
    0.764894664    0.749999940    0.700000048
    0.264894485    0.749999940    0.899999976
    0.764894605    0.249999985    0.500000000
    0.264894605    0.249999985    0.700000048
    0.764894485    0.249999985    0.899999976
    0.389894634    0.624999940    0.599999964
    0.889894485    0.624999940    0.800000012
    0.139894605    0.874999940    0.099999994
    0.889894605    0.124999993    0.599999964
    0.389894485    0.124999993    0.800000012
    0.389894634    0.624999940    0.099999994
