Si+Sn                                   
   1.00000000000000     
    19.5817508700000005    0.0000000000000000    0.0000000000000000
     0.0000000000000000   19.5817489619999989    0.0000000000000000
     0.0000000000000000    0.0000000000000000   19.1002502440000015
   Si   Sn
   156   108
Direct
  0.9958930020000025  0.9972620010000028  0.0000000000000000
  0.8805083629999970  0.9203388689999983  0.1421709059999969
  0.7651237250000023  0.8434157370000008  0.2843419020000013
  0.0728161259999993  0.3818774519999977  0.0000000000000000
  0.9574314360000002  0.3049542899999977  0.1421709059999969
  0.8420467970000018  0.2280311580000003  0.2843419020000013
  0.7770864960000026  0.8743589520000015  0.8051177859999967
  0.1112776180000026  0.0741850510000006  0.1421709059999969
  0.9958929419999976  0.9972619409999979  0.2843419020000013
  0.8604196309999992  0.4576923549999989  0.8900538680000025
  0.0343545340000020  0.6895697120000008  0.1421709059999969
  0.9189698699999980  0.6126465800000034  0.2843419020000013
  0.3035854099999966  0.5357235669999980  0.0000000000000000
  0.1882007270000017  0.4588004350000006  0.1421709059999969
  0.0728160660000015  0.3818773030000031  0.2843419020000013
  0.4574315549999994  0.3049543500000027  0.0000000000000000
  0.3420468569999997  0.2280312030000005  0.1421709059999969
  0.2266622040000001  0.1511080710000030  0.2843419020000013
  0.3604196909999970  0.9576923850000014  0.8900538680000025
  0.4958930020000025  0.9972619409999979  0.1421709059999969
  0.3805083629999970  0.9203388090000004  0.2843419020000013
  0.3805085119999987  0.9203390480000024  0.0000000000000000
  0.2651238440000014  0.8434159159999979  0.1421709059999969
  0.1497391759999971  0.7664927240000026  0.2843419020000013
  0.5343546269999990  0.6895697120000008  0.0000000000000000
  0.4189699289999993  0.6126465800000034  0.1421709059999969
  0.3035852610000020  0.5357234479999988  0.2843419020000013
  0.5270864370000012  0.1243589819999968  0.8900538680000025
  0.5728160740000021  0.3818773630000010  0.1421709059999969
  0.4574313760000024  0.3049542310000035  0.2843419020000013
  0.8420469160000010  0.2280311880000028  0.0000000000000000
  0.7266622779999992  0.1511080410000005  0.1421709059999969
  0.6112775799999994  0.0741849090000031  0.2843419020000013
  0.7651239039999993  0.8434158560000000  0.0000000000000000
  0.6497392650000009  0.7664927240000026  0.1421709059999969
  0.5343545679999977  0.6895695919999980  0.2843419020000013
  0.9189700479999985  0.6126466389999976  0.0000000000000000
  0.8035854099999966  0.5357235070000002  0.1421709059999969
  0.6882007119999969  0.4588003750000027  0.2843419020000013
  0.0151238369999973  0.5934158560000000  0.0710854749999967
  0.0270864960000026  0.9576923850000014  0.5503095979999983
  0.6104197499999984  0.0410256420000010  0.4653735759999975
  0.1689699590000018  0.3626466690000001  0.0710854749999967
  0.6937530639999991  0.6243590710000007  0.5503095979999983
  0.9382005929999977  0.2088003750000027  0.3554273840000022
  0.3228161330000034  0.1318774069999975  0.0710854749999967
  0.2074314500000014  0.0549542680000030  0.2132564189999968
  0.7770863770000034  0.2076923099999988  0.4653735759999975
  0.0920468870000022  0.9780312780000031  0.0710854749999967
  0.9766622189999978  0.9011081459999986  0.2132564189999968
  0.4437530639999991  0.2076923099999988  0.4653735759999975
  0.2458930609999967  0.7472620610000007  0.0710854749999967
  0.1305084079999972  0.6703389290000032  0.2132564189999968
  0.2770863770000034  0.7076923249999965  0.4653735759999975
  0.3997392650000009  0.5164928439999983  0.0710854749999967
  0.2843545969999965  0.4395696819999984  0.2132564189999968
  0.1689699289999993  0.3626465500000009  0.3554273840000022
  0.5535854099999966  0.2857235370000026  0.0710854749999967
  0.4382007119999969  0.2088003900000004  0.2132564189999968
  0.4437530639999991  0.5410256389999972  0.4653735759999975
  0.7074315549999994  0.0549543019999987  0.0710854749999967
  0.5920468569999997  0.9780311580000003  0.2132564189999968
  0.4766621890000025  0.9011080269999994  0.3554273840000022
  0.4766623969999984  0.9011082049999999  0.0710854749999967
  0.3612776989999986  0.8241850730000024  0.2132564189999968
  0.2458930020000025  0.7472619409999979  0.3554273840000022
  0.6305085420000012  0.6703389879999975  0.0710854749999967
  0.5151238440000014  0.5934157969999987  0.2132564189999968
  0.3997391460000017  0.5164926650000012  0.3554273840000022
  0.7843546869999969  0.4395697120000008  0.0710854749999967
  0.6689699889999972  0.3626465500000009  0.2132564189999968
  0.4437530639999991  0.8743589520000015  0.4653735759999975
  0.9382008310000032  0.2088004949999984  0.0710854749999967
  0.8228161330000034  0.1318773480000033  0.2132564189999968
  0.7074314360000002  0.0549542050000014  0.3554273840000022
  0.8612778780000028  0.8241851330000003  0.0710854749999967
  0.7458931800000030  0.7472620010000028  0.2132564189999968
  0.6305084230000020  0.6703388090000004  0.3554273840000022
  0.8604196309999992  0.7910256979999986  0.8900538680000025
  0.9189699289999993  0.1126466019999981  0.1421709059999969
  0.6937530639999991  0.2910256389999972  0.5503095979999983
  0.6937531230000005  0.9576923850000014  0.8900538680000025
  0.9958930020000025  0.4972620010000028  0.1421709059999969
  0.7770863770000034  0.8743589520000015  0.4653735759999975
  0.5270864370000012  0.4576923549999989  0.8900538680000025
  0.2770863770000034  0.7076923249999965  0.8051177859999967
  0.7770863770000034  0.5410256389999972  0.4653735759999975
  0.4189699889999972  0.1126466019999981  0.0000000000000000
  0.9437530040000013  0.3743589819999968  0.8051177859999967
  0.9437531230000005  0.0410256420000010  0.4653735759999975
  0.1882007569999971  0.9588004350000006  0.0000000000000000
  0.0728160589999973  0.8818773030000031  0.1421709059999969
  0.9574313760000024  0.8049542309999964  0.2843419020000013
  0.0270863770000034  0.9576923850000014  0.8900538680000025
  0.2266622329999990  0.6511081459999986  0.1421709059999969
  0.1112775730000024  0.5741850140000011  0.2843419020000013
  0.4958930909999992  0.4972620010000028  0.0000000000000000
  0.3805084230000020  0.4203388689999983  0.1421709059999969
  0.1104198689999976  0.8743589520000015  0.4653735759999975
  0.6497392650000009  0.2664927840000004  0.0000000000000000
  0.5343546269999990  0.1895696520000030  0.1421709059999969
  0.4189699289999993  0.1126465199999984  0.2843419020000013
  0.6937531230000005  0.6243590710000007  0.8900538680000025
  0.6882007119999969  0.9588004350000006  0.1421709059999969
  0.5728160740000021  0.8818773030000031  0.2843419020000013
  0.6937531230000005  0.2910256389999972  0.8900538680000025
  0.4574314360000002  0.8049542899999977  0.1421709059999969
  0.1104198689999976  0.5410256389999972  0.4653735759999975
  0.7266623379999970  0.6511081459999986  0.0000000000000000
  0.6112776399999973  0.5741850140000011  0.1421709059999969
  0.4958929419999976  0.4972618520000012  0.2843419020000013
  0.8805084820000033  0.4203389879999975  0.0000000000000000
  0.7651238440000014  0.3434158560000000  0.1421709059999969
  0.3604197200000030  0.2910256389999972  0.5503095979999983
  0.9574316140000008  0.8049542899999977  0.0000000000000000
  0.8420469160000010  0.7280311580000003  0.1421709059999969
  0.7266622779999992  0.6511080269999994  0.2843419020000013
  0.0270863770000034  0.6243590710000007  0.8900538680000025
  0.0151237680000023  0.0934158339999982  0.2132564189999968
  0.6104197499999984  0.7076923249999965  0.4653735759999975
  0.9437530040000013  0.0410256420000010  0.8051177859999967
  0.9382007119999969  0.7088004350000006  0.2132564189999968
  0.8228160139999972  0.6318773030000031  0.3554273840000022
  0.2074315249999970  0.5549544100000006  0.0710854749999967
  0.0920468719999974  0.4780312480000006  0.2132564189999968
  0.5270863770000034  0.1243589819999968  0.5503095979999983
  0.3612776989999986  0.3241851330000003  0.0710854749999967
  0.2458930310000014  0.2472620010000028  0.2132564189999968
  0.1305083330000016  0.1703388540000006  0.3554273840000022
  0.3604196909999970  0.6243590710000007  0.8900538680000025
  0.3997392059999996  0.0164927240000026  0.2132564189999968
  0.2843545079999998  0.9395695329999967  0.3554273840000022
  0.0270863770000034  0.2910256389999972  0.8900538680000025
  0.1689699889999972  0.8626466389999976  0.2132564189999968
  0.0535852909999974  0.7857235070000002  0.3554273840000022
  0.1937530040000013  0.7910256979999986  0.8900538680000025
  0.3228160740000021  0.6318774220000023  0.2132564189999968
  0.2074314059999978  0.5549542899999977  0.3554273840000022
  0.3604196909999970  0.2910256389999972  0.8900538680000025
  0.4766622779999992  0.4011081459999986  0.2132564189999968
  0.1104198689999976  0.2076923099999988  0.4653735759999975
  0.7458931210000017  0.2472620010000028  0.0710854749999967
  0.6305084230000020  0.1703388689999983  0.2132564189999968
  0.5151237850000001  0.0934157220000031  0.3554273840000022
  0.6104197499999984  0.0410256420000010  0.8051177859999967
  0.7843545679999977  0.9395696520000030  0.2132564189999968
  0.6689699289999993  0.8626465199999984  0.3554273840000022
  0.6689701080000034  0.8626467590000004  0.0710854749999967
  0.5535854099999966  0.7857236270000030  0.2132564189999968
  0.2770863770000034  0.3743589819999968  0.4653735759999975
  0.8228162529999992  0.6318774220000023  0.0710854749999967
  0.7074315549999994  0.5549542899999977  0.2132564189999968
  0.5920467970000018  0.4780311290000014  0.3554273840000022
  0.9766622779999992  0.4011082350000024  0.0710854749999967
  0.8612775799999994  0.3241850730000024  0.2132564189999968
  0.7458928819999997  0.2472619269999967  0.3554273840000022
  0.0151237150000014  0.5934157969999987  0.3554273840000022
  0.1104197499999984  0.7076923249999965  0.6352456810000007
  0.9437530040000013  0.7076923249999965  0.8051177859999967
  0.4382007119999969  0.7088004949999984  0.3554273840000022
  0.1104197499999984  0.3743589819999968  0.6352456810000007
  0.3035853209999999  0.0357234740000010  0.1421709059999969
  0.2770863770000034  0.0410256420000010  0.4653735759999975
  0.1104197499999984  0.0410256420000010  0.6352456810000007
  0.0535853430000017  0.7857236270000030  0.0710854749999967
  0.8997390870000004  0.0164926929999964  0.3554273840000022
  0.4437530339999967  0.7076923249999965  0.6352456810000007
  0.1497391910000019  0.2664927840000004  0.1421709059999969
  0.6104197499999984  0.3743589819999968  0.4653735759999975
  0.4437530339999967  0.3743589819999968  0.6352456810000007
  0.2770863770000034  0.3743589819999968  0.8051177859999967
  0.7843545079999998  0.4395696220000005  0.3554273840000022
  0.4437530339999967  0.0410256420000010  0.6352456810000007
  0.2770863770000034  0.0410256420000010  0.8051177859999967
  0.9437531230000005  0.7076923249999965  0.4653735759999975
  0.7770863770000034  0.7076923249999965  0.6352456810000007
  0.6104197499999984  0.7076923249999965  0.8051177859999967
  0.9437531230000005  0.3743589819999968  0.4653735759999975
  0.7770863770000034  0.3743589819999968  0.6352456810000007
  0.6104197499999984  0.3743589819999968  0.8051177859999967
  0.1882006379999979  0.9588003160000014  0.2843419020000013
  0.7770863770000034  0.0410256420000010  0.6352456810000007
  0.8997392650000009  0.0164927880000008  0.0710854749999967
  0.3604197200000030  0.9576923850000014  0.5503095979999983
  0.1937531230000005  0.9576923850000014  0.7201817039999980
  0.3420469160000010  0.7280312780000031  0.0000000000000000
  0.3604197200000030  0.6243590710000007  0.5503095979999983
  0.1937531230000005  0.6243590710000007  0.7201817039999980
  0.1305084379999997  0.1703389589999986  0.0710854749999967
  0.6497391460000017  0.2664927240000026  0.2843419020000013
  0.1937531230000005  0.2910256389999972  0.7201817039999980
  0.2843546570000015  0.9395698310000000  0.0710854749999967
  0.6937530639999991  0.9576923850000014  0.5503095979999983
  0.5270863770000034  0.9576923850000014  0.7201817039999980
  0.6112776989999986  0.0741851029999978  0.0000000000000000
  0.0535852949999978  0.2857235370000026  0.2132564189999968
  0.5270863770000034  0.6243590710000007  0.7201817039999980
  0.5151238440000014  0.0934158490000030  0.0710854749999967
  0.8035852309999996  0.0357234700000006  0.2843419020000013
  0.5270863770000034  0.2910256389999972  0.7201817039999980
  0.5920469759999989  0.4780312780000031  0.0710854749999967
  0.8997392059999996  0.5164927240000026  0.2132564189999968
  0.8604198689999976  0.9576923850000014  0.7201817039999980
  0.1112776619999991  0.5741850730000024  0.0000000000000000
  0.0270864960000026  0.6243590710000007  0.5503095979999983
  0.8604198689999976  0.6243590710000007  0.7201817039999980
  0.8035854099999966  0.0357235740000021  0.0000000000000000
  0.0270864960000026  0.2910256389999972  0.5503095979999983
  0.8604198689999976  0.2910256389999972  0.7201817039999980
  0.5728161330000034  0.8818773630000010  0.0000000000000000
  0.5535852909999974  0.2857234180000034  0.3554273840000022
  0.2770863770000034  0.8743589520000015  0.6352456810000007
  0.1104197499999984  0.8743589520000015  0.8051177859999967
  0.3228160439999996  0.1318772580000029  0.3554273840000022
  0.2770863770000034  0.5410256389999972  0.6352456810000007
  0.1104197499999984  0.5410256389999972  0.8051177859999967
  0.8612775209999981  0.8241850140000011  0.3554273840000022
  0.2770863770000034  0.2076923099999988  0.6352456810000007
  0.1104197499999984  0.2076923099999988  0.8051177859999967
  0.8805083040000028  0.4203388390000029  0.2843419020000013
  0.6104197499999984  0.8743589520000015  0.6352456810000007
  0.4437530639999991  0.8743589520000015  0.8051177859999967
  0.0343544930000022  0.1895696520000030  0.2843419020000013
  0.6104197499999984  0.5410256389999972  0.6352456810000007
  0.4437530639999991  0.5410256389999972  0.8051177859999967
  0.0920467669999994  0.9780311580000003  0.3554273840000022
  0.6104197499999984  0.2076923099999988  0.6352456810000007
  0.4437530639999991  0.2076923099999988  0.8051177859999967
  0.2651237250000023  0.3434157370000008  0.2843419020000013
  0.9437531230000005  0.8743589520000015  0.6352456810000007
  0.2266622779999992  0.1511081760000010  0.0000000000000000
  0.3420467970000018  0.7280310989999990  0.2843419020000013
  0.9437531230000005  0.5410256389999972  0.6352456810000007
  0.7770864960000026  0.5410256389999972  0.8051177859999967
  0.3612776100000019  0.3241850140000011  0.3554273840000022
  0.9437531230000005  0.2076923099999988  0.6352456810000007
  0.7770864960000026  0.2076923099999988  0.8051177859999967
  0.5270863770000034  0.7910256979999986  0.5503095979999983
  0.3604197200000030  0.7910256979999986  0.7201817039999980
  0.4382007720000018  0.7088006139999976  0.0710854749999967
  0.5270863770000034  0.4576923549999989  0.5503095979999983
  0.3604197200000030  0.4576923549999989  0.7201817039999980
  0.1937530040000013  0.4576923549999989  0.8900538680000025
  0.9766621590000000  0.4011080860000007  0.3554273840000022
  0.3604197200000030  0.1243589819999968  0.7201817039999980
  0.1937530040000013  0.1243589819999968  0.8900538680000025
  0.8604197499999984  0.7910256979999986  0.5503095979999983
  0.6937531230000005  0.7910256979999986  0.7201817039999980
  0.5270864370000012  0.7910256979999986  0.8900538680000025
  0.8604197499999984  0.4576923549999989  0.5503095979999983
  0.6937531230000005  0.4576923549999989  0.7201817039999980
  0.2651238440000014  0.3434159159999979  0.0000000000000000
  0.8604197499999984  0.1243589819999968  0.5503095979999983
  0.6937531230000005  0.1243589819999968  0.7201817039999980
  0.6882007119999969  0.4588004949999984  0.0000000000000000
  0.1937530040000013  0.7910256979999986  0.5503095979999983
  0.0270863770000034  0.7910256979999986  0.7201817039999980
  0.0343545859999992  0.1895697409999997  0.0000000000000000
  0.1937530040000013  0.4576923549999989  0.5503095979999983
  0.0270863770000034  0.4576923549999989  0.7201817039999980
  0.1497392209999973  0.7664928439999983  0.0000000000000000
  0.1937530040000013  0.1243589819999968  0.5503095979999983
  0.0270863770000034  0.1243589819999968  0.7201817039999980
  0.8604196309999992  0.1243589819999968  0.8900538680000025
 
  0.00000000E+00  0.00000000E+00  0.00000000E+00
  0.00000000E+00  0.00000000E+00  0.00000000E+00
  0.00000000E+00  0.00000000E+00  0.00000000E+00
  0.00000000E+00  0.00000000E+00  0.00000000E+00
  0.00000000E+00  0.00000000E+00  0.00000000E+00
  0.00000000E+00  0.00000000E+00  0.00000000E+00
  0.00000000E+00  0.00000000E+00  0.00000000E+00
  0.00000000E+00  0.00000000E+00  0.00000000E+00
  0.00000000E+00  0.00000000E+00  0.00000000E+00
  0.00000000E+00  0.00000000E+00  0.00000000E+00
  0.00000000E+00  0.00000000E+00  0.00000000E+00
  0.00000000E+00  0.00000000E+00  0.00000000E+00
  0.00000000E+00  0.00000000E+00  0.00000000E+00
  0.00000000E+00  0.00000000E+00  0.00000000E+00
  0.00000000E+00  0.00000000E+00  0.00000000E+00
  0.00000000E+00  0.00000000E+00  0.00000000E+00
  0.00000000E+00  0.00000000E+00  0.00000000E+00
  0.00000000E+00  0.00000000E+00  0.00000000E+00
  0.00000000E+00  0.00000000E+00  0.00000000E+00
  0.00000000E+00  0.00000000E+00  0.00000000E+00
  0.00000000E+00  0.00000000E+00  0.00000000E+00
  0.00000000E+00  0.00000000E+00  0.00000000E+00
  0.00000000E+00  0.00000000E+00  0.00000000E+00
  0.00000000E+00  0.00000000E+00  0.00000000E+00
  0.00000000E+00  0.00000000E+00  0.00000000E+00
  0.00000000E+00  0.00000000E+00  0.00000000E+00
  0.00000000E+00  0.00000000E+00  0.00000000E+00
  0.00000000E+00  0.00000000E+00  0.00000000E+00
  0.00000000E+00  0.00000000E+00  0.00000000E+00
  0.00000000E+00  0.00000000E+00  0.00000000E+00
  0.00000000E+00  0.00000000E+00  0.00000000E+00
  0.00000000E+00  0.00000000E+00  0.00000000E+00
  0.00000000E+00  0.00000000E+00  0.00000000E+00
  0.00000000E+00  0.00000000E+00  0.00000000E+00
  0.00000000E+00  0.00000000E+00  0.00000000E+00
  0.00000000E+00  0.00000000E+00  0.00000000E+00
  0.00000000E+00  0.00000000E+00  0.00000000E+00
  0.00000000E+00  0.00000000E+00  0.00000000E+00
  0.00000000E+00  0.00000000E+00  0.00000000E+00
  0.00000000E+00  0.00000000E+00  0.00000000E+00
  0.00000000E+00  0.00000000E+00  0.00000000E+00
  0.00000000E+00  0.00000000E+00  0.00000000E+00
  0.00000000E+00  0.00000000E+00  0.00000000E+00
  0.00000000E+00  0.00000000E+00  0.00000000E+00
  0.00000000E+00  0.00000000E+00  0.00000000E+00
  0.00000000E+00  0.00000000E+00  0.00000000E+00
  0.00000000E+00  0.00000000E+00  0.00000000E+00
  0.00000000E+00  0.00000000E+00  0.00000000E+00
  0.00000000E+00  0.00000000E+00  0.00000000E+00
  0.00000000E+00  0.00000000E+00  0.00000000E+00
  0.00000000E+00  0.00000000E+00  0.00000000E+00
  0.00000000E+00  0.00000000E+00  0.00000000E+00
  0.00000000E+00  0.00000000E+00  0.00000000E+00
  0.00000000E+00  0.00000000E+00  0.00000000E+00
  0.00000000E+00  0.00000000E+00  0.00000000E+00
  0.00000000E+00  0.00000000E+00  0.00000000E+00
  0.00000000E+00  0.00000000E+00  0.00000000E+00
  0.00000000E+00  0.00000000E+00  0.00000000E+00
  0.00000000E+00  0.00000000E+00  0.00000000E+00
  0.00000000E+00  0.00000000E+00  0.00000000E+00
  0.00000000E+00  0.00000000E+00  0.00000000E+00
  0.00000000E+00  0.00000000E+00  0.00000000E+00
  0.00000000E+00  0.00000000E+00  0.00000000E+00
  0.00000000E+00  0.00000000E+00  0.00000000E+00
  0.00000000E+00  0.00000000E+00  0.00000000E+00
  0.00000000E+00  0.00000000E+00  0.00000000E+00
  0.00000000E+00  0.00000000E+00  0.00000000E+00
  0.00000000E+00  0.00000000E+00  0.00000000E+00
  0.00000000E+00  0.00000000E+00  0.00000000E+00
  0.00000000E+00  0.00000000E+00  0.00000000E+00
  0.00000000E+00  0.00000000E+00  0.00000000E+00
  0.00000000E+00  0.00000000E+00  0.00000000E+00
  0.00000000E+00  0.00000000E+00  0.00000000E+00
  0.00000000E+00  0.00000000E+00  0.00000000E+00
  0.00000000E+00  0.00000000E+00  0.00000000E+00
  0.00000000E+00  0.00000000E+00  0.00000000E+00
  0.00000000E+00  0.00000000E+00  0.00000000E+00
  0.00000000E+00  0.00000000E+00  0.00000000E+00
  0.00000000E+00  0.00000000E+00  0.00000000E+00
  0.00000000E+00  0.00000000E+00  0.00000000E+00
  0.00000000E+00  0.00000000E+00  0.00000000E+00
  0.00000000E+00  0.00000000E+00  0.00000000E+00
  0.00000000E+00  0.00000000E+00  0.00000000E+00
  0.00000000E+00  0.00000000E+00  0.00000000E+00
  0.00000000E+00  0.00000000E+00  0.00000000E+00
  0.00000000E+00  0.00000000E+00  0.00000000E+00
  0.00000000E+00  0.00000000E+00  0.00000000E+00
  0.00000000E+00  0.00000000E+00  0.00000000E+00
  0.00000000E+00  0.00000000E+00  0.00000000E+00
  0.00000000E+00  0.00000000E+00  0.00000000E+00
  0.00000000E+00  0.00000000E+00  0.00000000E+00
  0.00000000E+00  0.00000000E+00  0.00000000E+00
  0.00000000E+00  0.00000000E+00  0.00000000E+00
  0.00000000E+00  0.00000000E+00  0.00000000E+00
  0.00000000E+00  0.00000000E+00  0.00000000E+00
  0.00000000E+00  0.00000000E+00  0.00000000E+00
  0.00000000E+00  0.00000000E+00  0.00000000E+00
  0.00000000E+00  0.00000000E+00  0.00000000E+00
  0.00000000E+00  0.00000000E+00  0.00000000E+00
  0.00000000E+00  0.00000000E+00  0.00000000E+00
  0.00000000E+00  0.00000000E+00  0.00000000E+00
  0.00000000E+00  0.00000000E+00  0.00000000E+00
  0.00000000E+00  0.00000000E+00  0.00000000E+00
  0.00000000E+00  0.00000000E+00  0.00000000E+00
  0.00000000E+00  0.00000000E+00  0.00000000E+00
  0.00000000E+00  0.00000000E+00  0.00000000E+00
  0.00000000E+00  0.00000000E+00  0.00000000E+00
  0.00000000E+00  0.00000000E+00  0.00000000E+00
  0.00000000E+00  0.00000000E+00  0.00000000E+00
  0.00000000E+00  0.00000000E+00  0.00000000E+00
  0.00000000E+00  0.00000000E+00  0.00000000E+00
  0.00000000E+00  0.00000000E+00  0.00000000E+00
  0.00000000E+00  0.00000000E+00  0.00000000E+00
  0.00000000E+00  0.00000000E+00  0.00000000E+00
  0.00000000E+00  0.00000000E+00  0.00000000E+00
  0.00000000E+00  0.00000000E+00  0.00000000E+00
  0.00000000E+00  0.00000000E+00  0.00000000E+00
  0.00000000E+00  0.00000000E+00  0.00000000E+00
  0.00000000E+00  0.00000000E+00  0.00000000E+00
  0.00000000E+00  0.00000000E+00  0.00000000E+00
  0.00000000E+00  0.00000000E+00  0.00000000E+00
  0.00000000E+00  0.00000000E+00  0.00000000E+00
  0.00000000E+00  0.00000000E+00  0.00000000E+00
  0.00000000E+00  0.00000000E+00  0.00000000E+00
  0.00000000E+00  0.00000000E+00  0.00000000E+00
  0.00000000E+00  0.00000000E+00  0.00000000E+00
  0.00000000E+00  0.00000000E+00  0.00000000E+00
  0.00000000E+00  0.00000000E+00  0.00000000E+00
  0.00000000E+00  0.00000000E+00  0.00000000E+00
  0.00000000E+00  0.00000000E+00  0.00000000E+00
  0.00000000E+00  0.00000000E+00  0.00000000E+00
  0.00000000E+00  0.00000000E+00  0.00000000E+00
  0.00000000E+00  0.00000000E+00  0.00000000E+00
  0.00000000E+00  0.00000000E+00  0.00000000E+00
  0.00000000E+00  0.00000000E+00  0.00000000E+00
  0.00000000E+00  0.00000000E+00  0.00000000E+00
  0.00000000E+00  0.00000000E+00  0.00000000E+00
  0.00000000E+00  0.00000000E+00  0.00000000E+00
  0.00000000E+00  0.00000000E+00  0.00000000E+00
  0.00000000E+00  0.00000000E+00  0.00000000E+00
  0.00000000E+00  0.00000000E+00  0.00000000E+00
  0.00000000E+00  0.00000000E+00  0.00000000E+00
  0.00000000E+00  0.00000000E+00  0.00000000E+00
  0.00000000E+00  0.00000000E+00  0.00000000E+00
  0.00000000E+00  0.00000000E+00  0.00000000E+00
  0.00000000E+00  0.00000000E+00  0.00000000E+00
  0.00000000E+00  0.00000000E+00  0.00000000E+00
  0.00000000E+00  0.00000000E+00  0.00000000E+00
  0.00000000E+00  0.00000000E+00  0.00000000E+00
  0.00000000E+00  0.00000000E+00  0.00000000E+00
  0.00000000E+00  0.00000000E+00  0.00000000E+00
  0.00000000E+00  0.00000000E+00  0.00000000E+00
  0.00000000E+00  0.00000000E+00  0.00000000E+00
  0.00000000E+00  0.00000000E+00  0.00000000E+00
  0.00000000E+00  0.00000000E+00  0.00000000E+00
  0.00000000E+00  0.00000000E+00  0.00000000E+00
  0.00000000E+00  0.00000000E+00  0.00000000E+00
  0.00000000E+00  0.00000000E+00  0.00000000E+00
  0.00000000E+00  0.00000000E+00  0.00000000E+00
  0.00000000E+00  0.00000000E+00  0.00000000E+00
  0.00000000E+00  0.00000000E+00  0.00000000E+00
  0.00000000E+00  0.00000000E+00  0.00000000E+00
  0.00000000E+00  0.00000000E+00  0.00000000E+00
  0.00000000E+00  0.00000000E+00  0.00000000E+00
  0.00000000E+00  0.00000000E+00  0.00000000E+00
  0.00000000E+00  0.00000000E+00  0.00000000E+00
  0.00000000E+00  0.00000000E+00  0.00000000E+00
  0.00000000E+00  0.00000000E+00  0.00000000E+00
  0.00000000E+00  0.00000000E+00  0.00000000E+00
  0.00000000E+00  0.00000000E+00  0.00000000E+00
  0.00000000E+00  0.00000000E+00  0.00000000E+00
  0.00000000E+00  0.00000000E+00  0.00000000E+00
  0.00000000E+00  0.00000000E+00  0.00000000E+00
  0.00000000E+00  0.00000000E+00  0.00000000E+00
  0.00000000E+00  0.00000000E+00  0.00000000E+00
  0.00000000E+00  0.00000000E+00  0.00000000E+00
  0.00000000E+00  0.00000000E+00  0.00000000E+00
  0.00000000E+00  0.00000000E+00  0.00000000E+00
  0.00000000E+00  0.00000000E+00  0.00000000E+00
  0.00000000E+00  0.00000000E+00  0.00000000E+00
  0.00000000E+00  0.00000000E+00  0.00000000E+00
  0.00000000E+00  0.00000000E+00  0.00000000E+00
  0.00000000E+00  0.00000000E+00  0.00000000E+00
  0.00000000E+00  0.00000000E+00  0.00000000E+00
  0.00000000E+00  0.00000000E+00  0.00000000E+00
  0.00000000E+00  0.00000000E+00  0.00000000E+00
  0.00000000E+00  0.00000000E+00  0.00000000E+00
  0.00000000E+00  0.00000000E+00  0.00000000E+00
  0.00000000E+00  0.00000000E+00  0.00000000E+00
  0.00000000E+00  0.00000000E+00  0.00000000E+00
  0.00000000E+00  0.00000000E+00  0.00000000E+00
  0.00000000E+00  0.00000000E+00  0.00000000E+00
  0.00000000E+00  0.00000000E+00  0.00000000E+00
  0.00000000E+00  0.00000000E+00  0.00000000E+00
  0.00000000E+00  0.00000000E+00  0.00000000E+00
  0.00000000E+00  0.00000000E+00  0.00000000E+00
  0.00000000E+00  0.00000000E+00  0.00000000E+00
  0.00000000E+00  0.00000000E+00  0.00000000E+00
  0.00000000E+00  0.00000000E+00  0.00000000E+00
  0.00000000E+00  0.00000000E+00  0.00000000E+00
  0.00000000E+00  0.00000000E+00  0.00000000E+00
  0.00000000E+00  0.00000000E+00  0.00000000E+00
  0.00000000E+00  0.00000000E+00  0.00000000E+00
  0.00000000E+00  0.00000000E+00  0.00000000E+00
  0.00000000E+00  0.00000000E+00  0.00000000E+00
  0.00000000E+00  0.00000000E+00  0.00000000E+00
  0.00000000E+00  0.00000000E+00  0.00000000E+00
  0.00000000E+00  0.00000000E+00  0.00000000E+00
  0.00000000E+00  0.00000000E+00  0.00000000E+00
  0.00000000E+00  0.00000000E+00  0.00000000E+00
  0.00000000E+00  0.00000000E+00  0.00000000E+00
  0.00000000E+00  0.00000000E+00  0.00000000E+00
  0.00000000E+00  0.00000000E+00  0.00000000E+00
  0.00000000E+00  0.00000000E+00  0.00000000E+00
  0.00000000E+00  0.00000000E+00  0.00000000E+00
  0.00000000E+00  0.00000000E+00  0.00000000E+00
  0.00000000E+00  0.00000000E+00  0.00000000E+00
  0.00000000E+00  0.00000000E+00  0.00000000E+00
  0.00000000E+00  0.00000000E+00  0.00000000E+00
  0.00000000E+00  0.00000000E+00  0.00000000E+00
  0.00000000E+00  0.00000000E+00  0.00000000E+00
  0.00000000E+00  0.00000000E+00  0.00000000E+00
  0.00000000E+00  0.00000000E+00  0.00000000E+00
  0.00000000E+00  0.00000000E+00  0.00000000E+00
  0.00000000E+00  0.00000000E+00  0.00000000E+00
  0.00000000E+00  0.00000000E+00  0.00000000E+00
  0.00000000E+00  0.00000000E+00  0.00000000E+00
  0.00000000E+00  0.00000000E+00  0.00000000E+00
  0.00000000E+00  0.00000000E+00  0.00000000E+00
  0.00000000E+00  0.00000000E+00  0.00000000E+00
  0.00000000E+00  0.00000000E+00  0.00000000E+00
  0.00000000E+00  0.00000000E+00  0.00000000E+00
  0.00000000E+00  0.00000000E+00  0.00000000E+00
  0.00000000E+00  0.00000000E+00  0.00000000E+00
  0.00000000E+00  0.00000000E+00  0.00000000E+00
  0.00000000E+00  0.00000000E+00  0.00000000E+00
  0.00000000E+00  0.00000000E+00  0.00000000E+00
  0.00000000E+00  0.00000000E+00  0.00000000E+00
  0.00000000E+00  0.00000000E+00  0.00000000E+00
  0.00000000E+00  0.00000000E+00  0.00000000E+00
  0.00000000E+00  0.00000000E+00  0.00000000E+00
  0.00000000E+00  0.00000000E+00  0.00000000E+00
  0.00000000E+00  0.00000000E+00  0.00000000E+00
  0.00000000E+00  0.00000000E+00  0.00000000E+00
  0.00000000E+00  0.00000000E+00  0.00000000E+00
  0.00000000E+00  0.00000000E+00  0.00000000E+00
  0.00000000E+00  0.00000000E+00  0.00000000E+00
  0.00000000E+00  0.00000000E+00  0.00000000E+00
  0.00000000E+00  0.00000000E+00  0.00000000E+00
  0.00000000E+00  0.00000000E+00  0.00000000E+00
  0.00000000E+00  0.00000000E+00  0.00000000E+00
  0.00000000E+00  0.00000000E+00  0.00000000E+00
  0.00000000E+00  0.00000000E+00  0.00000000E+00
  0.00000000E+00  0.00000000E+00  0.00000000E+00
  0.00000000E+00  0.00000000E+00  0.00000000E+00
  0.00000000E+00  0.00000000E+00  0.00000000E+00
  0.00000000E+00  0.00000000E+00  0.00000000E+00
  0.00000000E+00  0.00000000E+00  0.00000000E+00
  0.00000000E+00  0.00000000E+00  0.00000000E+00
  0.00000000E+00  0.00000000E+00  0.00000000E+00
  0.00000000E+00  0.00000000E+00  0.00000000E+00
  0.00000000E+00  0.00000000E+00  0.00000000E+00
  0.00000000E+00  0.00000000E+00  0.00000000E+00
  0.00000000E+00  0.00000000E+00  0.00000000E+00
