Ge+Ge
    1.000000000
    8.001338005    0.000000000    0.000000000
    4.000669003   12.002006531    0.000000000
    0.000000000    0.000000000    9.429667473
Ge 
48
Direct
    0.994305491    0.994305491    0.000000000
    0.827638865    0.827638865    0.299999923
    0.660972118    0.660972118    0.599999964
    0.327638805    0.327638805    0.000000000
    0.160972148    0.160972148    0.299999923
    0.994305432    0.994305432    0.599999964
    0.660972118    0.660972118    0.000000000
    0.494305432    0.494305432    0.299999923
    0.327638745    0.327638745    0.599999964
    0.244305477    0.994305491    0.149999961
    0.077638790    0.827638865    0.449999928
    0.910972118    0.660972118    0.749999940
    0.577638805    0.327638805    0.149999961
    0.410972118    0.160972133    0.449999928
    0.244305432    0.994305432    0.749999940
    0.910972178    0.660972118    0.149999961
    0.744305491    0.494305462    0.449999928
    0.577638805    0.327638775    0.749999940
    0.494305432    0.994305491    0.000000000
    0.327638775    0.827638865    0.299999923
    0.160972089    0.660972118    0.599999964
    0.160972178    0.660972118    0.000000000
    0.994305491    0.494305462    0.299999923
    0.827638805    0.327638775    0.599999964
    0.827638745    0.327638835    0.000000000
    0.660972118    0.160972163    0.299999923
    0.494305402    0.994305491    0.599999964
    0.077638827    0.327638835    0.149999961
    0.910972118    0.160972148    0.449999928
    0.744305491    0.994305491    0.749999940
    0.744305491    0.994305491    0.149999961
    0.577638805    0.827638805    0.449999928
    0.410972089    0.660972118    0.749999940
    0.410972148    0.660972118    0.149999961
    0.244305447    0.494305402    0.449999928
    0.077638745    0.327638716    0.749999940
    0.989384770    0.973461866    0.749999940
    0.878273606    0.695684075    0.849999964
    0.767162442    0.417906225    0.949999988
    0.489384741    0.973461866    0.749999940
    0.378273576    0.695684016    0.849999964
    0.267162442    0.417906225    0.949999988
    0.683829129    0.084572941    0.799999893
    0.572717965    0.806795120    0.899999917
    0.461606801    0.529017270    0.999999940
    0.183829159    0.084572941    0.799999893
    0.072718009    0.806795120    0.899999917
    0.961606860    0.529017210    0.999999940
