Si+C                                    
   1.00000000000000     
    13.3031797409999992    0.0000000000000000    0.0000000000000000
     6.6515893940000002   14.8734064099999994    0.0000000000000000
     0.0000000000000000    0.0000000000000000    7.9947500229999999
   Si   C 
    36    84
Direct
  0.2832494969999999  0.6416247490000018  0.0000000470000003
  0.8165827990000025  0.4082912800000003  0.1519008730000024
  0.3499159810000023  0.1749577670000022  0.3038017450000012
  0.6165827510000028  0.3082913759999997  0.0000000570000012
  0.1499160529999983  0.0749579299999965  0.1519008730000024
  0.6832492349999981  0.8416244390000003  0.3038017149999988
  0.9499161239999978  0.9749580619999989  0.0000000400000033
  0.4832494850000018  0.7416245940000010  0.1519008730000024
  0.0165826679999981  0.5082911249999995  0.3038017149999988
  0.7999162670000004  0.7749580139999992  0.0759503100000032
  0.3332495089999981  0.5416245460000013  0.2278511669999972
  0.8665827510000028  0.3082910780000034  0.3797520399999996
  0.1332496850000027  0.4416247609999999  0.0759503250000009
  0.6665829419999980  0.2082912770000007  0.2278511669999972
  0.1999162440000006  0.9749577640000027  0.3797520399999996
  0.4665828939999983  0.1082915369999995  0.0759503250000009
  0.9999161360000031  0.8749580380000026  0.2278511669999972
  0.5332493780000007  0.6416245699999976  0.3797520399999996
  0.7832495569999978  0.6416247490000018  0.0000000000000000
  0.3165828289999979  0.4082912800000003  0.1519008579999976
  0.8499160410000002  0.1749577819999999  0.3038017450000012
  0.1165827960000030  0.3082914049999985  0.0000000570000012
  0.6499160529999983  0.0749579519999983  0.1519009020000013
  0.1832492950000031  0.8416244980000016  0.3038017450000012
  0.4499161239999978  0.9749580619999989  0.0000000570000012
  0.9832494260000004  0.7416245940000010  0.1519009020000013
  0.5165826679999981  0.5082911249999995  0.3038017450000012
  0.2999161779999966  0.7749581340000020  0.0759503250000009
  0.8332494499999967  0.5416246650000005  0.2278511969999997
  0.3665826920000015  0.3082911970000026  0.3797520099999971
  0.6332494019999970  0.4416247309999974  0.0759503470000027
  0.1665826440000018  0.2082912620000030  0.2278511969999997
  0.6999159459999973  0.9749578240000005  0.3797519800000018
  0.9665827159999978  0.1082915510000007  0.0759503250000009
  0.4999159569999989  0.8749580380000026  0.2278511969999997
  0.0332492590000015  0.6416246289999989  0.3797520399999996
  0.0273836849999967  0.1450181009999980  0.5651753539999973
  0.9988120789999968  0.4164467160000029  0.6649360059999978
  0.9702404740000006  0.6878753299999971  0.7646965380000026
  0.1702407750000035  0.2878752350000013  0.5651753539999973
  0.1416692139999967  0.5593038800000016  0.6649360059999978
  0.1130976899999965  0.8307325239999983  0.7646965380000026
  0.3130979239999974  0.4307323990000000  0.5651753539999973
  0.2845263480000000  0.7021610139999979  0.6649360059999978
  0.2559548320000005  0.9735897179999995  0.7646965980000004
  0.4559550580000007  0.5735895629999987  0.5651753539999973
  0.4273835119999987  0.8450182079999990  0.6649360059999978
  0.3988119659999967  0.1164468529999994  0.7646965980000004
  0.5988122219999994  0.7164466979999986  0.5651753539999973
  0.5702406170000032  0.9878752830000010  0.6649360059999978
  0.5416690110000033  0.2593039269999977  0.7646965980000004
  0.7416692970000014  0.8593037719999970  0.5651753539999973
  0.7130978109999973  0.1307324169999973  0.6649360059999978
  0.6845262049999974  0.4021610019999997  0.7646965380000026
  0.8845264910000026  0.0021610260000031  0.5651753539999973
  0.8559550049999984  0.2735896109999985  0.6649360059999978
  0.8273832799999994  0.5450181960000009  0.7646965980000004
  0.1202408150000025  0.8878750800000006  0.6150555609999984
  0.0916692759999975  0.1593036650000030  0.7148162129999989
  0.0630977750000028  0.4307323689999976  0.8145768050000015
  0.2630979119999992  0.0307323930000010  0.6150555609999984
  0.2345263659999972  0.3021609780000034  0.7148161530000010
  0.2059548049999975  0.5735896830000016  0.8145768050000015
  0.4059550759999979  0.1735894680000030  0.6150555609999984
  0.3773835000000005  0.4450181719999975  0.7148161530000010
  0.3488118949999972  0.7164467569999999  0.8145768050000015
  0.5488121509999999  0.3164465429999979  0.6150555609999984
  0.5202406639999992  0.5878751870000016  0.7148162129999989
  0.4916690290000005  0.8593037130000027  0.8145768050000015
  0.6916693450000011  0.4593038260000029  0.6150555609999984
  0.6630977390000012  0.7307324410000007  0.7148162129999989
  0.6345262529999971  0.0021611450000023  0.8145768050000015
  0.8345264200000031  0.6021609310000002  0.6150555609999984
  0.8059549330000024  0.8735895749999969  0.7148162129999989
  0.7773834469999983  0.1450182199999972  0.8145768050000015
  0.9773836139999972  0.7450180649999965  0.6150555609999984
  0.9488121269999965  0.0164467099999968  0.7148162129999989
  0.9202405209999966  0.2878751750000035  0.8145768050000015
  0.0988121700000022  0.7164466380000007  0.5651753539999973
  0.0702406469999985  0.9878752830000010  0.6649360059999978
  0.0416690670000008  0.2593039269999977  0.7646965380000026
  0.2416693119999991  0.8593037719999970  0.5651753539999973
  0.2130977810000019  0.1307324169999973  0.6649360059999978
  0.1845262940000012  0.4021611209999989  0.7646965980000004
  0.3845265209999980  0.0021609069999968  0.5651753539999973
  0.3559550049999984  0.2735896109999985  0.6649360059999978
  0.3273833690000032  0.5450181960000009  0.7646965380000026
  0.5273836849999967  0.1450181009999980  0.5651753539999973
  0.4988120499999980  0.4164467160000029  0.6649360059999978
  0.4702405330000019  0.6878753299999971  0.7646965980000004
  0.6702407599999987  0.2878751750000035  0.5651753539999973
  0.6416692729999980  0.5593038199999967  0.6649360059999978
  0.6130976680000018  0.8307324649999970  0.7646965980000004
  0.8130979539999998  0.4307323990000000  0.5651753539999973
  0.7845263480000000  0.7021610139999979  0.6649360059999978
  0.7559548620000029  0.9735896589999982  0.7646965980000004
  0.9559551480000010  0.5735895039999974  0.5651753539999973
  0.9273835420000012  0.8450181480000012  0.6649360059999978
  0.8988119360000013  0.1164467329999965  0.7646965980000004
  0.0488122029999971  0.3164465730000003  0.6150555609999984
  0.0202406639999992  0.5878751870000016  0.7148161530000010
  0.9916690590000030  0.8593038320000019  0.8145768050000015
  0.1916693599999988  0.4593036170000033  0.6150555609999984
  0.1630978139999968  0.7307322619999965  0.7148162129999989
  0.1345262829999996  0.0021609069999968  0.8145768050000015
  0.3345264789999973  0.6021609310000002  0.6150555609999984
  0.3059549330000024  0.8735895160000027  0.7148162129999989
  0.2773833569999979  0.1450181009999980  0.8145768050000015
  0.4773836430000031  0.7450180049999986  0.6150555609999984
  0.4488120680000023  0.0164465900000010  0.7148161530000010
  0.4202405509999991  0.2878751750000035  0.8145768050000015
  0.6202406880000026  0.8878750209999993  0.6150555609999984
  0.5916692019999985  0.1593036650000030  0.7148161530000010
  0.5630977149999978  0.4307323689999976  0.8145768050000015
  0.7630978819999967  0.0307322740000018  0.6150555609999984
  0.7345262770000005  0.3021609780000034  0.7148162129999989
  0.7059547899999998  0.5735894439999996  0.8145768050000015
  0.9059550759999979  0.1735893489999967  0.6150555609999984
  0.8773834710000017  0.4450179339999991  0.7148161530000010
  0.8488118650000018  0.7164465190000016  0.8145768050000015
 
  0.00000000E+00  0.00000000E+00  0.00000000E+00
  0.00000000E+00  0.00000000E+00  0.00000000E+00
  0.00000000E+00  0.00000000E+00  0.00000000E+00
  0.00000000E+00  0.00000000E+00  0.00000000E+00
  0.00000000E+00  0.00000000E+00  0.00000000E+00
  0.00000000E+00  0.00000000E+00  0.00000000E+00
  0.00000000E+00  0.00000000E+00  0.00000000E+00
  0.00000000E+00  0.00000000E+00  0.00000000E+00
  0.00000000E+00  0.00000000E+00  0.00000000E+00
  0.00000000E+00  0.00000000E+00  0.00000000E+00
  0.00000000E+00  0.00000000E+00  0.00000000E+00
  0.00000000E+00  0.00000000E+00  0.00000000E+00
  0.00000000E+00  0.00000000E+00  0.00000000E+00
  0.00000000E+00  0.00000000E+00  0.00000000E+00
  0.00000000E+00  0.00000000E+00  0.00000000E+00
  0.00000000E+00  0.00000000E+00  0.00000000E+00
  0.00000000E+00  0.00000000E+00  0.00000000E+00
  0.00000000E+00  0.00000000E+00  0.00000000E+00
  0.00000000E+00  0.00000000E+00  0.00000000E+00
  0.00000000E+00  0.00000000E+00  0.00000000E+00
  0.00000000E+00  0.00000000E+00  0.00000000E+00
  0.00000000E+00  0.00000000E+00  0.00000000E+00
  0.00000000E+00  0.00000000E+00  0.00000000E+00
  0.00000000E+00  0.00000000E+00  0.00000000E+00
  0.00000000E+00  0.00000000E+00  0.00000000E+00
  0.00000000E+00  0.00000000E+00  0.00000000E+00
  0.00000000E+00  0.00000000E+00  0.00000000E+00
  0.00000000E+00  0.00000000E+00  0.00000000E+00
  0.00000000E+00  0.00000000E+00  0.00000000E+00
  0.00000000E+00  0.00000000E+00  0.00000000E+00
  0.00000000E+00  0.00000000E+00  0.00000000E+00
  0.00000000E+00  0.00000000E+00  0.00000000E+00
  0.00000000E+00  0.00000000E+00  0.00000000E+00
  0.00000000E+00  0.00000000E+00  0.00000000E+00
  0.00000000E+00  0.00000000E+00  0.00000000E+00
  0.00000000E+00  0.00000000E+00  0.00000000E+00
  0.00000000E+00  0.00000000E+00  0.00000000E+00
  0.00000000E+00  0.00000000E+00  0.00000000E+00
  0.00000000E+00  0.00000000E+00  0.00000000E+00
  0.00000000E+00  0.00000000E+00  0.00000000E+00
  0.00000000E+00  0.00000000E+00  0.00000000E+00
  0.00000000E+00  0.00000000E+00  0.00000000E+00
  0.00000000E+00  0.00000000E+00  0.00000000E+00
  0.00000000E+00  0.00000000E+00  0.00000000E+00
  0.00000000E+00  0.00000000E+00  0.00000000E+00
  0.00000000E+00  0.00000000E+00  0.00000000E+00
  0.00000000E+00  0.00000000E+00  0.00000000E+00
  0.00000000E+00  0.00000000E+00  0.00000000E+00
  0.00000000E+00  0.00000000E+00  0.00000000E+00
  0.00000000E+00  0.00000000E+00  0.00000000E+00
  0.00000000E+00  0.00000000E+00  0.00000000E+00
  0.00000000E+00  0.00000000E+00  0.00000000E+00
  0.00000000E+00  0.00000000E+00  0.00000000E+00
  0.00000000E+00  0.00000000E+00  0.00000000E+00
  0.00000000E+00  0.00000000E+00  0.00000000E+00
  0.00000000E+00  0.00000000E+00  0.00000000E+00
  0.00000000E+00  0.00000000E+00  0.00000000E+00
  0.00000000E+00  0.00000000E+00  0.00000000E+00
  0.00000000E+00  0.00000000E+00  0.00000000E+00
  0.00000000E+00  0.00000000E+00  0.00000000E+00
  0.00000000E+00  0.00000000E+00  0.00000000E+00
  0.00000000E+00  0.00000000E+00  0.00000000E+00
  0.00000000E+00  0.00000000E+00  0.00000000E+00
  0.00000000E+00  0.00000000E+00  0.00000000E+00
  0.00000000E+00  0.00000000E+00  0.00000000E+00
  0.00000000E+00  0.00000000E+00  0.00000000E+00
  0.00000000E+00  0.00000000E+00  0.00000000E+00
  0.00000000E+00  0.00000000E+00  0.00000000E+00
  0.00000000E+00  0.00000000E+00  0.00000000E+00
  0.00000000E+00  0.00000000E+00  0.00000000E+00
  0.00000000E+00  0.00000000E+00  0.00000000E+00
  0.00000000E+00  0.00000000E+00  0.00000000E+00
  0.00000000E+00  0.00000000E+00  0.00000000E+00
  0.00000000E+00  0.00000000E+00  0.00000000E+00
  0.00000000E+00  0.00000000E+00  0.00000000E+00
  0.00000000E+00  0.00000000E+00  0.00000000E+00
  0.00000000E+00  0.00000000E+00  0.00000000E+00
  0.00000000E+00  0.00000000E+00  0.00000000E+00
  0.00000000E+00  0.00000000E+00  0.00000000E+00
  0.00000000E+00  0.00000000E+00  0.00000000E+00
  0.00000000E+00  0.00000000E+00  0.00000000E+00
  0.00000000E+00  0.00000000E+00  0.00000000E+00
  0.00000000E+00  0.00000000E+00  0.00000000E+00
  0.00000000E+00  0.00000000E+00  0.00000000E+00
  0.00000000E+00  0.00000000E+00  0.00000000E+00
  0.00000000E+00  0.00000000E+00  0.00000000E+00
  0.00000000E+00  0.00000000E+00  0.00000000E+00
  0.00000000E+00  0.00000000E+00  0.00000000E+00
  0.00000000E+00  0.00000000E+00  0.00000000E+00
  0.00000000E+00  0.00000000E+00  0.00000000E+00
  0.00000000E+00  0.00000000E+00  0.00000000E+00
  0.00000000E+00  0.00000000E+00  0.00000000E+00
  0.00000000E+00  0.00000000E+00  0.00000000E+00
  0.00000000E+00  0.00000000E+00  0.00000000E+00
  0.00000000E+00  0.00000000E+00  0.00000000E+00
  0.00000000E+00  0.00000000E+00  0.00000000E+00
  0.00000000E+00  0.00000000E+00  0.00000000E+00
  0.00000000E+00  0.00000000E+00  0.00000000E+00
  0.00000000E+00  0.00000000E+00  0.00000000E+00
  0.00000000E+00  0.00000000E+00  0.00000000E+00
  0.00000000E+00  0.00000000E+00  0.00000000E+00
  0.00000000E+00  0.00000000E+00  0.00000000E+00
  0.00000000E+00  0.00000000E+00  0.00000000E+00
  0.00000000E+00  0.00000000E+00  0.00000000E+00
  0.00000000E+00  0.00000000E+00  0.00000000E+00
  0.00000000E+00  0.00000000E+00  0.00000000E+00
  0.00000000E+00  0.00000000E+00  0.00000000E+00
  0.00000000E+00  0.00000000E+00  0.00000000E+00
  0.00000000E+00  0.00000000E+00  0.00000000E+00
  0.00000000E+00  0.00000000E+00  0.00000000E+00
  0.00000000E+00  0.00000000E+00  0.00000000E+00
  0.00000000E+00  0.00000000E+00  0.00000000E+00
  0.00000000E+00  0.00000000E+00  0.00000000E+00
  0.00000000E+00  0.00000000E+00  0.00000000E+00
  0.00000000E+00  0.00000000E+00  0.00000000E+00
  0.00000000E+00  0.00000000E+00  0.00000000E+00
  0.00000000E+00  0.00000000E+00  0.00000000E+00
  0.00000000E+00  0.00000000E+00  0.00000000E+00
  0.00000000E+00  0.00000000E+00  0.00000000E+00
  0.00000000E+00  0.00000000E+00  0.00000000E+00
