Si+Sn
    1.000000000
    9.406767845    0.000000000    0.000000000
    0.000000000   13.303179741    0.000000000
    0.000000000    0.000000000   25.400009155
Si  Sn 
72     48
Direct
    0.666666687    0.645183980    0.000000001
    0.666666627    0.395183891    0.075596377
    0.666666627    0.145183817    0.151192755
    0.666666567    0.895183742    0.226789147
    0.666666567    0.645183682    0.302385509
    0.666666508    0.395183504    0.377981961
    0.333333313    0.311850607    0.000000001
    0.333333313    0.061850537    0.075596377
    0.333333284    0.811850488    0.151192755
    0.333333254    0.561850429    0.226789147
    0.333333194    0.311850309    0.302385509
    0.333333164    0.061850190    0.377981961
    0.000000000    0.978517294    0.000000001
    0.999999940    0.728517175    0.075596377
    0.999999940    0.478517115    0.151192755
    0.999999881    0.228517056    0.226789147
    0.999999821    0.978516936    0.302385509
    0.999999821    0.728516817    0.377981961
    0.666666687    0.145183921    0.000000002
    0.666666687    0.895183861    0.075596377
    0.666666627    0.645183802    0.151192755
    0.666666567    0.395183742    0.226789117
    0.666666508    0.145183623    0.302385509
    0.666666508    0.895183563    0.377981931
    0.333333373    0.811850667    0.000000000
    0.333333343    0.561850607    0.075596377
    0.333333313    0.311850578    0.151192755
    0.333333284    0.061850507    0.226789147
    0.333333194    0.811850429    0.302385509
    0.333333164    0.561850309    0.377981931
    1.000000000    0.478517294    0.000000000
    0.999999940    0.228517205    0.075596377
    0.999999940    0.978517115    0.151192755
    0.999999881    0.728517056    0.226789117
    0.999999821    0.478516936    0.302385509
    0.999999821    0.228516877    0.377981961
    0.916666746    0.645183921    0.000000001
    0.916666746    0.395183802    0.075596385
    0.916666746    0.145183787    0.151192755
    0.916666687    0.895183682    0.226789147
    0.916666627    0.645183563    0.302385509
    0.916666627    0.395183444    0.377981961
    0.583333373    0.311850637    0.000000002
    0.583333313    0.061850559    0.075596370
    0.583333313    0.811850488    0.151192755
    0.583333254    0.561850429    0.226789117
    0.583333254    0.311850309    0.302385509
    0.583333194    0.061850250    0.377981931
    0.250000000    0.978517294    0.000000002
    0.249999970    0.728517175    0.075596377
    0.249999925    0.478517175    0.151192755
    0.249999911    0.228517115    0.226789117
    0.249999821    0.978516936    0.302385509
    0.249999791    0.728516817    0.377981931
    0.916666746    0.145183936    0.000000009
    0.916666687    0.895183861    0.075596377
    0.916666627    0.645183802    0.151192755
    0.916666567    0.395183742    0.226789117
    0.916666508    0.145183623    0.302385509
    0.916666508    0.895183444    0.377981931
    0.583333313    0.811850548    0.000000000
    0.583333254    0.561850488    0.075596377
    0.583333254    0.311850429    0.151192755
    0.583333194    0.061850365    0.226789117
    0.583333194    0.811850250    0.302385509
    0.583333135    0.561850131    0.377981931
    0.249999985    0.478517264    0.000000001
    0.249999955    0.228517205    0.075596377
    0.249999925    0.978517115    0.151192755
    0.249999866    0.728517056    0.226789117
    0.249999851    0.478516936    0.302385509
    0.249999821    0.228516817    0.377981961
    0.594923735    0.277474999    0.463176161
    0.344923735    0.027474999    0.553502083
    0.094923735    0.777474999    0.643828034
    0.844923675    0.527474999    0.734153926
    0.594923615    0.277474880    0.824479818
    0.344923615    0.027474880    0.914805710
    0.594923735    0.777474999    0.463176161
    0.344923735    0.527474999    0.553502083
    0.094923735    0.277474999    0.643828034
    0.844923675    0.027474880    0.734153926
    0.594923615    0.777474880    0.824479818
    0.344923615    0.527474880    0.914805710
    0.094923735    0.277474999    0.463176161
    0.844923735    0.027474999    0.553502083
    0.594923735    0.777474999    0.643828034
    0.344923615    0.527474999    0.734153926
    0.094923615    0.277474880    0.824479818
    0.844923556    0.027474880    0.914805710
    0.094923735    0.777474999    0.463176161
    0.844923735    0.527474999    0.553502083
    0.594923735    0.277474999    0.643828034
    0.344923615    0.027474880    0.734153926
    0.094923615    0.777474880    0.824479818
    0.844923556    0.527474880    0.914805710
    0.344923735    0.652474999    0.463176161
    0.094923735    0.402474999    0.553502083
    0.844923615    0.152474880    0.643828034
    0.594923496    0.902474880    0.734153926
    0.344923496    0.652474880    0.824479818
    0.094923496    0.402474850    0.914805710
    0.344923735    0.152474999    0.463176161
    0.094923735    0.902474999    0.553502083
    0.844923615    0.652474880    0.643828034
    0.594923496    0.402474880    0.734153926
    0.344923496    0.152474880    0.824479818
    0.094923496    0.902474761    0.914805710
    0.844923735    0.652474999    0.463176161
    0.594923735    0.402474999    0.553502083
    0.344923615    0.152474880    0.643828034
    0.094923496    0.902474880    0.734153926
    0.844923615    0.652474880    0.824479818
    0.594923615    0.402474850    0.914805710
    0.844923735    0.152474999    0.463176161
    0.594923735    0.902474999    0.553502083
    0.344923615    0.652474880    0.643828034
    0.094923496    0.402474880    0.734153926
    0.844923615    0.152474880    0.824479818
    0.594923615    0.902474761    0.914805710
