Sn+Si                                   
   1.00000000000000     
     9.1771144870000008    0.0000000000000000    0.0000000000000000
     0.0000000000000000   12.9784011840000009    0.0000000000000000
     0.0000000000000000    0.0000000000000000   21.0721397400000008
   Sn   Si
    48    72
Direct
  0.9820204970000006  0.9820204970000006  0.0000000009999965
  0.7320204970000006  0.7320204970000006  0.1088773379999992
  0.4820204379999993  0.4820204379999993  0.2177547369999999
  0.2320204379999993  0.2320204379999993  0.3266320529999973
  0.9820203780000014  0.9820203780000014  0.4355093839999995
  0.7320203780000014  0.7320203780000014  0.5443868039999984
  0.9820204970000006  0.4820204970000006  0.0000000009999965
  0.7320204970000006  0.2320204820000029  0.1088773379999992
  0.4820204379999993  0.9820204379999993  0.2177547369999999
  0.2320204379999993  0.7320203780000014  0.3266320529999973
  0.9820203780000014  0.4820203780000014  0.4355093839999995
  0.7320203780000014  0.2320203190000001  0.5443868039999984
  0.4820204680000018  0.9820204970000006  0.0000000009999965
  0.2320204680000018  0.7320204970000006  0.1088773379999992
  0.9820204379999993  0.4820204379999993  0.2177547220000022
  0.7320203780000014  0.2320204379999993  0.3266320529999973
  0.4820203780000014  0.9820203780000014  0.4355093839999995
  0.2320203190000001  0.7320203780000014  0.5443868039999984
  0.4820204680000018  0.4820204970000006  0.0000000009999965
  0.2320204680000018  0.2320204820000029  0.1088773379999992
  0.9820204379999993  0.9820204379999993  0.2177547220000022
  0.7320203780000014  0.7320203780000014  0.3266320529999973
  0.4820203780000014  0.4820203780000014  0.4355093839999995
  0.2320203190000001  0.2320203190000001  0.5443868039999984
  0.7320204379999993  0.3570204970000006  0.0000000000000000
  0.4820204379999993  0.1070204680000018  0.1088773459999999
  0.2320203780000014  0.8570203780000014  0.2177547369999999
  0.9820203190000001  0.6070203780000014  0.3266320820000033
  0.7320203190000001  0.3570203190000001  0.4355094430000008
  0.4820203190000001  0.1070203190000001  0.5443868039999984
  0.7320204379999993  0.8570204379999993  0.0000000000000000
  0.4820204379999993  0.6070204379999993  0.1088773459999999
  0.2320203780000014  0.3570203780000014  0.2177547369999999
  0.9820203190000001  0.1070203330000012  0.3266320820000033
  0.7320203190000001  0.8570203780000014  0.4355094430000008
  0.4820203190000001  0.6070202590000022  0.5443868039999984
  0.2320204820000029  0.3570204970000006  0.0000000009999965
  0.9820204970000006  0.1070204680000018  0.1088773459999999
  0.7320203780000014  0.8570203780000014  0.2177547369999999
  0.4820203190000001  0.6070203780000014  0.3266320820000033
  0.2320203780000014  0.3570203190000001  0.4355093839999995
  0.9820203780000014  0.1070203190000001  0.5443868039999984
  0.2320204820000029  0.8570204379999993  0.0000000009999965
  0.9820204970000006  0.6070204379999993  0.1088773459999999
  0.7320203780000014  0.3570203780000014  0.2177547369999999
  0.4820203190000001  0.1070203330000012  0.3266320820000033
  0.2320203780000014  0.8570203780000014  0.4355093839999995
  0.9820203780000014  0.6070202590000022  0.5443868039999984
  0.0000000000000000  0.0214827189999980  0.5443868039999984
  0.9999999400000021  0.2714827949999972  0.6355094310000027
  0.9999999400000021  0.5214828249999997  0.7266319989999985
  0.9999998810000008  0.7714829439999988  0.8177546260000028
  0.9999998810000008  0.0214830640000017  0.9088772539999965
  0.9999998810000008  0.2714830640000017  0.9999998810000008
  0.3333333730000021  0.3548160790000026  0.5443868039999984
  0.3333332839999983  0.6048161390000004  0.6355094310000027
  0.3333332839999983  0.8548161390000004  0.7266319989999985
  0.3333332240000004  0.1048163179999975  0.8177546260000028
  0.3333331349999966  0.3548161980000017  0.9088772539999965
  0.3333332839999983  0.6048165560000029  0.9999998810000008
  0.6666666870000029  0.6881493930000033  0.5443868039999984
  0.6666666269999979  0.9381494519999976  0.6355094310000027
  0.6666666269999979  0.1881494519999976  0.7266319989999985
  0.6666666269999979  0.4381496909999996  0.8177546260000028
  0.6666666269999979  0.6881496909999996  0.9088772539999965
  0.6666665670000000  0.9381498099999988  0.9999998810000008
  0.0000000229999984  0.5214827659999983  0.5443868039999984
  0.0000000000000000  0.7714828249999997  0.6355094310000027
  0.9999999400000021  0.0214828249999997  0.7266319989999985
  0.9999998810000008  0.2714829439999988  0.8177546260000028
  0.9999997620000016  0.5214829439999988  0.9088772539999965
  0.9999998210000030  0.7714831830000008  0.0000000000000000
  0.3333333730000021  0.8548161390000004  0.5443868039999984
  0.3333333129999971  0.1048161980000017  0.6355094310000027
  0.3333332839999983  0.3548161980000017  0.7266319989999985
  0.3333333129999971  0.6048163179999975  0.8177546260000028
  0.3333332839999983  0.8548164369999967  0.9088772539999965
  0.3333332240000004  0.1048166750000021  0.0000000000000000
  0.6666667459999971  0.1881493930000033  0.5443868039999984
  0.6666666269999979  0.4381494820000000  0.6355094310000027
  0.6666666269999979  0.6881495120000025  0.7266319989999985
  0.6666665670000000  0.9381495709999967  0.8177546260000028
  0.6666665670000000  0.1881495709999967  0.9088772539999965
  0.6666665670000000  0.4381499289999979  0.0000000000000000
  0.0833333280000019  0.3548160200000012  0.5443868039999984
  0.0833332759999976  0.6048161390000004  0.6355094310000027
  0.0833333060000001  0.8548161980000017  0.7266319989999985
  0.0833332240000004  0.1048161980000017  0.8177546260000028
  0.0833331939999979  0.3548164369999967  0.9088772539999965
  0.0833332240000004  0.6048165560000029  0.9999998810000008
  0.4166666870000029  0.6881493930000033  0.5443868039999984
  0.4166665970000025  0.9381493930000033  0.6355094310000027
  0.4166666570000004  0.1881494519999976  0.7266319989999985
  0.4166665380000012  0.4381495709999967  0.8177546260000028
  0.4166664480000009  0.6881496909999996  0.9088772539999965
  0.4166664780000033  0.9381498099999988  0.9999998810000008
  0.7500000599999979  0.0214827320000026  0.5443868039999984
  0.7500000599999979  0.2714827949999972  0.6355094310000027
  0.7500000000000000  0.5214828849999975  0.7266319989999985
  0.7499998810000008  0.7714829439999988  0.8177546260000028
  0.7500000000000000  0.0214831830000008  0.9088772539999965
  0.7499998810000008  0.2714831830000008  0.0000000000000000
  0.0833333360000026  0.8548160790000026  0.5443868039999984
  0.0833332460000022  0.1048161980000017  0.6355094310000027
  0.0833333360000026  0.3548163179999975  0.7266319989999985
  0.0833332540000029  0.6048163179999975  0.8177546260000028
  0.0833332240000004  0.8548165560000029  0.9088772539999965
  0.0833331349999966  0.1048164369999967  0.0000000000000000
  0.4166667160000017  0.1881493930000033  0.5443868039999984
  0.4166666570000004  0.4381494820000000  0.6355094310000027
  0.4166666269999979  0.6881495709999967  0.7266319989999985
  0.4166665970000025  0.9381495709999967  0.8177546260000028
  0.4166665970000025  0.1881498099999988  0.9088772539999965
  0.4166665079999987  0.4381498099999988  0.9999998810000008
  0.7500000000000000  0.5214827060000005  0.5443868039999984
  0.7500000000000000  0.7714827659999983  0.6355094310000027
  0.7500000599999979  0.0214829439999988  0.7266319989999985
  0.7499999400000021  0.2714829439999988  0.8177546260000028
  0.7499999400000021  0.5214830640000017  0.9088772539999965
  0.7499998810000008  0.7714830640000017  0.9999998810000008
 
  0.00000000E+00  0.00000000E+00  0.00000000E+00
  0.00000000E+00  0.00000000E+00  0.00000000E+00
  0.00000000E+00  0.00000000E+00  0.00000000E+00
  0.00000000E+00  0.00000000E+00  0.00000000E+00
  0.00000000E+00  0.00000000E+00  0.00000000E+00
  0.00000000E+00  0.00000000E+00  0.00000000E+00
  0.00000000E+00  0.00000000E+00  0.00000000E+00
  0.00000000E+00  0.00000000E+00  0.00000000E+00
  0.00000000E+00  0.00000000E+00  0.00000000E+00
  0.00000000E+00  0.00000000E+00  0.00000000E+00
  0.00000000E+00  0.00000000E+00  0.00000000E+00
  0.00000000E+00  0.00000000E+00  0.00000000E+00
  0.00000000E+00  0.00000000E+00  0.00000000E+00
  0.00000000E+00  0.00000000E+00  0.00000000E+00
  0.00000000E+00  0.00000000E+00  0.00000000E+00
  0.00000000E+00  0.00000000E+00  0.00000000E+00
  0.00000000E+00  0.00000000E+00  0.00000000E+00
  0.00000000E+00  0.00000000E+00  0.00000000E+00
  0.00000000E+00  0.00000000E+00  0.00000000E+00
  0.00000000E+00  0.00000000E+00  0.00000000E+00
  0.00000000E+00  0.00000000E+00  0.00000000E+00
  0.00000000E+00  0.00000000E+00  0.00000000E+00
  0.00000000E+00  0.00000000E+00  0.00000000E+00
  0.00000000E+00  0.00000000E+00  0.00000000E+00
  0.00000000E+00  0.00000000E+00  0.00000000E+00
  0.00000000E+00  0.00000000E+00  0.00000000E+00
  0.00000000E+00  0.00000000E+00  0.00000000E+00
  0.00000000E+00  0.00000000E+00  0.00000000E+00
  0.00000000E+00  0.00000000E+00  0.00000000E+00
  0.00000000E+00  0.00000000E+00  0.00000000E+00
  0.00000000E+00  0.00000000E+00  0.00000000E+00
  0.00000000E+00  0.00000000E+00  0.00000000E+00
  0.00000000E+00  0.00000000E+00  0.00000000E+00
  0.00000000E+00  0.00000000E+00  0.00000000E+00
  0.00000000E+00  0.00000000E+00  0.00000000E+00
  0.00000000E+00  0.00000000E+00  0.00000000E+00
  0.00000000E+00  0.00000000E+00  0.00000000E+00
  0.00000000E+00  0.00000000E+00  0.00000000E+00
  0.00000000E+00  0.00000000E+00  0.00000000E+00
  0.00000000E+00  0.00000000E+00  0.00000000E+00
  0.00000000E+00  0.00000000E+00  0.00000000E+00
  0.00000000E+00  0.00000000E+00  0.00000000E+00
  0.00000000E+00  0.00000000E+00  0.00000000E+00
  0.00000000E+00  0.00000000E+00  0.00000000E+00
  0.00000000E+00  0.00000000E+00  0.00000000E+00
  0.00000000E+00  0.00000000E+00  0.00000000E+00
  0.00000000E+00  0.00000000E+00  0.00000000E+00
  0.00000000E+00  0.00000000E+00  0.00000000E+00
  0.00000000E+00  0.00000000E+00  0.00000000E+00
  0.00000000E+00  0.00000000E+00  0.00000000E+00
  0.00000000E+00  0.00000000E+00  0.00000000E+00
  0.00000000E+00  0.00000000E+00  0.00000000E+00
  0.00000000E+00  0.00000000E+00  0.00000000E+00
  0.00000000E+00  0.00000000E+00  0.00000000E+00
  0.00000000E+00  0.00000000E+00  0.00000000E+00
  0.00000000E+00  0.00000000E+00  0.00000000E+00
  0.00000000E+00  0.00000000E+00  0.00000000E+00
  0.00000000E+00  0.00000000E+00  0.00000000E+00
  0.00000000E+00  0.00000000E+00  0.00000000E+00
  0.00000000E+00  0.00000000E+00  0.00000000E+00
  0.00000000E+00  0.00000000E+00  0.00000000E+00
  0.00000000E+00  0.00000000E+00  0.00000000E+00
  0.00000000E+00  0.00000000E+00  0.00000000E+00
  0.00000000E+00  0.00000000E+00  0.00000000E+00
  0.00000000E+00  0.00000000E+00  0.00000000E+00
  0.00000000E+00  0.00000000E+00  0.00000000E+00
  0.00000000E+00  0.00000000E+00  0.00000000E+00
  0.00000000E+00  0.00000000E+00  0.00000000E+00
  0.00000000E+00  0.00000000E+00  0.00000000E+00
  0.00000000E+00  0.00000000E+00  0.00000000E+00
  0.00000000E+00  0.00000000E+00  0.00000000E+00
  0.00000000E+00  0.00000000E+00  0.00000000E+00
  0.00000000E+00  0.00000000E+00  0.00000000E+00
  0.00000000E+00  0.00000000E+00  0.00000000E+00
  0.00000000E+00  0.00000000E+00  0.00000000E+00
  0.00000000E+00  0.00000000E+00  0.00000000E+00
  0.00000000E+00  0.00000000E+00  0.00000000E+00
  0.00000000E+00  0.00000000E+00  0.00000000E+00
  0.00000000E+00  0.00000000E+00  0.00000000E+00
  0.00000000E+00  0.00000000E+00  0.00000000E+00
  0.00000000E+00  0.00000000E+00  0.00000000E+00
  0.00000000E+00  0.00000000E+00  0.00000000E+00
  0.00000000E+00  0.00000000E+00  0.00000000E+00
  0.00000000E+00  0.00000000E+00  0.00000000E+00
  0.00000000E+00  0.00000000E+00  0.00000000E+00
  0.00000000E+00  0.00000000E+00  0.00000000E+00
  0.00000000E+00  0.00000000E+00  0.00000000E+00
  0.00000000E+00  0.00000000E+00  0.00000000E+00
  0.00000000E+00  0.00000000E+00  0.00000000E+00
  0.00000000E+00  0.00000000E+00  0.00000000E+00
  0.00000000E+00  0.00000000E+00  0.00000000E+00
  0.00000000E+00  0.00000000E+00  0.00000000E+00
  0.00000000E+00  0.00000000E+00  0.00000000E+00
  0.00000000E+00  0.00000000E+00  0.00000000E+00
  0.00000000E+00  0.00000000E+00  0.00000000E+00
  0.00000000E+00  0.00000000E+00  0.00000000E+00
  0.00000000E+00  0.00000000E+00  0.00000000E+00
  0.00000000E+00  0.00000000E+00  0.00000000E+00
  0.00000000E+00  0.00000000E+00  0.00000000E+00
  0.00000000E+00  0.00000000E+00  0.00000000E+00
  0.00000000E+00  0.00000000E+00  0.00000000E+00
  0.00000000E+00  0.00000000E+00  0.00000000E+00
  0.00000000E+00  0.00000000E+00  0.00000000E+00
  0.00000000E+00  0.00000000E+00  0.00000000E+00
  0.00000000E+00  0.00000000E+00  0.00000000E+00
  0.00000000E+00  0.00000000E+00  0.00000000E+00
  0.00000000E+00  0.00000000E+00  0.00000000E+00
  0.00000000E+00  0.00000000E+00  0.00000000E+00
  0.00000000E+00  0.00000000E+00  0.00000000E+00
  0.00000000E+00  0.00000000E+00  0.00000000E+00
  0.00000000E+00  0.00000000E+00  0.00000000E+00
  0.00000000E+00  0.00000000E+00  0.00000000E+00
  0.00000000E+00  0.00000000E+00  0.00000000E+00
  0.00000000E+00  0.00000000E+00  0.00000000E+00
  0.00000000E+00  0.00000000E+00  0.00000000E+00
  0.00000000E+00  0.00000000E+00  0.00000000E+00
  0.00000000E+00  0.00000000E+00  0.00000000E+00
  0.00000000E+00  0.00000000E+00  0.00000000E+00
  0.00000000E+00  0.00000000E+00  0.00000000E+00
  0.00000000E+00  0.00000000E+00  0.00000000E+00
