Ge+Ge                                   
   1.00000000000000     
    17.8915348049999992    0.0000000000000000    0.0000000000000000
   -16.1023807529999985    7.7987394329999997    0.0000000000000000
     0.0000003200000000   -0.0000000730000000   15.6283388139999992
   Ge
    96
Direct
  0.6301463249999983  0.8754715919999967  0.5830535890000021
  0.0228133239999977  0.9771866800000026  0.0000000089999972
  0.1807081549999978  0.8192918299999974  0.0830535589999997
  0.3386029899999983  0.6613969799999992  0.1661071179999993
  0.4964978100000010  0.5035021899999990  0.2491606919999967
  0.6543926000000013  0.3456073999999987  0.3322142359999987
  0.2617255449999973  0.7438926100000032  0.5207635760000002
  0.3122870620000029  0.6877129080000017  0.0207634160000012
  0.4701818819999986  0.5298180580000036  0.1038169560000028
  0.6280767319999967  0.3719232680000033  0.1868705449999979
  0.7859715820000019  0.2140284030000004  0.2699241039999976
  0.7617253069999990  0.7438926700000010  0.5207634570000010
  0.0775148869999995  0.9281029699999976  0.6868706939999996
  0.5228132610000031  0.4771866500000002  0.0000000000000000
  0.6807081099999976  0.3192918299999974  0.0830535520000026
  0.8386029600000029  0.1613970100000017  0.1661070879999968
  0.9722514750000002  0.5333664420000019  0.5000000000000000
  0.1543926000000013  0.8456073999999987  0.3322142359999987
  0.5775148869999995  0.9281030300000026  0.6868706349999982
  0.8122870919999983  0.1877129080000017  0.0207635650000029
  0.9701818229999972  0.0298181269999986  0.1038170679999979
  0.1280766730000025  0.8719232680000033  0.1868706939999996
  0.2859715219999970  0.7140283580000002  0.2699242229999967
  0.4438663720000022  0.5561336279999978  0.3529777820000035
  0.5775151249999979  0.4281029699999976  0.6868706349999982
  0.5228132610000031  0.9771866800000026  0.0000000100000008
  0.6807081099999976  0.8192918900000024  0.0830535520000026
  0.8386029600000029  0.6613970399999971  0.1661070879999968
  0.2617255449999973  0.7438926100000032  0.5207635760000002
  0.1543926000000013  0.3456073999999987  0.3322142359999987
  0.4722515939999994  0.5333663819999970  0.5000000000000000
  0.8122872710000024  0.6877128479999968  0.0207635410000009
  0.9701821210000006  0.5298180580000036  0.1038170980000004
  0.1280769110000008  0.3719232380000008  0.1868706349999982
  0.2859717609999990  0.2140283880000027  0.2699242229999967
  0.4438667300000034  0.0561335200000030  0.3529777529999976
  0.7880411740000000  0.2175767120000032  0.6661071179999993
  0.0228133869999994  0.4771866500000002  0.0000000120000010
  0.1807081999999980  0.3192918299999974  0.0830535440000020
  0.3386030500000032  0.1613969799999992  0.1661071179999993
  0.2617251870000032  0.2438927139999976  0.5207635760000002
  0.6543926599999992  0.8456073400000008  0.3322142359999987
  0.9722514750000002  0.0333664420000019  0.5000000000000000
  0.3122870620000029  0.1877128779999993  0.0207635519999982
  0.4701818819999986  0.0298180859999988  0.1038170980000004
  0.6280767319999967  0.8719232680000033  0.1868706790000019
  0.7617253069999990  0.2438926550000033  0.5207635760000002
  0.9438663720000022  0.5561335089999986  0.3529777820000035
  0.2617254259999982  0.2438923269999975  0.9152678250000008
  0.3122874499999995  0.1877124909999992  0.4152678250000008
  0.8122874499999995  0.1877125500000005  0.4152677949999983
  0.7880411149999986  0.7175767419999985  0.6661071179999993
  0.9459358450000011  0.5596818920000004  0.7491607070000015
  0.1038306949999992  0.4017870429999988  0.8322142959999965
  0.5511991979999991  0.9544185399999989  0.9360312219999969
  0.9438664320000001  0.0561335499999984  0.3529776629999972
  0.9196200370000014  0.5859978800000007  0.6038169859999982
  0.0775148869999995  0.4281029699999976  0.6868705750000004
  0.2354097369999977  0.2702081500000020  0.7699241640000025
  0.3933044670000001  0.1123132709999979  0.8529777529999976
  0.7617253069999990  0.7438923119999998  0.9152678250000008
  0.9964978100000010  0.0035021540000031  0.2491606620000013
  0.1301462650000005  0.3754715919999967  0.5830535289999972
  0.2880411149999986  0.2175767270000009  0.6661071179999993
  0.4459358450000011  0.0596819109999984  0.7491607070000015
  0.6038305760000000  0.9017870429999988  0.8322142359999987
  0.0511991979999991  0.4544184800000011  0.9360313419999997
  0.4964978400000035  0.0035021899999990  0.2491606620000013
  0.4196200370000014  0.0859978570000024  0.6038171049999974
  0.6017612220000004  0.3982388379999975  0.4360313119999972
  0.7354096170000020  0.7702081799999974  0.7699242830000017
  0.8933044670000001  0.6123132709999979  0.8529778119999989
  0.2617254259999982  0.7438921930000006  0.9152677659999995
  0.6017614599999987  0.8982387189999983  0.4360312820000019
  0.6301463839999997  0.3754715919999967  0.5830535289999972
  0.8122875090000008  0.6877124909999992  0.4152677949999983
  0.9459359649999968  0.0596819109999984  0.7491607070000015
  0.1038308139999984  0.9017870429999988  0.8322142959999965
  0.5511991979999991  0.4544184209999997  0.9360313419999997
  0.7859715219999970  0.7140284179999981  0.2699242229999967
  0.9196200370000014  0.0859978499999983  0.6038171049999974
  0.3122873310000003  0.6877126099999984  0.4152677359999970
  0.2354096170000020  0.7702081799999974  0.7699242229999967
  0.3933043480000009  0.6123132709999979  0.8529778119999989
  0.7617254259999982  0.2438922669999997  0.9152677659999995
  0.1017612220000004  0.3982387779999996  0.4360313119999972
  0.1301462650000005  0.8754715919999967  0.5830535890000021
  0.2880411149999986  0.7175767419999985  0.6661071179999993
  0.4459357260000019  0.5596820120000032  0.7491607070000015
  0.6038305760000000  0.4017871020000001  0.8322142359999987
  0.0511994359999974  0.9544184209999997  0.9360313419999997
  0.9964977500000032  0.5035022499999968  0.2491606620000013
  0.4196202749999998  0.5859977599999979  0.6038171049999974
  0.3122874499999995  0.1877124909999992  0.4152678250000008
  0.7354098559999969  0.2702081199999995  0.7699242229999967
  0.8933047060000021  0.1123132410000025  0.8529778119999989
 
  0.00000000E+00  0.00000000E+00  0.00000000E+00
  0.00000000E+00  0.00000000E+00  0.00000000E+00
  0.00000000E+00  0.00000000E+00  0.00000000E+00
  0.00000000E+00  0.00000000E+00  0.00000000E+00
  0.00000000E+00  0.00000000E+00  0.00000000E+00
  0.00000000E+00  0.00000000E+00  0.00000000E+00
  0.00000000E+00  0.00000000E+00  0.00000000E+00
  0.00000000E+00  0.00000000E+00  0.00000000E+00
  0.00000000E+00  0.00000000E+00  0.00000000E+00
  0.00000000E+00  0.00000000E+00  0.00000000E+00
  0.00000000E+00  0.00000000E+00  0.00000000E+00
  0.00000000E+00  0.00000000E+00  0.00000000E+00
  0.00000000E+00  0.00000000E+00  0.00000000E+00
  0.00000000E+00  0.00000000E+00  0.00000000E+00
  0.00000000E+00  0.00000000E+00  0.00000000E+00
  0.00000000E+00  0.00000000E+00  0.00000000E+00
  0.00000000E+00  0.00000000E+00  0.00000000E+00
  0.00000000E+00  0.00000000E+00  0.00000000E+00
  0.00000000E+00  0.00000000E+00  0.00000000E+00
  0.00000000E+00  0.00000000E+00  0.00000000E+00
  0.00000000E+00  0.00000000E+00  0.00000000E+00
  0.00000000E+00  0.00000000E+00  0.00000000E+00
  0.00000000E+00  0.00000000E+00  0.00000000E+00
  0.00000000E+00  0.00000000E+00  0.00000000E+00
  0.00000000E+00  0.00000000E+00  0.00000000E+00
  0.00000000E+00  0.00000000E+00  0.00000000E+00
  0.00000000E+00  0.00000000E+00  0.00000000E+00
  0.00000000E+00  0.00000000E+00  0.00000000E+00
  0.00000000E+00  0.00000000E+00  0.00000000E+00
  0.00000000E+00  0.00000000E+00  0.00000000E+00
  0.00000000E+00  0.00000000E+00  0.00000000E+00
  0.00000000E+00  0.00000000E+00  0.00000000E+00
  0.00000000E+00  0.00000000E+00  0.00000000E+00
  0.00000000E+00  0.00000000E+00  0.00000000E+00
  0.00000000E+00  0.00000000E+00  0.00000000E+00
  0.00000000E+00  0.00000000E+00  0.00000000E+00
  0.00000000E+00  0.00000000E+00  0.00000000E+00
  0.00000000E+00  0.00000000E+00  0.00000000E+00
  0.00000000E+00  0.00000000E+00  0.00000000E+00
  0.00000000E+00  0.00000000E+00  0.00000000E+00
  0.00000000E+00  0.00000000E+00  0.00000000E+00
  0.00000000E+00  0.00000000E+00  0.00000000E+00
  0.00000000E+00  0.00000000E+00  0.00000000E+00
  0.00000000E+00  0.00000000E+00  0.00000000E+00
  0.00000000E+00  0.00000000E+00  0.00000000E+00
  0.00000000E+00  0.00000000E+00  0.00000000E+00
  0.00000000E+00  0.00000000E+00  0.00000000E+00
  0.00000000E+00  0.00000000E+00  0.00000000E+00
  0.00000000E+00  0.00000000E+00  0.00000000E+00
  0.00000000E+00  0.00000000E+00  0.00000000E+00
  0.00000000E+00  0.00000000E+00  0.00000000E+00
  0.00000000E+00  0.00000000E+00  0.00000000E+00
  0.00000000E+00  0.00000000E+00  0.00000000E+00
  0.00000000E+00  0.00000000E+00  0.00000000E+00
  0.00000000E+00  0.00000000E+00  0.00000000E+00
  0.00000000E+00  0.00000000E+00  0.00000000E+00
  0.00000000E+00  0.00000000E+00  0.00000000E+00
  0.00000000E+00  0.00000000E+00  0.00000000E+00
  0.00000000E+00  0.00000000E+00  0.00000000E+00
  0.00000000E+00  0.00000000E+00  0.00000000E+00
  0.00000000E+00  0.00000000E+00  0.00000000E+00
  0.00000000E+00  0.00000000E+00  0.00000000E+00
  0.00000000E+00  0.00000000E+00  0.00000000E+00
  0.00000000E+00  0.00000000E+00  0.00000000E+00
  0.00000000E+00  0.00000000E+00  0.00000000E+00
  0.00000000E+00  0.00000000E+00  0.00000000E+00
  0.00000000E+00  0.00000000E+00  0.00000000E+00
  0.00000000E+00  0.00000000E+00  0.00000000E+00
  0.00000000E+00  0.00000000E+00  0.00000000E+00
  0.00000000E+00  0.00000000E+00  0.00000000E+00
  0.00000000E+00  0.00000000E+00  0.00000000E+00
  0.00000000E+00  0.00000000E+00  0.00000000E+00
  0.00000000E+00  0.00000000E+00  0.00000000E+00
  0.00000000E+00  0.00000000E+00  0.00000000E+00
  0.00000000E+00  0.00000000E+00  0.00000000E+00
  0.00000000E+00  0.00000000E+00  0.00000000E+00
  0.00000000E+00  0.00000000E+00  0.00000000E+00
  0.00000000E+00  0.00000000E+00  0.00000000E+00
  0.00000000E+00  0.00000000E+00  0.00000000E+00
  0.00000000E+00  0.00000000E+00  0.00000000E+00
  0.00000000E+00  0.00000000E+00  0.00000000E+00
  0.00000000E+00  0.00000000E+00  0.00000000E+00
  0.00000000E+00  0.00000000E+00  0.00000000E+00
  0.00000000E+00  0.00000000E+00  0.00000000E+00
  0.00000000E+00  0.00000000E+00  0.00000000E+00
  0.00000000E+00  0.00000000E+00  0.00000000E+00
  0.00000000E+00  0.00000000E+00  0.00000000E+00
  0.00000000E+00  0.00000000E+00  0.00000000E+00
  0.00000000E+00  0.00000000E+00  0.00000000E+00
  0.00000000E+00  0.00000000E+00  0.00000000E+00
  0.00000000E+00  0.00000000E+00  0.00000000E+00
  0.00000000E+00  0.00000000E+00  0.00000000E+00
  0.00000000E+00  0.00000000E+00  0.00000000E+00
  0.00000000E+00  0.00000000E+00  0.00000000E+00
  0.00000000E+00  0.00000000E+00  0.00000000E+00
  0.00000000E+00  0.00000000E+00  0.00000000E+00
