Ge+Ge
    1.000000000
   12.651226044    0.000000000    0.000000000
  -10.120981216    7.590735435    0.000000000
    0.000000000    0.000000000   11.413373947
Ge 
48
Direct
    0.344722271    0.672361135    0.000000000
    0.678055644    0.839027822    0.247858331
    0.011389017    0.005694628    0.495716691
    0.011388971    0.005694487    0.000000000
    0.344722331    0.172361225    0.247858331
    0.678055704    0.339027971    0.495716691
    0.678055644    0.339027822    0.000000000
    0.011388898    0.505694509    0.247858331
    0.344722390    0.672361314    0.495716691
    0.094722271    0.922361135    0.123929165
    0.428055644    0.089027882    0.371787518
    0.761389017    0.255694628    0.619645953
    0.428055644    0.589027882    0.123929165
    0.761389017    0.755694568    0.371787518
    0.094722390    0.922361374    0.619645953
    0.761388898    0.255694479    0.123929165
    0.094722390    0.422361225    0.371787518
    0.428055644    0.589027941    0.619645953
    0.178055570    0.839027703    0.000000000
    0.511388958    0.005694509    0.247858331
    0.844722271    0.172361135    0.495716691
    0.511388958    0.505694509    0.000000000
    0.844722271    0.672361195    0.247858331
    0.178055644    0.839027941    0.495716691
    0.844722331    0.172361180    0.000000000
    0.178055644    0.339027911    0.247858331
    0.511389017    0.505694628    0.495716691
    0.261388958    0.755694449    0.123929165
    0.594722331    0.922361195    0.371787518
    0.928055763    0.089028001    0.619645953
    0.594722331    0.422361165    0.123929165
    0.928055704    0.589027882    0.371787518
    0.261389017    0.755694628    0.619645953
    0.928055644    0.089027874    0.123929165
    0.261389017    0.255694628    0.371787518
    0.594722390    0.422361344    0.619645953
    0.283035517    0.169195890    0.706548631
    0.171924353    0.780306876    0.789168060
    0.060813189    0.391417980    0.871787548
    0.783035517    0.669195831    0.706548631
    0.671924353    0.280306876    0.789168060
    0.560813189    0.891417921    0.871787548
    0.977479875    0.974751353    0.747858286
    0.866368771    0.585862398    0.830477834
    0.755257547    0.196973562    0.913097322
    0.477479964    0.474751353    0.747858286
    0.366368830    0.085862398    0.830477834
    0.255257607    0.696973383    0.913097322
