Si Ge                                   
   1.00000000000000     
     7.0857498537617953   -0.1570353634698601   -0.0002816279532982
     2.2878894376568444    3.2355642719444626   -0.0002816279532982
    -0.0006992608851114   -0.0009889042273616   20.0557810517996629
   Si   Ge
    10    10
Direct
  0.1315765631009643  0.1123478275407346  0.0288924660121494
  0.3684287572840216  0.3754956333576771  0.0288924660121494
  0.6392063874052603  0.0350712551437543  0.1153822668773063
  0.8607989329797257  0.3134787095692885  0.1153822668773063
  0.1334139367014344  0.0152528961609068  0.2053704132697586
  0.3665913836835514  0.2820754491787896  0.2053704132697586
  0.6390939675190588  0.0355412955026596  0.2953893836835814
  0.8609113528659271  0.3137239101557916  0.2953893836835814
  0.1313800940789278  0.1127345992345002  0.3819356174977255
  0.3686252263060583  0.3754894670073699  0.3819356174977255
  0.1202989594646074  0.2783160172361948  0.5020674494844958
  0.3796995013504851  0.5189154753503172  0.5020674494844958
  0.6272302203263110  0.3059835217746047  0.6031169812354206
  0.8727682404887814  0.5604455016121340  0.6031169812354206
  0.1226962001456904  0.3514286510839154  0.7054857192320224
  0.3773022606694021  0.5968225905602037  0.7054857192320224
  0.6272066989752023  0.3067483974843593  0.8077439254200697
  0.8727917618398902  0.5611633346196718  0.8077439254200697
  0.1200922247685112  0.2793911615927731  0.9088117739298625
  0.3799062360465813  0.5195771503147031  0.9088117739298625
 
  0.00000000E+00  0.00000000E+00  0.00000000E+00
  0.00000000E+00  0.00000000E+00  0.00000000E+00
  0.00000000E+00  0.00000000E+00  0.00000000E+00
  0.00000000E+00  0.00000000E+00  0.00000000E+00
  0.00000000E+00  0.00000000E+00  0.00000000E+00
  0.00000000E+00  0.00000000E+00  0.00000000E+00
  0.00000000E+00  0.00000000E+00  0.00000000E+00
  0.00000000E+00  0.00000000E+00  0.00000000E+00
  0.00000000E+00  0.00000000E+00  0.00000000E+00
  0.00000000E+00  0.00000000E+00  0.00000000E+00
  0.00000000E+00  0.00000000E+00  0.00000000E+00
  0.00000000E+00  0.00000000E+00  0.00000000E+00
  0.00000000E+00  0.00000000E+00  0.00000000E+00
  0.00000000E+00  0.00000000E+00  0.00000000E+00
  0.00000000E+00  0.00000000E+00  0.00000000E+00
  0.00000000E+00  0.00000000E+00  0.00000000E+00
  0.00000000E+00  0.00000000E+00  0.00000000E+00
  0.00000000E+00  0.00000000E+00  0.00000000E+00
  0.00000000E+00  0.00000000E+00  0.00000000E+00
  0.00000000E+00  0.00000000E+00  0.00000000E+00
