Si Ge
 1.0000000000000000
     6.7899855669949698    0.0000000000000000    0.0000000000000000
     2.2633285223316566    3.2008298923872855    0.0000000000000000
     0.0000000000000000    0.0000000000000000   18.3929691996310041
 Si  Ge 
  10  10
Cartesian
  0.8487580417173722 -0.0000116203462489 -0.0612550248383070
  3.1120865640490289  0.8001958527505727 -0.0612550248383071
  6.5070793475465134  3.2008182720410363  1.8585398860831694
  6.5070793475465134  0.8001958527505723  1.8585398860831694
  3.1120865640490281  3.2008182720410354  3.7783347970046459
  3.1120865640490285  0.8001958527505717  3.7783347970046459
  6.5070793475465134  3.2008182720410354  5.6981297079261219
  6.5070793475465152  0.8001958527505716  5.6981297079261219
  3.1120865640490276  3.2008182720410354  7.6179246188475984
  3.1120865640490294  0.8001958527505710  7.6179246188475984
  1.6975000268520919  1.2003237404612590  8.9738923741071179
  3.9608285491837489  2.0005312135580806  8.9738923741071179
  5.0924928103495768  1.2003237404612590 10.9742974580838606
  7.3558213326812325  2.0005312135580806 10.9742974580838606
  1.6975000268520926  1.2003237404612590 12.9747025420606050
  3.9608285491837489  2.0005312135580806 12.9747025420606032
  5.0924928103495777  1.2003237404612592 14.9751076260373459
  7.3558213326812334  2.0005312135580802 14.9751076260373459
  1.6975000268520934  1.2003237404612590 16.9755127100140903
  3.9608285491837507  2.0005312135580802 16.9755127100140903
