Sn+Si                                   
   1.00000000000000     
    19.4675998690000007    0.0000000000000000    0.0000000000000000
     0.0000000000000000   19.4675998690000007    0.0000000000000000
     0.0000000000000000    0.0000000000000000   19.3002529140000014
   Sn   Si
   108   156
Direct
  0.4326493439999979  0.9890585540000032  0.8860117790000004
  0.4518801870000004  0.8929047580000002  0.8156629200000012
  0.0672649150000026  0.8159815070000036  0.5342675449999987
  0.9950351119999965  0.3333333429999996  0.0000000000000000
  0.1634185309999978  0.3352123800000015  0.8860117790000004
  0.6617017390000015  0.3333333429999996  0.3362235430000027
  0.6249570250000005  0.0275200609999970  0.8860117790000004
  0.8283684250000007  0.0000000000000000  0.1681117859999972
  0.4518803059999996  0.8929045799999997  0.5342675449999987
  0.0864955190000032  0.7198277709999985  0.8860117790000004
  0.1617017390000015  0.6666666870000029  0.1681117859999972
  0.9950351119999965  0.6666666870000029  0.3362235430000027
  0.5864955779999974  0.2198278899999977  0.8860117790000004
  0.1617017390000015  0.3333333429999996  0.1681117859999972
  0.9950351119999965  0.3333333429999996  0.3362235430000027
  0.3283684550000032  0.0000000000000000  0.0000000000000000
  0.1617017390000015  0.0000000000000000  0.1681117859999972
  0.9950351119999965  0.0000000000000000  0.3362235430000027
  0.6617017980000028  0.6666666870000029  0.0000000000000000
  0.4950351119999965  0.6666666870000029  0.1681117859999972
  0.3283684550000032  0.6666666870000029  0.3362235430000027
  0.6617017980000028  0.3333333429999996  0.0000000000000000
  0.4950351119999965  0.3333333429999996  0.1681117859999972
  0.3283684550000032  0.3333333429999996  0.3362235430000027
  0.6617017980000028  0.0000000000000000  0.0000000000000000
  0.1249569650000026  0.5275200609999970  0.8860117790000004
  0.3283684550000032  0.0000000000000000  0.3362235430000027
  0.0783684330000014  0.9166667459999971  0.0840558929999986
  0.9117017980000028  0.9166667459999971  0.2521676120000009
  0.1826496119999987  0.2390583749999990  0.5342675449999987
  0.7788032289999975  0.2582893370000008  0.8860117790000004
  0.9117017980000028  0.5833334330000000  0.2521676120000009
  0.7450350519999986  0.5833334330000000  0.4202794429999983
  0.0783684330000014  0.2500000000000000  0.0840558929999986
  0.9117017980000028  0.2500000000000000  0.2521676120000009
  0.3749573229999967  0.2775199709999967  0.5342675449999987
  0.4117017689999969  0.9166667459999971  0.0840558929999986
  0.2450350969999988  0.9166667459999971  0.2521676120000009
  0.8364957570000016  0.9698277119999972  0.5342675449999987
  0.8172647949999998  0.0659816269999993  0.8860117790000004
  0.2450350969999988  0.5833334330000000  0.2521676120000009
  0.3364958760000007  0.4698275920000015  0.5342675449999987
  0.4117017689999969  0.2500000000000000  0.0840558929999986
  0.8749573229999967  0.7775198820000000  0.5342675449999987
  0.0783683809999971  0.2500000000000000  0.4202794429999983
  0.2403416630000024  0.9505969880000009  0.8860117790000004
  0.2018804550000013  0.1429045349999996  0.6046164039999979
  0.4117017980000028  0.9166667459999971  0.4202794429999983
  0.7450351720000015  0.5833334330000000  0.0840558929999986
  0.9134188290000012  0.5852123499999990  0.5342675449999987
  0.4117017980000028  0.5833334330000000  0.4202794429999983
  0.2018800970000001  0.1429046390000011  0.8860117790000004
  0.5783685450000036  0.2500000000000000  0.2521676120000009
  0.4117017980000028  0.2500000000000000  0.4202794429999983
  0.1617017689999969  0.8333333129999971  0.0000000000000000
  0.9950350519999986  0.8333333129999971  0.1681117859999972
  0.5288034080000017  0.5082892180000016  0.5342675449999987
  0.4711108799999977  0.7967509030000031  0.8860117790000004
  0.0095725059999978  0.1044431850000009  0.8860117790000004
  0.8283684250000007  0.5000000000000000  0.3362235430000027
  0.1617017689999969  0.1666666719999981  0.0000000000000000
  0.9950350519999986  0.1666666719999981  0.1681117859999972
  0.8283684250000007  0.1666666719999981  0.3362235430000027
  0.4950351119999965  0.8333333129999971  0.0000000000000000
  0.3557262420000029  0.3736738560000035  0.8860117790000004
  0.5672649150000026  0.3159814770000011  0.5342675449999987
  0.4950351119999965  0.5000000000000000  0.0000000000000000
  0.9326494929999996  0.4890585240000007  0.8860117790000004
  0.1617017539999992  0.5000000000000000  0.3362235430000027
  0.4950351119999965  0.1666666719999981  0.0000000000000000
  0.3283684250000007  0.1666666719999981  0.1681117859999972
  0.1617017539999992  0.1666666719999981  0.3362235430000027
  0.8283685450000036  0.8333333129999971  0.0000000000000000
  0.5480340120000022  0.4121354219999986  0.8860117790000004
  0.4950352010000003  0.8333333129999971  0.3362235430000027
  0.0672647949999998  0.8159816860000006  0.8156629200000012
  0.6617018580000007  0.5000000000000000  0.1681117859999972
  0.9518803950000034  0.3929045799999997  0.5342675449999987
  0.8283685450000036  0.1666666719999981  0.0000000000000000
  0.6617018580000007  0.1666666719999981  0.1681117859999972
  0.9903418419999994  0.2005968690000017  0.5342675449999987
  0.2450350969999988  0.7500000599999979  0.0840558929999986
  0.6826496119999987  0.7390584950000019  0.5342675449999987
  0.2211110590000018  0.0467507839999968  0.5342675449999987
  0.2450350969999988  0.4166667160000017  0.0840558929999986
  0.0783684330000014  0.4166667160000017  0.2521676120000009
  0.9117017390000015  0.4166667160000017  0.4202794429999983
  0.2450350969999988  0.0833333429999996  0.0840558929999986
  0.1057264800000013  0.6236737970000021  0.5342675449999987
  0.9117017390000015  0.0833333429999996  0.4202794429999983
  0.5783684849999986  0.7500000599999979  0.0840558929999986
  0.4117018580000007  0.7500000599999979  0.2521676120000009
  0.2450351270000013  0.7500000599999979  0.4202794429999983
  0.5783684849999986  0.4166667160000017  0.0840558929999986
  0.4117018580000007  0.4166667160000017  0.2521676120000009
  0.2450351270000013  0.4166667160000017  0.4202794429999983
  0.5783684849999986  0.0833333429999996  0.0840558929999986
  0.2980341909999993  0.6621354219999986  0.5342675449999987
  0.2450351270000013  0.0833333429999996  0.4202794429999983
  0.7018800970000001  0.6429047580000002  0.8860117790000004
  0.7595726850000020  0.3544430430000034  0.5342675449999987
  0.8172650340000018  0.0659815069999965  0.6046164039999979
  0.3172647949999998  0.5659815670000015  0.8860117790000004
  0.7450350519999986  0.4166667160000017  0.2521676120000009
  0.5783683659999994  0.4166667160000017  0.4202794429999983
  0.9117017390000015  0.0833333429999996  0.0840558929999986
  0.7450350519999986  0.0833333429999996  0.2521676120000009
  0.5783683659999994  0.0833333429999996  0.4202794429999983
  0.7450350519999986  0.9166667459999971  0.4202794429999983
  0.0672650340000018  0.3159815069999965  0.6749652029999993
  0.9518802759999971  0.3929046690000035  0.8156629200000012
  0.0783683809999971  0.5833334330000000  0.4202794429999983
  0.2211110590000018  0.5467506649999976  0.6749652029999993
  0.1057264800000013  0.6236738560000035  0.8156629200000012
  0.7980341909999993  0.1621353029999995  0.5342675449999987
  0.6826494929999996  0.2390584349999969  0.6749652029999993
  0.5672647949999998  0.3159815670000015  0.8156629200000012
  0.4950352010000003  0.5000000000000000  0.3362235430000027
  0.8364956380000024  0.4698277119999972  0.6749652029999993
  0.7211109400000026  0.5467508440000017  0.8156629200000012
  0.0783684330000014  0.0833333429999996  0.2521676120000009
  0.9903417829999981  0.7005969289999996  0.6749652029999993
  0.8749570849999984  0.7775200609999970  0.8156629200000012
  0.2595726249999970  0.8544431329999966  0.5342675449999987
  0.1441879269999973  0.9313662650000012  0.6749652029999993
  0.0288032289999975  0.0082893370000008  0.8156629200000012
  0.4134187699999998  0.0852122080000015  0.5342675449999987
  0.2980340720000001  0.1621353330000019  0.6749652029999993
  0.1826493740000004  0.2390584649999994  0.8156629200000012
  0.1617017539999992  0.8333333129999971  0.3362235430000027
  0.4518802460000018  0.3929046089999986  0.6749652029999993
  0.3364955190000032  0.4698277410000031  0.8156629200000012
  0.7211111189999997  0.5467507239999989  0.5342675449999987
  0.6057264210000000  0.6236738560000035  0.6749652029999993
  0.4903416929999977  0.7005969880000009  0.8156629200000012
  0.2450350969999988  0.2500000000000000  0.2521676120000009
  0.7595726249999970  0.8544430139999974  0.6749652029999993
  0.6441878680000030  0.9313661460000020  0.8156629200000012
  0.0288033490000004  0.0082892180000016  0.5342675449999987
  0.9134187100000020  0.0852123419999984  0.6749652029999993
  0.7980340120000022  0.1621354819999965  0.8156629200000012
  0.4903418419999994  0.7005968690000017  0.5342675449999987
  0.3749570849999984  0.7775200009999992  0.6749652029999993
  0.2595725059999978  0.8544431919999980  0.8156629200000012
  0.6441880459999965  0.9313660859999970  0.5342675449999987
  0.5288033490000004  0.0082890990000024  0.6749652029999993
  0.4134185309999978  0.0852123419999984  0.8156629200000012
  0.3941879269999973  0.1813660859999970  0.6046164039999979
  0.2788033490000004  0.2582892180000016  0.7453140619999985
  0.8283684250000007  0.3333333429999996  0.1681117859999972
  0.0095726249999970  0.1044430660000017  0.6046164039999979
  0.8941879269999973  0.1813662050000033  0.7453140619999985
  0.0783684330000014  0.5833334330000000  0.0840558929999986
  0.1634188889999990  0.3352122309999999  0.6046164039999979
  0.0480341909999993  0.4121353920000033  0.7453140619999985
  0.3283684250000007  0.5000000000000000  0.1681117859999972
  0.3172650340000018  0.5659814480000023  0.6046164039999979
  0.2018802170000029  0.6429046390000011  0.7453140619999985
  0.3283684550000032  0.6666666870000029  0.0000000000000000
  0.7788034679999996  0.2582891579999966  0.6046164039999979
  0.6634187699999998  0.3352122900000012  0.7453140619999985
  0.6617018580000007  0.8333333129999971  0.1681117859999972
  0.9326495529999974  0.4890584649999994  0.6046164039999979
  0.8172648549999977  0.5659815670000015  0.7453140619999985
  0.9117017390000015  0.7500000599999979  0.0840558929999986
  0.0864956380000024  0.7198276519999993  0.6046164039999979
  0.9711110000000005  0.7967507839999968  0.7453140619999985
  0.8557262420000029  0.8736739160000013  0.8860117790000004
  0.2403419019999973  0.9505969289999996  0.6046164039999979
  0.1249570849999984  0.0275200609999970  0.7453140619999985
  0.9950350519999986  0.5000000000000000  0.1681117859999972
  0.5480341909999993  0.4121353330000019  0.6046164039999979
  0.4326494629999971  0.4890584349999969  0.7453140619999985
  0.9117017390000015  0.4166667160000017  0.0840558929999986
  0.7018803360000021  0.6429046390000011  0.6046164039999979
  0.5864956380000024  0.7198277119999972  0.7453140619999985
  0.1617017689999969  0.5000000000000000  0.0000000000000000
  0.8557264800000013  0.8736737970000021  0.6046164039999979
  0.7403417829999981  0.9505969289999996  0.7453140619999985
  0.9950351119999965  0.0000000000000000  0.0000000000000000
  0.4711110889999972  0.7967507239999989  0.6046164039999979
  0.3557263610000021  0.8736739160000013  0.7453140619999985
  0.7450351720000015  0.9166667459999971  0.0840558929999986
  0.6249572629999989  0.0275199410000013  0.6046164039999979
  0.5095725059999978  0.1044430660000017  0.7453140619999985
  0.3941878079999981  0.1813662050000033  0.8860117790000004
  0.7450350519999986  0.2500000000000000  0.4202794429999983
  0.2595725059999978  0.3544431030000013  0.6749652029999993
  0.1441879269999973  0.4313662650000012  0.8156629200000012
  0.4950352010000003  0.1666666719999981  0.3362235430000027
  0.8749571439999997  0.2775200009999992  0.6749652029999993
  0.7595724460000000  0.3544431329999966  0.8156629200000012
  0.1441881659999993  0.4313661750000009  0.5342675449999987
  0.0288033490000004  0.5082892779999995  0.6749652029999993
  0.9134186510000006  0.5852124689999982  0.8156629200000012
  0.4117018580000007  0.0833333429999996  0.2521676120000009
  0.1826494929999996  0.7390585540000032  0.6749652029999993
  0.8283685450000036  0.5000000000000000  0.0000000000000000
  0.6057264800000013  0.1236737669999997  0.5342675449999987
  0.4903418119999969  0.2005968989999971  0.6749652029999993
  0.3749570849999984  0.2775200310000017  0.8156629200000012
  0.7450350519999986  0.7500000599999979  0.2521676120000009
  0.6441879870000022  0.4313661750000009  0.6749652029999993
  0.5288032890000025  0.5082892779999995  0.8156629200000012
  0.5783685450000036  0.5833334330000000  0.2521676120000009
  0.7980340720000001  0.6621354819999965  0.6749652029999993
  0.6826493740000004  0.7390586140000011  0.8156629200000012
  0.6617017390000015  0.6666666870000029  0.3362235430000027
  0.9518802170000029  0.8929046390000011  0.6749652029999993
  0.8364955190000032  0.9698277709999985  0.8156629200000012
  0.9117017390000015  0.7500000599999979  0.4202794429999983
  0.1057264800000013  0.1236739080000007  0.6749652029999993
  0.9903417230000002  0.2005970479999988  0.8156629200000012
  0.8283684250000007  0.8333333129999971  0.3362235430000027
  0.4134187699999998  0.5852123499999990  0.6749652029999993
  0.2980339530000009  0.6621354819999965  0.8156629200000012
  0.0783684330000014  0.7500000599999979  0.2521676120000009
  0.5672649150000026  0.8159816269999993  0.6749652029999993
  0.8283684250000007  0.6666666870000029  0.1681117859999972
  0.0783683809999971  0.9166667459999971  0.4202794429999983
  0.7211110590000018  0.0467507839999968  0.6749652029999993
  0.6057263610000021  0.1236739080000007  0.8156629200000012
  0.6617017390000015  0.0000000000000000  0.3362235430000027
  0.3364956380000024  0.9698277119999972  0.6749652029999993
  0.2211108210000035  0.0467507839999968  0.8156629200000012
  0.5783685450000036  0.9166667459999971  0.2521676120000009
  0.0864956380000024  0.2198276820000018  0.7453140619999985
  0.9711110000000005  0.2967508139999993  0.8860117790000004
  0.3557264800000013  0.3736737669999997  0.6046164039999979
  0.2403416630000024  0.4505969289999996  0.7453140619999985
  0.4950351119999965  0.0000000000000000  0.1681117859999972
  0.9711111780000010  0.2967506950000001  0.6046164039999979
  0.8557264800000013  0.3736738260000010  0.7453140619999985
  0.7403417829999981  0.4505969880000009  0.8860117790000004
  0.1249573229999967  0.5275199410000013  0.6046164039999979
  0.0095727440000033  0.6044430729999988  0.7453140619999985
  0.8941879269999973  0.6813662050000033  0.8860117790000004
  0.2788035869999987  0.7582892180000016  0.6046164039999979
  0.1634188889999990  0.8352123499999990  0.7453140619999985
  0.0480341909999993  0.9121354819999965  0.8860117790000004
  0.5864957570000016  0.2198275630000026  0.6046164039999979
  0.4711110289999993  0.2967506950000001  0.7453140619999985
  0.3283684250000007  0.8333333129999971  0.1681117859999972
  0.7403419019999973  0.4505968690000017  0.6046164039999979
  0.6249572039999975  0.5275200009999992  0.7453140619999985
  0.5095725059999978  0.6044431329999966  0.8860117790000004
  0.8941880459999965  0.6813660859999970  0.6046164039999979
  0.7788033490000004  0.7582892180000016  0.7453140619999985
  0.6634185910000028  0.8352123499999990  0.8860117790000004
  0.0480341909999993  0.9121354219999986  0.6046164039999979
  0.9326495529999974  0.9890585540000032  0.7453140619999985
  0.4117017689999969  0.5833334330000000  0.0840558929999986
  0.5095726249999970  0.6044430139999974  0.6046164039999979
  0.3941879269999973  0.6813661460000020  0.7453140619999985
  0.2788031099999984  0.7582892779999995  0.8860117790000004
  0.6634187699999998  0.8352122309999999  0.6046164039999979
  0.5480340720000001  0.9121353629999973  0.7453140619999985
  0.9950351119999965  0.6666666870000029  0.0000000000000000
  0.5783683659999994  0.7500000599999979  0.4202794429999983
  0.7018803360000021  0.1429047580000002  0.7453140619999985
  0.3283684550000032  0.3333333429999996  0.0000000000000000
  0.4326495529999974  0.9890583749999990  0.6046164039999979
  0.3172647949999998  0.0659815069999965  0.7453140619999985
  0.7450351720000015  0.2500000000000000  0.0840558929999986
 
  0.00000000E+00  0.00000000E+00  0.00000000E+00
  0.00000000E+00  0.00000000E+00  0.00000000E+00
  0.00000000E+00  0.00000000E+00  0.00000000E+00
  0.00000000E+00  0.00000000E+00  0.00000000E+00
  0.00000000E+00  0.00000000E+00  0.00000000E+00
  0.00000000E+00  0.00000000E+00  0.00000000E+00
  0.00000000E+00  0.00000000E+00  0.00000000E+00
  0.00000000E+00  0.00000000E+00  0.00000000E+00
  0.00000000E+00  0.00000000E+00  0.00000000E+00
  0.00000000E+00  0.00000000E+00  0.00000000E+00
  0.00000000E+00  0.00000000E+00  0.00000000E+00
  0.00000000E+00  0.00000000E+00  0.00000000E+00
  0.00000000E+00  0.00000000E+00  0.00000000E+00
  0.00000000E+00  0.00000000E+00  0.00000000E+00
  0.00000000E+00  0.00000000E+00  0.00000000E+00
  0.00000000E+00  0.00000000E+00  0.00000000E+00
  0.00000000E+00  0.00000000E+00  0.00000000E+00
  0.00000000E+00  0.00000000E+00  0.00000000E+00
  0.00000000E+00  0.00000000E+00  0.00000000E+00
  0.00000000E+00  0.00000000E+00  0.00000000E+00
  0.00000000E+00  0.00000000E+00  0.00000000E+00
  0.00000000E+00  0.00000000E+00  0.00000000E+00
  0.00000000E+00  0.00000000E+00  0.00000000E+00
  0.00000000E+00  0.00000000E+00  0.00000000E+00
  0.00000000E+00  0.00000000E+00  0.00000000E+00
  0.00000000E+00  0.00000000E+00  0.00000000E+00
  0.00000000E+00  0.00000000E+00  0.00000000E+00
  0.00000000E+00  0.00000000E+00  0.00000000E+00
  0.00000000E+00  0.00000000E+00  0.00000000E+00
  0.00000000E+00  0.00000000E+00  0.00000000E+00
  0.00000000E+00  0.00000000E+00  0.00000000E+00
  0.00000000E+00  0.00000000E+00  0.00000000E+00
  0.00000000E+00  0.00000000E+00  0.00000000E+00
  0.00000000E+00  0.00000000E+00  0.00000000E+00
  0.00000000E+00  0.00000000E+00  0.00000000E+00
  0.00000000E+00  0.00000000E+00  0.00000000E+00
  0.00000000E+00  0.00000000E+00  0.00000000E+00
  0.00000000E+00  0.00000000E+00  0.00000000E+00
  0.00000000E+00  0.00000000E+00  0.00000000E+00
  0.00000000E+00  0.00000000E+00  0.00000000E+00
  0.00000000E+00  0.00000000E+00  0.00000000E+00
  0.00000000E+00  0.00000000E+00  0.00000000E+00
  0.00000000E+00  0.00000000E+00  0.00000000E+00
  0.00000000E+00  0.00000000E+00  0.00000000E+00
  0.00000000E+00  0.00000000E+00  0.00000000E+00
  0.00000000E+00  0.00000000E+00  0.00000000E+00
  0.00000000E+00  0.00000000E+00  0.00000000E+00
  0.00000000E+00  0.00000000E+00  0.00000000E+00
  0.00000000E+00  0.00000000E+00  0.00000000E+00
  0.00000000E+00  0.00000000E+00  0.00000000E+00
  0.00000000E+00  0.00000000E+00  0.00000000E+00
  0.00000000E+00  0.00000000E+00  0.00000000E+00
  0.00000000E+00  0.00000000E+00  0.00000000E+00
  0.00000000E+00  0.00000000E+00  0.00000000E+00
  0.00000000E+00  0.00000000E+00  0.00000000E+00
  0.00000000E+00  0.00000000E+00  0.00000000E+00
  0.00000000E+00  0.00000000E+00  0.00000000E+00
  0.00000000E+00  0.00000000E+00  0.00000000E+00
  0.00000000E+00  0.00000000E+00  0.00000000E+00
  0.00000000E+00  0.00000000E+00  0.00000000E+00
  0.00000000E+00  0.00000000E+00  0.00000000E+00
  0.00000000E+00  0.00000000E+00  0.00000000E+00
  0.00000000E+00  0.00000000E+00  0.00000000E+00
  0.00000000E+00  0.00000000E+00  0.00000000E+00
  0.00000000E+00  0.00000000E+00  0.00000000E+00
  0.00000000E+00  0.00000000E+00  0.00000000E+00
  0.00000000E+00  0.00000000E+00  0.00000000E+00
  0.00000000E+00  0.00000000E+00  0.00000000E+00
  0.00000000E+00  0.00000000E+00  0.00000000E+00
  0.00000000E+00  0.00000000E+00  0.00000000E+00
  0.00000000E+00  0.00000000E+00  0.00000000E+00
  0.00000000E+00  0.00000000E+00  0.00000000E+00
  0.00000000E+00  0.00000000E+00  0.00000000E+00
  0.00000000E+00  0.00000000E+00  0.00000000E+00
  0.00000000E+00  0.00000000E+00  0.00000000E+00
  0.00000000E+00  0.00000000E+00  0.00000000E+00
  0.00000000E+00  0.00000000E+00  0.00000000E+00
  0.00000000E+00  0.00000000E+00  0.00000000E+00
  0.00000000E+00  0.00000000E+00  0.00000000E+00
  0.00000000E+00  0.00000000E+00  0.00000000E+00
  0.00000000E+00  0.00000000E+00  0.00000000E+00
  0.00000000E+00  0.00000000E+00  0.00000000E+00
  0.00000000E+00  0.00000000E+00  0.00000000E+00
  0.00000000E+00  0.00000000E+00  0.00000000E+00
  0.00000000E+00  0.00000000E+00  0.00000000E+00
  0.00000000E+00  0.00000000E+00  0.00000000E+00
  0.00000000E+00  0.00000000E+00  0.00000000E+00
  0.00000000E+00  0.00000000E+00  0.00000000E+00
  0.00000000E+00  0.00000000E+00  0.00000000E+00
  0.00000000E+00  0.00000000E+00  0.00000000E+00
  0.00000000E+00  0.00000000E+00  0.00000000E+00
  0.00000000E+00  0.00000000E+00  0.00000000E+00
  0.00000000E+00  0.00000000E+00  0.00000000E+00
  0.00000000E+00  0.00000000E+00  0.00000000E+00
  0.00000000E+00  0.00000000E+00  0.00000000E+00
  0.00000000E+00  0.00000000E+00  0.00000000E+00
  0.00000000E+00  0.00000000E+00  0.00000000E+00
  0.00000000E+00  0.00000000E+00  0.00000000E+00
  0.00000000E+00  0.00000000E+00  0.00000000E+00
  0.00000000E+00  0.00000000E+00  0.00000000E+00
  0.00000000E+00  0.00000000E+00  0.00000000E+00
  0.00000000E+00  0.00000000E+00  0.00000000E+00
  0.00000000E+00  0.00000000E+00  0.00000000E+00
  0.00000000E+00  0.00000000E+00  0.00000000E+00
  0.00000000E+00  0.00000000E+00  0.00000000E+00
  0.00000000E+00  0.00000000E+00  0.00000000E+00
  0.00000000E+00  0.00000000E+00  0.00000000E+00
  0.00000000E+00  0.00000000E+00  0.00000000E+00
  0.00000000E+00  0.00000000E+00  0.00000000E+00
  0.00000000E+00  0.00000000E+00  0.00000000E+00
  0.00000000E+00  0.00000000E+00  0.00000000E+00
  0.00000000E+00  0.00000000E+00  0.00000000E+00
  0.00000000E+00  0.00000000E+00  0.00000000E+00
  0.00000000E+00  0.00000000E+00  0.00000000E+00
  0.00000000E+00  0.00000000E+00  0.00000000E+00
  0.00000000E+00  0.00000000E+00  0.00000000E+00
  0.00000000E+00  0.00000000E+00  0.00000000E+00
  0.00000000E+00  0.00000000E+00  0.00000000E+00
  0.00000000E+00  0.00000000E+00  0.00000000E+00
  0.00000000E+00  0.00000000E+00  0.00000000E+00
  0.00000000E+00  0.00000000E+00  0.00000000E+00
  0.00000000E+00  0.00000000E+00  0.00000000E+00
  0.00000000E+00  0.00000000E+00  0.00000000E+00
  0.00000000E+00  0.00000000E+00  0.00000000E+00
  0.00000000E+00  0.00000000E+00  0.00000000E+00
  0.00000000E+00  0.00000000E+00  0.00000000E+00
  0.00000000E+00  0.00000000E+00  0.00000000E+00
  0.00000000E+00  0.00000000E+00  0.00000000E+00
  0.00000000E+00  0.00000000E+00  0.00000000E+00
  0.00000000E+00  0.00000000E+00  0.00000000E+00
  0.00000000E+00  0.00000000E+00  0.00000000E+00
  0.00000000E+00  0.00000000E+00  0.00000000E+00
  0.00000000E+00  0.00000000E+00  0.00000000E+00
  0.00000000E+00  0.00000000E+00  0.00000000E+00
  0.00000000E+00  0.00000000E+00  0.00000000E+00
  0.00000000E+00  0.00000000E+00  0.00000000E+00
  0.00000000E+00  0.00000000E+00  0.00000000E+00
  0.00000000E+00  0.00000000E+00  0.00000000E+00
  0.00000000E+00  0.00000000E+00  0.00000000E+00
  0.00000000E+00  0.00000000E+00  0.00000000E+00
  0.00000000E+00  0.00000000E+00  0.00000000E+00
  0.00000000E+00  0.00000000E+00  0.00000000E+00
  0.00000000E+00  0.00000000E+00  0.00000000E+00
  0.00000000E+00  0.00000000E+00  0.00000000E+00
  0.00000000E+00  0.00000000E+00  0.00000000E+00
  0.00000000E+00  0.00000000E+00  0.00000000E+00
  0.00000000E+00  0.00000000E+00  0.00000000E+00
  0.00000000E+00  0.00000000E+00  0.00000000E+00
  0.00000000E+00  0.00000000E+00  0.00000000E+00
  0.00000000E+00  0.00000000E+00  0.00000000E+00
  0.00000000E+00  0.00000000E+00  0.00000000E+00
  0.00000000E+00  0.00000000E+00  0.00000000E+00
  0.00000000E+00  0.00000000E+00  0.00000000E+00
  0.00000000E+00  0.00000000E+00  0.00000000E+00
  0.00000000E+00  0.00000000E+00  0.00000000E+00
  0.00000000E+00  0.00000000E+00  0.00000000E+00
  0.00000000E+00  0.00000000E+00  0.00000000E+00
  0.00000000E+00  0.00000000E+00  0.00000000E+00
  0.00000000E+00  0.00000000E+00  0.00000000E+00
  0.00000000E+00  0.00000000E+00  0.00000000E+00
  0.00000000E+00  0.00000000E+00  0.00000000E+00
  0.00000000E+00  0.00000000E+00  0.00000000E+00
  0.00000000E+00  0.00000000E+00  0.00000000E+00
  0.00000000E+00  0.00000000E+00  0.00000000E+00
  0.00000000E+00  0.00000000E+00  0.00000000E+00
  0.00000000E+00  0.00000000E+00  0.00000000E+00
  0.00000000E+00  0.00000000E+00  0.00000000E+00
  0.00000000E+00  0.00000000E+00  0.00000000E+00
  0.00000000E+00  0.00000000E+00  0.00000000E+00
  0.00000000E+00  0.00000000E+00  0.00000000E+00
  0.00000000E+00  0.00000000E+00  0.00000000E+00
  0.00000000E+00  0.00000000E+00  0.00000000E+00
  0.00000000E+00  0.00000000E+00  0.00000000E+00
  0.00000000E+00  0.00000000E+00  0.00000000E+00
  0.00000000E+00  0.00000000E+00  0.00000000E+00
  0.00000000E+00  0.00000000E+00  0.00000000E+00
  0.00000000E+00  0.00000000E+00  0.00000000E+00
  0.00000000E+00  0.00000000E+00  0.00000000E+00
  0.00000000E+00  0.00000000E+00  0.00000000E+00
  0.00000000E+00  0.00000000E+00  0.00000000E+00
  0.00000000E+00  0.00000000E+00  0.00000000E+00
  0.00000000E+00  0.00000000E+00  0.00000000E+00
  0.00000000E+00  0.00000000E+00  0.00000000E+00
  0.00000000E+00  0.00000000E+00  0.00000000E+00
  0.00000000E+00  0.00000000E+00  0.00000000E+00
  0.00000000E+00  0.00000000E+00  0.00000000E+00
  0.00000000E+00  0.00000000E+00  0.00000000E+00
  0.00000000E+00  0.00000000E+00  0.00000000E+00
  0.00000000E+00  0.00000000E+00  0.00000000E+00
  0.00000000E+00  0.00000000E+00  0.00000000E+00
  0.00000000E+00  0.00000000E+00  0.00000000E+00
  0.00000000E+00  0.00000000E+00  0.00000000E+00
  0.00000000E+00  0.00000000E+00  0.00000000E+00
  0.00000000E+00  0.00000000E+00  0.00000000E+00
  0.00000000E+00  0.00000000E+00  0.00000000E+00
  0.00000000E+00  0.00000000E+00  0.00000000E+00
  0.00000000E+00  0.00000000E+00  0.00000000E+00
  0.00000000E+00  0.00000000E+00  0.00000000E+00
  0.00000000E+00  0.00000000E+00  0.00000000E+00
  0.00000000E+00  0.00000000E+00  0.00000000E+00
  0.00000000E+00  0.00000000E+00  0.00000000E+00
  0.00000000E+00  0.00000000E+00  0.00000000E+00
  0.00000000E+00  0.00000000E+00  0.00000000E+00
  0.00000000E+00  0.00000000E+00  0.00000000E+00
  0.00000000E+00  0.00000000E+00  0.00000000E+00
  0.00000000E+00  0.00000000E+00  0.00000000E+00
  0.00000000E+00  0.00000000E+00  0.00000000E+00
  0.00000000E+00  0.00000000E+00  0.00000000E+00
  0.00000000E+00  0.00000000E+00  0.00000000E+00
  0.00000000E+00  0.00000000E+00  0.00000000E+00
  0.00000000E+00  0.00000000E+00  0.00000000E+00
  0.00000000E+00  0.00000000E+00  0.00000000E+00
  0.00000000E+00  0.00000000E+00  0.00000000E+00
  0.00000000E+00  0.00000000E+00  0.00000000E+00
  0.00000000E+00  0.00000000E+00  0.00000000E+00
  0.00000000E+00  0.00000000E+00  0.00000000E+00
  0.00000000E+00  0.00000000E+00  0.00000000E+00
  0.00000000E+00  0.00000000E+00  0.00000000E+00
  0.00000000E+00  0.00000000E+00  0.00000000E+00
  0.00000000E+00  0.00000000E+00  0.00000000E+00
  0.00000000E+00  0.00000000E+00  0.00000000E+00
  0.00000000E+00  0.00000000E+00  0.00000000E+00
  0.00000000E+00  0.00000000E+00  0.00000000E+00
  0.00000000E+00  0.00000000E+00  0.00000000E+00
  0.00000000E+00  0.00000000E+00  0.00000000E+00
  0.00000000E+00  0.00000000E+00  0.00000000E+00
  0.00000000E+00  0.00000000E+00  0.00000000E+00
  0.00000000E+00  0.00000000E+00  0.00000000E+00
  0.00000000E+00  0.00000000E+00  0.00000000E+00
  0.00000000E+00  0.00000000E+00  0.00000000E+00
  0.00000000E+00  0.00000000E+00  0.00000000E+00
  0.00000000E+00  0.00000000E+00  0.00000000E+00
  0.00000000E+00  0.00000000E+00  0.00000000E+00
  0.00000000E+00  0.00000000E+00  0.00000000E+00
  0.00000000E+00  0.00000000E+00  0.00000000E+00
  0.00000000E+00  0.00000000E+00  0.00000000E+00
  0.00000000E+00  0.00000000E+00  0.00000000E+00
  0.00000000E+00  0.00000000E+00  0.00000000E+00
  0.00000000E+00  0.00000000E+00  0.00000000E+00
  0.00000000E+00  0.00000000E+00  0.00000000E+00
  0.00000000E+00  0.00000000E+00  0.00000000E+00
  0.00000000E+00  0.00000000E+00  0.00000000E+00
  0.00000000E+00  0.00000000E+00  0.00000000E+00
  0.00000000E+00  0.00000000E+00  0.00000000E+00
  0.00000000E+00  0.00000000E+00  0.00000000E+00
  0.00000000E+00  0.00000000E+00  0.00000000E+00
  0.00000000E+00  0.00000000E+00  0.00000000E+00
  0.00000000E+00  0.00000000E+00  0.00000000E+00
  0.00000000E+00  0.00000000E+00  0.00000000E+00
  0.00000000E+00  0.00000000E+00  0.00000000E+00
  0.00000000E+00  0.00000000E+00  0.00000000E+00
  0.00000000E+00  0.00000000E+00  0.00000000E+00
  0.00000000E+00  0.00000000E+00  0.00000000E+00
  0.00000000E+00  0.00000000E+00  0.00000000E+00
  0.00000000E+00  0.00000000E+00  0.00000000E+00
  0.00000000E+00  0.00000000E+00  0.00000000E+00
  0.00000000E+00  0.00000000E+00  0.00000000E+00
  0.00000000E+00  0.00000000E+00  0.00000000E+00
  0.00000000E+00  0.00000000E+00  0.00000000E+00
  0.00000000E+00  0.00000000E+00  0.00000000E+00
  0.00000000E+00  0.00000000E+00  0.00000000E+00
  0.00000000E+00  0.00000000E+00  0.00000000E+00
  0.00000000E+00  0.00000000E+00  0.00000000E+00
  0.00000000E+00  0.00000000E+00  0.00000000E+00
