Sn+Ge
    1.000000000
   14.510292053    0.000000000    0.000000000
    0.000000000   19.467601776    0.000000000
    0.000000000    0.000000000   13.629248619
Sn  Ge 
36     144
Direct
    0.982905626    0.652421296    0.000000009
    0.782905579    0.485754609    0.106464438
    0.582905412    0.319087893    0.212928832
    0.982905626    0.319088012    0.000000009
    0.782905579    0.152421325    0.106464438
    0.582905412    0.985754609    0.212928832
    0.982905626    0.985754728    0.000000009
    0.782905579    0.819088042    0.106464438
    0.582905412    0.652421296    0.212928832
    0.632905602    0.902421415    0.053232122
    0.432905525    0.735754728    0.159696534
    0.232905433    0.569088042    0.266160935
    0.632905602    0.569087982    0.053232122
    0.432905525    0.402421296    0.159696534
    0.232905433    0.235754609    0.266160935
    0.632905602    0.235754758    0.053232122
    0.432905525    0.069088064    0.159696534
    0.232905433    0.902421355    0.266160935
    0.482905596    0.819087923    0.000000000
    0.282905459    0.652421236    0.106464416
    0.082905352    0.485754579    0.212928876
    0.482905596    0.485754669    0.000000000
    0.282905459    0.319087982    0.106464416
    0.082905352    0.152421281    0.212928876
    0.482905596    0.152421355    0.000000000
    0.282905459    0.985754669    0.106464416
    0.082905352    0.819087982    0.212928876
    0.132905647    0.735754669    0.053232115
    0.932905555    0.569087982    0.159696519
    0.732905507    0.402421296    0.266160935
    0.132905647    0.402421385    0.053232115
    0.932905555    0.235754713    0.159696519
    0.732905507    0.069088012    0.266160935
    0.132905647    0.069088012    0.053232115
    0.932905555    0.902421355    0.159696519
    0.732905507    0.735754609    0.266160935
    0.979378462    0.499999970    0.266160965
    0.729378343    0.499999940    0.412928760
    0.479378223    0.499999881    0.559696615
    0.229378223    0.499999821    0.706464350
    0.979378223    0.499999732    0.853232145
    0.729377985    0.499999702    1.000000000
    0.312711775    0.666666687    0.266160935
    0.062711671    0.666666627    0.412928760
    0.812711596    0.666666567    0.559696615
    0.562711537    0.666666508    0.706464291
    0.312711477    0.666666448    0.853232086
    0.062711358    0.666666389    1.000000000
    0.646045029    0.833333313    0.266160935
    0.396044970    0.833333254    0.412928760
    0.146044835    0.833333194    0.559696615
    0.896044850    0.833333194    0.706464291
    0.646044731    0.833333075    0.853232086
    0.396044672    0.833333015    1.000000000
    0.979378462    0.000000000    0.266160965
    0.729378343    0.999999940    0.412928760
    0.479378283    0.999999881    0.559696615
    0.229378283    0.999999821    0.706464291
    0.979378223    0.999999762    0.853232086
    0.729378104    0.999999702    1.000000000
    0.312711775    0.166666657    0.266160965
    0.062711693    0.166666612    0.412928760
    0.812711596    0.166666538    0.559696555
    0.562711537    0.166666478    0.706464291
    0.312711477    0.166666433    0.853232145
    0.062711358    0.166666359    1.000000000
    0.646045148    0.333333343    0.266160965
    0.396044999    0.333333284    0.412928760
    0.146044925    0.333333224    0.559696555
    0.896044850    0.333333135    0.706464291
    0.646044850    0.333333105    0.853232145
    0.396044731    0.333333045    1.000000000
    0.146045104    0.833333373    0.266160935
    0.896044970    0.833333313    0.412928760
    0.646044850    0.833333254    0.559696615
    0.396044791    0.833333194    0.706464350
    0.146044850    0.833333135    0.853232205
    0.896044731    0.833333015    0.999999881
    0.146045104    0.333333313    0.266160965
    0.896045029    0.333333284    0.412928760
    0.646044910    0.333333224    0.559696615
    0.396044910    0.333333135    0.706464350
    0.146044850    0.333333075    0.853232086
    0.896044731    0.333333015    0.999999881
    0.479378492    0.500000000    0.266160965
    0.229378358    0.499999940    0.412928760
    0.979378223    0.499999881    0.559696615
    0.729378223    0.499999791    0.706464350
    0.479378164    0.499999762    0.853232086
    0.229378045    0.499999672    0.999999881
    0.812711656    0.666666687    0.266160965
    0.562711656    0.666666627    0.412928760
    0.312711537    0.666666508    0.559696555
    0.062711500    0.666666508    0.706464350
    0.812711418    0.666666448    0.853232145
    0.562711358    0.666666329    0.999999881
    0.479378432    0.000000000    0.266160965
    0.229378358    0.999999940    0.412928760
    0.979378223    0.999999881    0.559696555
    0.729378223    0.999999821    0.706464350
    0.479378164    0.999999762    0.853232145
    0.229378045    0.999999702    1.000000000
    0.812711775    0.166666672    0.266160965
    0.562711716    0.166666597    0.412928760
    0.312711656    0.166666567    0.559696555
    0.062711604    0.166666508    0.706464350
    0.812711596    0.166666433    0.853232086
    0.562711477    0.166666403    1.000000000
    0.146045148    0.708333373    0.266160935
    0.896044970    0.708333313    0.412928760
    0.646044910    0.708333254    0.559696615
    0.396044850    0.708333194    0.706464350
    0.146044850    0.708333135    0.853232086
    0.896044731    0.708333075    0.999999881
    0.479378432    0.875000060    0.266160935
    0.229378387    0.875000000    0.412928760
    0.979378223    0.874999940    0.559696615
    0.729378223    0.874999881    0.706464350
    0.479378223    0.874999762    0.853232086
    0.229378104    0.874999762    0.999999881
    0.146045089    0.208333328    0.266160965
    0.896045029    0.208333269    0.412928760
    0.646044910    0.208333209    0.559696555
    0.396044850    0.208333150    0.706464350
    0.146044850    0.208333105    0.853232145
    0.896044731    0.208333045    0.999999881
    0.479378492    0.375000000    0.266160965
    0.229378372    0.374999940    0.412928760
    0.979378283    0.374999881    0.559696615
    0.729378223    0.374999821    0.706464350
    0.479378223    0.374999762    0.853232145
    0.229378045    0.374999702    0.999999881
    0.812711775    0.541666687    0.266160965
    0.562711775    0.541666627    0.412928760
    0.312711626    0.541666567    0.559696615
    0.062711582    0.541666508    0.706464350
    0.812711537    0.541666448    0.853232145
    0.562711477    0.541666389    0.999999881
    0.812711835    0.041666660    0.266160935
    0.562711716    0.041666590    0.412928760
    0.312711626    0.041666526    0.559696615
    0.062711574    0.041666493    0.706464350
    0.812711537    0.041666422    0.853232145
    0.562711477    0.041666344    1.000000000
    0.979378521    0.875000060    0.266160935
    0.729378343    0.874999940    0.412928760
    0.479378283    0.874999881    0.559696615
    0.229378223    0.874999821    0.706464350
    0.979378223    0.874999762    0.853232205
    0.729378104    0.874999702    0.999999881
    0.979378462    0.374999970    0.266160935
    0.729378343    0.374999911    0.412928760
    0.479378283    0.374999851    0.559696615
    0.229378223    0.374999791    0.706464291
    0.979378223    0.374999732    0.853232086
    0.729378104    0.374999672    0.999999881
    0.312711835    0.541666687    0.266160935
    0.062711686    0.541666627    0.412928760
    0.812711596    0.541666567    0.559696615
    0.562711537    0.541666508    0.706464350
    0.312711537    0.541666448    0.853232145
    0.062711418    0.541666389    1.000000000
    0.646045089    0.708333313    0.266160935
    0.396044999    0.708333254    0.412928760
    0.146044895    0.708333194    0.559696615
    0.896044850    0.708333135    0.706464291
    0.646044850    0.708333075    0.853232086
    0.396044731    0.708333015    0.999999881
    0.312711746    0.041666649    0.266160965
    0.062711686    0.041666593    0.412928760
    0.812711596    0.041666538    0.559696555
    0.562711537    0.041666482    0.706464350
    0.312711537    0.041666433    0.853232145
    0.062711418    0.041666370    0.999999881
    0.646045208    0.208333358    0.266160965
    0.396045059    0.208333284    0.412928760
    0.146044940    0.208333209    0.559696555
    0.896044910    0.208333164    0.706464350
    0.646044850    0.208333105    0.853232145
    0.396044731    0.208333045    0.999999881
