Sn+Ge                                   
   1.00000000000000     
    14.5102920530000006    0.0000000000000000    0.0000000000000000
     0.0000000000000000   19.4676017759999986    0.0000000000000000
     0.0000000000000000    0.0000000000000000   17.4044361109999990
   Sn   Ge
    36   144
Direct
  0.9829056259999973  0.6524212960000000  0.0000000069999970
  0.7829055790000012  0.4857546089999971  0.0833712889999987
  0.5829054120000023  0.3190878930000025  0.1667425480000020
  0.9829056259999973  0.3190880120000017  0.0000000069999970
  0.7829055790000012  0.1524213249999988  0.0833712889999987
  0.5829054120000023  0.9857546089999971  0.1667425480000020
  0.9829056259999973  0.9857547280000034  0.0000000069999970
  0.7829055790000012  0.8190880419999971  0.0833712889999987
  0.5829054120000023  0.6524212960000000  0.1667425480000020
  0.6329056020000010  0.9024214149999992  0.0416855699999985
  0.4329055250000025  0.7357547280000034  0.1250568479999998
  0.2329054329999991  0.5690880419999971  0.2084280850000013
  0.6329056020000010  0.5690879819999992  0.0416855699999985
  0.4329055250000025  0.4024212960000000  0.1250568479999998
  0.2329054329999991  0.2357546089999971  0.2084280850000013
  0.6329056020000010  0.2357547579999988  0.0416855699999985
  0.4329055250000025  0.0690880639999989  0.1250568479999998
  0.2329054329999991  0.9024213550000013  0.2084280850000013
  0.4829055960000019  0.8190879229999979  0.0000000000000000
  0.2829054589999984  0.6524212360000021  0.0833712740000010
  0.0829053519999974  0.4857545790000017  0.1667425779999974
  0.4829055960000019  0.4857546690000021  0.0000000000000000
  0.2829054589999984  0.3190879819999992  0.0833712740000010
  0.0829053519999974  0.1524212810000023  0.1667425779999974
  0.4829055960000019  0.1524213550000013  0.0000000000000000
  0.2829054589999984  0.9857546690000021  0.0833712740000010
  0.0829053519999974  0.8190879819999992  0.1667425779999974
  0.1329056470000012  0.7357546690000021  0.0416855630000015
  0.9329055549999978  0.5690879819999992  0.1250568179999973
  0.7329055069999981  0.4024212960000000  0.2084280850000013
  0.1329056470000012  0.4024213849999967  0.0416855630000015
  0.9329055549999978  0.2357547129999986  0.1250568179999973
  0.7329055069999981  0.0690880120000017  0.2084280850000013
  0.1329056470000012  0.0690880120000017  0.0416855630000015
  0.9329055549999978  0.9024213550000013  0.1250568179999973
  0.7329055069999981  0.7357546089999971  0.2084280850000013
  0.4932672979999992  0.1288659719999998  0.3168829079999966
  0.2432672979999992  0.1288659570000021  0.4318153560000013
  0.9932671790000001  0.1288658380000030  0.5467477440000010
  0.7432671190000022  0.1288658380000030  0.6616802220000011
  0.4932672979999992  0.1288657189999967  0.7766126389999997
  0.2432670589999972  0.1288655999999975  0.8915451769999976
  0.1599340440000034  0.2955326140000025  0.3168829079999966
  0.9099339249999971  0.2955325840000000  0.4318153560000013
  0.6599338050000014  0.2955324950000033  0.5467477440000010
  0.4099338050000014  0.2955324050000030  0.6616802220000011
  0.1599338050000014  0.2955323460000017  0.7766126389999997
  0.9099336860000022  0.2955322859999967  0.8915451769999976
  0.8266006710000013  0.4621992710000029  0.3168829079999966
  0.5766006110000035  0.4621992109999979  0.4318153560000013
  0.3266005520000022  0.4621991519999966  0.5467477440000010
  0.0766005520000022  0.4621990919999988  0.6616802220000011
  0.8266004319999993  0.4621989729999996  0.7766126389999997
  0.5766003729999980  0.4621989729999996  0.8915451769999976
  0.4932672979999992  0.6288659570000021  0.3168829079999966
  0.2432672979999992  0.6288658980000008  0.4318153560000013
  0.9932671190000022  0.6288658380000030  0.5467477440000010
  0.7432671790000001  0.6288657189999967  0.6616802220000011
  0.4932670589999972  0.6288656589999988  0.7766126389999997
  0.2432670589999972  0.6288655999999975  0.8915451769999976
  0.1599340440000034  0.7955326439999979  0.3168828789999978
  0.9099339249999971  0.7955325249999987  0.4318153259999988
  0.6599338050000014  0.7955324650000009  0.5467477440000010
  0.4099338050000014  0.7955324050000030  0.6616802220000011
  0.1599338050000014  0.7955323460000017  0.7766126389999997
  0.9099336860000022  0.7955322859999967  0.8915451769999976
  0.8266006710000013  0.9621992710000029  0.3168828789999978
  0.5766006110000035  0.9621992109999979  0.4318153259999988
  0.3266005520000022  0.9621991519999966  0.5467477440000010
  0.0766005520000022  0.9621990320000009  0.6616802220000011
  0.8266004319999993  0.9621990320000009  0.7766126389999997
  0.5766003729999980  0.9621989130000017  0.8915451769999976
  0.9932673570000006  0.1288659570000021  0.3168829079999966
  0.7432672979999992  0.1288659570000021  0.4318153560000013
  0.4932671790000001  0.1288658380000030  0.5467477440000010
  0.2432670589999972  0.1288658380000030  0.6616802220000011
  0.9932671190000022  0.1288657189999967  0.7766126389999997
  0.7432670000000030  0.1288655999999975  0.8915451769999976
  0.6599339839999985  0.2955326439999979  0.3168829079999966
  0.4099339249999971  0.2955325539999976  0.4318153560000013
  0.1599338050000014  0.2955324950000033  0.5467477440000010
  0.9099338050000014  0.2955324050000030  0.6616802220000011
  0.6599338050000014  0.2955323460000017  0.7766126389999997
  0.4099338050000014  0.2955322859999967  0.8915451769999976
  0.3266007900000005  0.4621993299999971  0.3168829079999966
  0.0766006710000013  0.4621992710000029  0.4318153560000013
  0.8266005520000022  0.4621992109999979  0.5467477440000010
  0.5766005520000022  0.4621991519999966  0.6616802810000024
  0.3266005520000022  0.4621990320000009  0.7766126389999997
  0.0766003130000001  0.4621989729999996  0.8915451169999997
  0.9932672979999992  0.6288659570000021  0.3168829079999966
  0.7432672380000014  0.6288658380000030  0.4318153560000013
  0.4932671790000001  0.6288657779999980  0.5467477440000010
  0.2432670589999972  0.6288657189999967  0.6616802810000024
  0.9932671790000001  0.6288655999999975  0.7766126389999997
  0.7432670000000030  0.6288655399999996  0.8915451169999997
  0.6599340440000034  0.7955325840000000  0.3168829079999966
  0.4099339249999971  0.7955325249999987  0.4318153560000013
  0.1599338050000014  0.7955324650000009  0.5467477440000010
  0.9099338050000014  0.7955324050000030  0.6616802810000024
  0.6599336860000022  0.7955322859999967  0.7766126389999997
  0.4099338050000014  0.7955322270000025  0.8915451169999997
  0.3266006710000013  0.9621992710000029  0.3168829079999966
  0.0766005520000022  0.9621992710000029  0.4318153560000013
  0.8266005520000022  0.9621990919999988  0.5467478039999989
  0.5766004919999972  0.9621990919999988  0.6616802810000024
  0.3266005520000022  0.9621989729999996  0.7766126389999997
  0.0766003130000001  0.9621989130000017  0.8915451769999976
  0.1599340440000034  0.1705326140000025  0.3168829079999966
  0.9099340440000034  0.1705325539999976  0.4318153560000013
  0.6599339249999971  0.1705324799999985  0.5467477440000010
  0.4099339249999971  0.1705324050000030  0.6616802220000011
  0.1599338050000014  0.1705323609999994  0.7766126389999997
  0.9099338050000014  0.1705322709999990  0.8915451769999976
  0.8266006710000013  0.3371992710000029  0.3168829079999966
  0.5766006110000035  0.3371992109999979  0.4318153560000013
  0.3266005520000022  0.3371991220000012  0.5467477440000010
  0.0766005520000022  0.3371990919999988  0.6616802220000011
  0.8266004919999972  0.3371990030000021  0.7766126389999997
  0.5766003729999980  0.3371989130000017  0.8915452359999989
  0.4932672979999992  0.5038658980000008  0.3168829079999966
  0.2432672979999992  0.5038658980000008  0.4318153560000013
  0.9932671790000001  0.5038657779999980  0.5467477440000010
  0.7432671790000001  0.5038657189999967  0.6616802220000011
  0.4932672979999992  0.5038656589999988  0.7766126389999997
  0.2432670589999972  0.5038655399999996  0.8915452359999989
  0.1599340440000034  0.6705326439999979  0.3168828789999978
  0.9099339839999985  0.6705325249999987  0.4318153560000013
  0.6599339249999971  0.6705324650000009  0.5467478039999989
  0.4099339249999971  0.6705324050000030  0.6616802220000011
  0.1599338050000014  0.6705322859999967  0.7766126389999997
  0.9099337460000001  0.6705322270000025  0.8915451169999997
  0.8266006710000013  0.8371992109999979  0.3168828789999978
  0.5766005520000022  0.8371991519999966  0.4318153560000013
  0.3266005520000022  0.8371990919999988  0.5467477440000010
  0.0766005520000022  0.8371989729999996  0.6616802220000011
  0.8266004919999972  0.8371989130000017  0.7766126389999997
  0.5766003729999980  0.8371988529999967  0.8915451169999997
  0.4932674169999984  0.0038659570000021  0.3168828789999978
  0.2432672979999992  0.0038659570000021  0.4318153560000013
  0.9932672979999992  0.0038658380000030  0.5467478039999989
  0.7432672380000014  0.0038657189999967  0.6616802220000011
  0.4932672979999992  0.0038655999999975  0.7766126389999997
  0.2432670589999972  0.0038655999999975  0.8915451169999997
  0.6599339839999985  0.1705326290000002  0.3168829079999966
  0.4099339249999971  0.1705325539999976  0.4318153560000013
  0.1599338050000014  0.1705324950000033  0.5467477440000010
  0.9099338050000014  0.1705324050000030  0.6616802220000011
  0.6599338050000014  0.1705323309999969  0.7766126389999997
  0.4099338050000014  0.1705322709999990  0.8915451169999997
  0.3266005520000022  0.3371992710000029  0.3168829079999966
  0.0766005520000022  0.3371992109999979  0.4318153560000013
  0.8266004319999993  0.3371991519999966  0.5467477440000010
  0.5766004319999993  0.3371990620000034  0.6616802220000011
  0.3266004319999993  0.3371989729999996  0.7766126389999997
  0.0766003130000001  0.3371989130000017  0.8915451769999976
  0.9932672979999992  0.5038659570000021  0.3168829079999966
  0.7432672979999992  0.5038658980000008  0.4318153560000013
  0.4932671790000001  0.5038657779999980  0.5467477440000010
  0.2432670589999972  0.5038657779999980  0.6616802220000011
  0.9932671790000001  0.5038656589999988  0.7766126389999997
  0.7432671190000022  0.5038655999999975  0.8915451769999976
  0.6599340440000034  0.6705326439999979  0.3168829079999966
  0.4099339249999971  0.6705325840000000  0.4318153560000013
  0.1599338050000014  0.6705324650000009  0.5467477440000010
  0.9099338050000014  0.6705324050000030  0.6616802220000011
  0.6599338050000014  0.6705323460000017  0.7766126389999997
  0.4099335670000031  0.6705323460000017  0.8915451769999976
  0.3266007900000005  0.8371993299999971  0.3168828789999978
  0.0766005520000022  0.8371992710000029  0.4318153259999988
  0.8266005520000022  0.8371991519999966  0.5467478039999989
  0.5766005520000022  0.8371990919999988  0.6616802810000024
  0.3266005520000022  0.8371990320000009  0.7766126389999997
  0.0766004319999993  0.8371989130000017  0.8915451769999976
  0.9932673570000006  0.0038659570000021  0.3168828789999978
  0.7432672979999992  0.0038659570000021  0.4318153259999988
  0.4932671790000001  0.0038658380000030  0.5467478039999989
  0.2432672979999992  0.0038658380000030  0.6616802810000024
  0.9932671790000001  0.0038657189999967  0.7766126389999997
  0.7432669399999980  0.0038655999999975  0.8915451769999976
 
  0.00000000E+00  0.00000000E+00  0.00000000E+00
  0.00000000E+00  0.00000000E+00  0.00000000E+00
  0.00000000E+00  0.00000000E+00  0.00000000E+00
  0.00000000E+00  0.00000000E+00  0.00000000E+00
  0.00000000E+00  0.00000000E+00  0.00000000E+00
  0.00000000E+00  0.00000000E+00  0.00000000E+00
  0.00000000E+00  0.00000000E+00  0.00000000E+00
  0.00000000E+00  0.00000000E+00  0.00000000E+00
  0.00000000E+00  0.00000000E+00  0.00000000E+00
  0.00000000E+00  0.00000000E+00  0.00000000E+00
  0.00000000E+00  0.00000000E+00  0.00000000E+00
  0.00000000E+00  0.00000000E+00  0.00000000E+00
  0.00000000E+00  0.00000000E+00  0.00000000E+00
  0.00000000E+00  0.00000000E+00  0.00000000E+00
  0.00000000E+00  0.00000000E+00  0.00000000E+00
  0.00000000E+00  0.00000000E+00  0.00000000E+00
  0.00000000E+00  0.00000000E+00  0.00000000E+00
  0.00000000E+00  0.00000000E+00  0.00000000E+00
  0.00000000E+00  0.00000000E+00  0.00000000E+00
  0.00000000E+00  0.00000000E+00  0.00000000E+00
  0.00000000E+00  0.00000000E+00  0.00000000E+00
  0.00000000E+00  0.00000000E+00  0.00000000E+00
  0.00000000E+00  0.00000000E+00  0.00000000E+00
  0.00000000E+00  0.00000000E+00  0.00000000E+00
  0.00000000E+00  0.00000000E+00  0.00000000E+00
  0.00000000E+00  0.00000000E+00  0.00000000E+00
  0.00000000E+00  0.00000000E+00  0.00000000E+00
  0.00000000E+00  0.00000000E+00  0.00000000E+00
  0.00000000E+00  0.00000000E+00  0.00000000E+00
  0.00000000E+00  0.00000000E+00  0.00000000E+00
  0.00000000E+00  0.00000000E+00  0.00000000E+00
  0.00000000E+00  0.00000000E+00  0.00000000E+00
  0.00000000E+00  0.00000000E+00  0.00000000E+00
  0.00000000E+00  0.00000000E+00  0.00000000E+00
  0.00000000E+00  0.00000000E+00  0.00000000E+00
  0.00000000E+00  0.00000000E+00  0.00000000E+00
  0.00000000E+00  0.00000000E+00  0.00000000E+00
  0.00000000E+00  0.00000000E+00  0.00000000E+00
  0.00000000E+00  0.00000000E+00  0.00000000E+00
  0.00000000E+00  0.00000000E+00  0.00000000E+00
  0.00000000E+00  0.00000000E+00  0.00000000E+00
  0.00000000E+00  0.00000000E+00  0.00000000E+00
  0.00000000E+00  0.00000000E+00  0.00000000E+00
  0.00000000E+00  0.00000000E+00  0.00000000E+00
  0.00000000E+00  0.00000000E+00  0.00000000E+00
  0.00000000E+00  0.00000000E+00  0.00000000E+00
  0.00000000E+00  0.00000000E+00  0.00000000E+00
  0.00000000E+00  0.00000000E+00  0.00000000E+00
  0.00000000E+00  0.00000000E+00  0.00000000E+00
  0.00000000E+00  0.00000000E+00  0.00000000E+00
  0.00000000E+00  0.00000000E+00  0.00000000E+00
  0.00000000E+00  0.00000000E+00  0.00000000E+00
  0.00000000E+00  0.00000000E+00  0.00000000E+00
  0.00000000E+00  0.00000000E+00  0.00000000E+00
  0.00000000E+00  0.00000000E+00  0.00000000E+00
  0.00000000E+00  0.00000000E+00  0.00000000E+00
  0.00000000E+00  0.00000000E+00  0.00000000E+00
  0.00000000E+00  0.00000000E+00  0.00000000E+00
  0.00000000E+00  0.00000000E+00  0.00000000E+00
  0.00000000E+00  0.00000000E+00  0.00000000E+00
  0.00000000E+00  0.00000000E+00  0.00000000E+00
  0.00000000E+00  0.00000000E+00  0.00000000E+00
  0.00000000E+00  0.00000000E+00  0.00000000E+00
  0.00000000E+00  0.00000000E+00  0.00000000E+00
  0.00000000E+00  0.00000000E+00  0.00000000E+00
  0.00000000E+00  0.00000000E+00  0.00000000E+00
  0.00000000E+00  0.00000000E+00  0.00000000E+00
  0.00000000E+00  0.00000000E+00  0.00000000E+00
  0.00000000E+00  0.00000000E+00  0.00000000E+00
  0.00000000E+00  0.00000000E+00  0.00000000E+00
  0.00000000E+00  0.00000000E+00  0.00000000E+00
  0.00000000E+00  0.00000000E+00  0.00000000E+00
  0.00000000E+00  0.00000000E+00  0.00000000E+00
  0.00000000E+00  0.00000000E+00  0.00000000E+00
  0.00000000E+00  0.00000000E+00  0.00000000E+00
  0.00000000E+00  0.00000000E+00  0.00000000E+00
  0.00000000E+00  0.00000000E+00  0.00000000E+00
  0.00000000E+00  0.00000000E+00  0.00000000E+00
  0.00000000E+00  0.00000000E+00  0.00000000E+00
  0.00000000E+00  0.00000000E+00  0.00000000E+00
  0.00000000E+00  0.00000000E+00  0.00000000E+00
  0.00000000E+00  0.00000000E+00  0.00000000E+00
  0.00000000E+00  0.00000000E+00  0.00000000E+00
  0.00000000E+00  0.00000000E+00  0.00000000E+00
  0.00000000E+00  0.00000000E+00  0.00000000E+00
  0.00000000E+00  0.00000000E+00  0.00000000E+00
  0.00000000E+00  0.00000000E+00  0.00000000E+00
  0.00000000E+00  0.00000000E+00  0.00000000E+00
  0.00000000E+00  0.00000000E+00  0.00000000E+00
  0.00000000E+00  0.00000000E+00  0.00000000E+00
  0.00000000E+00  0.00000000E+00  0.00000000E+00
  0.00000000E+00  0.00000000E+00  0.00000000E+00
  0.00000000E+00  0.00000000E+00  0.00000000E+00
  0.00000000E+00  0.00000000E+00  0.00000000E+00
  0.00000000E+00  0.00000000E+00  0.00000000E+00
  0.00000000E+00  0.00000000E+00  0.00000000E+00
  0.00000000E+00  0.00000000E+00  0.00000000E+00
  0.00000000E+00  0.00000000E+00  0.00000000E+00
  0.00000000E+00  0.00000000E+00  0.00000000E+00
  0.00000000E+00  0.00000000E+00  0.00000000E+00
  0.00000000E+00  0.00000000E+00  0.00000000E+00
  0.00000000E+00  0.00000000E+00  0.00000000E+00
  0.00000000E+00  0.00000000E+00  0.00000000E+00
  0.00000000E+00  0.00000000E+00  0.00000000E+00
  0.00000000E+00  0.00000000E+00  0.00000000E+00
  0.00000000E+00  0.00000000E+00  0.00000000E+00
  0.00000000E+00  0.00000000E+00  0.00000000E+00
  0.00000000E+00  0.00000000E+00  0.00000000E+00
  0.00000000E+00  0.00000000E+00  0.00000000E+00
  0.00000000E+00  0.00000000E+00  0.00000000E+00
  0.00000000E+00  0.00000000E+00  0.00000000E+00
  0.00000000E+00  0.00000000E+00  0.00000000E+00
  0.00000000E+00  0.00000000E+00  0.00000000E+00
  0.00000000E+00  0.00000000E+00  0.00000000E+00
  0.00000000E+00  0.00000000E+00  0.00000000E+00
  0.00000000E+00  0.00000000E+00  0.00000000E+00
  0.00000000E+00  0.00000000E+00  0.00000000E+00
  0.00000000E+00  0.00000000E+00  0.00000000E+00
  0.00000000E+00  0.00000000E+00  0.00000000E+00
  0.00000000E+00  0.00000000E+00  0.00000000E+00
  0.00000000E+00  0.00000000E+00  0.00000000E+00
  0.00000000E+00  0.00000000E+00  0.00000000E+00
  0.00000000E+00  0.00000000E+00  0.00000000E+00
  0.00000000E+00  0.00000000E+00  0.00000000E+00
  0.00000000E+00  0.00000000E+00  0.00000000E+00
  0.00000000E+00  0.00000000E+00  0.00000000E+00
  0.00000000E+00  0.00000000E+00  0.00000000E+00
  0.00000000E+00  0.00000000E+00  0.00000000E+00
  0.00000000E+00  0.00000000E+00  0.00000000E+00
  0.00000000E+00  0.00000000E+00  0.00000000E+00
  0.00000000E+00  0.00000000E+00  0.00000000E+00
  0.00000000E+00  0.00000000E+00  0.00000000E+00
  0.00000000E+00  0.00000000E+00  0.00000000E+00
  0.00000000E+00  0.00000000E+00  0.00000000E+00
  0.00000000E+00  0.00000000E+00  0.00000000E+00
  0.00000000E+00  0.00000000E+00  0.00000000E+00
  0.00000000E+00  0.00000000E+00  0.00000000E+00
  0.00000000E+00  0.00000000E+00  0.00000000E+00
  0.00000000E+00  0.00000000E+00  0.00000000E+00
  0.00000000E+00  0.00000000E+00  0.00000000E+00
  0.00000000E+00  0.00000000E+00  0.00000000E+00
  0.00000000E+00  0.00000000E+00  0.00000000E+00
  0.00000000E+00  0.00000000E+00  0.00000000E+00
  0.00000000E+00  0.00000000E+00  0.00000000E+00
  0.00000000E+00  0.00000000E+00  0.00000000E+00
  0.00000000E+00  0.00000000E+00  0.00000000E+00
  0.00000000E+00  0.00000000E+00  0.00000000E+00
  0.00000000E+00  0.00000000E+00  0.00000000E+00
  0.00000000E+00  0.00000000E+00  0.00000000E+00
  0.00000000E+00  0.00000000E+00  0.00000000E+00
  0.00000000E+00  0.00000000E+00  0.00000000E+00
  0.00000000E+00  0.00000000E+00  0.00000000E+00
  0.00000000E+00  0.00000000E+00  0.00000000E+00
  0.00000000E+00  0.00000000E+00  0.00000000E+00
  0.00000000E+00  0.00000000E+00  0.00000000E+00
  0.00000000E+00  0.00000000E+00  0.00000000E+00
  0.00000000E+00  0.00000000E+00  0.00000000E+00
  0.00000000E+00  0.00000000E+00  0.00000000E+00
  0.00000000E+00  0.00000000E+00  0.00000000E+00
  0.00000000E+00  0.00000000E+00  0.00000000E+00
  0.00000000E+00  0.00000000E+00  0.00000000E+00
  0.00000000E+00  0.00000000E+00  0.00000000E+00
  0.00000000E+00  0.00000000E+00  0.00000000E+00
  0.00000000E+00  0.00000000E+00  0.00000000E+00
  0.00000000E+00  0.00000000E+00  0.00000000E+00
  0.00000000E+00  0.00000000E+00  0.00000000E+00
  0.00000000E+00  0.00000000E+00  0.00000000E+00
  0.00000000E+00  0.00000000E+00  0.00000000E+00
  0.00000000E+00  0.00000000E+00  0.00000000E+00
  0.00000000E+00  0.00000000E+00  0.00000000E+00
  0.00000000E+00  0.00000000E+00  0.00000000E+00
  0.00000000E+00  0.00000000E+00  0.00000000E+00
  0.00000000E+00  0.00000000E+00  0.00000000E+00
  0.00000000E+00  0.00000000E+00  0.00000000E+00
  0.00000000E+00  0.00000000E+00  0.00000000E+00
  0.00000000E+00  0.00000000E+00  0.00000000E+00
  0.00000000E+00  0.00000000E+00  0.00000000E+00
  0.00000000E+00  0.00000000E+00  0.00000000E+00
  0.00000000E+00  0.00000000E+00  0.00000000E+00
  0.00000000E+00  0.00000000E+00  0.00000000E+00
