Si+Sn
    1.000000000
   10.862000465    0.000000000    0.000000000
    0.000000000   16.293001175    0.000000000
    0.000000000    0.000000000   22.784736633
Si  Sn 
72     72
Direct
    0.000000000    0.994067729    0.000000000
    0.000000000    0.827401042    0.119180664
    0.000000000    0.660734296    0.238361344
    0.500000000    0.994067729    0.000000000
    0.500000000    0.827401042    0.119180664
    0.500000000    0.660734296    0.238361344
    0.000000000    0.327401072    0.000000000
    0.000000000    0.160734385    0.119180664
    0.000000000    0.994067669    0.238361344
    0.500000000    0.327401072    0.000000000
    0.500000000    0.160734385    0.119180664
    0.500000000    0.994067669    0.238361344
    0.000000000    0.660734475    0.000000000
    0.000000000    0.494067729    0.119180664
    0.000000000    0.327401042    0.238361344
    0.500000000    0.660734475    0.000000000
    0.500000000    0.494067729    0.119180664
    0.500000000    0.327401042    0.238361344
    0.125000000    0.077401057    0.059590336
    0.125000000    0.910734355    0.178771019
    0.125000000    0.744067669    0.297951698
    0.625000000    0.077401057    0.059590336
    0.625000000    0.910734355    0.178771019
    0.625000000    0.744067669    0.297951698
    0.125000000    0.410734385    0.059590336
    0.125000000    0.244067669    0.178771019
    0.125000000    0.077400953    0.297951698
    0.625000000    0.410734385    0.059590336
    0.625000000    0.244067669    0.178771019
    0.625000000    0.077400953    0.297951698
    0.125000000    0.744067788    0.059590336
    0.125000000    0.577401042    0.178771019
    0.125000000    0.410734326    0.297951698
    0.625000000    0.744067788    0.059590336
    0.625000000    0.577401042    0.178771019
    0.625000000    0.410734326    0.297951698
    0.250000000    0.160734385    0.000000000
    0.250000000    0.994067669    0.119180664
    0.250000000    0.827400982    0.238361344
    0.750000060    0.160734385    0.000000000
    0.750000060    0.994067669    0.119180664
    0.750000060    0.827400982    0.238361344
    0.250000000    0.494067729    0.000000000
    0.250000000    0.327401042    0.119180664
    0.250000000    0.160734326    0.238361344
    0.750000060    0.494067729    0.000000000
    0.750000060    0.327401042    0.119180664
    0.750000060    0.160734326    0.238361344
    0.250000000    0.827401102    0.000000000
    0.250000000    0.660734415    0.119180664
    0.250000000    0.494067729    0.238361344
    0.750000060    0.827401102    0.000000000
    0.750000060    0.660734415    0.119180664
    0.750000060    0.494067729    0.238361344
    0.375000030    0.244067729    0.059590336
    0.375000030    0.077401020    0.178771019
    0.375000030    0.910734296    0.297951698
    0.875000060    0.244067729    0.059590336
    0.875000060    0.077401020    0.178771019
    0.875000060    0.910734296    0.297951698
    0.375000030    0.577401161    0.059590336
    0.375000030    0.410734475    0.178771019
    0.375000030    0.244067714    0.297951698
    0.875000060    0.577401161    0.059590336
    0.875000060    0.410734475    0.178771019
    0.875000060    0.244067714    0.297951698
    0.375000030    0.910734355    0.059590336
    0.375000030    0.744067669    0.178771019
    0.375000030    0.577400923    0.297951698
    0.875000060    0.910734355    0.059590336
    0.875000060    0.744067669    0.178771019
    0.875000060    0.577400923    0.297951698
    0.046296295    0.994366169    0.397241652
    0.046296239    0.744366050    0.497935295
    0.046296120    0.494365931    0.598629057
    0.046296120    0.244365752    0.699322701
    0.046296120    0.994365692    0.800016344
    0.046296000    0.744365573    0.900710106
    0.379629701    0.661032856    0.397241652
    0.379629672    0.411032826    0.497935295
    0.379629582    0.161032677    0.598628998
    0.379629523    0.911032557    0.699322641
    0.379629463    0.661032498    0.800016344
    0.379629523    0.411032379    0.900710046
    0.712963045    0.327699512    0.397241652
    0.712962985    0.077699468    0.497935295
    0.712962925    0.827699304    0.598628998
    0.712962925    0.577699184    0.699322641
    0.712962866    0.327699125    0.800016344
    0.712962925    0.077699013    0.900710046
    0.046296295    0.494366169    0.397241652
    0.046296239    0.244366109    0.497935295
    0.046296120    0.994365990    0.598629057
    0.046296120    0.744365811    0.699322701
    0.046296000    0.494365811    0.800016344
    0.046296000    0.244365633    0.900710046
    0.379629672    0.161032856    0.397241652
    0.379629612    0.911032796    0.497935295
    0.379629552    0.661032677    0.598629057
    0.379629552    0.411032438    0.699322641
    0.379629523    0.161032379    0.800016344
    0.379629463    0.911032319    0.900710046
    0.712963104    0.827699602    0.397241652
    0.712963045    0.577699482    0.497935295
    0.712962985    0.327699363    0.598629057
    0.712962925    0.077699244    0.699322701
    0.712962806    0.827699184    0.800016344
    0.712962806    0.577699065    0.900710046
    0.129629567    0.661032915    0.397241682
    0.129629552    0.411032915    0.497935295
    0.129629478    0.161032766    0.598629057
    0.129629448    0.911032617    0.699322641
    0.129629359    0.661032557    0.800016344
    0.129629374    0.411032438    0.900710046
    0.462962955    0.327699512    0.397241682
    0.462962925    0.077699445    0.497935295
    0.462962866    0.827699304    0.598629057
    0.462962806    0.577699184    0.699322641
    0.462962747    0.327699125    0.800016344
    0.462962776    0.077699013    0.900710046
    0.796296299    0.994366109    0.397241682
    0.796296299    0.744366050    0.497935295
    0.796296239    0.494365931    0.598629057
    0.796296120    0.244365811    0.699322641
    0.796296120    0.994365692    0.800016344
    0.796296120    0.744365573    0.900710046
    0.129629627    0.161032826    0.397241652
    0.129629582    0.911032736    0.497935295
    0.129629567    0.661032617    0.598629057
    0.129629478    0.411032498    0.699322701
    0.129629418    0.161032438    0.800016344
    0.129629388    0.911032319    0.900710046
    0.462963015    0.827699482    0.397241652
    0.462962955    0.577699363    0.497935295
    0.462962925    0.327699274    0.598629057
    0.462962896    0.077699110    0.699322701
    0.462962806    0.827699065    0.800016344
    0.462962836    0.577698946    0.900710046
    0.796296299    0.494366169    0.397241652
    0.796296239    0.244366109    0.497935295
    0.796296239    0.994365990    0.598629057
    0.796296120    0.744365811    0.699322701
    0.796296060    0.494365752    0.800016344
    0.796296060    0.244365633    0.900710046
