Sn+Ge
    1.000000000
   12.978400230    0.000000000    0.000000000
  -12.978400230   12.978400230    0.000000000
    0.000000000    0.000000000   19.583751678
Sn  Ge 
48     60
Direct
    0.492552608    0.000000000    0.000000000
    0.242552638    0.000000000    0.165678188
    0.992552698    0.000000000    0.331356287
    0.992552638    0.000000000    0.000000000
    0.742552638    0.000000000    0.165678188
    0.492552757    0.000000000    0.331356287
    0.492552608    0.499999970    0.000000000
    0.242552638    0.499999970    0.165678188
    0.992552698    0.499999970    0.331356287
    0.992552638    0.499999970    0.000000000
    0.742552638    0.499999970    0.165678188
    0.492552698    0.499999970    0.331356287
    0.492552608    0.124999993    0.082839087
    0.242552668    0.124999993    0.248517260
    0.992552638    0.124999993    0.414195418
    0.992552638    0.124999993    0.082839087
    0.742552757    0.124999993    0.248517260
    0.492552698    0.124999993    0.414195418
    0.492552578    0.624999940    0.082839087
    0.242552638    0.624999940    0.248517260
    0.992552638    0.624999940    0.414195418
    0.992552638    0.624999940    0.082839087
    0.742552698    0.624999940    0.248517260
    0.492552698    0.624999940    0.414195418
    0.492552638    0.249999985    0.000000000
    0.242552638    0.249999985    0.165678188
    0.992552698    0.249999985    0.331356287
    0.992552638    0.249999985    0.000000000
    0.742552638    0.249999985    0.165678188
    0.492552757    0.249999985    0.331356287
    0.492552608    0.749999940    0.000000000
    0.242552593    0.749999940    0.165678188
    0.992552698    0.749999940    0.331356287
    0.992552638    0.749999940    0.000000000
    0.742552638    0.749999940    0.165678188
    0.492552698    0.749999940    0.331356287
    0.492552608    0.374999970    0.082839087
    0.242552668    0.374999970    0.248517260
    0.992552638    0.374999970    0.414195418
    0.992552638    0.374999970    0.082839087
    0.742552757    0.374999970    0.248517260
    0.492552698    0.374999970    0.414195418
    0.492552608    0.874999940    0.082839087
    0.242552698    0.874999940    0.248517260
    0.992552638    0.874999940    0.414195418
    0.992552638    0.874999940    0.082839087
    0.742552757    0.874999940    0.248517260
    0.492552757    0.874999940    0.414195418
    0.936118186    0.416531444    0.526533484
    0.836118162    0.516531467    0.670984805
    0.736118078    0.616531491    0.815436304
    0.136118174    0.216531441    0.526533484
    0.036118150    0.316531479    0.670984805
    0.936118126    0.416531503    0.815436304
    0.736118257    0.616531491    0.526533484
    0.636118174    0.716531515    0.670984805
    0.536118150    0.816531539    0.815436304
    0.536118269    0.816531479    0.526533484
    0.436118186    0.916531503    0.670984805
    0.336118162    0.016531587    0.815436304
    0.336118221    0.016531587    0.526533484
    0.236118183    0.116531610    0.670984805
    0.136118174    0.216531530    0.815436304
    0.036118269    0.566531479    0.598759174
    0.936118186    0.666531503    0.743210614
    0.836118162    0.766531527    0.887661994
    0.236118197    0.366531461    0.598759174
    0.136118174    0.466531515    0.743210614
    0.036118150    0.566531539    0.887661994
    0.836118221    0.766531467    0.598759174
    0.736118138    0.866531551    0.743210614
    0.636118114    0.966531575    0.887661994
    0.636118233    0.966531456    0.598759174
    0.536118209    0.066531539    0.743210614
    0.436118156    0.166531563    0.887661994
    0.436118156    0.166531563    0.598759174
    0.336118132    0.266531587    0.743210614
    0.236118078    0.366531610    0.887661994
    0.536118269    0.316531450    0.526533484
    0.436118215    0.416531503    0.670984805
    0.336118162    0.516531527    0.815436304
    0.336118221    0.516531467    0.526533484
    0.236118183    0.616531491    0.670984805
    0.136118174    0.716531515    0.815436304
    0.936118186    0.916531503    0.526533484
    0.836118162    0.016531587    0.670984805
    0.736118138    0.116531610    0.815436304
    0.136118174    0.716531456    0.526533484
    0.036118269    0.816531479    0.670984805
    0.936118126    0.916531563    0.815436304
    0.736118138    0.116531610    0.526533484
    0.636118114    0.216531530    0.670984805
    0.536118031    0.316531658    0.815436304
    0.836118221    0.266531467    0.598759174
    0.736118138    0.366531491    0.743210614
    0.636118114    0.466531575    0.887661994
    0.636118174    0.466531456    0.598759174
    0.536118150    0.566531539    0.743210614
    0.436118126    0.666531563    0.887661994
    0.436118186    0.666531503    0.598759174
    0.336118162    0.766531527    0.743210614
    0.236118123    0.866531551    0.887661994
    0.036118269    0.066531539    0.598759174
    0.936118245    0.166531563    0.743210614
    0.836118221    0.266531587    0.887661994
    0.236118168    0.866531491    0.598759174
    0.136118174    0.966531515    0.743210614
    0.036118031    0.066531539    0.887661994
