Ge+Ge
    1.000000000
    8.001338005    0.000000000    0.000000000
    4.000669003   12.002006531    0.000000000
    0.000000000    0.000000000   11.413372993
Ge 
48
Direct
    0.660972118    0.660972118    0.000000000
    0.494305372    0.494305462    0.247858346
    0.327638626    0.327638775    0.495716751
    0.327638805    0.327638805    0.000000000
    0.160972089    0.160972148    0.247858346
    0.994305313    0.994305491    0.495716751
    0.994305491    0.994305491    0.000000000
    0.827638805    0.827638865    0.247858346
    0.660971999    0.660972178    0.495716751
    0.410972089    0.660972059    0.123929173
    0.244305372    0.494305402    0.371787578
    0.077638626    0.327638716    0.619645953
    0.744305491    0.994305491    0.123929173
    0.577638686    0.827638865    0.371787578
    0.410971940    0.660972118    0.619645953
    0.077638842    0.327638835    0.123929173
    0.910972118    0.160972148    0.371787578
    0.744305372    0.994305432    0.619645953
    0.827638745    0.327638835    0.000000000
    0.660972059    0.160972178    0.247858346
    0.494305313    0.994305491    0.495716751
    0.160972208    0.660972118    0.000000000
    0.994305491    0.494305491    0.247858346
    0.827638745    0.327638775    0.495716751
    0.494305432    0.994305491    0.000000000
    0.327638716    0.827638865    0.247858346
    0.160971999    0.660972118    0.495716751
    0.910972297    0.660972059    0.123929173
    0.744305491    0.494305402    0.371787578
    0.577638745    0.327638716    0.619645953
    0.577638805    0.327638835    0.123929173
    0.410972029    0.160972148    0.371787578
    0.244305283    0.994305432    0.619645953
    0.244305477    0.994305491    0.123929173
    0.077638723    0.827638865    0.371787578
    0.910971999    0.660972118    0.619645953
    0.002043009    0.052827001    0.706548631
    0.890931845    0.775049150    0.789168119
    0.779820681    0.497271299    0.871787667
    0.502042949    0.052827001    0.706548631
    0.390931815    0.775049090    0.789168119
    0.279820681    0.497271299    0.871787667
    0.696487367    0.163938016    0.747858405
    0.585376203    0.886160195    0.830477893
    0.474265039    0.608382344    0.913097382
    0.196487382    0.163938016    0.747858405
    0.085376240    0.886160195    0.830477893
    0.974265099    0.608382285    0.913097382
