Sn+Si                                   
   1.00000000000000     
    19.4675998690000007    0.0000000000000000    0.0000000000000000
     0.0000000000000000   19.4675998690000007    0.0000000000000000
     0.0000000000000000    0.0000000000000000   19.3002529140000014
   Sn   Si
   108   156
Direct
  0.1110792160000003  0.5917547940000034  0.8860117790000004
  0.8283684250000007  0.6666666870000029  0.1681117859999972
  0.6617017390000015  0.6666666870000029  0.3362235430000027
  0.3418484330000027  0.4379086200000017  0.8860117790000004
  0.8283684250000007  0.3333333429999996  0.1681117859999972
  0.6617017390000015  0.3333333429999996  0.3362235430000027
  0.9950351119999965  0.0000000000000000  0.0000000000000000
  0.5726176499999980  0.2840625349999968  0.8860117790000004
  0.4764640329999992  0.7648316619999989  0.5342675449999987
  0.3283684550000032  0.6666666870000029  0.0000000000000000
  0.1617017390000015  0.6666666870000029  0.1681117859999972
  0.9950351119999965  0.6666666870000029  0.3362235430000027
  0.3283684550000032  0.3333333429999996  0.0000000000000000
  0.4572330419999986  0.8609855179999997  0.8860117790000004
  0.9950351119999965  0.3333333429999996  0.3362235430000027
  0.4187714760000034  0.0532932280000011  0.8860117790000004
  0.1617017390000015  0.0000000000000000  0.1681117859999972
  0.9950351119999965  0.0000000000000000  0.3362235430000027
  0.6617017980000028  0.6666666870000029  0.0000000000000000
  0.9572329519999982  0.3609855770000010  0.8860117790000004
  0.3283684550000032  0.6666666870000029  0.3362235430000027
  0.6617017980000028  0.3333333429999996  0.0000000000000000
  0.8803099390000000  0.7456009389999991  0.8860117790000004
  0.3283684550000032  0.3333333429999996  0.3362235430000027
  0.4956945779999984  0.6686779260000009  0.8860117790000004
  0.9572333099999994  0.8609855179999997  0.7453140619999985
  0.3283684550000032  0.0000000000000000  0.3362235430000027
  0.0783684330000014  0.9166667459999971  0.0840558929999986
  0.9117017980000028  0.9166667459999971  0.2521676120000009
  0.8610793349999994  0.8417546749999971  0.5342675449999987
  0.0783684330000014  0.5833334330000000  0.0840558929999986
  0.2072331910000003  0.1109854059999975  0.5342675449999987
  0.0918487309999989  0.6879085899999993  0.5342675449999987
  0.0783684330000014  0.2500000000000000  0.0840558929999986
  0.9117017980000028  0.2500000000000000  0.2521676120000009
  0.7450350519999986  0.2500000000000000  0.4202794429999983
  0.4117017689999969  0.9166667459999971  0.0840558929999986
  0.7072332500000016  0.6109855179999997  0.5342675449999987
  0.0783683809999971  0.9166667459999971  0.4202794429999983
  0.8033868670000004  0.1302163900000011  0.8860117790000004
  0.6303101780000020  0.9956008790000013  0.5342675449999987
  0.0783683809999971  0.5833334330000000  0.4202794429999983
  0.4117017689999969  0.2500000000000000  0.0840558929999986
  0.7072331310000024  0.1109855400000015  0.6749652029999993
  0.1687717439999972  0.3032931689999998  0.5342675449999987
  0.7450351720000015  0.9166667459999971  0.0840558929999986
  0.5783685450000036  0.9166667459999971  0.2521676120000009
  0.4117017980000028  0.9166667459999971  0.4202794429999983
  0.8418485520000019  0.9379086490000006  0.8860117790000004
  0.5783685450000036  0.5833334330000000  0.2521676120000009
  0.4117017980000028  0.5833334330000000  0.4202794429999983
  0.7450351720000015  0.2500000000000000  0.0840558929999986
  0.3226178290000021  0.5340623860000022  0.5342675449999987
  0.2456947570000025  0.9186777469999967  0.5342675449999987
  0.1617017689999969  0.8333333129999971  0.0000000000000000
  0.9950350519999986  0.8333333129999971  0.1681117859999972
  0.8283684250000007  0.8333333129999971  0.3362235430000027
  0.1617017689999969  0.5000000000000000  0.0000000000000000
  0.9950350519999986  0.5000000000000000  0.1681117859999972
  0.8283684250000007  0.5000000000000000  0.3362235430000027
  0.1617017689999969  0.1666666719999981  0.0000000000000000
  0.2649253310000006  0.8225240709999966  0.8860117790000004
  0.8283684250000007  0.1666666719999981  0.3362235430000027
  0.0726176499999980  0.7840624450000035  0.8860117790000004
  0.4764638540000021  0.7648317809999980  0.8156629200000012
  0.5533871049999988  0.3802162409999994  0.5342675449999987
  0.4950351119999965  0.5000000000000000  0.0000000000000000
  0.3283684250000007  0.5000000000000000  0.1681117859999972
  0.1617017539999992  0.5000000000000000  0.3362235430000027
  0.4950351119999965  0.1666666719999981  0.0000000000000000
  0.3033869269999983  0.6302163000000007  0.8860117790000004
  0.1617017539999992  0.1666666719999981  0.3362235430000027
  0.8283685450000036  0.8333333129999971  0.0000000000000000
  0.9187713860000031  0.5532932280000011  0.8860117790000004
  0.5918486710000010  0.1879084999999989  0.5342675449999987
  0.9956945180000005  0.1686778369999971  0.8860117790000004
  0.6617018580000007  0.5000000000000000  0.1681117859999972
  0.4950352010000003  0.5000000000000000  0.3362235430000027
  0.8283685450000036  0.1666666719999981  0.0000000000000000
  0.1495407820000025  0.3994470539999995  0.8860117790000004
  0.4950352010000003  0.1666666719999981  0.3362235430000027
  0.2450350969999988  0.7500000599999979  0.0840558929999986
  0.0783684330000014  0.7500000599999979  0.2521676120000009
  0.9117017390000015  0.7500000599999979  0.4202794429999983
  0.2450350969999988  0.4166667160000017  0.0840558929999986
  0.0533870459999974  0.8802163000000007  0.5342675449999987
  0.9117017390000015  0.4166667160000017  0.4202794429999983
  0.2450350969999988  0.0833333429999996  0.0840558929999986
  0.2264639879999990  0.0148315429999997  0.6046164039999979
  0.9117017390000015  0.0833333429999996  0.4202794429999983
  0.5783684849999986  0.7500000599999979  0.0840558929999986
  0.4117018580000007  0.7500000599999979  0.2521676120000009
  0.2450351270000013  0.7500000599999979  0.4202794429999983
  0.5783684849999986  0.4166667160000017  0.0840558929999986
  0.8995409010000017  0.6494469639999991  0.5342675449999987
  0.2450351270000013  0.4166667160000017  0.4202794429999983
  0.5783684849999986  0.0833333429999996  0.0840558929999986
  0.6687717439999972  0.8032930489999970  0.5342675449999987
  0.8226178290000021  0.0340625050000014  0.5342675449999987
  0.7264639140000000  0.5148317219999967  0.8860117790000004
  0.7450350519999986  0.7500000599999979  0.2521676120000009
  0.7456948159999968  0.4186777769999992  0.5342675449999987
  0.9117017390000015  0.4166667160000017  0.0840558929999986
  0.0149255990000015  0.0725240709999966  0.5342675449999987
  0.5783683659999994  0.4166667160000017  0.4202794429999983
  0.9117017390000015  0.0833333429999996  0.0840558929999986
  0.7450350519999986  0.0833333429999996  0.2521676120000009
  0.5783683659999994  0.0833333429999996  0.4202794429999983
  0.9764640929999970  0.2648315730000022  0.5342675449999987
  0.8610793949999973  0.3417547049999996  0.6749652029999993
  0.7456946969999976  0.4186778660000030  0.8156629200000012
  0.1303102970000012  0.4956007899999975  0.5342675449999987
  0.0149255990000015  0.5725238919999995  0.6749652029999993
  0.8995408420000004  0.6494470239999970  0.8156629200000012
  0.4950352010000003  0.8333333129999971  0.3362235430000027
  0.4764639739999978  0.2648316320000035  0.6749652029999993
  0.3610792759999981  0.3417547640000009  0.8156629200000012
  0.5783683659999994  0.7500000599999979  0.4202794429999983
  0.6303101179999970  0.4956009089999966  0.6749652029999993
  0.5149254199999973  0.5725240109999987  0.8156629200000012
  0.4117018580000007  0.4166667160000017  0.2521676120000009
  0.7841562030000020  0.7263700959999966  0.6749652029999993
  0.6687715050000023  0.8032932280000011  0.8156629200000012
  0.0783684330000014  0.4166667160000017  0.2521676120000009
  0.9380023479999977  0.9571394319999982  0.6749652029999993
  0.8226176499999980  0.0340626240000006  0.8156629200000012
  0.9117017980000028  0.5833334330000000  0.2521676120000009
  0.0918484930000005  0.1879085300000014  0.6749652029999993
  0.9764637950000008  0.2648316619999989  0.8156629200000012
  0.3610793949999973  0.3417546749999971  0.5342675449999987
  0.2456946969999976  0.4186778070000017  0.6749652029999993
  0.1303099390000000  0.4956009389999991  0.8156629200000012
  0.5149255390000036  0.5725239519999974  0.5342675449999987
  0.3995408420000004  0.6494470239999970  0.6749652029999993
  0.2841561440000007  0.7263701560000015  0.8156629200000012
  0.4117018580000007  0.0833333429999996  0.2521676120000009
  0.5533870459999974  0.8802161810000015  0.6749652029999993
  0.4380023180000023  0.9571393129999990  0.8156629200000012
  0.2450351270000013  0.0833333429999996  0.4202794429999983
  0.2450350969999988  0.2500000000000000  0.2521676120000009
  0.5918484330000027  0.1879086790000031  0.8156629200000012
  0.2841562930000023  0.7263700370000024  0.5342675449999987
  0.1687716249999980  0.8032931689999998  0.6749652029999993
  0.0533869269999983  0.8802163599999986  0.8156629200000012
  0.4380024669999969  0.9571392539999977  0.5342675449999987
  0.3226177689999972  0.0340623860000022  0.6749652029999993
  0.2072330709999974  0.1109855400000015  0.8156629200000012
  0.1880024669999969  0.2071392829999965  0.6046164039999979
  0.0726177689999972  0.2840624150000011  0.7453140619999985
  0.4950351119999965  0.6666666870000029  0.1681117859999972
  0.8033870459999974  0.1302162710000019  0.6046164039999979
  0.6880024080000027  0.2071394029999993  0.7453140619999985
  0.8283684250000007  0.0000000000000000  0.1681117859999972
  0.9572333099999994  0.3609854279999993  0.6046164039999979
  0.8418486119999997  0.4379085899999993  0.7453140619999985
  0.9117017390000015  0.7500000599999979  0.0840558929999986
  0.1110794539999986  0.5917546749999971  0.6046164039999979
  0.9956946969999976  0.6686778070000017  0.7453140619999985
  0.4950351119999965  0.3333333429999996  0.1681117859999972
  0.5726178880000035  0.2840623559999997  0.6046164039999979
  0.4572331910000003  0.3609854879999972  0.7453140619999985
  0.9950351119999965  0.3333333429999996  0.0000000000000000
  0.7264639739999978  0.5148316619999989  0.6046164039999979
  0.6110792759999981  0.5917547940000034  0.7453140619999985
  0.6617017980000028  0.0000000000000000  0.0000000000000000
  0.8803101179999970  0.7456008199999999  0.6046164039999979
  0.7649254199999973  0.8225239519999974  0.7453140619999985
  0.6495407219999976  0.8994470829999983  0.8860117790000004
  0.0341563220000012  0.9763700959999966  0.6046164039999979
  0.9187715650000001  0.0532932280000011  0.7453140619999985
  0.4117017689999969  0.5833334330000000  0.0840558929999986
  0.3418486119999997  0.4379085300000014  0.6046164039999979
  0.2264639140000000  0.5148316029999975  0.7453140619999985
  0.9950351119999965  0.6666666870000029  0.0000000000000000
  0.4956947570000025  0.6686778070000017  0.6046164039999979
  0.3803100590000028  0.7456008790000013  0.7453140619999985
  0.9950350519999986  0.1666666719999981  0.1681117859999972
  0.6495409010000017  0.8994469639999991  0.6046164039999979
  0.5341562030000020  0.9763700959999966  0.7453140619999985
  0.3283684550000032  0.0000000000000000  0.0000000000000000
  0.2649255099999976  0.8225238919999995  0.6046164039999979
  0.1495407820000025  0.8994470829999983  0.7453140619999985
  0.0341560840000028  0.9763701560000015  0.8860117790000004
  0.4187716839999993  0.0532931090000019  0.6046164039999979
  0.3033869559999971  0.1302162710000019  0.7453140619999985
  0.1880022289999985  0.2071394029999993  0.8860117790000004
  0.0783683809999971  0.2500000000000000  0.4202794429999983
  0.0533870459999974  0.3802163000000007  0.6749652029999993
  0.9380022879999999  0.4571394620000007  0.8156629200000012
  0.7841562629999999  0.2263700660000012  0.5342675449999987
  0.6687715650000001  0.3032931979999987  0.6749652029999993
  0.5533868670000004  0.3802163300000032  0.8156629200000012
  0.9380025270000019  0.4571393729999969  0.5342675449999987
  0.8226177689999972  0.5340625050000014  0.6749652029999993
  0.7072331310000024  0.6109856369999989  0.8156629200000012
  0.7450350519999986  0.5833334330000000  0.4202794429999983
  0.9764639140000000  0.7648317219999967  0.6749652029999993
  0.8610792160000003  0.8417548540000013  0.8156629200000012
  0.3995409609999996  0.1494469639999991  0.5342675449999987
  0.2841562629999999  0.2263700959999966  0.6749652029999993
  0.1687715050000023  0.3032932280000011  0.8156629200000012
  0.1617017539999992  0.8333333129999971  0.3362235430000027
  0.4380024080000027  0.4571393729999969  0.6749652029999993
  0.3226177100000029  0.5340625050000014  0.8156629200000012
  0.2450350969999988  0.9166667459999971  0.2521676120000009
  0.5918485520000019  0.6879086490000006  0.6749652029999993
  0.3283684250000007  0.8333333129999971  0.1681117859999972
  0.7450350519999986  0.9166667459999971  0.4202794429999983
  0.7456946369999997  0.9186778070000017  0.6749652029999993
  0.6303099390000000  0.9956009389999991  0.8156629200000012
  0.7450350519999986  0.4166667160000017  0.2521676120000009
  0.8995408420000004  0.1494471130000008  0.6749652029999993
  0.7841561440000007  0.2263702449999982  0.8156629200000012
  0.5783685450000036  0.2500000000000000  0.2521676120000009
  0.2072331910000003  0.6109855179999997  0.6749652029999993
  0.0918484930000005  0.6879086490000006  0.8156629200000012
  0.6617017390000015  0.0000000000000000  0.3362235430000027
  0.3610793349999994  0.8417547940000034  0.6749652029999993
  0.2456946220000020  0.9186779260000009  0.8156629200000012
  0.2450350969999988  0.5833334330000000  0.2521676120000009
  0.5149254800000023  0.0725240709999966  0.6749652029999993
  0.3995407820000025  0.1494471130000008  0.8156629200000012
  0.4117017980000028  0.2500000000000000  0.4202794429999983
  0.1303100590000028  0.9956008790000013  0.6749652029999993
  0.0149253610000031  0.0725240709999966  0.8156629200000012
  0.9956948760000017  0.1686777319999990  0.6046164039999979
  0.8803101179999970  0.2456008790000013  0.7453140619999985
  0.7649254199999973  0.3225240109999987  0.8860117790000004
  0.1495409010000017  0.3994469639999991  0.6046164039999979
  0.0341562030000020  0.4763701259999991  0.7453140619999985
  0.6617018580000007  0.8333333129999971  0.1681117859999972
  0.7649255990000015  0.3225238919999995  0.6046164039999979
  0.6495409010000017  0.3994470239999970  0.7453140619999985
  0.5341562030000020  0.4763701859999969  0.8860117790000004
  0.9187718029999985  0.5532931090000019  0.6046164039999979
  0.8033871049999988  0.6302162409999994  0.7453140619999985
  0.6880024080000027  0.7071393729999969  0.8860117790000004
  0.0726180079999992  0.7840623860000022  0.6046164039999979
  0.4950351119999965  0.0000000000000000  0.1681117859999972
  0.7450351720000015  0.5833334330000000  0.0840558929999986
  0.3803101780000020  0.2456007600000021  0.6046164039999979
  0.2649254499999998  0.3225238919999995  0.7453140619999985
  0.6617018580000007  0.1666666719999981  0.1681117859999972
  0.5341563220000012  0.4763700660000012  0.6046164039999979
  0.4187716249999980  0.5532931689999998  0.7453140619999985
  0.3283684250000007  0.1666666719999981  0.1681117859999972
  0.6880024669999969  0.7071392539999977  0.6046164039999979
  0.5726177689999972  0.7840623860000022  0.7453140619999985
  0.1617017390000015  0.3333333429999996  0.1681117859999972
  0.8418486710000010  0.9379085899999993  0.6046164039999979
  0.7264639739999978  0.0148317809999980  0.7453140619999985
  0.6110792160000003  0.0917549130000026  0.8860117790000004
  0.3033870459999974  0.6302161810000015  0.6046164039999979
  0.1880023479999977  0.7071393129999990  0.7453140619999985
  0.4950351119999965  0.8333333129999971  0.0000000000000000
  0.4572332199999991  0.8609853979999968  0.6046164039999979
  0.3418484930000005  0.9379085300000014  0.7453140619999985
  0.2264637800000031  0.0148317809999980  0.8860117790000004
  0.6110794539999986  0.0917547940000034  0.6046164039999979
  0.4956947570000025  0.1686779560000033  0.7453140619999985
  0.3803100290000003  0.2456010880000008  0.8860117790000004
  0.0783684330000014  0.0833333429999996  0.2521676120000009
  0.1110792160000003  0.0917547940000034  0.7453140619999985
  0.8283685450000036  0.5000000000000000  0.0000000000000000
 
  0.00000000E+00  0.00000000E+00  0.00000000E+00
  0.00000000E+00  0.00000000E+00  0.00000000E+00
  0.00000000E+00  0.00000000E+00  0.00000000E+00
  0.00000000E+00  0.00000000E+00  0.00000000E+00
  0.00000000E+00  0.00000000E+00  0.00000000E+00
  0.00000000E+00  0.00000000E+00  0.00000000E+00
  0.00000000E+00  0.00000000E+00  0.00000000E+00
  0.00000000E+00  0.00000000E+00  0.00000000E+00
  0.00000000E+00  0.00000000E+00  0.00000000E+00
  0.00000000E+00  0.00000000E+00  0.00000000E+00
  0.00000000E+00  0.00000000E+00  0.00000000E+00
  0.00000000E+00  0.00000000E+00  0.00000000E+00
  0.00000000E+00  0.00000000E+00  0.00000000E+00
  0.00000000E+00  0.00000000E+00  0.00000000E+00
  0.00000000E+00  0.00000000E+00  0.00000000E+00
  0.00000000E+00  0.00000000E+00  0.00000000E+00
  0.00000000E+00  0.00000000E+00  0.00000000E+00
  0.00000000E+00  0.00000000E+00  0.00000000E+00
  0.00000000E+00  0.00000000E+00  0.00000000E+00
  0.00000000E+00  0.00000000E+00  0.00000000E+00
  0.00000000E+00  0.00000000E+00  0.00000000E+00
  0.00000000E+00  0.00000000E+00  0.00000000E+00
  0.00000000E+00  0.00000000E+00  0.00000000E+00
  0.00000000E+00  0.00000000E+00  0.00000000E+00
  0.00000000E+00  0.00000000E+00  0.00000000E+00
  0.00000000E+00  0.00000000E+00  0.00000000E+00
  0.00000000E+00  0.00000000E+00  0.00000000E+00
  0.00000000E+00  0.00000000E+00  0.00000000E+00
  0.00000000E+00  0.00000000E+00  0.00000000E+00
  0.00000000E+00  0.00000000E+00  0.00000000E+00
  0.00000000E+00  0.00000000E+00  0.00000000E+00
  0.00000000E+00  0.00000000E+00  0.00000000E+00
  0.00000000E+00  0.00000000E+00  0.00000000E+00
  0.00000000E+00  0.00000000E+00  0.00000000E+00
  0.00000000E+00  0.00000000E+00  0.00000000E+00
  0.00000000E+00  0.00000000E+00  0.00000000E+00
  0.00000000E+00  0.00000000E+00  0.00000000E+00
  0.00000000E+00  0.00000000E+00  0.00000000E+00
  0.00000000E+00  0.00000000E+00  0.00000000E+00
  0.00000000E+00  0.00000000E+00  0.00000000E+00
  0.00000000E+00  0.00000000E+00  0.00000000E+00
  0.00000000E+00  0.00000000E+00  0.00000000E+00
  0.00000000E+00  0.00000000E+00  0.00000000E+00
  0.00000000E+00  0.00000000E+00  0.00000000E+00
  0.00000000E+00  0.00000000E+00  0.00000000E+00
  0.00000000E+00  0.00000000E+00  0.00000000E+00
  0.00000000E+00  0.00000000E+00  0.00000000E+00
  0.00000000E+00  0.00000000E+00  0.00000000E+00
  0.00000000E+00  0.00000000E+00  0.00000000E+00
  0.00000000E+00  0.00000000E+00  0.00000000E+00
  0.00000000E+00  0.00000000E+00  0.00000000E+00
  0.00000000E+00  0.00000000E+00  0.00000000E+00
  0.00000000E+00  0.00000000E+00  0.00000000E+00
  0.00000000E+00  0.00000000E+00  0.00000000E+00
  0.00000000E+00  0.00000000E+00  0.00000000E+00
  0.00000000E+00  0.00000000E+00  0.00000000E+00
  0.00000000E+00  0.00000000E+00  0.00000000E+00
  0.00000000E+00  0.00000000E+00  0.00000000E+00
  0.00000000E+00  0.00000000E+00  0.00000000E+00
  0.00000000E+00  0.00000000E+00  0.00000000E+00
  0.00000000E+00  0.00000000E+00  0.00000000E+00
  0.00000000E+00  0.00000000E+00  0.00000000E+00
  0.00000000E+00  0.00000000E+00  0.00000000E+00
  0.00000000E+00  0.00000000E+00  0.00000000E+00
  0.00000000E+00  0.00000000E+00  0.00000000E+00
  0.00000000E+00  0.00000000E+00  0.00000000E+00
  0.00000000E+00  0.00000000E+00  0.00000000E+00
  0.00000000E+00  0.00000000E+00  0.00000000E+00
  0.00000000E+00  0.00000000E+00  0.00000000E+00
  0.00000000E+00  0.00000000E+00  0.00000000E+00
  0.00000000E+00  0.00000000E+00  0.00000000E+00
  0.00000000E+00  0.00000000E+00  0.00000000E+00
  0.00000000E+00  0.00000000E+00  0.00000000E+00
  0.00000000E+00  0.00000000E+00  0.00000000E+00
  0.00000000E+00  0.00000000E+00  0.00000000E+00
  0.00000000E+00  0.00000000E+00  0.00000000E+00
  0.00000000E+00  0.00000000E+00  0.00000000E+00
  0.00000000E+00  0.00000000E+00  0.00000000E+00
  0.00000000E+00  0.00000000E+00  0.00000000E+00
  0.00000000E+00  0.00000000E+00  0.00000000E+00
  0.00000000E+00  0.00000000E+00  0.00000000E+00
  0.00000000E+00  0.00000000E+00  0.00000000E+00
  0.00000000E+00  0.00000000E+00  0.00000000E+00
  0.00000000E+00  0.00000000E+00  0.00000000E+00
  0.00000000E+00  0.00000000E+00  0.00000000E+00
  0.00000000E+00  0.00000000E+00  0.00000000E+00
  0.00000000E+00  0.00000000E+00  0.00000000E+00
  0.00000000E+00  0.00000000E+00  0.00000000E+00
  0.00000000E+00  0.00000000E+00  0.00000000E+00
  0.00000000E+00  0.00000000E+00  0.00000000E+00
  0.00000000E+00  0.00000000E+00  0.00000000E+00
  0.00000000E+00  0.00000000E+00  0.00000000E+00
  0.00000000E+00  0.00000000E+00  0.00000000E+00
  0.00000000E+00  0.00000000E+00  0.00000000E+00
  0.00000000E+00  0.00000000E+00  0.00000000E+00
  0.00000000E+00  0.00000000E+00  0.00000000E+00
  0.00000000E+00  0.00000000E+00  0.00000000E+00
  0.00000000E+00  0.00000000E+00  0.00000000E+00
  0.00000000E+00  0.00000000E+00  0.00000000E+00
  0.00000000E+00  0.00000000E+00  0.00000000E+00
  0.00000000E+00  0.00000000E+00  0.00000000E+00
  0.00000000E+00  0.00000000E+00  0.00000000E+00
  0.00000000E+00  0.00000000E+00  0.00000000E+00
  0.00000000E+00  0.00000000E+00  0.00000000E+00
  0.00000000E+00  0.00000000E+00  0.00000000E+00
  0.00000000E+00  0.00000000E+00  0.00000000E+00
  0.00000000E+00  0.00000000E+00  0.00000000E+00
  0.00000000E+00  0.00000000E+00  0.00000000E+00
  0.00000000E+00  0.00000000E+00  0.00000000E+00
  0.00000000E+00  0.00000000E+00  0.00000000E+00
  0.00000000E+00  0.00000000E+00  0.00000000E+00
  0.00000000E+00  0.00000000E+00  0.00000000E+00
  0.00000000E+00  0.00000000E+00  0.00000000E+00
  0.00000000E+00  0.00000000E+00  0.00000000E+00
  0.00000000E+00  0.00000000E+00  0.00000000E+00
  0.00000000E+00  0.00000000E+00  0.00000000E+00
  0.00000000E+00  0.00000000E+00  0.00000000E+00
  0.00000000E+00  0.00000000E+00  0.00000000E+00
  0.00000000E+00  0.00000000E+00  0.00000000E+00
  0.00000000E+00  0.00000000E+00  0.00000000E+00
  0.00000000E+00  0.00000000E+00  0.00000000E+00
  0.00000000E+00  0.00000000E+00  0.00000000E+00
  0.00000000E+00  0.00000000E+00  0.00000000E+00
  0.00000000E+00  0.00000000E+00  0.00000000E+00
  0.00000000E+00  0.00000000E+00  0.00000000E+00
  0.00000000E+00  0.00000000E+00  0.00000000E+00
  0.00000000E+00  0.00000000E+00  0.00000000E+00
  0.00000000E+00  0.00000000E+00  0.00000000E+00
  0.00000000E+00  0.00000000E+00  0.00000000E+00
  0.00000000E+00  0.00000000E+00  0.00000000E+00
  0.00000000E+00  0.00000000E+00  0.00000000E+00
  0.00000000E+00  0.00000000E+00  0.00000000E+00
  0.00000000E+00  0.00000000E+00  0.00000000E+00
  0.00000000E+00  0.00000000E+00  0.00000000E+00
  0.00000000E+00  0.00000000E+00  0.00000000E+00
  0.00000000E+00  0.00000000E+00  0.00000000E+00
  0.00000000E+00  0.00000000E+00  0.00000000E+00
  0.00000000E+00  0.00000000E+00  0.00000000E+00
  0.00000000E+00  0.00000000E+00  0.00000000E+00
  0.00000000E+00  0.00000000E+00  0.00000000E+00
  0.00000000E+00  0.00000000E+00  0.00000000E+00
  0.00000000E+00  0.00000000E+00  0.00000000E+00
  0.00000000E+00  0.00000000E+00  0.00000000E+00
  0.00000000E+00  0.00000000E+00  0.00000000E+00
  0.00000000E+00  0.00000000E+00  0.00000000E+00
  0.00000000E+00  0.00000000E+00  0.00000000E+00
  0.00000000E+00  0.00000000E+00  0.00000000E+00
  0.00000000E+00  0.00000000E+00  0.00000000E+00
  0.00000000E+00  0.00000000E+00  0.00000000E+00
  0.00000000E+00  0.00000000E+00  0.00000000E+00
  0.00000000E+00  0.00000000E+00  0.00000000E+00
  0.00000000E+00  0.00000000E+00  0.00000000E+00
  0.00000000E+00  0.00000000E+00  0.00000000E+00
  0.00000000E+00  0.00000000E+00  0.00000000E+00
  0.00000000E+00  0.00000000E+00  0.00000000E+00
  0.00000000E+00  0.00000000E+00  0.00000000E+00
  0.00000000E+00  0.00000000E+00  0.00000000E+00
  0.00000000E+00  0.00000000E+00  0.00000000E+00
  0.00000000E+00  0.00000000E+00  0.00000000E+00
  0.00000000E+00  0.00000000E+00  0.00000000E+00
  0.00000000E+00  0.00000000E+00  0.00000000E+00
  0.00000000E+00  0.00000000E+00  0.00000000E+00
  0.00000000E+00  0.00000000E+00  0.00000000E+00
  0.00000000E+00  0.00000000E+00  0.00000000E+00
  0.00000000E+00  0.00000000E+00  0.00000000E+00
  0.00000000E+00  0.00000000E+00  0.00000000E+00
  0.00000000E+00  0.00000000E+00  0.00000000E+00
  0.00000000E+00  0.00000000E+00  0.00000000E+00
  0.00000000E+00  0.00000000E+00  0.00000000E+00
  0.00000000E+00  0.00000000E+00  0.00000000E+00
  0.00000000E+00  0.00000000E+00  0.00000000E+00
  0.00000000E+00  0.00000000E+00  0.00000000E+00
  0.00000000E+00  0.00000000E+00  0.00000000E+00
  0.00000000E+00  0.00000000E+00  0.00000000E+00
  0.00000000E+00  0.00000000E+00  0.00000000E+00
  0.00000000E+00  0.00000000E+00  0.00000000E+00
  0.00000000E+00  0.00000000E+00  0.00000000E+00
  0.00000000E+00  0.00000000E+00  0.00000000E+00
  0.00000000E+00  0.00000000E+00  0.00000000E+00
  0.00000000E+00  0.00000000E+00  0.00000000E+00
  0.00000000E+00  0.00000000E+00  0.00000000E+00
  0.00000000E+00  0.00000000E+00  0.00000000E+00
  0.00000000E+00  0.00000000E+00  0.00000000E+00
  0.00000000E+00  0.00000000E+00  0.00000000E+00
  0.00000000E+00  0.00000000E+00  0.00000000E+00
  0.00000000E+00  0.00000000E+00  0.00000000E+00
  0.00000000E+00  0.00000000E+00  0.00000000E+00
  0.00000000E+00  0.00000000E+00  0.00000000E+00
  0.00000000E+00  0.00000000E+00  0.00000000E+00
  0.00000000E+00  0.00000000E+00  0.00000000E+00
  0.00000000E+00  0.00000000E+00  0.00000000E+00
  0.00000000E+00  0.00000000E+00  0.00000000E+00
  0.00000000E+00  0.00000000E+00  0.00000000E+00
  0.00000000E+00  0.00000000E+00  0.00000000E+00
  0.00000000E+00  0.00000000E+00  0.00000000E+00
  0.00000000E+00  0.00000000E+00  0.00000000E+00
  0.00000000E+00  0.00000000E+00  0.00000000E+00
  0.00000000E+00  0.00000000E+00  0.00000000E+00
  0.00000000E+00  0.00000000E+00  0.00000000E+00
  0.00000000E+00  0.00000000E+00  0.00000000E+00
  0.00000000E+00  0.00000000E+00  0.00000000E+00
  0.00000000E+00  0.00000000E+00  0.00000000E+00
  0.00000000E+00  0.00000000E+00  0.00000000E+00
  0.00000000E+00  0.00000000E+00  0.00000000E+00
  0.00000000E+00  0.00000000E+00  0.00000000E+00
  0.00000000E+00  0.00000000E+00  0.00000000E+00
  0.00000000E+00  0.00000000E+00  0.00000000E+00
  0.00000000E+00  0.00000000E+00  0.00000000E+00
  0.00000000E+00  0.00000000E+00  0.00000000E+00
  0.00000000E+00  0.00000000E+00  0.00000000E+00
  0.00000000E+00  0.00000000E+00  0.00000000E+00
  0.00000000E+00  0.00000000E+00  0.00000000E+00
  0.00000000E+00  0.00000000E+00  0.00000000E+00
  0.00000000E+00  0.00000000E+00  0.00000000E+00
  0.00000000E+00  0.00000000E+00  0.00000000E+00
  0.00000000E+00  0.00000000E+00  0.00000000E+00
  0.00000000E+00  0.00000000E+00  0.00000000E+00
  0.00000000E+00  0.00000000E+00  0.00000000E+00
  0.00000000E+00  0.00000000E+00  0.00000000E+00
  0.00000000E+00  0.00000000E+00  0.00000000E+00
  0.00000000E+00  0.00000000E+00  0.00000000E+00
  0.00000000E+00  0.00000000E+00  0.00000000E+00
  0.00000000E+00  0.00000000E+00  0.00000000E+00
  0.00000000E+00  0.00000000E+00  0.00000000E+00
  0.00000000E+00  0.00000000E+00  0.00000000E+00
  0.00000000E+00  0.00000000E+00  0.00000000E+00
  0.00000000E+00  0.00000000E+00  0.00000000E+00
  0.00000000E+00  0.00000000E+00  0.00000000E+00
  0.00000000E+00  0.00000000E+00  0.00000000E+00
  0.00000000E+00  0.00000000E+00  0.00000000E+00
  0.00000000E+00  0.00000000E+00  0.00000000E+00
  0.00000000E+00  0.00000000E+00  0.00000000E+00
  0.00000000E+00  0.00000000E+00  0.00000000E+00
  0.00000000E+00  0.00000000E+00  0.00000000E+00
  0.00000000E+00  0.00000000E+00  0.00000000E+00
  0.00000000E+00  0.00000000E+00  0.00000000E+00
  0.00000000E+00  0.00000000E+00  0.00000000E+00
  0.00000000E+00  0.00000000E+00  0.00000000E+00
  0.00000000E+00  0.00000000E+00  0.00000000E+00
  0.00000000E+00  0.00000000E+00  0.00000000E+00
  0.00000000E+00  0.00000000E+00  0.00000000E+00
  0.00000000E+00  0.00000000E+00  0.00000000E+00
  0.00000000E+00  0.00000000E+00  0.00000000E+00
  0.00000000E+00  0.00000000E+00  0.00000000E+00
  0.00000000E+00  0.00000000E+00  0.00000000E+00
  0.00000000E+00  0.00000000E+00  0.00000000E+00
  0.00000000E+00  0.00000000E+00  0.00000000E+00
  0.00000000E+00  0.00000000E+00  0.00000000E+00
  0.00000000E+00  0.00000000E+00  0.00000000E+00
  0.00000000E+00  0.00000000E+00  0.00000000E+00
  0.00000000E+00  0.00000000E+00  0.00000000E+00
  0.00000000E+00  0.00000000E+00  0.00000000E+00
  0.00000000E+00  0.00000000E+00  0.00000000E+00
  0.00000000E+00  0.00000000E+00  0.00000000E+00
  0.00000000E+00  0.00000000E+00  0.00000000E+00
  0.00000000E+00  0.00000000E+00  0.00000000E+00
  0.00000000E+00  0.00000000E+00  0.00000000E+00
  0.00000000E+00  0.00000000E+00  0.00000000E+00
  0.00000000E+00  0.00000000E+00  0.00000000E+00
  0.00000000E+00  0.00000000E+00  0.00000000E+00
  0.00000000E+00  0.00000000E+00  0.00000000E+00
  0.00000000E+00  0.00000000E+00  0.00000000E+00
  0.00000000E+00  0.00000000E+00  0.00000000E+00
  0.00000000E+00  0.00000000E+00  0.00000000E+00
