Sn+Ge
    1.000000000
   12.978400230    0.000000000    0.000000000
  -12.978400230   14.510293007    0.000000000
    0.000000000    0.000000000    9.190411568
Sn  Ge 
24     24
Direct
    0.979564309    0.030653533    0.000000009
    0.779564261    0.330653578    0.157885149
    0.579564154    0.630653620    0.315770298
    0.479564250    0.030653533    0.000000009
    0.279564202    0.330653578    0.157885149
    0.079564132    0.630653620    0.315770298
    0.254564315    0.680653512    0.078942418
    0.054564159    0.980653465    0.236827582
    0.854564130    0.280653596    0.394712687
    0.754564404    0.680653512    0.078942418
    0.554564238    0.980653465    0.236827582
    0.354564160    0.280653596    0.394712687
    0.229564279    0.530653477    0.000000000
    0.029564191    0.830653489    0.157885149
    0.829564035    0.130653620    0.315770298
    0.729564190    0.530653477    0.000000000
    0.529564142    0.830653489    0.157885149
    0.329564035    0.130653620    0.315770298
    0.004564330    0.180653512    0.078942426
    0.804564178    0.480653584    0.236827582
    0.604564250    0.780653656    0.394712687
    0.504564285    0.180653512    0.078942426
    0.304564178    0.480653584    0.236827582
    0.104564168    0.780653656    0.394712687
    0.337348342    0.408752084    0.556860566
    0.220681667    0.992085338    0.613058805
    0.104014874    0.575418591    0.669257224
    0.987348020    0.158751845    0.725455582
    0.870681345    0.742085218    0.781653762
    0.754014492    0.325418234    0.837852120
    0.837348342    0.658752084    0.556860566
    0.720681548    0.242085218    0.613058805
    0.604014814    0.825418591    0.669257224
    0.487348020    0.408751845    0.725455403
    0.370681286    0.992085099    0.781653702
    0.254014611    0.575418234    0.837852001
    0.837348342    0.908752084    0.556860626
    0.720681548    0.492085338    0.613058925
    0.604014754    0.075418591    0.669257224
    0.487348050    0.658751786    0.725455523
    0.370681345    0.242085099    0.781653762
    0.254014492    0.825418115    0.837852120
    0.337348223    0.158752084    0.556860626
    0.220681548    0.742085278    0.613058925
    0.104014874    0.325418472    0.669257224
    0.987348020    0.908751786    0.725455523
    0.870681286    0.492085099    0.781653821
    0.754014492    0.075418115    0.837852120
