Si+Ge
    1.000000000
   16.293001175    0.000000000    0.000000000
    0.000000000   17.174329758    0.000000000
    0.000000000    0.000000185    7.627482414
Si  Ge 
72     48
Direct
    0.130378902    0.826204658    0.562910438
    0.963712454    0.076203912    0.000000078
    0.797045708    0.426204026    0.112582147
    0.630379081    0.776204169    0.225164175
    0.463712275    0.126204491    0.337746292
    0.297045529    0.476204634    0.450328380
    0.463712275    0.826204658    0.562910438
    0.297045797    0.076203912    0.000000078
    0.130379081    0.426204026    0.112582147
    0.963712394    0.776204169    0.225164175
    0.797045588    0.126204491    0.337746292
    0.630378842    0.476204634    0.450328380
    0.797045588    0.826204658    0.562910438
    0.630379140    0.076203912    0.000000078
    0.463712424    0.426204026    0.112582147
    0.297045767    0.776204169    0.225164175
    0.130378976    0.126204491    0.337746292
    0.963712215    0.476204634    0.450328380
    0.213712215    0.576204777    0.562910318
    0.047045767    0.826204002    0.000000000
    0.880379081    0.176204205    0.112582125
    0.713712335    0.526204467    0.225164086
    0.547045588    0.876204610    0.337746203
    0.380378962    0.226204634    0.450328201
    0.547045588    0.576204777    0.562910318
    0.380379081    0.826204002    0.000000000
    0.213712379    0.176204205    0.112582125
    0.047045693    0.526204467    0.225164086
    0.880378962    0.876204610    0.337746203
    0.713712335    0.226204634    0.450328201
    0.880378902    0.576204777    0.562910318
    0.713712394    0.826204002    0.000000000
    0.547045708    0.176204205    0.112582125
    0.380378991    0.526204467    0.225164086
    0.213712230    0.876204610    0.337746203
    0.047045581    0.226204634    0.450328201
    0.130378902    0.326204777    0.562910438
    0.963712394    0.576204002    0.000000031
    0.797045708    0.926204145    0.112582088
    0.630379021    0.276204228    0.225164086
    0.463712275    0.626204491    0.337746292
    0.297045648    0.976204634    0.450328201
    0.463712275    0.326204777    0.562910438
    0.297045767    0.576204002    0.000000031
    0.130379051    0.926204145    0.112582088
    0.963712394    0.276204228    0.225164086
    0.797045588    0.626204491    0.337746292
    0.630378962    0.976204634    0.450328201
    0.797045588    0.326204777    0.562910438
    0.630379140    0.576204002    0.000000031
    0.463712394    0.926204145    0.112582088
    0.297045738    0.276204228    0.225164086
    0.130378976    0.626204491    0.337746292
    0.963712335    0.976204634    0.450328201
    0.213712215    0.076204777    0.562910318
    0.047045767    0.326203912    0.000000078
    0.880379081    0.676204026    0.112582095
    0.713712394    0.026204228    0.225164101
    0.547045588    0.376204491    0.337746203
    0.380378842    0.726204753    0.450328201
    0.547045588    0.076204777    0.562910318
    0.380379111    0.326203912    0.000000078
    0.213712409    0.676204026    0.112582095
    0.047045726    0.026204228    0.225164101
    0.880378962    0.376204491    0.337746203
    0.713712215    0.726204753    0.450328201
    0.880378962    0.076204777    0.562910318
    0.713712454    0.326203912    0.000000078
    0.547045767    0.676204026    0.112582095
    0.380379081    0.026204228    0.225164101
    0.213712290    0.376204491    0.337746203
    0.047045540    0.726204753    0.450328201
    0.413237691    0.910024285    0.562910438
    0.038237721    0.521135330    0.650328338
    0.663237751    0.132246435    0.737746239
    0.288237810    0.743357539    0.825164139
    0.913237810    0.354468584    0.912581980
    0.538237691    0.965579510    0.999999940
    0.913237751    0.910024285    0.562910438
    0.538237810    0.521135330    0.650328338
    0.163237751    0.132246375    0.737746239
    0.788237810    0.743357539    0.825164139
    0.413237929    0.354468584    0.912581980
    0.038237810    0.965579510    0.999999940
    0.788237691    0.660024226    0.562910438
    0.413237751    0.271135330    0.650328457
    0.038237780    0.882246375    0.737746298
    0.663237870    0.493357539    0.825164139
    0.288237989    0.104468644    0.912582099
    0.913237691    0.715579510    0.999999940
    0.288237691    0.660024226    0.562910438
    0.913237751    0.271135271    0.650328338
    0.538237751    0.882246315    0.737746239
    0.163237810    0.493357480    0.825164139
    0.788237929    0.104468524    0.912581980
    0.413237691    0.715579391    0.999999940
    0.538237691    0.660024226    0.562910438
    0.163237706    0.271135300    0.650328338
    0.788237751    0.882246315    0.737746239
    0.413237810    0.493357480    0.825164139
    0.038237929    0.104468584    0.912581980
    0.663237691    0.715579391    0.999999940
    0.038237702    0.660024226    0.562910438
    0.663237751    0.271135330    0.650328338
    0.288237751    0.882246375    0.737746239
    0.913237810    0.493357480    0.825164139
    0.538237929    0.104468584    0.912581980
    0.163237810    0.715579510    0.999999940
    0.663237631    0.910024285    0.562910438
    0.288237691    0.521135330    0.650328338
    0.913237691    0.132246435    0.737746239
    0.538237810    0.743357420    0.825164139
    0.163237929    0.354468584    0.912581980
    0.788237691    0.965579510    0.999999940
    0.163237706    0.910024285    0.562910438
    0.788237751    0.521135330    0.650328338
    0.413237810    0.132246435    0.737746298
    0.038237870    0.743357539    0.825164139
    0.663237929    0.354468584    0.912581980
    0.288237691    0.965579510    0.999999940
