Si+C                                    
   1.00000000000000     
    16.2930011750000006    0.0000000000000000    0.0000000000000000
   -10.8620004649999995   12.1440858840000008    0.0000000000000000
     0.0000000000000000    0.0000000000000000    7.9947495460000004
   Si   C 
    36    84
Direct
  0.9829056259999973  0.6410251260000024  0.0000000020000002
  0.7829055790000012  0.3410250250000004  0.1519008280000023
  0.5829054120000023  0.0410249350000029  0.3038016559999974
  0.9829056259999973  0.3076917830000028  0.0000000020000002
  0.7829055790000012  0.0076917150000000  0.1519008280000023
  0.5829054120000023  0.7076916689999990  0.3038016559999974
  0.9829056259999973  0.9743584989999974  0.0000000020000002
  0.7829055790000012  0.6743583680000000  0.1519008280000023
  0.5829054120000023  0.3743582959999969  0.3038016559999974
  0.6329056619999989  0.6576917169999987  0.0759502570000024
  0.4329055850000003  0.3576916159999968  0.2278510929999982
  0.2329055220000029  0.0576915779999965  0.3797519210000004
  0.6329056619999989  0.3243584630000029  0.0759502570000024
  0.4329055850000003  0.0243583689999980  0.2278510929999982
  0.2329055220000029  0.7243583200000003  0.3797519210000004
  0.6329056619999989  0.9910252090000000  0.0759502570000024
  0.4329055850000003  0.6910251380000005  0.2278510929999982
  0.2329055220000029  0.3910250659999974  0.3797519210000004
  0.4829056259999973  0.8076917530000003  0.0000000000000000
  0.2829055489999988  0.5076916220000030  0.1519008280000023
  0.0829054419999977  0.2076916099999977  0.3038016559999974
  0.4829056259999973  0.4743584389999995  0.0000000000000000
  0.2829055489999988  0.1743583530000024  0.1519008280000023
  0.0829054419999977  0.8743582959999969  0.3038016559999974
  0.4829056259999973  0.1410251410000001  0.0000000000000000
  0.2829055489999988  0.8410250539999993  0.1519008280000023
  0.0829054419999977  0.5410249829999998  0.3038016559999974
  0.1329056769999966  0.8243585230000008  0.0759502720000000
  0.9329055549999978  0.5243583920000034  0.2278510929999982
  0.7329055069999981  0.2243583799999982  0.3797519210000004
  0.1329056769999966  0.4910252090000000  0.0759502720000000
  0.9329055549999978  0.1910251079999981  0.2278510929999982
  0.7329055069999981  0.8910251260000024  0.3797519210000004
  0.1329056769999966  0.1576919560000007  0.0759502720000000
  0.9329055549999978  0.8576918839999976  0.2278510929999982
  0.7329055069999981  0.5576919319999973  0.3797519210000004
  0.3396295909999978  0.0588090420000000  0.5651751759999968
  0.5824868079999987  0.0302375560000030  0.6649358270000008
  0.8253440260000033  0.0016660690000023  0.7646964790000013
  0.6253438589999973  0.2016661469999974  0.5651751759999968
  0.8682010770000019  0.1730946599999967  0.6649358270000008
  0.1110582350000016  0.1445232029999985  0.7646964790000013
  0.9110580680000027  0.3445232509999983  0.5651751759999968
  0.1539154049999993  0.3159517650000012  0.6649358270000008
  0.3967726229999968  0.2873803080000030  0.7646964790000013
  0.1967724559999979  0.4873804449999994  0.5651751759999968
  0.4396296740000025  0.4588089590000024  0.6649358270000008
  0.6824870109999992  0.4302375019999971  0.7646964790000013
  0.4824867250000011  0.6302375790000028  0.5651751759999968
  0.7253439429999986  0.6016661520000000  0.6649358270000008
  0.9682011599999996  0.5730946660000029  0.7646964790000013
  0.7682009939999972  0.7730947729999968  0.5651751759999968
  0.0110583310000010  0.7445232869999998  0.6649358270000008
  0.2539155480000019  0.7159517999999991  0.7646964790000013
  0.0539152619999967  0.9159519079999967  0.5651751759999968
  0.2967724800000013  0.8873803620000018  0.6649358270000008
  0.5396296979999988  0.8588089349999990  0.7646964790000013
  0.1753437520000034  0.1516661639999981  0.6150554419999992
  0.4182010890000001  0.1230946780000011  0.7148160930000031
  0.6610583069999976  0.0945231689999986  0.8145766259999974
  0.4610579610000016  0.2945232989999980  0.6150554419999992
  0.7039152380000004  0.2659518119999973  0.7148160930000031
  0.9467724559999979  0.2373802959999978  0.8145767449999965
  0.7467722889999990  0.4373804629999967  0.6150554419999992
  0.9896295670000015  0.4088089760000031  0.7148160930000031
  0.2324868440000003  0.3802374899999990  0.8145767449999965
  0.0324866770000014  0.5802376270000025  0.6150554419999992
  0.2753438949999989  0.5516660810000005  0.7148160930000031
  0.5182012320000027  0.5230947140000026  0.8145767449999965
  0.3182008269999983  0.7230947609999987  0.6150554419999992
  0.5610581640000021  0.6945232750000017  0.7148160930000031
  0.8039152619999967  0.6659517880000010  0.8145767449999965
  0.6039152740000020  0.8659518959999986  0.6150554419999992
  0.8467725519999973  0.8373803499999966  0.7148160930000031
  0.0896297689999983  0.8088089230000008  0.8145766259999974
  0.8896294239999989  0.0088089699999969  0.6150554419999992
  0.1324865819999985  0.9802375439999977  0.7148160930000031
  0.3753439190000023  0.9516660569999971  0.8145766259999974
  0.9824868440000003  0.1302376089999981  0.5651751759999968
  0.2253439429999986  0.1016660929999986  0.6649358270000008
  0.4682012800000024  0.0730946729999999  0.7646964790000013
  0.2682011130000035  0.2730947430000015  0.5651751759999968
  0.5110583310000010  0.2445232270000020  0.6649358270000008
  0.7539154290000027  0.2159517409999978  0.7646964790000013
  0.5539153220000017  0.4159518780000013  0.5651751759999968
  0.7967725399999992  0.3873803910000007  0.6649358270000008
  0.0396296979999988  0.3588089049999965  0.7646964790000013
  0.8396295309999999  0.5588090420000000  0.5651751759999968
  0.0824868679999966  0.5302375560000030  0.6649358270000008
  0.3253440860000012  0.5016660690000023  0.7646964790000013
  0.1253438000000031  0.7016661760000034  0.5651751759999968
  0.3682011369999998  0.6730947490000005  0.6649358270000008
  0.6110582350000016  0.6445232029999985  0.7646964790000013
  0.4110581280000005  0.8445233699999974  0.5651751759999968
  0.6539154049999993  0.8159519430000017  0.6649358270000008
  0.8967726830000018  0.7873804569999976  0.7646964790000013
  0.6967724559999979  0.9873805049999973  0.5651751759999968
  0.9396296139999976  0.9588090780000016  0.6649358270000008
  0.1824870109999992  0.9302375910000009  0.7646964790000013
  0.5324867369999993  0.0802375970000000  0.6150554419999992
  0.7753440139999981  0.0516660210000026  0.7148160930000031
  0.0182013510000019  0.0230946539999977  0.8145767449999965
  0.8182008859999996  0.2230947319999999  0.6150554419999992
  0.0610581640000021  0.1945232449999992  0.7148160930000031
  0.3039153810000030  0.1659517880000010  0.8145766259999974
  0.1039152150000007  0.3659518360000007  0.6150554419999992
  0.3467725519999973  0.3373804089999979  0.7148160930000031
  0.5896297689999983  0.3088089530000033  0.8145766259999974
  0.3896293640000010  0.5088090300000019  0.6150554419999992
  0.6324867009999977  0.4802375439999977  0.7148160930000031
  0.8753439190000023  0.4516660270000017  0.8145766259999974
  0.6753438120000013  0.6516661049999968  0.6150554419999992
  0.9182011489999979  0.6230946180000032  0.7148160930000031
  0.1610584259999968  0.5945231910000004  0.8145767449999965
  0.9610581399999987  0.7945232989999980  0.6150554419999992
  0.2039153580000033  0.7659518119999973  0.7148160930000031
  0.4467726949999999  0.7373804449999994  0.8145767449999965
  0.2467722889999990  0.9373804330000013  0.6150554419999992
  0.4896296260000028  0.9088090059999985  0.7148160930000031
  0.7324868440000003  0.8802375200000014  0.8145767449999965
 
  0.00000000E+00  0.00000000E+00  0.00000000E+00
  0.00000000E+00  0.00000000E+00  0.00000000E+00
  0.00000000E+00  0.00000000E+00  0.00000000E+00
  0.00000000E+00  0.00000000E+00  0.00000000E+00
  0.00000000E+00  0.00000000E+00  0.00000000E+00
  0.00000000E+00  0.00000000E+00  0.00000000E+00
  0.00000000E+00  0.00000000E+00  0.00000000E+00
  0.00000000E+00  0.00000000E+00  0.00000000E+00
  0.00000000E+00  0.00000000E+00  0.00000000E+00
  0.00000000E+00  0.00000000E+00  0.00000000E+00
  0.00000000E+00  0.00000000E+00  0.00000000E+00
  0.00000000E+00  0.00000000E+00  0.00000000E+00
  0.00000000E+00  0.00000000E+00  0.00000000E+00
  0.00000000E+00  0.00000000E+00  0.00000000E+00
  0.00000000E+00  0.00000000E+00  0.00000000E+00
  0.00000000E+00  0.00000000E+00  0.00000000E+00
  0.00000000E+00  0.00000000E+00  0.00000000E+00
  0.00000000E+00  0.00000000E+00  0.00000000E+00
  0.00000000E+00  0.00000000E+00  0.00000000E+00
  0.00000000E+00  0.00000000E+00  0.00000000E+00
  0.00000000E+00  0.00000000E+00  0.00000000E+00
  0.00000000E+00  0.00000000E+00  0.00000000E+00
  0.00000000E+00  0.00000000E+00  0.00000000E+00
  0.00000000E+00  0.00000000E+00  0.00000000E+00
  0.00000000E+00  0.00000000E+00  0.00000000E+00
  0.00000000E+00  0.00000000E+00  0.00000000E+00
  0.00000000E+00  0.00000000E+00  0.00000000E+00
  0.00000000E+00  0.00000000E+00  0.00000000E+00
  0.00000000E+00  0.00000000E+00  0.00000000E+00
  0.00000000E+00  0.00000000E+00  0.00000000E+00
  0.00000000E+00  0.00000000E+00  0.00000000E+00
  0.00000000E+00  0.00000000E+00  0.00000000E+00
  0.00000000E+00  0.00000000E+00  0.00000000E+00
  0.00000000E+00  0.00000000E+00  0.00000000E+00
  0.00000000E+00  0.00000000E+00  0.00000000E+00
  0.00000000E+00  0.00000000E+00  0.00000000E+00
  0.00000000E+00  0.00000000E+00  0.00000000E+00
  0.00000000E+00  0.00000000E+00  0.00000000E+00
  0.00000000E+00  0.00000000E+00  0.00000000E+00
  0.00000000E+00  0.00000000E+00  0.00000000E+00
  0.00000000E+00  0.00000000E+00  0.00000000E+00
  0.00000000E+00  0.00000000E+00  0.00000000E+00
  0.00000000E+00  0.00000000E+00  0.00000000E+00
  0.00000000E+00  0.00000000E+00  0.00000000E+00
  0.00000000E+00  0.00000000E+00  0.00000000E+00
  0.00000000E+00  0.00000000E+00  0.00000000E+00
  0.00000000E+00  0.00000000E+00  0.00000000E+00
  0.00000000E+00  0.00000000E+00  0.00000000E+00
  0.00000000E+00  0.00000000E+00  0.00000000E+00
  0.00000000E+00  0.00000000E+00  0.00000000E+00
  0.00000000E+00  0.00000000E+00  0.00000000E+00
  0.00000000E+00  0.00000000E+00  0.00000000E+00
  0.00000000E+00  0.00000000E+00  0.00000000E+00
  0.00000000E+00  0.00000000E+00  0.00000000E+00
  0.00000000E+00  0.00000000E+00  0.00000000E+00
  0.00000000E+00  0.00000000E+00  0.00000000E+00
  0.00000000E+00  0.00000000E+00  0.00000000E+00
  0.00000000E+00  0.00000000E+00  0.00000000E+00
  0.00000000E+00  0.00000000E+00  0.00000000E+00
  0.00000000E+00  0.00000000E+00  0.00000000E+00
  0.00000000E+00  0.00000000E+00  0.00000000E+00
  0.00000000E+00  0.00000000E+00  0.00000000E+00
  0.00000000E+00  0.00000000E+00  0.00000000E+00
  0.00000000E+00  0.00000000E+00  0.00000000E+00
  0.00000000E+00  0.00000000E+00  0.00000000E+00
  0.00000000E+00  0.00000000E+00  0.00000000E+00
  0.00000000E+00  0.00000000E+00  0.00000000E+00
  0.00000000E+00  0.00000000E+00  0.00000000E+00
  0.00000000E+00  0.00000000E+00  0.00000000E+00
  0.00000000E+00  0.00000000E+00  0.00000000E+00
  0.00000000E+00  0.00000000E+00  0.00000000E+00
  0.00000000E+00  0.00000000E+00  0.00000000E+00
  0.00000000E+00  0.00000000E+00  0.00000000E+00
  0.00000000E+00  0.00000000E+00  0.00000000E+00
  0.00000000E+00  0.00000000E+00  0.00000000E+00
  0.00000000E+00  0.00000000E+00  0.00000000E+00
  0.00000000E+00  0.00000000E+00  0.00000000E+00
  0.00000000E+00  0.00000000E+00  0.00000000E+00
  0.00000000E+00  0.00000000E+00  0.00000000E+00
  0.00000000E+00  0.00000000E+00  0.00000000E+00
  0.00000000E+00  0.00000000E+00  0.00000000E+00
  0.00000000E+00  0.00000000E+00  0.00000000E+00
  0.00000000E+00  0.00000000E+00  0.00000000E+00
  0.00000000E+00  0.00000000E+00  0.00000000E+00
  0.00000000E+00  0.00000000E+00  0.00000000E+00
  0.00000000E+00  0.00000000E+00  0.00000000E+00
  0.00000000E+00  0.00000000E+00  0.00000000E+00
  0.00000000E+00  0.00000000E+00  0.00000000E+00
  0.00000000E+00  0.00000000E+00  0.00000000E+00
  0.00000000E+00  0.00000000E+00  0.00000000E+00
  0.00000000E+00  0.00000000E+00  0.00000000E+00
  0.00000000E+00  0.00000000E+00  0.00000000E+00
  0.00000000E+00  0.00000000E+00  0.00000000E+00
  0.00000000E+00  0.00000000E+00  0.00000000E+00
  0.00000000E+00  0.00000000E+00  0.00000000E+00
  0.00000000E+00  0.00000000E+00  0.00000000E+00
  0.00000000E+00  0.00000000E+00  0.00000000E+00
  0.00000000E+00  0.00000000E+00  0.00000000E+00
  0.00000000E+00  0.00000000E+00  0.00000000E+00
  0.00000000E+00  0.00000000E+00  0.00000000E+00
  0.00000000E+00  0.00000000E+00  0.00000000E+00
  0.00000000E+00  0.00000000E+00  0.00000000E+00
  0.00000000E+00  0.00000000E+00  0.00000000E+00
  0.00000000E+00  0.00000000E+00  0.00000000E+00
  0.00000000E+00  0.00000000E+00  0.00000000E+00
  0.00000000E+00  0.00000000E+00  0.00000000E+00
  0.00000000E+00  0.00000000E+00  0.00000000E+00
  0.00000000E+00  0.00000000E+00  0.00000000E+00
  0.00000000E+00  0.00000000E+00  0.00000000E+00
  0.00000000E+00  0.00000000E+00  0.00000000E+00
  0.00000000E+00  0.00000000E+00  0.00000000E+00
  0.00000000E+00  0.00000000E+00  0.00000000E+00
  0.00000000E+00  0.00000000E+00  0.00000000E+00
  0.00000000E+00  0.00000000E+00  0.00000000E+00
  0.00000000E+00  0.00000000E+00  0.00000000E+00
  0.00000000E+00  0.00000000E+00  0.00000000E+00
  0.00000000E+00  0.00000000E+00  0.00000000E+00
  0.00000000E+00  0.00000000E+00  0.00000000E+00
  0.00000000E+00  0.00000000E+00  0.00000000E+00
  0.00000000E+00  0.00000000E+00  0.00000000E+00
