Automatic KPOINTS generated
0
Gamma
9 4 1
0 0 0
