C 
 1.0000000000000000
     3.5668000000000002    0.0000000000000000    0.0000000000000000
     0.0000000000000000    7.9756072621462506    0.0000000000000000
     0.0000000000000000    0.0000000000000000   60.3377985184729511
 C  
 104
Direct
  0.0000000000000000  0.0000000000000000  0.3314671812873123
  0.2500000000000000  0.0499999999999998  0.3512945717240992
  0.0000000000000000  0.6999999999999998  0.3446854415785036
  0.2500000000000000  0.3499999999999999  0.3380763114329079
  0.5000000000000000  0.4999999999999999  0.3314671812873123
  0.7500000000000000  0.5499999999999998  0.3512945717240991
  0.5000000000000000  0.2000000000000000  0.3446854415785036
  0.7500000000000000  0.8499999999999999  0.3380763114329079
  0.0000000000000000  0.3999999999999999  0.3579037018696947
  0.2500000000000000  0.4499999999999995  0.3777310923064815
  0.0000000000000000  0.0999999999999996  0.3711219621608859
  0.2500000000000000  0.7499999999999999  0.3645128320152903
  0.5000000000000000  0.8999999999999997  0.3579037018696947
  0.7500000000000000  0.9499999999999997  0.3777310923064815
  0.5000000000000000  0.5999999999999999  0.3711219621608859
  0.7500000000000000  0.2499999999999996  0.3645128320152903
  0.0000000000000000  0.7999999999999998  0.3843402224520771
  0.2500000000000000  0.8499999999999994  0.4041676128888639
  0.0000000000000000  0.4999999999999998  0.3975584827432683
  0.2500000000000000  0.1499999999999995  0.3909493525976727
  0.5000000000000000  0.2999999999999996  0.3843402224520771
  0.7500000000000000  0.3499999999999996  0.4041676128888639
  0.5000000000000000  0.9999999999999998  0.3975584827432683
  0.7500000000000000  0.6499999999999995  0.3909493525976727
  0.0000000000000000  0.1999999999999997  0.4107767430344595
  0.2500000000000000  0.2499999999999996  0.4306041334712462
  0.0000000000000000  0.8999999999999994  0.4239950033256506
  0.2500000000000000  0.5499999999999996  0.4173858731800550
  0.5000000000000000  0.6999999999999997  0.4107767430344595
  0.7500000000000000  0.7499999999999992  0.4306041334712462
  0.5000000000000000  0.3999999999999997  0.4239950033256506
  0.7500000000000000  0.0499999999999994  0.4173858731800551
  0.0000000000000000  0.5999999999999996  0.4372132636168418
  0.2500000000000000  0.6499999999999995  0.4570406540536286
  0.0000000000000000  0.2999999999999989  0.4504315239080330
  0.2500000000000000  0.9499999999999993  0.4438223937624374
  0.5000000000000000  0.0999999999999996  0.4372132636168418
  0.7500000000000000  0.1499999999999995  0.4570406540536286
  0.5000000000000000  0.7999999999999994  0.4504315239080330
  0.7500000000000000  0.4499999999999992  0.4438223937624374
  0.0000000000000000  0.9999999999999996  0.4636497841992242
  0.2500000000000000  0.0499999999999989  0.4834771746360110
  0.0000000000000000  0.6999999999999993  0.4768680444904154
  0.2500000000000000  0.3499999999999996  0.4702589143448198
  0.5000000000000000  0.4999999999999991  0.4636497841992242
  0.7500000000000000  0.5499999999999998  0.4834771746360110
  0.5000000000000000  0.1999999999999993  0.4768680444904154
  0.7500000000000000  0.8499999999999996  0.4702589143448198
  0.0000000000000000  0.3999999999999995  0.4900863047816066
  0.2500000000000000  0.4499999999999983  0.5099136952183934
  0.0000000000000000  0.0999999999999992  0.5033045650727977
  0.2500000000000000  0.7499999999999996  0.4966954349272021
  0.5000000000000000  0.8999999999999989  0.4900863047816066
  0.7500000000000000  0.9499999999999993  0.5099136952183934
  0.5000000000000000  0.5999999999999992  0.5033045650727977
  0.7500000000000000  0.2499999999999991  0.4966954349272021
  0.0000000000000000  0.7999999999999994  0.5165228253639890
  0.2500000000000000  0.8499999999999988  0.5363502158007757
  0.0000000000000000  0.4999999999999991  0.5297410856551802
  0.2500000000000000  0.1499999999999990  0.5231319555095846
  0.5000000000000000  0.2999999999999989  0.5165228253639890
  0.7500000000000000  0.3499999999999992  0.5363502158007757
  0.5000000000000000  0.9999999999999996  0.5297410856551802
  0.7500000000000000  0.6499999999999990  0.5231319555095846
  0.0000000000000000  0.1999999999999993  0.5429593459463712
  0.2500000000000000  0.2499999999999991  0.5627867363831580
  0.0000000000000000  0.8999999999999985  0.5561776062375624
  0.2500000000000000  0.5499999999999994  0.5495684760919669
  0.5000000000000000  0.6999999999999988  0.5429593459463712
  0.7500000000000000  0.7499999999999986  0.5627867363831580
  0.5000000000000000  0.3999999999999995  0.5561776062375624
  0.7500000000000000  0.0499999999999989  0.5495684760919669
  0.0000000000000000  0.5999999999999988  0.5693958665287536
  0.2500000000000000  0.6499999999999995  0.5892232569655405
  0.0000000000000000  0.2999999999999989  0.5826141268199448
  0.2500000000000000  0.9499999999999988  0.5760049966743492
  0.5000000000000000  0.0999999999999988  0.5693958665287536
  0.7500000000000000  0.1499999999999986  0.5892232569655405
  0.5000000000000000  0.7999999999999989  0.5826141268199448
  0.7500000000000000  0.4499999999999992  0.5760049966743493
  0.0000000000000000  0.9999999999999991  0.5958323871111361
  0.2500000000000000  0.0499999999999989  0.6156597775479228
  0.0000000000000000  0.6999999999999993  0.6090506474023273
  0.2500000000000000  0.3499999999999996  0.6024415172567317
  0.5000000000000000  0.4999999999999991  0.5958323871111361
  0.7500000000000000  0.5499999999999989  0.6156597775479228
  0.5000000000000000  0.1999999999999993  0.6090506474023273
  0.7500000000000000  0.8499999999999988  0.6024415172567317
  0.0000000000000000  0.3999999999999986  0.6222689076935184
  0.2500000000000000  0.4499999999999992  0.6420962981303052
  0.0000000000000000  0.0999999999999996  0.6354871679847096
  0.2500000000000000  0.7499999999999981  0.6288780378391140
  0.5000000000000000  0.8999999999999985  0.6222689076935185
  0.7500000000000000  0.9499999999999993  0.6420962981303052
  0.5000000000000000  0.5999999999999988  0.6354871679847096
  0.7500000000000000  0.2499999999999991  0.6288780378391140
  0.0000000000000000  0.7999999999999989  0.6487054282759008
  0.2500000000000000  0.8499999999999996  0.6685328187126877
  0.0000000000000000  0.4999999999999991  0.6619236885670919
  0.2500000000000000  0.1499999999999986  0.6553145584214964
  0.5000000000000000  0.2999999999999989  0.6487054282759008
  0.7500000000000000  0.3499999999999988  0.6685328187126877
  0.5000000000000000  0.9999999999999991  0.6619236885670919
  0.7500000000000000  0.6499999999999986  0.6553145584214964
