Ge+Ge
    1.000000000
   12.651226044    0.000000000    0.000000000
    2.530245304   12.395620346    0.000000000
    0.000000000    0.000000000   13.933910370
Ge 
96
Direct
    0.751703978    0.169177771    0.500000000
    0.992590368    0.948132515    0.000000022
    0.950923562    0.656465769    0.082883760
    0.909256816    0.364798903    0.165767506
    0.867590070    0.073132217    0.248651221
    0.626703978    0.044177771    0.500000000
    0.251704097    0.669177711    0.500000000
    0.492590368    0.448132515    0.000000028
    0.450923622    0.156465769    0.082883760
    0.409256876    0.864798963    0.165767506
    0.367590129    0.573132277    0.248651221
    0.325923383    0.281465530    0.331534922
    0.501703978    0.419177681    0.500000000
    0.367590398    0.823132634    0.000000012
    0.325923622    0.531465828    0.082883760
    0.284256876    0.239799008    0.165767536
    0.242590174    0.948132396    0.248651192
    0.200923383    0.656465650    0.331534922
    0.126703978    0.544177651    0.500000000
    0.867590487    0.323132575    0.000000012
    0.825923681    0.031465776    0.082883760
    0.784256876    0.739798903    0.165767506
    0.585037172    0.752510905    0.582883716
    0.876703978    0.794177651    0.500000000
    0.918370485    0.335844189    0.665767550
    0.242590353    0.698132634    0.000000000
    0.200923592    0.406465799    0.082883753
    0.159256846    0.114798956    0.165767506
    0.001703978    0.919177771    0.500000000
    0.075923339    0.531465530    0.331534892
    0.876703978    0.794177651    0.500000000
    0.742590427    0.198132515    0.000000021
    0.700923622    0.906465709    0.082883768
    0.659256876    0.614798903    0.165767506
    0.626703978    0.044177771    0.500000000
    0.575923443    0.031465471    0.331534892
    0.376703978    0.294177651    0.500000000
    0.117590360    0.073132515    0.000000021
    0.075923599    0.781465769    0.082883760
    0.034256846    0.489798963    0.165767506
    0.992590070    0.198132217    0.248651221
    0.950923383    0.906465530    0.331534922
    0.418370485    0.835844278    0.665767550
    0.617590487    0.573132575    0.000000012
    0.575923622    0.281465828    0.082883753
    0.534256935    0.989799023    0.165767536
    0.492590189    0.698132277    0.248651251
    0.293370485    0.710844219    0.665767550
    0.918370128    0.085843921    0.914418697
    0.909256577    0.614798784    0.414418697
    0.085037112    0.252510905    0.582883716
    0.793370366    0.210844159    0.665767550
    0.501703620    0.169177413    0.748651266
    0.210036993    0.127510667    0.831534982
    0.418370128    0.585843921    0.914418697
    0.534256697    0.739798665    0.414418697
    0.742590129    0.448132336    0.248651192
    0.450923443    0.406465530    0.331534952
    0.001703739    0.669177413    0.748651266
    0.710036874    0.627510667    0.831534982
    0.793370247    0.460843980    0.914418697
    0.284256607    0.989798784    0.414418697
    0.960037231    0.627510905    0.582883716
    0.668370485    0.585844219    0.665767550
    0.376703858    0.544177473    0.748651266
    0.085037112    0.502510726    0.831534982
    0.293370128    0.960843921    0.914418578
    0.784256577    0.489798665    0.414418638
    0.460037202    0.127511024    0.582883716
    0.168370485    0.085844159    0.665767550
    0.876703739    0.044177532    0.748651266
    0.585036993    0.002510667    0.831534982
    0.668370128    0.335843891    0.914418697
    0.659256577    0.864798665    0.414418638
    0.835037231    0.502510905    0.582883716
    0.543370485    0.460844159    0.665767550
    0.251703739    0.419177413    0.748651147
    0.960036993    0.377510667    0.831534863
    0.168370128    0.835844040    0.914418697
    0.617590249    0.323132336    0.248651221
    0.159256637    0.364798784    0.414418697
    0.043370366    0.960844159    0.665767550
    0.751703739    0.919177532    0.748651266
    0.460036904    0.877510786    0.831534982
    0.043370128    0.210843921    0.914418697
    0.159256637    0.364798784    0.414418697
    0.409256607    0.114798844    0.414418697
    0.034256559    0.239798784    0.414418638
    0.626703620    0.294177413    0.748651147
    0.335036993    0.252510667    0.831534982
    0.543370247    0.710844040    0.914418697
    0.117590085    0.823132396    0.248651177
    0.710037231    0.877510905    0.582883716
    0.409256607    0.114798844    0.414418697
    0.126703739    0.794177532    0.748651266
    0.835036993    0.752510786    0.831534982
