Si+Ge                                   
   1.00000000000000     
    16.2930011750000006    0.0000000000000000    0.0000000000000000
     0.0000000000000000   16.2930011750000006    0.0000000000000000
     0.0000000000000000    0.0000000000000000   13.8885297780000005
   Si   Ge
   108    48
Direct
  0.0000000000000000  0.9940677290000011  0.0000000000000000
  0.0000000000000000  0.8274010419999982  0.1955210719999982
  0.0000000000000000  0.6607342960000011  0.3910421730000024
  0.3333333429999996  0.9940677290000011  0.0000000000000000
  0.3333333429999996  0.8274010419999982  0.1955210719999982
  0.3333333429999996  0.6607342960000011  0.3910421730000024
  0.6666666870000029  0.9940677290000011  0.0000000000000000
  0.6666666870000029  0.8274010419999982  0.1955210719999982
  0.6666666870000029  0.6607342960000011  0.3910421730000024
  0.0000000000000000  0.3274010419999982  0.0000000000000000
  0.0000000000000000  0.1607343700000001  0.1955210719999982
  0.0000000000000000  0.9940676690000032  0.3910421730000024
  0.3333333429999996  0.3274010419999982  0.0000000000000000
  0.3333333429999996  0.1607343700000001  0.1955210719999982
  0.3333333429999996  0.9940676690000032  0.3910421730000024
  0.6666666870000029  0.3274010419999982  0.0000000000000000
  0.6666666870000029  0.1607343700000001  0.1955210719999982
  0.6666666870000029  0.9940676690000032  0.3910421730000024
  0.0000000000000000  0.6607344150000003  0.0000000000000000
  0.0000000000000000  0.4940676989999986  0.1955210719999982
  0.0000000000000000  0.3274010419999982  0.3910421730000024
  0.3333333429999996  0.6607344150000003  0.0000000000000000
  0.3333333429999996  0.4940676989999986  0.1955210719999982
  0.3333333429999996  0.3274010419999982  0.3910421730000024
  0.6666666870000029  0.6607344150000003  0.0000000000000000
  0.6666666870000029  0.4940676989999986  0.1955210719999982
  0.6666666870000029  0.3274010419999982  0.3910421730000024
  0.0833333360000026  0.0774010490000023  0.0977605429999997
  0.0833333360000026  0.9107343550000024  0.2932815550000001
  0.0833333360000026  0.7440676690000032  0.4888027009999973
  0.4166666870000029  0.0774010490000023  0.0977605429999997
  0.4166666870000029  0.9107343550000024  0.2932815550000001
  0.4166666870000029  0.7440676690000032  0.4888027009999973
  0.7500000000000000  0.0774010490000023  0.0977605429999997
  0.7500000000000000  0.9107343550000024  0.2932815550000001
  0.7500000000000000  0.7440676690000032  0.4888027009999973
  0.0833333360000026  0.4107343550000024  0.0977605429999997
  0.0833333360000026  0.2440676690000032  0.2932815550000001
  0.0833333360000026  0.0774009820000003  0.4888027009999973
  0.4166666870000029  0.4107343550000024  0.0977605429999997
  0.4166666870000029  0.2440676690000032  0.2932815550000001
  0.4166666870000029  0.0774009820000003  0.4888027009999973
  0.7500000000000000  0.4107343550000024  0.0977605429999997
  0.7500000000000000  0.2440676690000032  0.2932815550000001
  0.7500000000000000  0.0774009820000003  0.4888027009999973
  0.0833333360000026  0.7440677290000011  0.0977605429999997
  0.0833333360000026  0.5774010419999982  0.2932815550000001
  0.0833333360000026  0.4107343550000024  0.4888027009999973
  0.4166666870000029  0.7440677290000011  0.0977605429999997
  0.4166666870000029  0.5774010419999982  0.2932815550000001
  0.4166666870000029  0.4107343550000024  0.4888027009999973
  0.7500000000000000  0.7440677290000011  0.0977605429999997
  0.7500000000000000  0.5774010419999982  0.2932815550000001
  0.7500000000000000  0.4107343550000024  0.4888027009999973
  0.1666666719999981  0.1607343849999978  0.0000000000000000
  0.1666666719999981  0.9940676690000032  0.1955210719999982
  0.1666666719999981  0.8274009820000003  0.3910421730000024
  0.5000000000000000  0.1607343849999978  0.0000000000000000
  0.5000000000000000  0.9940676690000032  0.1955210719999982
  0.5000000000000000  0.8274009820000003  0.3910421730000024
  0.8333333730000021  0.1607343849999978  0.0000000000000000
  0.8333333730000021  0.9940676690000032  0.1955210719999982
  0.8333333730000021  0.8274009820000003  0.3910421730000024
  0.1666666719999981  0.4940676989999986  0.0000000000000000
  0.1666666719999981  0.3274010419999982  0.1955210719999982
  0.1666666719999981  0.1607343109999988  0.3910421730000024
  0.5000000000000000  0.4940676989999986  0.0000000000000000
  0.5000000000000000  0.3274010419999982  0.1955210719999982
  0.5000000000000000  0.1607343109999988  0.3910421730000024
  0.8333333730000021  0.4940676989999986  0.0000000000000000
  0.8333333730000021  0.3274010419999982  0.1955210719999982
  0.8333333730000021  0.1607343109999988  0.3910421730000024
  0.1666666719999981  0.8274010419999982  0.0000000000000000
  0.1666666719999981  0.6607343550000024  0.1955210719999982
  0.1666666719999981  0.4940676390000007  0.3910421730000024
  0.5000000000000000  0.8274010419999982  0.0000000000000000
  0.5000000000000000  0.6607343550000024  0.1955210719999982
  0.5000000000000000  0.4940676390000007  0.3910421730000024
  0.8333333730000021  0.8274010419999982  0.0000000000000000
  0.8333333730000021  0.6607343550000024  0.1955210719999982
  0.8333333730000021  0.4940676390000007  0.3910421730000024
  0.2500000000000000  0.2440677140000034  0.0977605429999997
  0.2500000000000000  0.0774010270000005  0.2932815550000001
  0.2500000000000000  0.9107343550000024  0.4888027009999973
  0.5833333730000021  0.2440677140000034  0.0977605429999997
  0.5833333730000021  0.0774010270000005  0.2932815550000001
  0.5833333730000021  0.9107343550000024  0.4888027009999973
  0.9166666870000029  0.2440677140000034  0.0977605429999997
  0.9166666870000029  0.0774010270000005  0.2932815550000001
  0.9166666870000029  0.9107343550000024  0.4888027009999973
  0.2500000000000000  0.5774011609999974  0.0977605429999997
  0.2500000000000000  0.4107344450000028  0.2932815550000001
  0.2500000000000000  0.2440677430000022  0.4888027009999973
  0.5833333730000021  0.5774011609999974  0.0977605429999997
  0.5833333730000021  0.4107344450000028  0.2932815550000001
  0.5833333730000021  0.2440677430000022  0.4888027009999973
  0.9166666870000029  0.5774011609999974  0.0977605429999997
  0.9166666870000029  0.4107344450000028  0.2932815550000001
  0.9166666870000029  0.2440677430000022  0.4888027009999973
  0.2500000000000000  0.9107343550000024  0.0977605429999997
  0.2500000000000000  0.7440676690000032  0.2932815550000001
  0.2500000000000000  0.5774010419999982  0.4888027009999973
  0.5833333730000021  0.9107343550000024  0.0977605429999997
  0.5833333730000021  0.7440676690000032  0.2932815550000001
  0.5833333730000021  0.5774010419999982  0.4888027009999973
  0.9166666870000029  0.9107343550000024  0.0977605429999997
  0.9166666870000029  0.7440676690000032  0.2932815550000001
  0.9166666870000029  0.5774010419999982  0.4888027009999973
  0.9100242849999987  0.9934846760000013  0.6243779659999973
  0.5211353299999999  0.6184846160000035  0.6723873620000020
  0.1322463750000011  0.2434846609999965  0.7203966980000018
  0.7433573010000032  0.8684847350000027  0.7684060930000030
  0.3544684649999965  0.4934847350000027  0.8164153700000014
  0.9655795099999978  0.1184846009999987  0.8644247650000025
  0.9100242849999987  0.4934845570000022  0.6243779659999973
  0.5211353299999999  0.1184845570000022  0.6723873620000020
  0.1322463750000011  0.7434846160000035  0.7203967570000032
  0.7433573010000032  0.3684846160000035  0.7684060930000030
  0.3544684649999965  0.9934847350000027  0.8164153700000014
  0.9655795099999978  0.6184846160000035  0.8644247060000012
  0.6600241659999995  0.1184846009999987  0.6243779659999973
  0.2711352110000007  0.7434846160000035  0.6723873620000020
  0.8822463150000033  0.3684846760000013  0.7203966980000018
  0.4933573599999974  0.9934847350000027  0.7684060340000016
  0.1044684049999987  0.6184847350000027  0.8164154290000027
  0.7155792710000028  0.2434847210000015  0.8644247060000012
  0.6600242259999973  0.6184845570000022  0.6243779659999973
  0.2711352410000032  0.2434845269999997  0.6723873620000020
  0.8822463150000033  0.8684845570000022  0.7203966980000018
  0.4933573599999974  0.4934845570000022  0.7684060340000016
  0.1044684049999987  0.1184846609999965  0.8164154290000027
  0.7155793909999986  0.7434844969999972  0.8644247060000012
  0.6600242259999973  0.3684846160000035  0.6243780260000023
  0.2711352410000032  0.9934846160000035  0.6723873620000020
  0.8822463150000033  0.6184846760000013  0.7203966980000018
  0.4933573010000032  0.2434846609999965  0.7684060340000016
  0.1044684649999965  0.8684847350000027  0.8164154290000027
  0.7155793909999986  0.4934847350000027  0.8644247650000025
  0.6600242259999973  0.8684845570000022  0.6243779659999973
  0.2711352410000032  0.4934844969999972  0.6723873620000020
  0.8822463150000033  0.1184845719999998  0.7203966980000018
  0.4933573599999974  0.7434846160000035  0.7684060340000016
  0.1044684649999965  0.3684846760000013  0.8164154290000027
  0.7155792710000028  0.9934844969999972  0.8644247060000012
  0.9100242849999987  0.2434846009999987  0.6243779659999973
  0.5211353299999999  0.8684846160000035  0.6723873620000020
  0.1322463750000011  0.4934847350000027  0.7203967570000032
  0.7433573010000032  0.1184846609999965  0.7684060930000030
  0.3544687030000020  0.7434848549999984  0.8164154290000027
  0.9655795099999978  0.3684846160000035  0.8644247650000025
  0.9100242849999987  0.7434845570000022  0.6243779659999973
  0.5211353299999999  0.3684845570000022  0.6723873620000020
  0.1322463750000011  0.9934846760000013  0.7203967570000032
  0.7433574200000024  0.6184846760000013  0.7684060930000030
  0.3544685840000028  0.2434847210000015  0.8164153700000014
  0.9655792710000028  0.8684844969999972  0.8644247060000012
 
  0.00000000E+00  0.00000000E+00  0.00000000E+00
  0.00000000E+00  0.00000000E+00  0.00000000E+00
  0.00000000E+00  0.00000000E+00  0.00000000E+00
  0.00000000E+00  0.00000000E+00  0.00000000E+00
  0.00000000E+00  0.00000000E+00  0.00000000E+00
  0.00000000E+00  0.00000000E+00  0.00000000E+00
  0.00000000E+00  0.00000000E+00  0.00000000E+00
  0.00000000E+00  0.00000000E+00  0.00000000E+00
  0.00000000E+00  0.00000000E+00  0.00000000E+00
  0.00000000E+00  0.00000000E+00  0.00000000E+00
  0.00000000E+00  0.00000000E+00  0.00000000E+00
  0.00000000E+00  0.00000000E+00  0.00000000E+00
  0.00000000E+00  0.00000000E+00  0.00000000E+00
  0.00000000E+00  0.00000000E+00  0.00000000E+00
  0.00000000E+00  0.00000000E+00  0.00000000E+00
  0.00000000E+00  0.00000000E+00  0.00000000E+00
  0.00000000E+00  0.00000000E+00  0.00000000E+00
  0.00000000E+00  0.00000000E+00  0.00000000E+00
  0.00000000E+00  0.00000000E+00  0.00000000E+00
  0.00000000E+00  0.00000000E+00  0.00000000E+00
  0.00000000E+00  0.00000000E+00  0.00000000E+00
  0.00000000E+00  0.00000000E+00  0.00000000E+00
  0.00000000E+00  0.00000000E+00  0.00000000E+00
  0.00000000E+00  0.00000000E+00  0.00000000E+00
  0.00000000E+00  0.00000000E+00  0.00000000E+00
  0.00000000E+00  0.00000000E+00  0.00000000E+00
  0.00000000E+00  0.00000000E+00  0.00000000E+00
  0.00000000E+00  0.00000000E+00  0.00000000E+00
  0.00000000E+00  0.00000000E+00  0.00000000E+00
  0.00000000E+00  0.00000000E+00  0.00000000E+00
  0.00000000E+00  0.00000000E+00  0.00000000E+00
  0.00000000E+00  0.00000000E+00  0.00000000E+00
  0.00000000E+00  0.00000000E+00  0.00000000E+00
  0.00000000E+00  0.00000000E+00  0.00000000E+00
  0.00000000E+00  0.00000000E+00  0.00000000E+00
  0.00000000E+00  0.00000000E+00  0.00000000E+00
  0.00000000E+00  0.00000000E+00  0.00000000E+00
  0.00000000E+00  0.00000000E+00  0.00000000E+00
  0.00000000E+00  0.00000000E+00  0.00000000E+00
  0.00000000E+00  0.00000000E+00  0.00000000E+00
  0.00000000E+00  0.00000000E+00  0.00000000E+00
  0.00000000E+00  0.00000000E+00  0.00000000E+00
  0.00000000E+00  0.00000000E+00  0.00000000E+00
  0.00000000E+00  0.00000000E+00  0.00000000E+00
  0.00000000E+00  0.00000000E+00  0.00000000E+00
  0.00000000E+00  0.00000000E+00  0.00000000E+00
  0.00000000E+00  0.00000000E+00  0.00000000E+00
  0.00000000E+00  0.00000000E+00  0.00000000E+00
  0.00000000E+00  0.00000000E+00  0.00000000E+00
  0.00000000E+00  0.00000000E+00  0.00000000E+00
  0.00000000E+00  0.00000000E+00  0.00000000E+00
  0.00000000E+00  0.00000000E+00  0.00000000E+00
  0.00000000E+00  0.00000000E+00  0.00000000E+00
  0.00000000E+00  0.00000000E+00  0.00000000E+00
  0.00000000E+00  0.00000000E+00  0.00000000E+00
  0.00000000E+00  0.00000000E+00  0.00000000E+00
  0.00000000E+00  0.00000000E+00  0.00000000E+00
  0.00000000E+00  0.00000000E+00  0.00000000E+00
  0.00000000E+00  0.00000000E+00  0.00000000E+00
  0.00000000E+00  0.00000000E+00  0.00000000E+00
  0.00000000E+00  0.00000000E+00  0.00000000E+00
  0.00000000E+00  0.00000000E+00  0.00000000E+00
  0.00000000E+00  0.00000000E+00  0.00000000E+00
  0.00000000E+00  0.00000000E+00  0.00000000E+00
  0.00000000E+00  0.00000000E+00  0.00000000E+00
  0.00000000E+00  0.00000000E+00  0.00000000E+00
  0.00000000E+00  0.00000000E+00  0.00000000E+00
  0.00000000E+00  0.00000000E+00  0.00000000E+00
  0.00000000E+00  0.00000000E+00  0.00000000E+00
  0.00000000E+00  0.00000000E+00  0.00000000E+00
  0.00000000E+00  0.00000000E+00  0.00000000E+00
  0.00000000E+00  0.00000000E+00  0.00000000E+00
  0.00000000E+00  0.00000000E+00  0.00000000E+00
  0.00000000E+00  0.00000000E+00  0.00000000E+00
  0.00000000E+00  0.00000000E+00  0.00000000E+00
  0.00000000E+00  0.00000000E+00  0.00000000E+00
  0.00000000E+00  0.00000000E+00  0.00000000E+00
  0.00000000E+00  0.00000000E+00  0.00000000E+00
  0.00000000E+00  0.00000000E+00  0.00000000E+00
  0.00000000E+00  0.00000000E+00  0.00000000E+00
  0.00000000E+00  0.00000000E+00  0.00000000E+00
  0.00000000E+00  0.00000000E+00  0.00000000E+00
  0.00000000E+00  0.00000000E+00  0.00000000E+00
  0.00000000E+00  0.00000000E+00  0.00000000E+00
  0.00000000E+00  0.00000000E+00  0.00000000E+00
  0.00000000E+00  0.00000000E+00  0.00000000E+00
  0.00000000E+00  0.00000000E+00  0.00000000E+00
  0.00000000E+00  0.00000000E+00  0.00000000E+00
  0.00000000E+00  0.00000000E+00  0.00000000E+00
  0.00000000E+00  0.00000000E+00  0.00000000E+00
  0.00000000E+00  0.00000000E+00  0.00000000E+00
  0.00000000E+00  0.00000000E+00  0.00000000E+00
  0.00000000E+00  0.00000000E+00  0.00000000E+00
  0.00000000E+00  0.00000000E+00  0.00000000E+00
  0.00000000E+00  0.00000000E+00  0.00000000E+00
  0.00000000E+00  0.00000000E+00  0.00000000E+00
  0.00000000E+00  0.00000000E+00  0.00000000E+00
  0.00000000E+00  0.00000000E+00  0.00000000E+00
  0.00000000E+00  0.00000000E+00  0.00000000E+00
  0.00000000E+00  0.00000000E+00  0.00000000E+00
  0.00000000E+00  0.00000000E+00  0.00000000E+00
  0.00000000E+00  0.00000000E+00  0.00000000E+00
  0.00000000E+00  0.00000000E+00  0.00000000E+00
  0.00000000E+00  0.00000000E+00  0.00000000E+00
  0.00000000E+00  0.00000000E+00  0.00000000E+00
  0.00000000E+00  0.00000000E+00  0.00000000E+00
  0.00000000E+00  0.00000000E+00  0.00000000E+00
  0.00000000E+00  0.00000000E+00  0.00000000E+00
  0.00000000E+00  0.00000000E+00  0.00000000E+00
  0.00000000E+00  0.00000000E+00  0.00000000E+00
  0.00000000E+00  0.00000000E+00  0.00000000E+00
  0.00000000E+00  0.00000000E+00  0.00000000E+00
  0.00000000E+00  0.00000000E+00  0.00000000E+00
  0.00000000E+00  0.00000000E+00  0.00000000E+00
  0.00000000E+00  0.00000000E+00  0.00000000E+00
  0.00000000E+00  0.00000000E+00  0.00000000E+00
  0.00000000E+00  0.00000000E+00  0.00000000E+00
  0.00000000E+00  0.00000000E+00  0.00000000E+00
  0.00000000E+00  0.00000000E+00  0.00000000E+00
  0.00000000E+00  0.00000000E+00  0.00000000E+00
  0.00000000E+00  0.00000000E+00  0.00000000E+00
  0.00000000E+00  0.00000000E+00  0.00000000E+00
  0.00000000E+00  0.00000000E+00  0.00000000E+00
  0.00000000E+00  0.00000000E+00  0.00000000E+00
  0.00000000E+00  0.00000000E+00  0.00000000E+00
  0.00000000E+00  0.00000000E+00  0.00000000E+00
  0.00000000E+00  0.00000000E+00  0.00000000E+00
  0.00000000E+00  0.00000000E+00  0.00000000E+00
  0.00000000E+00  0.00000000E+00  0.00000000E+00
  0.00000000E+00  0.00000000E+00  0.00000000E+00
  0.00000000E+00  0.00000000E+00  0.00000000E+00
  0.00000000E+00  0.00000000E+00  0.00000000E+00
  0.00000000E+00  0.00000000E+00  0.00000000E+00
  0.00000000E+00  0.00000000E+00  0.00000000E+00
  0.00000000E+00  0.00000000E+00  0.00000000E+00
  0.00000000E+00  0.00000000E+00  0.00000000E+00
  0.00000000E+00  0.00000000E+00  0.00000000E+00
  0.00000000E+00  0.00000000E+00  0.00000000E+00
  0.00000000E+00  0.00000000E+00  0.00000000E+00
  0.00000000E+00  0.00000000E+00  0.00000000E+00
  0.00000000E+00  0.00000000E+00  0.00000000E+00
  0.00000000E+00  0.00000000E+00  0.00000000E+00
  0.00000000E+00  0.00000000E+00  0.00000000E+00
  0.00000000E+00  0.00000000E+00  0.00000000E+00
  0.00000000E+00  0.00000000E+00  0.00000000E+00
  0.00000000E+00  0.00000000E+00  0.00000000E+00
  0.00000000E+00  0.00000000E+00  0.00000000E+00
  0.00000000E+00  0.00000000E+00  0.00000000E+00
  0.00000000E+00  0.00000000E+00  0.00000000E+00
  0.00000000E+00  0.00000000E+00  0.00000000E+00
  0.00000000E+00  0.00000000E+00  0.00000000E+00
  0.00000000E+00  0.00000000E+00  0.00000000E+00
  0.00000000E+00  0.00000000E+00  0.00000000E+00
  0.00000000E+00  0.00000000E+00  0.00000000E+00
  0.00000000E+00  0.00000000E+00  0.00000000E+00
  0.00000000E+00  0.00000000E+00  0.00000000E+00
