Automatic KPOINTS generated
0
Gamma
2 3 6
0 0 0
