Automatic KPOINTS generated
0
Gamma
4 2 1
0 0 0
