Si+C
    1.000000000
   16.293001175    0.000000000    0.000000000
  -10.862000465   12.144085884    0.000000000
    0.000000000    0.000000000    7.006474018
Si  C  
36     84
Direct
    0.974358499    0.982905626    0.000000002
    0.674358428    0.782905579    0.173326701
    0.374358416    0.582905531    0.346653402
    0.307691783    0.982905626    0.000000002
    0.007691726    0.782905579    0.173326701
    0.707691669    0.582905531    0.346653402
    0.641025066    0.982905626    0.000000002
    0.341025025    0.782905579    0.173326701
    0.041024987    0.582905531    0.346653402
    0.157691970    0.632905602    0.086663172
    0.857691944    0.432905525    0.259989887
    0.557691932    0.232905507    0.433316529
    0.491025209    0.632905602    0.086663172
    0.191025153    0.432905525    0.259989887
    0.891025186    0.232905507    0.433316529
    0.824358463    0.632905602    0.086663172
    0.524358392    0.432905525    0.259989887
    0.224358499    0.232905507    0.433316529
    0.141025156    0.482905596    0.000000000
    0.841025114    0.282905489    0.173326701
    0.541025102    0.082905434    0.346653402
    0.474358439    0.482905596    0.000000000
    0.174358383    0.282905489    0.173326701
    0.874358356    0.082905434    0.346653402
    0.807691693    0.482905596    0.000000000
    0.507691681    0.282905489    0.173326701
    0.207691625    0.082905434    0.346653402
    0.991025209    0.132905662    0.086663179
    0.691025138    0.932905614    0.259989887
    0.391025186    0.732905567    0.433316529
    0.324358463    0.132905662    0.086663179
    0.024358414    0.932905614    0.259989887
    0.724358439    0.732905567    0.433316529
    0.657691658    0.132905662    0.086663179
    0.357691616    0.932905614    0.259989887
    0.057691652    0.732905567    0.433316529
    0.142098725    0.206957102    0.574368298
    0.384955943    0.178385735    0.688200295
    0.627813160    0.149814129    0.802032351
    0.427812994    0.349814296    0.574368298
    0.670670211    0.321242809    0.688200295
    0.913527429    0.292671323    0.802032351
    0.713527203    0.492671400    0.574368298
    0.956384480    0.464099914    0.688200295
    0.199241757    0.435528457    0.802032351
    0.999241590    0.635528564    0.574368298
    0.242098808    0.606957078    0.688200295
    0.484956145    0.578385651    0.802032351
    0.284955859    0.778385699    0.574368298
    0.527813077    0.749814272    0.688200295
    0.770670295    0.721242785    0.802032351
    0.570670187    0.921242893    0.574368298
    0.813527405    0.892671406    0.688200295
    0.056384683    0.864099920    0.802032351
    0.856384397    0.064100027    0.574368298
    0.099241614    0.035528421    0.688200295
    0.342098832    0.006957054    0.802032351
    0.977812886    0.299814284    0.631284237
    0.220670223    0.271242827    0.745116174
    0.463527441    0.242671311    0.858948231
    0.263527095    0.442671418    0.631284177
    0.506384373    0.414099962    0.745116293
    0.749241590    0.385528445    0.858948231
    0.549241483    0.585528612    0.631284177
    0.792098701    0.556957126    0.745116293
    0.034955978    0.528385639    0.858948231
    0.834955812    0.728385746    0.631284177
    0.077813148    0.699814200    0.745116293
    0.320670366    0.671242833    0.858948231
    0.120669968    0.871242881    0.631284177
    0.363527298    0.842671394    0.745116293
    0.606384397    0.814099908    0.858948231
    0.406384408    0.014100075    0.631284237
    0.649241686    0.985528469    0.745116293
    0.892098904    0.956957042    0.858948231
    0.692098558    0.156957150    0.631284237
    0.934955776    0.128385663    0.745116293
    0.177813053    0.099814177    0.858948231
    0.784955978    0.278385758    0.574368298
    0.027813077    0.249814242    0.688200295
    0.270670414    0.221242815    0.802032351
    0.070670366    0.421242893    0.574368298
    0.313527465    0.392671376    0.688200295
    0.556384563    0.364099890    0.802032351
    0.356384456    0.564100027    0.574368298
    0.599241674    0.535528541    0.688200295
    0.842098892    0.506957054    0.802032351
    0.642098665    0.706957161    0.574368298
    0.884955943    0.678385675    0.688200295
    0.127813220    0.649814248    0.802032351
    0.927812994    0.849814296    0.574368298
    0.170670271    0.821242869    0.688200295
    0.413527369    0.792671323    0.802032351
    0.213527292    0.992671490    0.574368298
    0.456384510    0.964100063    0.688200355
    0.699241817    0.935528576    0.802032351
    0.499241561    0.135528564    0.574368298
    0.742098749    0.106957197    0.688200355
    0.984956086    0.078385711    0.802032351
    0.334955871    0.228385732    0.631284177
    0.577813148    0.199814200    0.745116293
    0.820670426    0.171242714    0.858948231
    0.620670021    0.371242881    0.631284177
    0.863527298    0.342671394    0.745116293
    0.106384516    0.314099938    0.858948231
    0.906384289    0.514099956    0.631284177
    0.149241686    0.485528558    0.745116293
    0.392098904    0.456957102    0.858948231
    0.192098498    0.656957150    0.631284177
    0.434955835    0.628385663    0.745116174
    0.677813053    0.599814177    0.858948231
    0.477812946    0.799814224    0.631284177
    0.720670283    0.771242738    0.745116293
    0.963527501    0.742671311    0.858948231
    0.763527274    0.942671418    0.631284177
    0.006384611    0.914099932    0.745116293
    0.249241829    0.885528564    0.858948231
    0.049241424    0.085528612    0.631284177
    0.292098761    0.056957126    0.745116293
    0.534955978    0.028385639    0.858948231
