Si+Sn                                   
   1.00000000000000     
    13.3031797409999992    0.0000000000000000    0.0000000000000000
    -6.6515893940000002   14.8734064099999994    0.0000000000000000
     0.0000000000000000    0.0000000000000000    6.6635937690000002
   Si   Sn
    36    24
Direct
  0.0170943480000005  0.9914528130000022  0.0000000000000000
  0.2170944510000012  0.8914527299999975  0.1822453440000018
  0.4170945580000023  0.7914526460000033  0.3644906879999965
  0.0170943480000005  0.3247861270000030  0.0000000000000000
  0.2170944510000012  0.2247860430000017  0.1822453440000018
  0.4170945580000023  0.1247859449999993  0.3644906879999965
  0.0170943480000005  0.6581194999999980  0.0000000000000000
  0.2170944510000012  0.5581193570000025  0.1822453440000018
  0.4170945580000023  0.4581192429999987  0.3644906879999965
  0.3670942780000033  0.1914527859999993  0.0911224930000003
  0.5670943860000008  0.0914526950000010  0.2733678820000023
  0.7670944930000019  0.9914526339999981  0.4556132559999995
  0.3670942780000033  0.5247860549999999  0.0911224930000003
  0.5670943860000008  0.4247860010000011  0.2733678820000023
  0.7670944930000019  0.3247859180000034  0.4556132559999995
  0.3670942780000033  0.8581194280000020  0.0911224930000003
  0.5670943860000008  0.7581192259999980  0.2733678820000023
  0.7670944930000019  0.6581192020000017  0.4556132559999995
  0.5170943740000027  0.9914528130000022  0.0000000049999969
  0.7170944209999988  0.8914526699999996  0.1822453139999993
  0.9170945290000034  0.7914525870000020  0.3644906879999965
  0.5170943740000027  0.3247861270000030  0.0000000049999969
  0.7170944209999988  0.2247860129999992  0.1822453139999993
  0.9170945290000034  0.1247859220000009  0.3644906879999965
  0.5170943740000027  0.6581193800000023  0.0000000049999969
  0.7170944209999988  0.5581192969999975  0.1822453139999993
  0.9170945290000034  0.4581192429999987  0.3644906879999965
  0.8670942780000033  0.1914528009999970  0.0911225010000010
  0.0670944450000022  0.0914527250000035  0.2733679119999977
  0.2670943740000027  0.9914526339999981  0.4556131359999966
  0.8670942780000033  0.5247861149999977  0.0911225010000010
  0.0670944450000022  0.4247860010000011  0.2733679119999977
  0.2670943740000027  0.3247859180000034  0.4556131359999966
  0.8670942780000033  0.8581194879999998  0.0911225010000010
  0.0670944450000022  0.7581193449999972  0.2733679119999977
  0.2670943740000027  0.6581192610000031  0.4556131359999966
  0.9642375709999982  0.0306535329999988  0.4556132559999995
  0.6142375470000019  0.3306535780000033  0.6733680959999973
  0.2642372850000001  0.6306536199999968  0.8911228779999973
  0.4642374809999978  0.0306535329999988  0.4556132559999995
  0.1142373980000002  0.3306535780000033  0.6733680959999973
  0.7642372850000001  0.6306536199999968  0.8911228779999973
  0.4142374990000022  0.6806535119999992  0.5644904380000000
  0.0642373490000026  0.9806534650000032  0.7822452190000035
  0.7142373320000033  0.2806535960000005  0.9999999400000021
  0.9142375590000000  0.6806535119999992  0.5644904380000000
  0.5642374159999974  0.9806534650000032  0.7822452190000035
  0.2142373320000033  0.2806535960000005  0.9999999400000021
  0.9642375709999982  0.5306534770000013  0.4556132559999995
  0.6142374280000027  0.8306534889999995  0.6733680959999973
  0.2642372250000022  0.1306536199999968  0.8911228779999973
  0.4642374809999978  0.5306534770000013  0.4556132559999995
  0.1142374200000020  0.8306534889999995  0.6733680959999973
  0.7642372850000001  0.1306536199999968  0.8911228779999973
  0.4142374400000008  0.1806535119999992  0.5644904380000000
  0.0642373190000001  0.4806535840000024  0.7822452190000035
  0.7142373320000033  0.7806536559999984  0.9999999400000021
  0.9142375590000000  0.1806535119999992  0.5644904380000000
  0.5642373559999996  0.4806535840000024  0.7822452190000035
  0.2142373920000011  0.7806536559999984  0.9999999400000021
 
  0.00000000E+00  0.00000000E+00  0.00000000E+00
  0.00000000E+00  0.00000000E+00  0.00000000E+00
  0.00000000E+00  0.00000000E+00  0.00000000E+00
  0.00000000E+00  0.00000000E+00  0.00000000E+00
  0.00000000E+00  0.00000000E+00  0.00000000E+00
  0.00000000E+00  0.00000000E+00  0.00000000E+00
  0.00000000E+00  0.00000000E+00  0.00000000E+00
  0.00000000E+00  0.00000000E+00  0.00000000E+00
  0.00000000E+00  0.00000000E+00  0.00000000E+00
  0.00000000E+00  0.00000000E+00  0.00000000E+00
  0.00000000E+00  0.00000000E+00  0.00000000E+00
  0.00000000E+00  0.00000000E+00  0.00000000E+00
  0.00000000E+00  0.00000000E+00  0.00000000E+00
  0.00000000E+00  0.00000000E+00  0.00000000E+00
  0.00000000E+00  0.00000000E+00  0.00000000E+00
  0.00000000E+00  0.00000000E+00  0.00000000E+00
  0.00000000E+00  0.00000000E+00  0.00000000E+00
  0.00000000E+00  0.00000000E+00  0.00000000E+00
  0.00000000E+00  0.00000000E+00  0.00000000E+00
  0.00000000E+00  0.00000000E+00  0.00000000E+00
  0.00000000E+00  0.00000000E+00  0.00000000E+00
  0.00000000E+00  0.00000000E+00  0.00000000E+00
  0.00000000E+00  0.00000000E+00  0.00000000E+00
  0.00000000E+00  0.00000000E+00  0.00000000E+00
  0.00000000E+00  0.00000000E+00  0.00000000E+00
  0.00000000E+00  0.00000000E+00  0.00000000E+00
  0.00000000E+00  0.00000000E+00  0.00000000E+00
  0.00000000E+00  0.00000000E+00  0.00000000E+00
  0.00000000E+00  0.00000000E+00  0.00000000E+00
  0.00000000E+00  0.00000000E+00  0.00000000E+00
  0.00000000E+00  0.00000000E+00  0.00000000E+00
  0.00000000E+00  0.00000000E+00  0.00000000E+00
  0.00000000E+00  0.00000000E+00  0.00000000E+00
  0.00000000E+00  0.00000000E+00  0.00000000E+00
  0.00000000E+00  0.00000000E+00  0.00000000E+00
  0.00000000E+00  0.00000000E+00  0.00000000E+00
  0.00000000E+00  0.00000000E+00  0.00000000E+00
  0.00000000E+00  0.00000000E+00  0.00000000E+00
  0.00000000E+00  0.00000000E+00  0.00000000E+00
  0.00000000E+00  0.00000000E+00  0.00000000E+00
  0.00000000E+00  0.00000000E+00  0.00000000E+00
  0.00000000E+00  0.00000000E+00  0.00000000E+00
  0.00000000E+00  0.00000000E+00  0.00000000E+00
  0.00000000E+00  0.00000000E+00  0.00000000E+00
  0.00000000E+00  0.00000000E+00  0.00000000E+00
  0.00000000E+00  0.00000000E+00  0.00000000E+00
  0.00000000E+00  0.00000000E+00  0.00000000E+00
  0.00000000E+00  0.00000000E+00  0.00000000E+00
  0.00000000E+00  0.00000000E+00  0.00000000E+00
  0.00000000E+00  0.00000000E+00  0.00000000E+00
  0.00000000E+00  0.00000000E+00  0.00000000E+00
  0.00000000E+00  0.00000000E+00  0.00000000E+00
  0.00000000E+00  0.00000000E+00  0.00000000E+00
  0.00000000E+00  0.00000000E+00  0.00000000E+00
  0.00000000E+00  0.00000000E+00  0.00000000E+00
  0.00000000E+00  0.00000000E+00  0.00000000E+00
  0.00000000E+00  0.00000000E+00  0.00000000E+00
  0.00000000E+00  0.00000000E+00  0.00000000E+00
  0.00000000E+00  0.00000000E+00  0.00000000E+00
  0.00000000E+00  0.00000000E+00  0.00000000E+00
