Si+Sn
    1.000000000
   13.303179741    0.000000000    0.000000000
   -6.651589394   14.873406410    0.000000000
    0.000000000    0.000000000    6.663593769
Si  Sn 
36     24
Direct
    0.017094348    0.991452813    0.000000000
    0.217094451    0.891452730    0.182245344
    0.417094558    0.791452646    0.364490688
    0.017094348    0.324786127    0.000000000
    0.217094451    0.224786043    0.182245344
    0.417094558    0.124785945    0.364490688
    0.017094348    0.658119500    0.000000000
    0.217094451    0.558119357    0.182245344
    0.417094558    0.458119243    0.364490688
    0.367094278    0.191452786    0.091122493
    0.567094386    0.091452695    0.273367882
    0.767094493    0.991452634    0.455613256
    0.367094278    0.524786055    0.091122493
    0.567094386    0.424786001    0.273367882
    0.767094493    0.324785918    0.455613256
    0.367094278    0.858119428    0.091122493
    0.567094386    0.758119226    0.273367882
    0.767094493    0.658119202    0.455613256
    0.517094374    0.991452813    0.000000005
    0.717094421    0.891452670    0.182245314
    0.917094529    0.791452587    0.364490688
    0.517094374    0.324786127    0.000000005
    0.717094421    0.224786013    0.182245314
    0.917094529    0.124785922    0.364490688
    0.517094374    0.658119380    0.000000005
    0.717094421    0.558119297    0.182245314
    0.917094529    0.458119243    0.364490688
    0.867094278    0.191452801    0.091122501
    0.067094445    0.091452725    0.273367912
    0.267094374    0.991452634    0.455613136
    0.867094278    0.524786115    0.091122501
    0.067094445    0.424786001    0.273367912
    0.267094374    0.324785918    0.455613136
    0.867094278    0.858119488    0.091122501
    0.067094445    0.758119345    0.273367912
    0.267094374    0.658119261    0.455613136
    0.964237571    0.030653533    0.455613256
    0.614237547    0.330653578    0.673368096
    0.264237285    0.630653620    0.891122878
    0.464237481    0.030653533    0.455613256
    0.114237398    0.330653578    0.673368096
    0.764237285    0.630653620    0.891122878
    0.414237499    0.680653512    0.564490438
    0.064237349    0.980653465    0.782245219
    0.714237332    0.280653596    0.999999940
    0.914237559    0.680653512    0.564490438
    0.564237416    0.980653465    0.782245219
    0.214237332    0.280653596    0.999999940
    0.964237571    0.530653477    0.455613256
    0.614237428    0.830653489    0.673368096
    0.264237225    0.130653620    0.891122878
    0.464237481    0.530653477    0.455613256
    0.114237420    0.830653489    0.673368096
    0.764237285    0.130653620    0.891122878
    0.414237440    0.180653512    0.564490438
    0.064237319    0.480653584    0.782245219
    0.714237332    0.780653656    0.999999940
    0.914237559    0.180653512    0.564490438
    0.564237356    0.480653584    0.782245219
    0.214237392    0.780653656    0.999999940
