Ge+Sn
    1.000000000
   19.599195480    0.000000000    0.000000000
   -6.533064842   18.478298187    0.000000000
    0.000000000    0.000000000   21.473070145
Ge  Sn 
192     144
Direct
    0.744844615    0.234533861    0.000000017
    0.682344615    0.047033865    0.093155526
    0.619844615    0.859533846    0.186311036
    0.557344615    0.672033906    0.279466510
    0.494844615    0.484533906    0.372622013
    0.432344586    0.297033846    0.465777457
    0.494844645    0.984533846    0.000000016
    0.432344615    0.797033846    0.093155503
    0.369844615    0.609533787    0.186311051
    0.307344615    0.422033846    0.279466540
    0.244844645    0.234533906    0.372621983
    0.182344645    0.047033846    0.465777546
    0.744844615    0.734533846    0.000000019
    0.682344615    0.547033846    0.093155503
    0.619844615    0.359533817    0.186311051
    0.557344615    0.172033846    0.279466510
    0.494844615    0.984533906    0.372621983
    0.432344586    0.797033846    0.465777487
    0.494844615    0.484533846    0.000000019
    0.432344615    0.297033846    0.093155503
    0.369844615    0.109533817    0.186311036
    0.307344615    0.922033846    0.279466510
    0.244844630    0.734533906    0.372621983
    0.182344630    0.547033846    0.465777487
    0.244844630    0.234533861    0.000000019
    0.182344630    0.047033854    0.093155503
    0.119844608    0.859533787    0.186311036
    0.057344612    0.672033846    0.279466510
    0.994844615    0.484533906    0.372621983
    0.932344615    0.297033846    0.465777487
    0.994844615    0.984533846    0.000000019
    0.932344615    0.797033846    0.093155503
    0.869844615    0.609533787    0.186311036
    0.807344615    0.422033846    0.279466510
    0.744844675    0.234533906    0.372621983
    0.682344615    0.047033846    0.465777487
    0.244844615    0.734533846    0.000000009
    0.182344615    0.547033846    0.093155503
    0.119844608    0.359533846    0.186311036
    0.057344619    0.172033861    0.279466510
    0.994844615    0.984533906    0.372621983
    0.932344615    0.797033846    0.465777487
    0.994844615    0.484533876    0.000000009
    0.932344615    0.297033876    0.093155503
    0.869844615    0.109533824    0.186311036
    0.807344615    0.922033846    0.279466510
    0.744844675    0.734533906    0.372621983
    0.682344615    0.547033846    0.465777487
    0.869844615    0.109533794    0.000000000
    0.807344615    0.922033787    0.093155503
    0.744844675    0.734533787    0.186311007
    0.682344675    0.547033787    0.279466540
    0.619844675    0.359533846    0.372621983
    0.557344615    0.172033787    0.465777457
    0.869844615    0.609533846    0.000000022
    0.807344615    0.422033846    0.093155518
    0.744844615    0.234533802    0.186311036
    0.682344615    0.047033843    0.279466510
    0.619844615    0.859533906    0.372621983
    0.557344615    0.672033787    0.465777457
    0.619844615    0.359533846    0.000000022
    0.557344615    0.172033831    0.093155518
    0.494844645    0.984533787    0.186311036
    0.432344645    0.797033846    0.279466510
    0.369844645    0.609533906    0.372621983
    0.307344615    0.422033846    0.465777457
    0.369844615    0.109533861    0.000000023
    0.307344615    0.922033846    0.093155526
    0.244844615    0.734533787    0.186311051
    0.182344615    0.547033846    0.279466540
    0.119844638    0.359533906    0.372621983
    0.057344612    0.172033846    0.465777487
    0.619844615    0.859533846    0.000000018
    0.557344615    0.672033846    0.093155503
    0.494844615    0.484533757    0.186311036
    0.432344615    0.297033846    0.279466540
    0.369844615    0.109533846    0.372621983
    0.307344615    0.922033846    0.465777487
    0.369844615    0.609533846    0.000000019
    0.307344615    0.422033846    0.093155503
    0.244844601    0.234533846    0.186311036
    0.182344615    0.047033861    0.279466540
    0.119844608    0.859533906    0.372621983
    0.057344619    0.672033846    0.465777487
    0.119844630    0.359533876    0.000000019
    0.057344623    0.172033861    0.093155503
    0.994844615    0.984533787    0.186311036
    0.932344615    0.797033846    0.279466510
    0.869844675    0.609533906    0.372621983
    0.807344615    0.422033846    0.465777487
    0.119844615    0.859533846    0.000000023
    0.057344623    0.672033846    0.093155533
    0.994844615    0.484533817    0.186311051
    0.932344615    0.297033846    0.279466540
    0.869844675    0.109533884    0.372622013
    0.807344615    0.922033846    0.465777487
    0.869844675    0.234533906    0.000000009
    0.807344675    0.047033865    0.093155518
    0.744844615    0.859533846    0.186311036
    0.682344675    0.672033846    0.279466510
    0.619844675    0.484533906    0.372621983
    0.557344675    0.297033846    0.465777487
    0.619844615    0.984533846    0.000000009
    0.557344615    0.797033846    0.093155518
    0.494844645    0.609533787    0.186311036
    0.432344645    0.422033846    0.279466510
    0.369844645    0.234533906    0.372621983
    0.307344645    0.047033846    0.465777487
    0.869844675    0.734533906    0.000000021
    0.807344675    0.547033906    0.093155503
    0.744844675    0.359533876    0.186311051
    0.682344675    0.172033891    0.279466510
    0.619844675    0.984533966    0.372621983
    0.557344675    0.797033906    0.465777487
    0.619844675    0.484533906    0.000000021
    0.557344675    0.297033876    0.093155518
    0.494844645    0.109533831    0.186311036
    0.432344645    0.922033846    0.279466540
    0.369844675    0.734533906    0.372621983
    0.307344645    0.547033906    0.465777487
    0.369844615    0.234533846    0.000000022
    0.307344615    0.047033846    0.093155503
    0.244844615    0.859533787    0.186311051
    0.182344630    0.672033846    0.279466540
    0.119844645    0.484533906    0.372622013
    0.057344619    0.297033846    0.465777487
    0.119844615    0.984533846    0.000000021
    0.057344615    0.797033846    0.093155503
    0.994844615    0.609533787    0.186311036
    0.932344615    0.422033846    0.279466540
    0.869844675    0.234533906    0.372621983
    0.807344615    0.047033846    0.465777487
    0.369844615    0.734533846    0.000000018
    0.307344615    0.547033846    0.093155518
    0.244844601    0.359533817    0.186311051
    0.182344615    0.172033802    0.279466540
    0.119844615    0.984533846    0.372621983
    0.057344612    0.797033787    0.465777487
    0.119844615    0.484533846    0.000000018
    0.057344615    0.297033846    0.093155518
    0.994844615    0.109533817    0.186311051
    0.932344615    0.922033846    0.279466540
    0.869844675    0.734533906    0.372621983
    0.807344615    0.547033846    0.465777487
    0.744844615    0.359533846    0.000000007
    0.682344615    0.172033846    0.093155518
    0.619844615    0.984533787    0.186311036
    0.557344556    0.797033846    0.279466510
    0.494844586    0.609533906    0.372621983
    0.432344586    0.422033846    0.465777457
    0.494844615    0.109533846    0.000000007
    0.432344615    0.922033846    0.093155518
    0.369844615    0.734533787    0.186311036
    0.307344615    0.547033906    0.279466510
    0.244844630    0.359533906    0.372621983
    0.182344601    0.172033846    0.465777457
    0.744844615    0.859533846    0.000000020
    0.682344556    0.672033787    0.093155503
    0.619844556    0.484533787    0.186311036
    0.557344615    0.297033846    0.279466510
    0.494844615    0.109533854    0.372621983
    0.432344586    0.922033846    0.465777487
    0.494844615    0.609533846    0.000000019
    0.432344615    0.422033846    0.093155503
    0.369844586    0.234533802    0.186311036
    0.307344615    0.047033828    0.279466540
    0.244844615    0.859533846    0.372621983
    0.182344601    0.672033846    0.465777487
    0.244844615    0.359533846    0.000000019
    0.182344615    0.172033846    0.093155503
    0.119844615    0.984533846    0.186311036
    0.057344627    0.797033846    0.279466540
    0.994844615    0.609533906    0.372621983
    0.932344615    0.422033846    0.465777487
    0.994844615    0.109533839    0.000000019
    0.932344615    0.922033846    0.093155503
    0.869844615    0.734533787    0.186311036
    0.807344615    0.547033846    0.279466540
    0.744844675    0.359533906    0.372621983
    0.682344615    0.172033846    0.465777487
    0.244844615    0.859533846    0.000000017
    0.182344615    0.672033846    0.093155526
    0.119844593    0.484533817    0.186311036
    0.057344593    0.297033846    0.279466540
    0.994844615    0.109533876    0.372621983
    0.932344615    0.922033846    0.465777487
    0.994844615    0.609533846    0.000000017
    0.932344615    0.422033846    0.093155526
    0.869844615    0.234533846    0.186311036
    0.807344615    0.047033865    0.279466540
    0.744844675    0.859533906    0.372621983
    0.682344615    0.672033846    0.465777487
    0.991010249    0.651683748    0.465777546
    0.866010189    0.443350226    0.572622061
    0.741010189    0.235016733    0.679466605
    0.616010189    0.026683195    0.786311030
    0.491010129    0.818349719    0.893155575
    0.366010129    0.610016227    1.000000000
    0.991010249    0.318350405    0.465777546
    0.866010189    0.110016905    0.572622061
    0.741010189    0.901683390    0.679466605
    0.616010189    0.693349838    0.786311030
    0.491010129    0.485016346    0.893155575
    0.366010129    0.276682913    1.000000000
    0.991010249    0.985017061    0.465777546
    0.866010189    0.776683569    0.572622061
    0.741010189    0.568350077    0.679466605
    0.616010189    0.360016465    0.786311030
    0.491010129    0.151682973    0.893155575
    0.366010129    0.943349481    1.000000000
    0.491010249    0.818350315    0.465777546
    0.366010219    0.610016823    0.572622061
    0.241010219    0.401683390    0.679466605
    0.116010167    0.193349823    0.786311030
    0.991010129    0.985016346    0.893155575
    0.866010129    0.776682854    1.000000000
    0.491010249    0.485017061    0.465777546
    0.366010219    0.276683539    0.572622061
    0.241010219    0.068350054    0.679466605
    0.116010167    0.860016465    0.786311030
    0.991010129    0.651682973    0.893155575
    0.866010129    0.443349540    1.000000000
    0.491010249    0.151683733    0.465777546
    0.366010219    0.943350255    0.572622061
    0.241010219    0.735016704    0.679466605
    0.116010167    0.526683152    0.786311030
    0.991010129    0.318349659    0.893155575
    0.866010129    0.110016167    1.000000000
    0.241010249    0.735017061    0.465777546
    0.116010226    0.526683569    0.572622061
    0.991010189    0.318350077    0.679466605
    0.866010189    0.110016532    0.786311030
    0.741010129    0.901683033    0.893155575
    0.616010129    0.693349540    1.000000000
    0.241010249    0.401683748    0.465777546
    0.116010226    0.193350241    0.572622061
    0.991010189    0.985016763    0.679466605
    0.866010189    0.776683211    0.786311030
    0.741010129    0.568349659    0.893155575
    0.616010129    0.360016227    1.000000000
    0.241010249    0.068350397    0.465777546
    0.116010226    0.860016882    0.572622061
    0.991010189    0.651683390    0.679466605
    0.866010189    0.443349779    0.786311030
    0.741010129    0.235016346    0.893155575
    0.616010129    0.026682854    1.000000000
    0.741010249    0.901683748    0.465777546
    0.616010249    0.693350255    0.572622061
    0.491010219    0.485016733    0.679466605
    0.366010159    0.276683182    0.786311030
    0.241010144    0.068349697    0.893155575
    0.116010129    0.860016227    1.000000000
    0.741010249    0.568350375    0.465777546
    0.616010249    0.360016882    0.572622061
    0.491010219    0.151683390    0.679466605
    0.366010159    0.943349838    0.786311030
    0.241010144    0.735016346    0.893155575
    0.116010129    0.526682854    1.000000000
    0.741010249    0.235017076    0.465777546
    0.616010249    0.026683567    0.572622061
    0.491010219    0.818350077    0.679466605
    0.366010159    0.610016465    0.786311030
    0.241010144    0.401682973    0.893155575
    0.116010129    0.193349540    1.000000000
    0.366010249    0.860017121    0.465777606
    0.241010219    0.651683569    0.572622061
    0.116010211    0.443350077    0.679466605
    0.991010129    0.235016540    0.786311030
    0.866010129    0.026683042    0.893155575
    0.741010129    0.818349540    1.000000000
    0.366010249    0.526683688    0.465777606
    0.241010219    0.318350196    0.572622061
    0.116010211    0.110016681    0.679466605
    0.991010129    0.901683092    0.786311030
    0.866010129    0.693349600    0.893155575
    0.741010129    0.485016108    1.000000000
    0.366010249    0.193350405    0.465777606
    0.241010219    0.985016882    0.572622061
    0.116010211    0.776683390    0.679466605
    0.991010129    0.568349838    0.786311030
    0.866010129    0.360016346    0.893155575
    0.741010129    0.151682854    1.000000000
    0.866010308    0.693350434    0.465777546
    0.741010249    0.485016972    0.572622061
    0.616010249    0.276683450    0.679466605
    0.491010189    0.068349883    0.786311030
    0.366010189    0.860016406    0.893155575
    0.241010174    0.651682854    1.000000000
    0.866010308    0.360017031    0.465777546
    0.741010249    0.151683524    0.572622061
    0.616010249    0.943350017    0.679466605
    0.491010189    0.735016465    0.786311030
    0.366010189    0.526682973    0.893155575
    0.241010174    0.318349421    1.000000000
    0.866010308    0.026683725    0.465777546
    0.741010249    0.818350196    0.572622061
    0.616010249    0.610016704    0.679466605
    0.491010189    0.401683152    0.786311030
    0.366010189    0.193349600    0.893155575
    0.241010174    0.985016108    1.000000000
    0.116010241    0.776683807    0.465777546
    0.991010249    0.568350255    0.572622061
    0.866010189    0.360016823    0.679466605
    0.741010129    0.151683241    0.786311030
    0.616010129    0.943349719    0.893155575
    0.491010129    0.735016227    1.000000000
    0.116010241    0.443350405    0.465777546
    0.991010249    0.235016897    0.572622061
    0.866010189    0.026683396    0.679466605
    0.741010129    0.818349838    0.786311030
    0.616010129    0.610016346    0.893155575
    0.491010129    0.401682854    1.000000000
    0.116010241    0.110017098    0.465777546
    0.991010249    0.901683569    0.572622061
    0.866010189    0.693350077    0.679466605
    0.741010129    0.485016525    0.786311030
    0.616010129    0.276683033    0.893155575
    0.491010129    0.068349481    1.000000000
    0.616010249    0.943350434    0.465777606
    0.491010219    0.735016942    0.572622061
    0.366010219    0.526683450    0.679466605
    0.241010159    0.318349868    0.786311030
    0.116010137    0.110016376    0.893155575
    0.991010129    0.901682854    1.000000000
    0.616010249    0.610017061    0.465777606
    0.491010219    0.401683539    0.572622061
    0.366010219    0.193350062    0.679466605
    0.241010159    0.985016465    0.786311030
    0.116010137    0.776682973    0.893155575
    0.991010129    0.568349481    1.000000000
    0.616010249    0.276683718    0.465777606
    0.491010219    0.068350226    0.572622061
    0.366010219    0.860016704    0.679466605
    0.241010159    0.651683092    0.786311030
    0.116010137    0.443349719    0.893155575
    0.991010129    0.235016167    1.000000000
