fcc Si+fcc Ge                           
   1.00000000000000     
     7.7498903219999997    0.0000000000000000    0.0000000000000000
     3.8749451609999999   11.6248354830000000    0.0000000000000000
     0.0000000000000000    0.0000000000000000   18.6333333329999995
   Si   Ge
    12    66
Direct
  0.0000000000000000  0.0000000000000000  0.0000000000000000
  0.1111111109999996  0.2777777780000008  0.0490161000000029
  0.2222222219999992  0.5555555560000016  0.0980321999999987
  0.5000000000000000  0.0000000000000000  0.0000000000000000
  0.6111111109999996  0.2777777780000008  0.0490161000000029
  0.7222222219999992  0.5555555560000016  0.0980321999999987
  0.8055555560000016  0.8888888890000004  0.0245080500000014
  0.9166666670000012  0.1666666670000012  0.0735241499999972
  0.0277777780000008  0.4444444439999984  0.1225402500000001
  0.3055555560000016  0.8888888890000004  0.0245080500000014
  0.4166666670000012  0.1666666670000012  0.0735241499999972
  0.5277777780000008  0.4444444439999984  0.1225402500000001
  0.0000000000000000  0.0491803279999985  0.1815742400000033
  0.3333333329999988  0.8825136609999973  0.3334525940000006
  0.6666666670000012  0.7158469949999997  0.4853309479999979
  0.0000000000000000  0.5491803279999985  0.6372093020000023
  0.3333333329999988  0.3825136609999973  0.7890876570000032
  0.6666666670000012  0.2158469949999997  0.9409660110000004
  0.3333333329999988  0.3825136609999973  0.1815742400000033
  0.6666666670000012  0.2158469949999997  0.3334525940000006
  0.0000000000000000  0.0491803279999985  0.4853309479999979
  0.3333333329999988  0.8825136609999973  0.6372093020000023
  0.6666666670000012  0.7158469949999997  0.7890876570000032
  0.0000000000000000  0.5491803279999985  0.9409660110000004
  0.6666666670000012  0.7158469949999997  0.1815742400000033
  0.0000000000000000  0.5491803279999985  0.3334525940000006
  0.3333333329999988  0.3825136609999973  0.4853309479999979
  0.6666666670000012  0.2158469949999997  0.6372093020000023
  0.0000000000000000  0.0491803279999985  0.7890876570000032
  0.3333333329999988  0.8825136609999973  0.9409660110000004
  0.5000000000000000  0.0491803279999985  0.1815742400000033
  0.8333333329999988  0.8825136609999973  0.3334525940000006
  0.1666666670000012  0.7158469949999997  0.4853309479999979
  0.5000000000000000  0.5491803279999985  0.6372093020000023
  0.8333333329999988  0.3825136609999973  0.7890876570000032
  0.1666666670000012  0.2158469949999997  0.9409660110000004
  0.8333333329999988  0.3825136609999973  0.1815742400000033
  0.1666666670000012  0.2158469949999997  0.3334525940000006
  0.5000000000000000  0.0491803279999985  0.4853309479999979
  0.8333333329999988  0.8825136609999973  0.6372093020000023
  0.1666666670000012  0.7158469949999997  0.7890876570000032
  0.5000000000000000  0.5491803279999985  0.9409660110000004
  0.1666666670000012  0.7158469949999997  0.1815742400000033
  0.5000000000000000  0.5491803279999985  0.3334525940000006
  0.8333333329999988  0.3825136609999973  0.4853309479999979
  0.1666666670000012  0.2158469949999997  0.6372093020000023
  0.5000000000000000  0.0491803279999985  0.7890876570000032
  0.8333333329999988  0.8825136609999973  0.9409660110000004
  0.9166666670000012  0.2158469949999997  0.2575134169999984
  0.2500000000000000  0.0491803279999985  0.4093917710000028
  0.5833333329999988  0.8825136609999973  0.5612701250000001
  0.9166666670000012  0.7158469949999997  0.7131484789999973
  0.2500000000000000  0.5491803279999985  0.8650268339999982
  0.2500000000000000  0.5491803279999985  0.2575134169999984
  0.5833333329999988  0.3825136609999973  0.4093917710000028
  0.9166666670000012  0.2158469949999997  0.5612701250000001
  0.2500000000000000  0.0491803279999985  0.7131484789999973
  0.5833333329999988  0.8825136609999973  0.8650268339999982
  0.5833333329999988  0.8825136609999973  0.2575134169999984
  0.9166666670000012  0.7158469949999997  0.4093917710000028
  0.2500000000000000  0.5491803279999985  0.5612701250000001
  0.5833333329999988  0.3825136609999973  0.7131484789999973
  0.9166666670000012  0.2158469949999997  0.8650268339999982
  0.4166666670000012  0.2158469949999997  0.2575134169999984
  0.7500000000000000  0.0491803279999985  0.4093917710000028
  0.0833333329999988  0.8825136609999973  0.5612701250000001
  0.4166666670000012  0.7158469949999997  0.7131484789999973
  0.7500000000000000  0.5491803279999985  0.8650268339999982
  0.7500000000000000  0.5491803279999985  0.2575134169999984
  0.0833333329999988  0.3825136609999973  0.4093917710000028
  0.4166666670000012  0.2158469949999997  0.5612701250000001
  0.7500000000000000  0.0491803279999985  0.7131484789999973
  0.0833333329999988  0.8825136609999973  0.8650268339999982
  0.0833333329999988  0.8825136609999973  0.2575134169999984
  0.4166666670000012  0.7158469949999997  0.4093917710000028
  0.7500000000000000  0.5491803279999985  0.5612701250000001
  0.0833333329999988  0.3825136609999973  0.7131484789999973
  0.4166666670000012  0.2158469949999997  0.8650268339999982
 
  0.00000000E+00  0.00000000E+00  0.00000000E+00
  0.00000000E+00  0.00000000E+00  0.00000000E+00
  0.00000000E+00  0.00000000E+00  0.00000000E+00
  0.00000000E+00  0.00000000E+00  0.00000000E+00
  0.00000000E+00  0.00000000E+00  0.00000000E+00
  0.00000000E+00  0.00000000E+00  0.00000000E+00
  0.00000000E+00  0.00000000E+00  0.00000000E+00
  0.00000000E+00  0.00000000E+00  0.00000000E+00
  0.00000000E+00  0.00000000E+00  0.00000000E+00
  0.00000000E+00  0.00000000E+00  0.00000000E+00
  0.00000000E+00  0.00000000E+00  0.00000000E+00
  0.00000000E+00  0.00000000E+00  0.00000000E+00
  0.00000000E+00  0.00000000E+00  0.00000000E+00
  0.00000000E+00  0.00000000E+00  0.00000000E+00
  0.00000000E+00  0.00000000E+00  0.00000000E+00
  0.00000000E+00  0.00000000E+00  0.00000000E+00
  0.00000000E+00  0.00000000E+00  0.00000000E+00
  0.00000000E+00  0.00000000E+00  0.00000000E+00
  0.00000000E+00  0.00000000E+00  0.00000000E+00
  0.00000000E+00  0.00000000E+00  0.00000000E+00
  0.00000000E+00  0.00000000E+00  0.00000000E+00
  0.00000000E+00  0.00000000E+00  0.00000000E+00
  0.00000000E+00  0.00000000E+00  0.00000000E+00
  0.00000000E+00  0.00000000E+00  0.00000000E+00
  0.00000000E+00  0.00000000E+00  0.00000000E+00
  0.00000000E+00  0.00000000E+00  0.00000000E+00
  0.00000000E+00  0.00000000E+00  0.00000000E+00
  0.00000000E+00  0.00000000E+00  0.00000000E+00
  0.00000000E+00  0.00000000E+00  0.00000000E+00
  0.00000000E+00  0.00000000E+00  0.00000000E+00
  0.00000000E+00  0.00000000E+00  0.00000000E+00
  0.00000000E+00  0.00000000E+00  0.00000000E+00
  0.00000000E+00  0.00000000E+00  0.00000000E+00
  0.00000000E+00  0.00000000E+00  0.00000000E+00
  0.00000000E+00  0.00000000E+00  0.00000000E+00
  0.00000000E+00  0.00000000E+00  0.00000000E+00
  0.00000000E+00  0.00000000E+00  0.00000000E+00
  0.00000000E+00  0.00000000E+00  0.00000000E+00
  0.00000000E+00  0.00000000E+00  0.00000000E+00
  0.00000000E+00  0.00000000E+00  0.00000000E+00
  0.00000000E+00  0.00000000E+00  0.00000000E+00
  0.00000000E+00  0.00000000E+00  0.00000000E+00
  0.00000000E+00  0.00000000E+00  0.00000000E+00
  0.00000000E+00  0.00000000E+00  0.00000000E+00
  0.00000000E+00  0.00000000E+00  0.00000000E+00
  0.00000000E+00  0.00000000E+00  0.00000000E+00
  0.00000000E+00  0.00000000E+00  0.00000000E+00
  0.00000000E+00  0.00000000E+00  0.00000000E+00
  0.00000000E+00  0.00000000E+00  0.00000000E+00
  0.00000000E+00  0.00000000E+00  0.00000000E+00
  0.00000000E+00  0.00000000E+00  0.00000000E+00
  0.00000000E+00  0.00000000E+00  0.00000000E+00
  0.00000000E+00  0.00000000E+00  0.00000000E+00
  0.00000000E+00  0.00000000E+00  0.00000000E+00
  0.00000000E+00  0.00000000E+00  0.00000000E+00
  0.00000000E+00  0.00000000E+00  0.00000000E+00
  0.00000000E+00  0.00000000E+00  0.00000000E+00
  0.00000000E+00  0.00000000E+00  0.00000000E+00
  0.00000000E+00  0.00000000E+00  0.00000000E+00
  0.00000000E+00  0.00000000E+00  0.00000000E+00
  0.00000000E+00  0.00000000E+00  0.00000000E+00
  0.00000000E+00  0.00000000E+00  0.00000000E+00
  0.00000000E+00  0.00000000E+00  0.00000000E+00
  0.00000000E+00  0.00000000E+00  0.00000000E+00
  0.00000000E+00  0.00000000E+00  0.00000000E+00
  0.00000000E+00  0.00000000E+00  0.00000000E+00
  0.00000000E+00  0.00000000E+00  0.00000000E+00
  0.00000000E+00  0.00000000E+00  0.00000000E+00
  0.00000000E+00  0.00000000E+00  0.00000000E+00
  0.00000000E+00  0.00000000E+00  0.00000000E+00
  0.00000000E+00  0.00000000E+00  0.00000000E+00
  0.00000000E+00  0.00000000E+00  0.00000000E+00
  0.00000000E+00  0.00000000E+00  0.00000000E+00
  0.00000000E+00  0.00000000E+00  0.00000000E+00
  0.00000000E+00  0.00000000E+00  0.00000000E+00
  0.00000000E+00  0.00000000E+00  0.00000000E+00
  0.00000000E+00  0.00000000E+00  0.00000000E+00
  0.00000000E+00  0.00000000E+00  0.00000000E+00
