Ge+Si                                   
   1.00000000000000     
    16.0026760099999983    0.0000000000000000    0.0000000000000000
     0.0000000000000000   16.9734020229999985    0.0000000000000000
     0.0000000000000000    0.0000000000000000   13.2939195629999993
   Ge   Si
    48   108
Direct
  0.9132377509999969  0.9100242849999987  0.0000000189999980
  0.5382377509999969  0.5211353899999978  0.0501567419999986
  0.1632378099999983  0.1322464940000003  0.1003134400000008
  0.7882378099999983  0.7433574200000024  0.1504702269999996
  0.4132378099999983  0.3544685840000028  0.2006269250000017
  0.0382376909999991  0.9655795099999978  0.2507836520000026
  0.4132376909999991  0.9100242849999987  0.0000000220000018
  0.0382377170000012  0.5211353299999999  0.0501567419999986
  0.6632377509999969  0.1322464349999990  0.1003134400000008
  0.2882376909999991  0.7433574200000024  0.1504701819999994
  0.9132378099999983  0.3544684649999965  0.2006269250000017
  0.5382378099999983  0.9655797480000032  0.2507837409999993
  0.0382377279999986  0.6600242259999973  0.0000000189999980
  0.6632377509999969  0.2711352999999974  0.0501567239999972
  0.2882378099999983  0.8822463750000011  0.1003134469999978
  0.9132378099999983  0.4933574200000024  0.1504701819999994
  0.5382376909999991  0.1044684049999987  0.2006268949999992
  0.1632376909999991  0.7155796289999969  0.2507836520000026
  0.5382376909999991  0.6600242259999973  0.0000000189999980
  0.1632377059999968  0.2711352999999974  0.0501567239999972
  0.7882377509999969  0.8822463750000011  0.1003134469999978
  0.4132376909999991  0.4933574800000002  0.1504701819999994
  0.0382377509999969  0.1044684649999965  0.2006269399999994
  0.6632376909999991  0.7155796289999969  0.2507836819999980
  0.2882377509999969  0.6600242259999973  0.0000000189999980
  0.9132377509999969  0.2711352999999974  0.0501567239999972
  0.5382378099999983  0.8822463750000011  0.1003134469999978
  0.1632378099999983  0.4933574200000024  0.1504701819999994
  0.7882378099999983  0.1044684649999965  0.2006268949999992
  0.4132378099999983  0.7155795099999978  0.2507836520000026
  0.7882376909999991  0.6600241659999995  0.0000000000000000
  0.4132377210000016  0.2711352999999974  0.0501567239999972
  0.0382377840000032  0.8822463750000011  0.1003134469999978
  0.6632377509999969  0.4933574200000024  0.1504701670000017
  0.2882376909999991  0.1044684649999965  0.2006268949999992
  0.9132378099999983  0.7155796289999969  0.2507836819999980
  0.1632377210000016  0.9100242849999987  0.0000000189999980
  0.7882376909999991  0.5211353299999999  0.0501567419999986
  0.4132378099999983  0.1322464940000003  0.1003134700000032
  0.0382377509999969  0.7433574200000024  0.1504702269999996
  0.6632378099999983  0.3544685840000028  0.2006268800000015
  0.2882376909999991  0.9655795099999978  0.2507836520000026
  0.6632376909999991  0.9100242849999987  0.0000000269999987
  0.2882377509999969  0.5211353299999999  0.0501567239999972
  0.9132377509999969  0.1322464940000003  0.1003134700000032
  0.5382378099999983  0.7433574200000024  0.1504702269999996
  0.1632376909999991  0.3544684649999965  0.2006268800000015
  0.7882378099999983  0.9655797480000032  0.2507836520000026
  0.1635220200000020  0.8047186140000022  0.3700589540000010
  0.1635220200000020  0.6380519869999972  0.5743252640000023
  0.1635220200000020  0.4713852410000001  0.7785916329999978
  0.4968553779999993  0.8047186140000022  0.3700589540000010
  0.4968553779999993  0.6380519869999972  0.5743252640000023
  0.4968553779999993  0.4713852410000001  0.7785916329999978
  0.8301886920000001  0.8047186140000022  0.3700589540000010
  0.8301886920000001  0.6380519869999972  0.5743252640000023
  0.8301886920000001  0.4713852410000001  0.7785916329999978
  0.1635220200000020  0.1380519869999972  0.3700589540000010
  0.1635220200000020  0.9713852410000001  0.5743252640000023
  0.1635220200000020  0.8047184939999994  0.7785916329999978
  0.4968553779999993  0.1380519869999972  0.3700589540000010
  0.4968553779999993  0.9713852410000001  0.5743252640000023
  0.4968553779999993  0.8047184939999994  0.7785916329999978
  0.8301886920000001  0.1380519869999972  0.3700589540000010
  0.8301886920000001  0.9713852410000001  0.5743252640000023
  0.8301886920000001  0.8047184939999994  0.7785916329999978
  0.1635220200000020  0.4713852410000001  0.3700589540000010
  0.1635220200000020  0.3047186140000022  0.5743252640000023
  0.1635220200000020  0.1380519869999972  0.7785916329999978
  0.4968553779999993  0.4713852410000001  0.3700589540000010
  0.4968553779999993  0.3047186140000022  0.5743252640000023
  0.4968553779999993  0.1380519869999972  0.7785916329999978
  0.8301886920000001  0.4713852410000001  0.3700589540000010
  0.8301886920000001  0.3047186140000022  0.5743252640000023
  0.8301886920000001  0.1380519869999972  0.7785916329999978
  0.2468553479999969  0.8880519269999994  0.4721921379999969
  0.2468553479999969  0.7213852410000001  0.6764583590000015
  0.2468553479999969  0.5547184939999994  0.8807247880000020
  0.5801886920000001  0.8880519269999994  0.4721921379999969
  0.5801886920000001  0.7213852410000001  0.6764583590000015
  0.5801886920000001  0.5547184939999994  0.8807247880000020
  0.9135220049999973  0.8880519269999994  0.4721921379999969
  0.9135220049999973  0.7213852410000001  0.6764583590000015
  0.9135220049999973  0.5547184939999994  0.8807247880000020
  0.2468553479999969  0.2213852410000001  0.4721921379999969
  0.2468553479999969  0.0547184939999994  0.6764583590000015
  0.2468553479999969  0.8880518670000015  0.8807247880000020
  0.5801886920000001  0.2213852410000001  0.4721921379999969
  0.5801886920000001  0.0547184939999994  0.6764583590000015
  0.5801886920000001  0.8880518670000015  0.8807247880000020
  0.9135220049999973  0.2213852410000001  0.4721921379999969
  0.9135220049999973  0.0547184939999994  0.6764583590000015
  0.9135220049999973  0.8880518670000015  0.8807247880000020
  0.2468553479999969  0.5547186140000022  0.4721921379999969
  0.2468553479999969  0.3880519869999972  0.6764583590000015
  0.2468553479999969  0.2213852410000001  0.8807247880000020
  0.5801886920000001  0.5547186140000022  0.4721921379999969
  0.5801886920000001  0.3880519869999972  0.6764583590000015
  0.5801886920000001  0.2213852410000001  0.8807247880000020
  0.9135220049999973  0.5547186140000022  0.4721921379999969
  0.9135220049999973  0.3880519869999972  0.6764583590000015
  0.9135220049999973  0.2213852410000001  0.8807247880000020
  0.3301886920000001  0.9713852410000001  0.3700589540000010
  0.3301886920000001  0.8047184939999994  0.5743252640000023
  0.3301886920000001  0.6380518670000015  0.7785916329999978
  0.6635220049999973  0.9713852410000001  0.3700589540000010
  0.6635220049999973  0.8047184939999994  0.5743252640000023
  0.6635220049999973  0.6380518670000015  0.7785916329999978
  0.9968553779999993  0.9713852410000001  0.3700589540000010
  0.9968553779999993  0.8047184939999994  0.5743252640000023
  0.9968553779999993  0.6380518670000015  0.7785916329999978
  0.3301886920000001  0.3047186140000022  0.3700589540000010
  0.3301886920000001  0.1380519869999972  0.5743252640000023
  0.3301886920000001  0.9713851810000023  0.7785916329999978
  0.6635220049999973  0.3047186140000022  0.3700589540000010
  0.6635220049999973  0.1380519869999972  0.5743252640000023
  0.6635220049999973  0.9713851810000023  0.7785916329999978
  0.9968553779999993  0.3047186140000022  0.3700589540000010
  0.9968553779999993  0.1380519869999972  0.5743252640000023
  0.9968553779999993  0.9713851810000023  0.7785916329999978
  0.3301886920000001  0.6380519869999972  0.3700589540000010
  0.3301886920000001  0.4713852410000001  0.5743252640000023
  0.3301886920000001  0.3047184939999994  0.7785916329999978
  0.6635220049999973  0.6380519869999972  0.3700589540000010
  0.6635220049999973  0.4713852410000001  0.5743252640000023
  0.6635220049999973  0.3047184939999994  0.7785916329999978
  0.9968553779999993  0.6380519869999972  0.3700589540000010
  0.9968553779999993  0.4713852410000001  0.5743252640000023
  0.9968553779999993  0.3047184939999994  0.7785916329999978
  0.4135220049999973  0.0547186140000022  0.4721921379999969
  0.4135220049999973  0.8880519269999994  0.6764583590000015
  0.4135220049999973  0.7213852410000001  0.8807247880000020
  0.7468553779999993  0.0547186140000022  0.4721921379999969
  0.7468553779999993  0.8880519269999994  0.6764583590000015
  0.7468553779999993  0.7213852410000001  0.8807247880000020
  0.0801887510000014  0.0547186140000022  0.4721921379999969
  0.0801887510000014  0.8880519269999994  0.6764583590000015
  0.0801887510000014  0.7213852410000001  0.8807247880000020
  0.4135220049999973  0.3880519869999972  0.4721921379999969
  0.4135220049999973  0.2213853599999993  0.6764583590000015
  0.4135220049999973  0.0547186140000022  0.8807247880000020
  0.7468553779999993  0.3880519869999972  0.4721921379999969
  0.7468553779999993  0.2213853599999993  0.6764583590000015
  0.7468553779999993  0.0547186140000022  0.8807247880000020
  0.0801887510000014  0.3880519869999972  0.4721921379999969
  0.0801887510000014  0.2213853599999993  0.6764583590000015
  0.0801887510000014  0.0547186140000022  0.8807247880000020
  0.4135220049999973  0.7213852410000001  0.4721921379999969
  0.4135220049999973  0.5547184939999994  0.6764583590000015
  0.4135220049999973  0.3880519869999972  0.8807247880000020
  0.7468553779999993  0.7213852410000001  0.4721921379999969
  0.7468553779999993  0.5547184939999994  0.6764583590000015
  0.7468553779999993  0.3880519869999972  0.8807247880000020
  0.0801887510000014  0.7213852410000001  0.4721921379999969
  0.0801887510000014  0.5547184939999994  0.6764583590000015
  0.0801887510000014  0.3880519869999972  0.8807247880000020
 
  0.00000000E+00  0.00000000E+00  0.00000000E+00
  0.00000000E+00  0.00000000E+00  0.00000000E+00
  0.00000000E+00  0.00000000E+00  0.00000000E+00
  0.00000000E+00  0.00000000E+00  0.00000000E+00
  0.00000000E+00  0.00000000E+00  0.00000000E+00
  0.00000000E+00  0.00000000E+00  0.00000000E+00
  0.00000000E+00  0.00000000E+00  0.00000000E+00
  0.00000000E+00  0.00000000E+00  0.00000000E+00
  0.00000000E+00  0.00000000E+00  0.00000000E+00
  0.00000000E+00  0.00000000E+00  0.00000000E+00
  0.00000000E+00  0.00000000E+00  0.00000000E+00
  0.00000000E+00  0.00000000E+00  0.00000000E+00
  0.00000000E+00  0.00000000E+00  0.00000000E+00
  0.00000000E+00  0.00000000E+00  0.00000000E+00
  0.00000000E+00  0.00000000E+00  0.00000000E+00
  0.00000000E+00  0.00000000E+00  0.00000000E+00
  0.00000000E+00  0.00000000E+00  0.00000000E+00
  0.00000000E+00  0.00000000E+00  0.00000000E+00
  0.00000000E+00  0.00000000E+00  0.00000000E+00
  0.00000000E+00  0.00000000E+00  0.00000000E+00
  0.00000000E+00  0.00000000E+00  0.00000000E+00
  0.00000000E+00  0.00000000E+00  0.00000000E+00
  0.00000000E+00  0.00000000E+00  0.00000000E+00
  0.00000000E+00  0.00000000E+00  0.00000000E+00
  0.00000000E+00  0.00000000E+00  0.00000000E+00
  0.00000000E+00  0.00000000E+00  0.00000000E+00
  0.00000000E+00  0.00000000E+00  0.00000000E+00
  0.00000000E+00  0.00000000E+00  0.00000000E+00
  0.00000000E+00  0.00000000E+00  0.00000000E+00
  0.00000000E+00  0.00000000E+00  0.00000000E+00
  0.00000000E+00  0.00000000E+00  0.00000000E+00
  0.00000000E+00  0.00000000E+00  0.00000000E+00
  0.00000000E+00  0.00000000E+00  0.00000000E+00
  0.00000000E+00  0.00000000E+00  0.00000000E+00
  0.00000000E+00  0.00000000E+00  0.00000000E+00
  0.00000000E+00  0.00000000E+00  0.00000000E+00
  0.00000000E+00  0.00000000E+00  0.00000000E+00
  0.00000000E+00  0.00000000E+00  0.00000000E+00
  0.00000000E+00  0.00000000E+00  0.00000000E+00
  0.00000000E+00  0.00000000E+00  0.00000000E+00
  0.00000000E+00  0.00000000E+00  0.00000000E+00
  0.00000000E+00  0.00000000E+00  0.00000000E+00
  0.00000000E+00  0.00000000E+00  0.00000000E+00
  0.00000000E+00  0.00000000E+00  0.00000000E+00
  0.00000000E+00  0.00000000E+00  0.00000000E+00
  0.00000000E+00  0.00000000E+00  0.00000000E+00
  0.00000000E+00  0.00000000E+00  0.00000000E+00
  0.00000000E+00  0.00000000E+00  0.00000000E+00
  0.00000000E+00  0.00000000E+00  0.00000000E+00
  0.00000000E+00  0.00000000E+00  0.00000000E+00
  0.00000000E+00  0.00000000E+00  0.00000000E+00
  0.00000000E+00  0.00000000E+00  0.00000000E+00
  0.00000000E+00  0.00000000E+00  0.00000000E+00
  0.00000000E+00  0.00000000E+00  0.00000000E+00
  0.00000000E+00  0.00000000E+00  0.00000000E+00
  0.00000000E+00  0.00000000E+00  0.00000000E+00
  0.00000000E+00  0.00000000E+00  0.00000000E+00
  0.00000000E+00  0.00000000E+00  0.00000000E+00
  0.00000000E+00  0.00000000E+00  0.00000000E+00
  0.00000000E+00  0.00000000E+00  0.00000000E+00
  0.00000000E+00  0.00000000E+00  0.00000000E+00
  0.00000000E+00  0.00000000E+00  0.00000000E+00
  0.00000000E+00  0.00000000E+00  0.00000000E+00
  0.00000000E+00  0.00000000E+00  0.00000000E+00
  0.00000000E+00  0.00000000E+00  0.00000000E+00
  0.00000000E+00  0.00000000E+00  0.00000000E+00
  0.00000000E+00  0.00000000E+00  0.00000000E+00
  0.00000000E+00  0.00000000E+00  0.00000000E+00
  0.00000000E+00  0.00000000E+00  0.00000000E+00
  0.00000000E+00  0.00000000E+00  0.00000000E+00
  0.00000000E+00  0.00000000E+00  0.00000000E+00
  0.00000000E+00  0.00000000E+00  0.00000000E+00
  0.00000000E+00  0.00000000E+00  0.00000000E+00
  0.00000000E+00  0.00000000E+00  0.00000000E+00
  0.00000000E+00  0.00000000E+00  0.00000000E+00
  0.00000000E+00  0.00000000E+00  0.00000000E+00
  0.00000000E+00  0.00000000E+00  0.00000000E+00
  0.00000000E+00  0.00000000E+00  0.00000000E+00
  0.00000000E+00  0.00000000E+00  0.00000000E+00
  0.00000000E+00  0.00000000E+00  0.00000000E+00
  0.00000000E+00  0.00000000E+00  0.00000000E+00
  0.00000000E+00  0.00000000E+00  0.00000000E+00
  0.00000000E+00  0.00000000E+00  0.00000000E+00
  0.00000000E+00  0.00000000E+00  0.00000000E+00
  0.00000000E+00  0.00000000E+00  0.00000000E+00
  0.00000000E+00  0.00000000E+00  0.00000000E+00
  0.00000000E+00  0.00000000E+00  0.00000000E+00
  0.00000000E+00  0.00000000E+00  0.00000000E+00
  0.00000000E+00  0.00000000E+00  0.00000000E+00
  0.00000000E+00  0.00000000E+00  0.00000000E+00
  0.00000000E+00  0.00000000E+00  0.00000000E+00
  0.00000000E+00  0.00000000E+00  0.00000000E+00
  0.00000000E+00  0.00000000E+00  0.00000000E+00
  0.00000000E+00  0.00000000E+00  0.00000000E+00
  0.00000000E+00  0.00000000E+00  0.00000000E+00
  0.00000000E+00  0.00000000E+00  0.00000000E+00
  0.00000000E+00  0.00000000E+00  0.00000000E+00
  0.00000000E+00  0.00000000E+00  0.00000000E+00
  0.00000000E+00  0.00000000E+00  0.00000000E+00
  0.00000000E+00  0.00000000E+00  0.00000000E+00
  0.00000000E+00  0.00000000E+00  0.00000000E+00
  0.00000000E+00  0.00000000E+00  0.00000000E+00
  0.00000000E+00  0.00000000E+00  0.00000000E+00
  0.00000000E+00  0.00000000E+00  0.00000000E+00
  0.00000000E+00  0.00000000E+00  0.00000000E+00
  0.00000000E+00  0.00000000E+00  0.00000000E+00
  0.00000000E+00  0.00000000E+00  0.00000000E+00
  0.00000000E+00  0.00000000E+00  0.00000000E+00
  0.00000000E+00  0.00000000E+00  0.00000000E+00
  0.00000000E+00  0.00000000E+00  0.00000000E+00
  0.00000000E+00  0.00000000E+00  0.00000000E+00
  0.00000000E+00  0.00000000E+00  0.00000000E+00
  0.00000000E+00  0.00000000E+00  0.00000000E+00
  0.00000000E+00  0.00000000E+00  0.00000000E+00
  0.00000000E+00  0.00000000E+00  0.00000000E+00
  0.00000000E+00  0.00000000E+00  0.00000000E+00
  0.00000000E+00  0.00000000E+00  0.00000000E+00
  0.00000000E+00  0.00000000E+00  0.00000000E+00
  0.00000000E+00  0.00000000E+00  0.00000000E+00
  0.00000000E+00  0.00000000E+00  0.00000000E+00
  0.00000000E+00  0.00000000E+00  0.00000000E+00
  0.00000000E+00  0.00000000E+00  0.00000000E+00
  0.00000000E+00  0.00000000E+00  0.00000000E+00
  0.00000000E+00  0.00000000E+00  0.00000000E+00
  0.00000000E+00  0.00000000E+00  0.00000000E+00
  0.00000000E+00  0.00000000E+00  0.00000000E+00
  0.00000000E+00  0.00000000E+00  0.00000000E+00
  0.00000000E+00  0.00000000E+00  0.00000000E+00
  0.00000000E+00  0.00000000E+00  0.00000000E+00
  0.00000000E+00  0.00000000E+00  0.00000000E+00
  0.00000000E+00  0.00000000E+00  0.00000000E+00
  0.00000000E+00  0.00000000E+00  0.00000000E+00
  0.00000000E+00  0.00000000E+00  0.00000000E+00
  0.00000000E+00  0.00000000E+00  0.00000000E+00
  0.00000000E+00  0.00000000E+00  0.00000000E+00
  0.00000000E+00  0.00000000E+00  0.00000000E+00
  0.00000000E+00  0.00000000E+00  0.00000000E+00
  0.00000000E+00  0.00000000E+00  0.00000000E+00
  0.00000000E+00  0.00000000E+00  0.00000000E+00
  0.00000000E+00  0.00000000E+00  0.00000000E+00
  0.00000000E+00  0.00000000E+00  0.00000000E+00
  0.00000000E+00  0.00000000E+00  0.00000000E+00
  0.00000000E+00  0.00000000E+00  0.00000000E+00
  0.00000000E+00  0.00000000E+00  0.00000000E+00
  0.00000000E+00  0.00000000E+00  0.00000000E+00
  0.00000000E+00  0.00000000E+00  0.00000000E+00
  0.00000000E+00  0.00000000E+00  0.00000000E+00
  0.00000000E+00  0.00000000E+00  0.00000000E+00
  0.00000000E+00  0.00000000E+00  0.00000000E+00
  0.00000000E+00  0.00000000E+00  0.00000000E+00
  0.00000000E+00  0.00000000E+00  0.00000000E+00
  0.00000000E+00  0.00000000E+00  0.00000000E+00
  0.00000000E+00  0.00000000E+00  0.00000000E+00
  0.00000000E+00  0.00000000E+00  0.00000000E+00
  0.00000000E+00  0.00000000E+00  0.00000000E+00
  0.00000000E+00  0.00000000E+00  0.00000000E+00
