Si+C
    1.000000000
   13.303179741    0.000000000    0.000000000
    6.651589394   14.873406410    0.000000000
    0.000000000    0.000000000    7.994750023
Si  C  
36     84
Direct
    0.283249497    0.641624749    0.000000047
    0.816582799    0.408291280    0.151900873
    0.349915981    0.174957767    0.303801745
    0.616582751    0.308291376    0.000000057
    0.149916053    0.074957930    0.151900873
    0.683249235    0.841624439    0.303801715
    0.949916124    0.974958062    0.000000040
    0.483249485    0.741624594    0.151900873
    0.016582668    0.508291125    0.303801715
    0.799916267    0.774958014    0.075950310
    0.333249509    0.541624546    0.227851167
    0.866582751    0.308291078    0.379752040
    0.133249685    0.441624761    0.075950325
    0.666582942    0.208291277    0.227851167
    0.199916244    0.974957764    0.379752040
    0.466582894    0.108291537    0.075950325
    0.999916136    0.874958038    0.227851167
    0.533249378    0.641624570    0.379752040
    0.783249557    0.641624749    0.000000000
    0.316582829    0.408291280    0.151900858
    0.849916041    0.174957782    0.303801745
    0.116582796    0.308291405    0.000000057
    0.649916053    0.074957952    0.151900902
    0.183249295    0.841624498    0.303801745
    0.449916124    0.974958062    0.000000057
    0.983249426    0.741624594    0.151900902
    0.516582668    0.508291125    0.303801745
    0.299916178    0.774958134    0.075950325
    0.833249450    0.541624665    0.227851197
    0.366582692    0.308291197    0.379752010
    0.633249402    0.441624731    0.075950347
    0.166582644    0.208291262    0.227851197
    0.699915946    0.974957824    0.379751980
    0.966582716    0.108291551    0.075950325
    0.499915957    0.874958038    0.227851197
    0.033249259    0.641624629    0.379752040
    0.019807935    0.151190937    0.565175354
    0.991236269    0.422619581    0.664936006
    0.962664723    0.694048166    0.764696538
    0.162665009    0.294048071    0.565175354
    0.134093463    0.565476716    0.664936006
    0.105521932    0.836905360    0.764696538
    0.305522174    0.436905265    0.565175354
    0.276950598    0.708333850    0.664936006
    0.248379081    0.979762554    0.764696598
    0.448379308    0.579762399    0.565175354
    0.419807762    0.851191044    0.664936006
    0.391236216    0.122619748    0.764696598
    0.591236413    0.722619534    0.565175354
    0.562664807    0.994048119    0.664936006
    0.534093261    0.265476763    0.764696598
    0.734093547    0.865476608    0.565175354
    0.705522001    0.136905268    0.664936006
    0.676950455    0.408333838    0.764696538
    0.876950741    0.008333921    0.565175354
    0.848379195    0.279762447    0.664936006
    0.819807529    0.551191032    0.764696598
    0.112665057    0.894047916    0.615055561
    0.084093511    0.165476516    0.714816213
    0.055522017    0.436905205    0.814576805
    0.255522162    0.036905169    0.615055561
    0.226950616    0.308333814    0.714816153
    0.198379040    0.579762518    0.814576805
    0.398379326    0.179762319    0.615055561
    0.369807750    0.451191008    0.714816153
    0.341236144    0.722619593    0.814576805
    0.541236401    0.322619379    0.615055561
    0.512664914    0.594048023    0.714816213
    0.484093279    0.865476549    0.814576805
    0.684093535    0.465476692    0.615055561
    0.655521989    0.736905277    0.714816213
    0.626950443    0.008333921    0.814576805
    0.826950669    0.608333766    0.615055561
    0.798379123    0.879762411    0.714816213
    0.769807637    0.151191071    0.814576805
    0.969807863    0.751190901    0.615055561
    0.941236377    0.022619605    0.714816213
    0.912664711    0.294048011    0.814576805
    0.091236413    0.722619474    0.565175354
    0.062664896    0.994048119    0.664936006
    0.034093309    0.265476763    0.764696538
    0.234093547    0.865476608    0.565175354
    0.205522031    0.136905268    0.664936006
    0.176950544    0.408333957    0.764696598
    0.376950771    0.008333802    0.565175354
    0.348379254    0.279762447    0.664936006
    0.319807619    0.551191032    0.764696538
    0.519807875    0.151190937    0.565175354
    0.491236299    0.422619581    0.664936006
    0.462664783    0.694048166    0.764696598
    0.662665009    0.294048011    0.565175354
    0.634093463    0.565476656    0.664936006
    0.605521917    0.836905301    0.764696598
    0.805522203    0.436905265    0.565175354
    0.776950598    0.708333850    0.664936006
    0.748379111    0.979762495    0.764696598
    0.948379338    0.579762340    0.565175354
    0.919807732    0.851190984    0.664936006
    0.891236186    0.122619629    0.764696598
    0.041236445    0.322619408    0.615055561
    0.012664914    0.594048023    0.714816153
    0.984093308    0.865476668    0.814576805
    0.184093595    0.465476453    0.615055561
    0.155522048    0.736905098    0.714816213
    0.126950517    0.008333683    0.814576805
    0.326950729    0.608333766    0.615055561
    0.298379183    0.879762352    0.714816213
    0.269807607    0.151190951    0.814576805
    0.469807893    0.751190841    0.615055561
    0.441236317    0.022619486    0.714816153
    0.412664801    0.294048011    0.814576805
    0.612664938    0.894047856    0.615055561
    0.584093451    0.165476516    0.714816153
    0.555521905    0.436905205    0.814576805
    0.755522072    0.036905169    0.615055561
    0.726950526    0.308333814    0.714816213
    0.698378980    0.579762280    0.814576805
    0.898379266    0.179762200    0.615055561
    0.869807661    0.451190770    0.714816153
    0.841236055    0.722619355    0.814576805
