fcc Si+fcc Ge                           
   1.00000000000000     
    12.2536525170000008    0.0000000000000000    0.0000000000000000
   -14.7043830199999999    9.1697938909999994    0.0000000000000000
     0.0000000000000000    0.0000000000000000    8.0432255870000002
   Si   Ge
    24    24
Direct
  0.0000000000000000  0.0000000000000000  0.0000000000000000
  0.4285714290000016  0.6071428569999995  0.0910450410000010
  0.8571428569999995  0.2142857139999990  0.1820900820000020
  0.2857142860000010  0.8214285709999984  0.2731351230000030
  0.7142857139999990  0.4285714290000016  0.3641801639999969
  0.1428571430000005  0.0357142860000010  0.4552252049999979
  0.0000000000000000  0.5000000000000000  0.0000000000000000
  0.4285714290000016  0.1071428569999995  0.0910450410000010
  0.8571428569999995  0.7142857139999990  0.1820900820000020
  0.2857142860000010  0.3214285709999984  0.2731351230000030
  0.7142857139999990  0.9285714290000016  0.3641801639999969
  0.1428571430000005  0.5357142860000010  0.4552252049999979
  0.2500000000000000  0.7500000000000000  0.0000000000000000
  0.6785714290000016  0.3571428569999995  0.0910450410000010
  0.1071428569999995  0.9642857139999990  0.1820900820000020
  0.5357142860000010  0.5714285709999984  0.2731351230000030
  0.9642857139999990  0.1785714290000016  0.3641801639999969
  0.3928571430000005  0.7857142860000010  0.4552252049999979
  0.2500000000000000  0.2500000000000000  0.0000000000000000
  0.6785714290000016  0.8571428569999995  0.0910450410000010
  0.1071428569999995  0.4642857139999990  0.1820900820000020
  0.5357142860000010  0.0714285709999984  0.2731351230000030
  0.9642857139999990  0.6785714290000016  0.3641801639999969
  0.3928571430000005  0.2857142860000010  0.4552252049999979
  0.8606557379999984  0.2441860469999995  0.4925236739999974
  0.4320843089999968  0.6370431890000035  0.5865592449999966
  0.0035128809999989  0.0299003319999969  0.6805948169999994
  0.5749414519999974  0.4227574749999974  0.7746303879999985
  0.1463700230000029  0.8156146179999979  0.8686659600000013
  0.7177985949999979  0.2084717609999984  0.9627015310000004
  0.8606557379999984  0.7441860469999995  0.4925236739999974
  0.4320843089999968  0.1370431890000035  0.5865592449999966
  0.0035128809999989  0.5299003319999969  0.6805948169999994
  0.5749414519999974  0.9227574749999974  0.7746303879999985
  0.1463700230000029  0.3156146179999979  0.8686659600000013
  0.7177985949999979  0.7084717609999984  0.9627015310000004
  0.6106557379999984  0.4941860469999995  0.4925236739999974
  0.1820843089999968  0.8870431890000035  0.5865592449999966
  0.7535128809999989  0.2799003319999969  0.6805948169999994
  0.3249414519999974  0.6727574749999974  0.7746303879999985
  0.8963700230000029  0.0656146179999979  0.8686659600000013
  0.4677985949999979  0.4584717609999984  0.9627015310000004
  0.6106557379999984  0.9941860469999995  0.4925236739999974
  0.1820843089999968  0.3870431890000035  0.5865592449999966
  0.7535128809999989  0.7799003319999969  0.6805948169999994
  0.3249414519999974  0.1727574749999974  0.7746303879999985
  0.8963700230000029  0.5656146179999979  0.8686659600000013
  0.4677985949999979  0.9584717609999984  0.9627015310000004
 
  0.00000000E+00  0.00000000E+00  0.00000000E+00
  0.00000000E+00  0.00000000E+00  0.00000000E+00
  0.00000000E+00  0.00000000E+00  0.00000000E+00
  0.00000000E+00  0.00000000E+00  0.00000000E+00
  0.00000000E+00  0.00000000E+00  0.00000000E+00
  0.00000000E+00  0.00000000E+00  0.00000000E+00
  0.00000000E+00  0.00000000E+00  0.00000000E+00
  0.00000000E+00  0.00000000E+00  0.00000000E+00
  0.00000000E+00  0.00000000E+00  0.00000000E+00
  0.00000000E+00  0.00000000E+00  0.00000000E+00
  0.00000000E+00  0.00000000E+00  0.00000000E+00
  0.00000000E+00  0.00000000E+00  0.00000000E+00
  0.00000000E+00  0.00000000E+00  0.00000000E+00
  0.00000000E+00  0.00000000E+00  0.00000000E+00
  0.00000000E+00  0.00000000E+00  0.00000000E+00
  0.00000000E+00  0.00000000E+00  0.00000000E+00
  0.00000000E+00  0.00000000E+00  0.00000000E+00
  0.00000000E+00  0.00000000E+00  0.00000000E+00
  0.00000000E+00  0.00000000E+00  0.00000000E+00
  0.00000000E+00  0.00000000E+00  0.00000000E+00
  0.00000000E+00  0.00000000E+00  0.00000000E+00
  0.00000000E+00  0.00000000E+00  0.00000000E+00
  0.00000000E+00  0.00000000E+00  0.00000000E+00
  0.00000000E+00  0.00000000E+00  0.00000000E+00
  0.00000000E+00  0.00000000E+00  0.00000000E+00
  0.00000000E+00  0.00000000E+00  0.00000000E+00
  0.00000000E+00  0.00000000E+00  0.00000000E+00
  0.00000000E+00  0.00000000E+00  0.00000000E+00
  0.00000000E+00  0.00000000E+00  0.00000000E+00
  0.00000000E+00  0.00000000E+00  0.00000000E+00
  0.00000000E+00  0.00000000E+00  0.00000000E+00
  0.00000000E+00  0.00000000E+00  0.00000000E+00
  0.00000000E+00  0.00000000E+00  0.00000000E+00
  0.00000000E+00  0.00000000E+00  0.00000000E+00
  0.00000000E+00  0.00000000E+00  0.00000000E+00
  0.00000000E+00  0.00000000E+00  0.00000000E+00
  0.00000000E+00  0.00000000E+00  0.00000000E+00
  0.00000000E+00  0.00000000E+00  0.00000000E+00
  0.00000000E+00  0.00000000E+00  0.00000000E+00
  0.00000000E+00  0.00000000E+00  0.00000000E+00
  0.00000000E+00  0.00000000E+00  0.00000000E+00
  0.00000000E+00  0.00000000E+00  0.00000000E+00
  0.00000000E+00  0.00000000E+00  0.00000000E+00
  0.00000000E+00  0.00000000E+00  0.00000000E+00
  0.00000000E+00  0.00000000E+00  0.00000000E+00
  0.00000000E+00  0.00000000E+00  0.00000000E+00
  0.00000000E+00  0.00000000E+00  0.00000000E+00
  0.00000000E+00  0.00000000E+00  0.00000000E+00
