Sn+Si
    1.000000000
    9.177114487    0.000000000    0.000000000
   -9.177115440   12.978401184    0.000000000
    0.000000000    0.000000000   21.072141647
Sn  Si 
48     72
Direct
    0.500000000    0.482020497    0.000000014
    0.499999970    0.232020482    0.108877331
    0.500000000    0.982020438    0.217754707
    0.499999940    0.732020378    0.326632023
    0.499999970    0.482020378    0.435509384
    0.500000000    0.232020319    0.544386744
    0.000000000    0.982020497    0.000000014
    0.000000000    0.732020497    0.108877331
    0.000000017    0.482020438    0.217754707
    0.000000025    0.232020438    0.326632023
    1.000000000    0.982020378    0.435509384
    0.000000054    0.732020378    0.544386744
    0.499999970    0.982020497    0.000000016
    0.500000000    0.732020497    0.108877346
    0.500000000    0.482020438    0.217754707
    0.500000060    0.232020438    0.326632023
    0.499999911    0.982020378    0.435509384
    0.500000060    0.732020378    0.544386744
    0.000000032    0.482020497    0.000000013
    0.000000000    0.232020482    0.108877331
    0.000000000    0.982020438    0.217754692
    0.000000000    0.732020378    0.326632023
    0.999999940    0.482020378    0.435509384
    0.000000047    0.232020319    0.544386744
    0.874999940    0.607020438    0.000000015
    0.874999940    0.357020438    0.108877346
    0.874999940    0.107020386    0.217754707
    0.874999881    0.857020319    0.326632023
    0.874999940    0.607020378    0.435509413
    0.874999881    0.357020259    0.544386744
    0.374999970    0.107020482    0.000000015
    0.374999970    0.857020497    0.108877346
    0.375000030    0.607020438    0.217754707
    0.374999911    0.357020319    0.326632023
    0.375000030    0.107020438    0.435509413
    0.374999970    0.857020378    0.544386744
    0.874999940    0.107020482    0.000000000
    0.874999940    0.857020497    0.108877346
    0.874999940    0.607020438    0.217754692
    0.874999881    0.357020319    0.326632023
    0.875000060    0.107020438    0.435509413
    0.875000000    0.857020378    0.544386744
    0.374999940    0.607020438    0.000000014
    0.374999940    0.357020438    0.108877346
    0.374999970    0.107020386    0.217754707
    0.374999911    0.857020319    0.326632023
    0.374999911    0.607020378    0.435509384
    0.374999940    0.357020259    0.544386744
    0.978517294    0.645184040    0.544386744
    0.728517234    0.395183951    0.635509372
    0.478517175    0.145183876    0.726631999
    0.228517175    0.895183802    0.817754626
    0.978517056    0.645183682    0.908877194
    0.728517056    0.395183563    0.999999821
    0.978517294    0.311850637    0.544386744
    0.728517234    0.061850566    0.635509372
    0.478517175    0.811850488    0.726631999
    0.228517175    0.561850429    0.817754626
    0.978517056    0.311850309    0.908877194
    0.728517056    0.061850250    0.999999821
    0.978517294    0.978517294    0.544386744
    0.728517234    0.728517175    0.635509372
    0.478517175    0.478517115    0.726631999
    0.228517175    0.228517056    0.817754626
    0.978517056    0.978516936    0.908877194
    0.728517056    0.728516817    0.999999821
    0.478517294    0.811850667    0.544386744
    0.228517249    0.561850607    0.635509372
    0.978517234    0.311850548    0.726631999
    0.728517175    0.061850492    0.817754626
    0.478517115    0.811850369    0.908877194
    0.228516996    0.561850250    0.999999821
    0.478517294    0.478517324    0.544386744
    0.228517249    0.228517234    0.635509372
    0.978517234    0.978517175    0.726631999
    0.728517175    0.728517115    0.817754626
    0.478517115    0.478516996    0.908877194
    0.228516996    0.228516936    0.999999821
    0.478517294    0.145183966    0.544386744
    0.228517249    0.895183861    0.635509372
    0.978517234    0.645183802    0.726631999
    0.728517175    0.395183742    0.817754626
    0.478517115    0.145183623    0.908877194
    0.228516996    0.895183563    0.999999821
    0.728517354    0.645184040    0.544386744
    0.478517294    0.395183951    0.635509372
    0.228517264    0.145183906    0.726631999
    0.978517234    0.895183861    0.817754626
    0.728517175    0.645183682    0.908877194
    0.478517115    0.395183623    0.999999821
    0.728517354    0.311850637    0.544386744
    0.478517294    0.061850563    0.635509372
    0.228517264    0.811850488    0.726631999
    0.978517234    0.561850429    0.817754626
    0.728517175    0.311850309    0.908877194
    0.478517115    0.061850190    0.999999821
    0.728517354    0.978517294    0.544386744
    0.478517294    0.728517234    0.635509372
    0.228517264    0.478517115    0.726631999
    0.978517234    0.228517056    0.817754626
    0.728517175    0.978516936    0.908877194
    0.478517115    0.728516817    0.999999821
    0.228517294    0.811850607    0.544386744
    0.978517234    0.561850488    0.635509372
    0.728517175    0.311850429    0.726631999
    0.478517234    0.061850380    0.817754626
    0.228517115    0.811850250    0.908877194
    0.978517056    0.561850131    0.999999821
    0.228517294    0.478517294    0.544386744
    0.978517234    0.228517234    0.635509372
    0.728517175    0.978517175    0.726631999
    0.478517234    0.728517115    0.817754626
    0.228517115    0.478516996    0.908877194
    0.978517056    0.228516877    0.999999821
    0.228517294    0.145183951    0.544386744
    0.978517234    0.895183861    0.635509372
    0.728517175    0.645183802    0.726631999
    0.478517234    0.395183742    0.817754626
    0.228517115    0.145183563    0.908877194
    0.978517056    0.895183563    0.999999821
