Ge+Ge                                   
   1.00000000000000     
    12.6512260439999995    0.0000000000000000    0.0000000000000000
     2.5302453040000001   12.3956203459999994    0.0000000000000000
     0.0000000000000000    0.0000000000000000   13.7351627349999994
   Ge
    96
Direct
  0.8925769330000008  0.8021141890000010  0.5000000599999979
  0.9925903680000019  0.9481325149999975  0.0000000229999984
  0.9509235619999998  0.6564657690000004  0.0840830879999999
  0.9092568160000027  0.3647989030000005  0.1681661610000020
  0.8675900699999985  0.0731322170000013  0.2522491810000034
  0.7675770520000000  0.1771142480000023  0.5000000599999979
  0.3925769330000008  0.3021142480000023  0.5000000599999979
  0.4925903680000019  0.4481325149999975  0.0000000280000023
  0.4509236219999977  0.1564657690000004  0.0840830879999999
  0.4092568760000006  0.8647989629999984  0.1681661610000020
  0.3675901289999999  0.5731322769999991  0.2522491810000034
  0.3259233830000028  0.2814655299999984  0.3363322319999966
  0.2675770520000000  0.6771142480000023  0.5000000599999979
  0.3675903979999973  0.8231326339999967  0.0000000120000010
  0.3259236219999977  0.5314658280000017  0.0840830879999999
  0.2842568760000006  0.2397990079999985  0.1681661900000009
  0.2425901740000000  0.9481323959999983  0.2522491810000034
  0.1425770520000000  0.5521141890000010  0.5000000599999979
  0.7675770520000000  0.1771142480000023  0.5000000599999979
  0.8675904870000011  0.3231325750000025  0.0000000120000010
  0.8259236809999990  0.0314657759999974  0.0840830879999999
  0.7842568760000006  0.7397989030000005  0.1681661610000020
  0.7425901289999999  0.4481323360000005  0.2522491810000034
  0.7009233830000028  0.1564655299999984  0.3363321719999988
  0.0342565589999992  0.2397987840000013  0.4204152820000004
  0.2425903529999971  0.6981326339999967  0.0000000000000000
  0.2009235920000023  0.4064657990000029  0.0840830799999992
  0.1592568459999981  0.1147989560000013  0.1681661610000020
  0.1175900850000033  0.8231323959999983  0.2522491510000009
  0.0759233389999991  0.5314655299999984  0.3363321719999988
  0.6425769330000008  0.0521142480000023  0.5000000599999979
  0.7425904270000032  0.1981325149999975  0.0000000209999982
  0.7009236219999977  0.9064657090000026  0.0840830949999969
  0.6592568760000006  0.6147989030000005  0.1681661610000020
  0.6175902490000027  0.3231323360000005  0.2522491810000034
  0.5759234430000006  0.0314654709999971  0.3363321719999988
  0.8509102459999980  0.5104473829999989  0.5840830799999992
  0.1175903600000012  0.0731325149999975  0.0000000209999982
  0.0759235989999993  0.7814657690000004  0.0840830879999999
  0.0342568459999981  0.4897989629999984  0.1681661610000020
  0.6009101869999967  0.7604473829999989  0.5840830799999992
  0.9509233830000028  0.9064655299999984  0.3363322319999966
  0.5175769330000008  0.4271141890000010  0.5000000599999979
  0.6175904870000011  0.5731325750000025  0.0000000120000010
  0.5759236219999977  0.2814658280000017  0.0840830799999992
  0.5342569350000019  0.9897990230000033  0.1681661900000009
  0.4925901889999977  0.6981322769999991  0.2522492410000012
  0.0592434409999996  0.9687806960000032  0.6681661610000020
  0.9342430829999984  0.0937803979999998  0.9204153419999983
  0.2842566070000032  0.9897987840000013  0.4204153120000029
  0.1009100679999975  0.2604473829999989  0.5840830799999992
  0.8092434409999996  0.2187806370000018  0.6681661610000020
  0.5175766939999988  0.1771138909999976  0.7522492410000012
  0.2259099480000017  0.1354471450000005  0.8363323210000004
  0.4342430829999984  0.5937803979999998  0.9204153419999983
  0.7842565770000007  0.4897986650000021  0.4204152820000004
  0.9925900699999985  0.1981322170000013  0.2522491810000034
  0.3092434409999996  0.7187807560000010  0.6681661610000020
  0.0175766939999988  0.6771139499999990  0.7522492410000012
  0.7259099480000017  0.6354472040000019  0.8363323210000004
  0.8092432019999976  0.4687804579999977  0.9204153419999983
  0.1592566369999986  0.3647987840000013  0.4204153120000029
  0.9759103060000029  0.6354474429999968  0.5840830799999992
  0.6842435000000009  0.5937807560000010  0.6681661610000020
  0.3925768140000017  0.5521140099999968  0.7522492410000012
  0.1009100679999975  0.5104472040000019  0.8363323210000004
  0.3092430829999984  0.9687804579999977  0.9204152820000004
  0.6592565770000007  0.8647986650000021  0.4204152820000004
  0.4759102169999991  0.1354475019999981  0.5840830799999992
  0.1842434409999996  0.0937807560000010  0.6681661610000020
  0.8925768140000017  0.0521140099999968  0.7522492410000012
  0.6009099480000017  0.0104472639999997  0.8363323210000004
  0.6842432019999976  0.3437803979999998  0.9204153419999983
  0.2009233830000028  0.6564656500000012  0.3363322319999966
  0.9092565770000007  0.6147987840000013  0.4204153120000029
  0.5592435000000009  0.4687806669999972  0.6681661610000020
  0.2675768140000017  0.4271139199999965  0.7522491810000034
  0.9759099480000017  0.3854471739999994  0.8363322619999991
  0.1842430829999984  0.8437805180000026  0.9204153419999983
  0.5342566970000036  0.7397986650000021  0.4204153120000029
  0.3509101869999967  0.0104475019999981  0.5840830799999992
  0.4509234430000006  0.4064655299999984  0.3363322619999991
  0.7675766939999988  0.9271140689999982  0.7522492410000012
  0.4759099190000029  0.8854472639999997  0.8363323210000004
  0.0592430829999984  0.2187803979999998  0.9204153419999983
  0.4092566070000032  0.1147988439999992  0.4204153120000029
  0.2842566070000032  0.9897987840000013  0.4204153120000029
  0.9342434409999996  0.3437806960000032  0.6681661610000020
  0.6425766939999988  0.3021140099999968  0.7522491810000034
  0.3509099480000017  0.2604472639999997  0.8363323210000004
  0.5592432019999976  0.7187805180000026  0.9204153419999983
  0.0175770520000000  0.9271143080000002  0.5000000599999979
  0.7259101869999967  0.8854474429999968  0.5840830799999992
  0.4342435599999988  0.8437807560000010  0.6681661610000020
  0.1425766939999988  0.8021140099999968  0.7522492410000012
  0.8509099480000017  0.7604472639999997  0.8363323210000004
 
  0.00000000E+00  0.00000000E+00  0.00000000E+00
  0.00000000E+00  0.00000000E+00  0.00000000E+00
  0.00000000E+00  0.00000000E+00  0.00000000E+00
  0.00000000E+00  0.00000000E+00  0.00000000E+00
  0.00000000E+00  0.00000000E+00  0.00000000E+00
  0.00000000E+00  0.00000000E+00  0.00000000E+00
  0.00000000E+00  0.00000000E+00  0.00000000E+00
  0.00000000E+00  0.00000000E+00  0.00000000E+00
  0.00000000E+00  0.00000000E+00  0.00000000E+00
  0.00000000E+00  0.00000000E+00  0.00000000E+00
  0.00000000E+00  0.00000000E+00  0.00000000E+00
  0.00000000E+00  0.00000000E+00  0.00000000E+00
  0.00000000E+00  0.00000000E+00  0.00000000E+00
  0.00000000E+00  0.00000000E+00  0.00000000E+00
  0.00000000E+00  0.00000000E+00  0.00000000E+00
  0.00000000E+00  0.00000000E+00  0.00000000E+00
  0.00000000E+00  0.00000000E+00  0.00000000E+00
  0.00000000E+00  0.00000000E+00  0.00000000E+00
  0.00000000E+00  0.00000000E+00  0.00000000E+00
  0.00000000E+00  0.00000000E+00  0.00000000E+00
  0.00000000E+00  0.00000000E+00  0.00000000E+00
  0.00000000E+00  0.00000000E+00  0.00000000E+00
  0.00000000E+00  0.00000000E+00  0.00000000E+00
  0.00000000E+00  0.00000000E+00  0.00000000E+00
  0.00000000E+00  0.00000000E+00  0.00000000E+00
  0.00000000E+00  0.00000000E+00  0.00000000E+00
  0.00000000E+00  0.00000000E+00  0.00000000E+00
  0.00000000E+00  0.00000000E+00  0.00000000E+00
  0.00000000E+00  0.00000000E+00  0.00000000E+00
  0.00000000E+00  0.00000000E+00  0.00000000E+00
  0.00000000E+00  0.00000000E+00  0.00000000E+00
  0.00000000E+00  0.00000000E+00  0.00000000E+00
  0.00000000E+00  0.00000000E+00  0.00000000E+00
  0.00000000E+00  0.00000000E+00  0.00000000E+00
  0.00000000E+00  0.00000000E+00  0.00000000E+00
  0.00000000E+00  0.00000000E+00  0.00000000E+00
  0.00000000E+00  0.00000000E+00  0.00000000E+00
  0.00000000E+00  0.00000000E+00  0.00000000E+00
  0.00000000E+00  0.00000000E+00  0.00000000E+00
  0.00000000E+00  0.00000000E+00  0.00000000E+00
  0.00000000E+00  0.00000000E+00  0.00000000E+00
  0.00000000E+00  0.00000000E+00  0.00000000E+00
  0.00000000E+00  0.00000000E+00  0.00000000E+00
  0.00000000E+00  0.00000000E+00  0.00000000E+00
  0.00000000E+00  0.00000000E+00  0.00000000E+00
  0.00000000E+00  0.00000000E+00  0.00000000E+00
  0.00000000E+00  0.00000000E+00  0.00000000E+00
  0.00000000E+00  0.00000000E+00  0.00000000E+00
  0.00000000E+00  0.00000000E+00  0.00000000E+00
  0.00000000E+00  0.00000000E+00  0.00000000E+00
  0.00000000E+00  0.00000000E+00  0.00000000E+00
  0.00000000E+00  0.00000000E+00  0.00000000E+00
  0.00000000E+00  0.00000000E+00  0.00000000E+00
  0.00000000E+00  0.00000000E+00  0.00000000E+00
  0.00000000E+00  0.00000000E+00  0.00000000E+00
  0.00000000E+00  0.00000000E+00  0.00000000E+00
  0.00000000E+00  0.00000000E+00  0.00000000E+00
  0.00000000E+00  0.00000000E+00  0.00000000E+00
  0.00000000E+00  0.00000000E+00  0.00000000E+00
  0.00000000E+00  0.00000000E+00  0.00000000E+00
  0.00000000E+00  0.00000000E+00  0.00000000E+00
  0.00000000E+00  0.00000000E+00  0.00000000E+00
  0.00000000E+00  0.00000000E+00  0.00000000E+00
  0.00000000E+00  0.00000000E+00  0.00000000E+00
  0.00000000E+00  0.00000000E+00  0.00000000E+00
  0.00000000E+00  0.00000000E+00  0.00000000E+00
  0.00000000E+00  0.00000000E+00  0.00000000E+00
  0.00000000E+00  0.00000000E+00  0.00000000E+00
  0.00000000E+00  0.00000000E+00  0.00000000E+00
  0.00000000E+00  0.00000000E+00  0.00000000E+00
  0.00000000E+00  0.00000000E+00  0.00000000E+00
  0.00000000E+00  0.00000000E+00  0.00000000E+00
  0.00000000E+00  0.00000000E+00  0.00000000E+00
  0.00000000E+00  0.00000000E+00  0.00000000E+00
  0.00000000E+00  0.00000000E+00  0.00000000E+00
  0.00000000E+00  0.00000000E+00  0.00000000E+00
  0.00000000E+00  0.00000000E+00  0.00000000E+00
  0.00000000E+00  0.00000000E+00  0.00000000E+00
  0.00000000E+00  0.00000000E+00  0.00000000E+00
  0.00000000E+00  0.00000000E+00  0.00000000E+00
  0.00000000E+00  0.00000000E+00  0.00000000E+00
  0.00000000E+00  0.00000000E+00  0.00000000E+00
  0.00000000E+00  0.00000000E+00  0.00000000E+00
  0.00000000E+00  0.00000000E+00  0.00000000E+00
  0.00000000E+00  0.00000000E+00  0.00000000E+00
  0.00000000E+00  0.00000000E+00  0.00000000E+00
  0.00000000E+00  0.00000000E+00  0.00000000E+00
  0.00000000E+00  0.00000000E+00  0.00000000E+00
  0.00000000E+00  0.00000000E+00  0.00000000E+00
  0.00000000E+00  0.00000000E+00  0.00000000E+00
  0.00000000E+00  0.00000000E+00  0.00000000E+00
  0.00000000E+00  0.00000000E+00  0.00000000E+00
  0.00000000E+00  0.00000000E+00  0.00000000E+00
  0.00000000E+00  0.00000000E+00  0.00000000E+00
  0.00000000E+00  0.00000000E+00  0.00000000E+00
  0.00000000E+00  0.00000000E+00  0.00000000E+00
