Ge+Si
    1.000000000
   16.002676010    0.000000000    0.000000000
    0.000000000   16.973402023    0.000000000
    0.000000000    0.000000000   10.600553513
Ge  Si 
48     72
Direct
    0.913237751    0.910024285    0.000000024
    0.538237751    0.521135390    0.062900461
    0.163237810    0.132246494    0.125800863
    0.788237810    0.743357420    0.188701361
    0.413237810    0.354468584    0.251601785
    0.038237691    0.965579510    0.314502209
    0.413237691    0.910024285    0.000000027
    0.038237717    0.521135330    0.062900461
    0.663237751    0.132246435    0.125800863
    0.288237691    0.743357420    0.188701302
    0.913237810    0.354468465    0.251601785
    0.538237810    0.965579748    0.314502329
    0.038237728    0.660024226    0.000000024
    0.663237751    0.271135300    0.062900439
    0.288237810    0.882246375    0.125800878
    0.913237810    0.493357420    0.188701302
    0.538237691    0.104468405    0.251601756
    0.163237691    0.715579629    0.314502209
    0.538237691    0.660024226    0.000000024
    0.163237706    0.271135300    0.062900439
    0.788237751    0.882246375    0.125800878
    0.413237691    0.493357480    0.188701302
    0.038237751    0.104468465    0.251601815
    0.663237691    0.715579629    0.314502239
    0.288237751    0.660024226    0.000000024
    0.913237751    0.271135300    0.062900439
    0.538237810    0.882246375    0.125800878
    0.163237810    0.493357420    0.188701302
    0.788237810    0.104468465    0.251601756
    0.413237810    0.715579510    0.314502209
    0.788237691    0.660024166    0.000000000
    0.413237721    0.271135300    0.062900439
    0.038237784    0.882246375    0.125800878
    0.663237751    0.493357420    0.188701287
    0.288237691    0.104468465    0.251601756
    0.913237810    0.715579629    0.314502239
    0.163237721    0.910024285    0.000000024
    0.788237691    0.521135330    0.062900461
    0.413237810    0.132246494    0.125800908
    0.038237751    0.743357420    0.188701361
    0.663237810    0.354468584    0.251601726
    0.288237691    0.965579510    0.314502209
    0.663237691    0.910024285    0.000000034
    0.288237751    0.521135330    0.062900439
    0.913237751    0.132246494    0.125800908
    0.538237810    0.743357420    0.188701361
    0.163237691    0.354468465    0.251601726
    0.788237810    0.965579748    0.314502209
    0.168114752    0.867624760    0.859768391
    0.001448274    0.117624030    0.454733998
    0.834781528    0.467624128    0.535740912
    0.668114901    0.817624271    0.616747677
    0.501448154    0.167624608    0.697754622
    0.334781379    0.517624736    0.778761506
    0.501448154    0.867624760    0.859768391
    0.334781647    0.117624030    0.454733998
    0.168114930    0.467624128    0.535740912
    0.001448274    0.817624271    0.616747677
    0.834781408    0.167624608    0.697754622
    0.668114662    0.517624736    0.778761506
    0.834781408    0.867624760    0.859768391
    0.668115020    0.117624030    0.454733998
    0.501448274    0.467624128    0.535740912
    0.334781617    0.817624271    0.616747677
    0.168114826    0.167624608    0.697754622
    0.001448035    0.517624736    0.778761506
    0.251448065    0.617624879    0.859768271
    0.084781617    0.867624104    0.454733878
    0.918114901    0.217624322    0.535740852
    0.751448154    0.567624569    0.616747618
    0.584781408    0.917624712    0.697754562
    0.418114811    0.267624736    0.778761387
    0.584781408    0.617624879    0.859768271
    0.418114930    0.867624104    0.454733878
    0.251448214    0.217624322    0.535740852
    0.084781542    0.567624569    0.616747618
    0.918114781    0.917624712    0.697754562
    0.751448154    0.267624736    0.778761387
    0.918114781    0.617624879    0.859768271
    0.751448274    0.867624104    0.454733878
    0.584781528    0.217624322    0.535740852
    0.418114841    0.567624569    0.616747618
    0.251448095    0.917624712    0.697754562
    0.084781431    0.267624736    0.778761387
    0.168114752    0.367624879    0.859768391
    0.001448274    0.617624104    0.454733938
    0.834781528    0.967624247    0.535740852
    0.668114901    0.317624331    0.616747618
    0.501448154    0.667624593    0.697754622
    0.334781498    0.017624736    0.778761387
    0.501448154    0.367624879    0.859768391
    0.334781617    0.617624104    0.454733938
    0.168114901    0.967624247    0.535740852
    0.001448274    0.317624331    0.616747618
    0.834781408    0.667624593    0.697754622
    0.668114781    0.017624736    0.778761387
    0.834781408    0.367624879    0.859768391
    0.668115020    0.617624104    0.454733938
    0.501448274    0.967624247    0.535740852
    0.334781587    0.317624331    0.616747618
    0.168114826    0.667624593    0.697754622
    0.001448154    0.017624736    0.778761387
    0.251448065    0.117624894    0.859768271
    0.084781617    0.367624044    0.454733998
    0.918114901    0.717624128    0.535740852
    0.751448274    0.067624345    0.616747677
    0.584781408    0.417624593    0.697754562
    0.418114692    0.767624855    0.778761387
    0.584781408    0.117624894    0.859768271
    0.418114960    0.367624044    0.454733998
    0.251448274    0.717624128    0.535740852
    0.084781572    0.067624345    0.616747677
    0.918114781    0.417624593    0.697754562
    0.751448035    0.767624855    0.778761387
    0.918114781    0.117624894    0.859768271
    0.751448274    0.367624044    0.454733998
    0.584781647    0.717624128    0.535740852
    0.418114930    0.067624345    0.616747677
    0.251448154    0.417624593    0.697754562
    0.084781393    0.767624855    0.778761387
