C+Si
    1.000000000
   13.345743179    0.000000000    0.000000000
   -6.672872543   14.920996666    0.000000000
    0.000000000    0.000000000    5.029924393
C   Si 
84     36
Direct
    0.846410573    0.460768223    0.000000009
    0.746410489    0.760768354    0.158563197
    0.646410406    0.060768485    0.317126453
    0.560696304    0.317911088    0.000000012
    0.460696220    0.617911220    0.158563197
    0.360696167    0.917911410    0.317126453
    0.274982035    0.175053939    0.000000007
    0.174981952    0.475054085    0.158563197
    0.074981831    0.775054276    0.317126453
    0.989267707    0.032196779    0.000000010
    0.889267683    0.332196921    0.158563197
    0.789267540    0.632197142    0.317126453
    0.703553498    0.889339566    0.000000000
    0.603553355    0.189339757    0.158563241
    0.503553271    0.489339828    0.317126304
    0.417839199    0.746482551    0.000000006
    0.317839086    0.046482682    0.158563167
    0.217839003    0.346482873    0.317126483
    0.132124901    0.603625357    0.000000006
    0.032124814    0.903625548    0.158563167
    0.932124674    0.203625679    0.317126483
    0.867839277    0.146482348    0.079281494
    0.767839134    0.446482539    0.237844706
    0.667839050    0.746482611    0.396407932
    0.724982142    0.575053871    0.079281457
    0.624982059    0.875054002    0.237844661
    0.524982035    0.175054193    0.396407783
    0.439267725    0.432196766    0.079281464
    0.339267671    0.732196987    0.237844706
    0.239267603    0.032196999    0.396407872
    0.153553441    0.289339483    0.079281457
    0.053553350    0.589339674    0.237844691
    0.953553259    0.889339745    0.396407783
    0.582124949    0.003625274    0.079281501
    0.482124835    0.303625464    0.237844750
    0.382124811    0.603625536    0.396407723
    0.296410650    0.860768020    0.079281487
    0.196410552    0.160768270    0.237844706
    0.096410468    0.460768223    0.396407723
    0.010696323    0.717910945    0.079281494
    0.910696208    0.017911077    0.237844706
    0.810696125    0.317911148    0.396407932
    0.774982095    0.175053984    0.000000024
    0.674981892    0.475054085    0.158563212
    0.574981868    0.775054276    0.317126423
    0.489267707    0.032196764    0.000000018
    0.389267653    0.332196921    0.158563212
    0.289267510    0.632197082    0.317126423
    0.917839170    0.746482491    0.000000015
    0.817839026    0.046482682    0.158563197
    0.717839003    0.346482873    0.317126423
    0.632124841    0.603625298    0.000000036
    0.532124698    0.903625429    0.158563241
    0.432124674    0.203625679    0.317126423
    0.346410602    0.460768253    0.000000022
    0.246410504    0.760768414    0.158563241
    0.146410406    0.060768604    0.317126423
    0.060696311    0.317911088    0.000000041
    0.960696220    0.617911220    0.158563197
    0.860696137    0.917911410    0.317126423
    0.203553453    0.889339626    0.000000015
    0.103553370    0.189339757    0.158563301
    0.003553284    0.489339948    0.317126334
    0.939267814    0.432196766    0.079281457
    0.839267671    0.732196987    0.237844691
    0.739267588    0.032196999    0.396407902
    0.653553486    0.289339483    0.079281457
    0.553553343    0.589339674    0.237844691
    0.453553349    0.889339685    0.396407783
    0.367839187    0.146482348    0.079281457
    0.267839074    0.446482539    0.237844765
    0.167839035    0.746482611    0.396407694
    0.796410680    0.860768020    0.079281464
    0.696410537    0.160768151    0.237844661
    0.596410513    0.460768223    0.396407723
    0.510696411    0.717910886    0.079281472
    0.410696298    0.017911077    0.237844750
    0.310696244    0.317911148    0.396407872
    0.224981993    0.575053871    0.079281457
    0.124981925    0.875054061    0.237844691
    0.024981862    0.175054073    0.396407902
    0.082124881    0.003625274    0.079281464
    0.982124805    0.303625464    0.237844601
    0.882124722    0.603625655    0.396407902
    0.997150958    0.980056584    0.396407932
    0.963817537    0.746723175    0.637844920
    0.930484116    0.513389826    0.879281759
    0.330484211    0.313389868    0.396407932
    0.297150791    0.080056474    0.637844920
    0.263817370    0.846723080    0.879281759
    0.663817465    0.646723151    0.396407932
    0.630484045    0.413389713    0.637844920
    0.597150624    0.180056334    0.879281759
    0.313817531    0.946723342    0.517126203
    0.280484110    0.713389993    0.758563042
    0.247150689    0.480056584    0.999999881
    0.647150815    0.280056566    0.517126203
    0.613817394    0.046723194    0.758563042
    0.580483973    0.813389778    1.000000000
    0.980484426    0.613389850    0.517126203
    0.947151005    0.380056471    0.758563042
    0.913817585    0.146723092    0.999999881
    0.163817570    0.646723092    0.396407932
    0.130484164    0.413389713    0.637844920
    0.097150750    0.180056319    0.879281759
    0.497150898    0.980056643    0.396407932
    0.463817418    0.746723175    0.637844801
    0.430484056    0.513389826    0.879281759
    0.830484152    0.313389868    0.396407932
    0.797150731    0.080056526    0.637844801
    0.763817310    0.846723080    0.879281759
    0.147150904    0.280056566    0.517126203
    0.113817483    0.046723165    0.758563042
    0.080484070    0.813389778    1.000000000
    0.480484217    0.613389909    0.517126203
    0.447150826    0.380056530    0.758563042
    0.413817406    0.146723166    1.000000000
    0.813817501    0.946723282    0.517126203
    0.780484140    0.713389874    0.758563042
    0.747150719    0.480056465    1.000000000
