Ge+Sn
    1.000000000
   11.315600395    0.000000000    0.000000000
  -11.315600395   16.002676010    0.000000000
    0.000000000    0.000000000   25.604219437
Ge  Sn 
96     72
Direct
    0.469067723    0.989689231    0.000000017
    0.094067708    0.864689231    0.078125209
    0.719067633    0.739689231    0.156250417
    0.344067693    0.614689231    0.234375581
    0.969067812    0.489689291    0.312500775
    0.594067693    0.364689231    0.390625983
    0.969067693    0.989689231    0.000000017
    0.594067693    0.864689231    0.078125209
    0.219067633    0.739689231    0.156250417
    0.844067693    0.614689231    0.234375581
    0.469067812    0.489689291    0.312500775
    0.094067693    0.364689231    0.390625983
    0.469067693    0.489689231    0.000000009
    0.094067700    0.364689231    0.078125209
    0.719067574    0.239689216    0.156250417
    0.344067693    0.114689231    0.234375581
    0.969067812    0.989689231    0.312500775
    0.594067693    0.864689231    0.390625983
    0.969067693    0.489689231    0.000000009
    0.594067693    0.364689231    0.078125209
    0.219067574    0.239689216    0.156250417
    0.844067693    0.114689231    0.234375581
    0.469067693    0.989689231    0.312500775
    0.094067574    0.864689231    0.390625983
    0.719067693    0.239689231    0.000000017
    0.344067663    0.114689231    0.078125209
    0.969067574    0.989689231    0.156250417
    0.594067693    0.864689231    0.234375581
    0.219067693    0.739689231    0.312500775
    0.844067574    0.614689231    0.390625983
    0.219067678    0.239689231    0.000000017
    0.844067693    0.114689231    0.078125209
    0.469067633    0.989689231    0.156250417
    0.094067693    0.864689231    0.234375581
    0.719067812    0.739689231    0.312500775
    0.344067693    0.614689231    0.390625983
    0.719067633    0.739689231    0.000000021
    0.344067663    0.614689231    0.078125224
    0.969067574    0.489689201    0.156250432
    0.594067633    0.364689231    0.234375611
    0.219067693    0.239689246    0.312500805
    0.844067693    0.114689231    0.390625983
    0.219067693    0.739689231    0.000000021
    0.844067693    0.614689231    0.078125224
    0.469067574    0.489689201    0.156250432
    0.094067693    0.364689231    0.234375611
    0.719067693    0.239689246    0.312500805
    0.344067574    0.114689231    0.390625983
    0.469067663    0.364689231    0.000000016
    0.094067693    0.239689231    0.078125216
    0.719067633    0.114689209    0.156250432
    0.344067693    0.989689231    0.234375611
    0.969067812    0.864689231    0.312500775
    0.594067693    0.739689231    0.390625983
    0.969067693    0.364689231    0.000000016
    0.594067693    0.239689231    0.078125216
    0.219067633    0.114689209    0.156250432
    0.844067693    0.989689231    0.234375611
    0.469067812    0.864689231    0.312500775
    0.094067693    0.739689231    0.390625983
    0.469067752    0.864689291    0.000000000
    0.094067737    0.739689291    0.078125209
    0.719067693    0.614689291    0.156250402
    0.344067693    0.489689291    0.234375581
    0.969067812    0.364689291    0.312500775
    0.594067693    0.239689291    0.390625954
    0.969067693    0.864689291    0.000000000
    0.594067574    0.739689291    0.078125209
    0.219067574    0.614689291    0.156250402
    0.844067574    0.489689291    0.234375581
    0.469067574    0.364689291    0.312500775
    0.094067693    0.239689291    0.390625954
    0.719067693    0.114689223    0.000000017
    0.344067663    0.989689231    0.078125209
    0.969067633    0.864689231    0.156250417
    0.594067693    0.739689231    0.234375611
    0.219067693    0.614689231    0.312500775
    0.844067693    0.489689231    0.390625983
    0.219067678    0.114689223    0.000000017
    0.844067693    0.989689231    0.078125209
    0.469067633    0.864689231    0.156250417
    0.094067693    0.739689231    0.234375611
    0.719067812    0.614689231    0.312500775
    0.344067693    0.489689231    0.390625983
    0.719067693    0.614689231    0.000000015
    0.344067693    0.489689231    0.078125216
    0.969067633    0.364689231    0.156250417
    0.594067693    0.239689231    0.234375611
    0.219067752    0.114689253    0.312500775
    0.844067574    0.989689231    0.390625983
    0.219067723    0.614689231    0.000000015
    0.844067693    0.489689231    0.078125216
    0.469067633    0.364689231    0.156250417
    0.094067693    0.239689231    0.234375611
    0.719067812    0.114689253    0.312500775
    0.344067693    0.989689231    0.390625983
    0.440598607    0.848748863    0.471299201
    0.690598607    0.098748803    0.560904682
    0.940598786    0.348749042    0.650510252
    0.190599069    0.598749161    0.740115762
    0.440598965    0.848749161    0.829721272
    0.690599084    0.098749280    0.919326842
    0.107265234    0.182082087    0.471299201
    0.357265294    0.432082176    0.560904741
    0.607265532    0.682082295    0.650510252
    0.857265711    0.932082415    0.740115821
    0.107265696    0.182082549    0.829721272
    0.357265830    0.432082653    0.919326842
    0.773931980    0.515415430    0.471299201
    0.023932099    0.765415490    0.560904741
    0.273932219    0.015415668    0.650510252
    0.523932457    0.265415788    0.740115762
    0.773932338    0.515415788    0.829721272
    0.023932695    0.765416026    0.919326842
    0.273931921    0.015415549    0.471299171
    0.523931861    0.265415549    0.560904682
    0.773932159    0.515415668    0.650510252
    0.023932338    0.765415788    0.740115762
    0.273932219    0.015415907    0.829721272
    0.523932457    0.265416145    0.919326842
    0.607265353    0.682082117    0.471299201
    0.857265234    0.932082176    0.560904741
    0.107265458    0.182082310    0.650510252
    0.357265711    0.432082534    0.740115762
    0.607265711    0.682082415    0.829721272
    0.857265592    0.932082653    0.919326842
    0.940598726    0.348748773    0.471299201
    0.190598831    0.598748863    0.560904741
    0.440598965    0.848748982    0.650510252
    0.690599084    0.098749161    0.740115762
    0.940598965    0.348749161    0.829721272
    0.190599307    0.598749399    0.919326842
    0.190598622    0.848748744    0.471299171
    0.440598667    0.098748803    0.560904741
    0.690598726    0.348748922    0.650510252
    0.940598905    0.598749042    0.740115762
    0.190598950    0.848749042    0.829721272
    0.440598965    0.098749280    0.919326842
    0.523931980    0.515415430    0.471299201
    0.773931980    0.765415430    0.560904741
    0.023932099    0.015415668    0.650510252
    0.273932338    0.265415668    0.740115762
    0.523932219    0.515415788    0.829721272
    0.773932338    0.765415907    0.919326842
    0.857265294    0.182082087    0.471299201
    0.107265338    0.432082176    0.560904741
    0.357265472    0.682082236    0.650510252
    0.607265711    0.932082415    0.740115821
    0.857265830    0.182082549    0.829721272
    0.107265815    0.432082534    0.919326842
    0.357265234    0.682082176    0.471299201
    0.607265353    0.932082117    0.560904741
    0.857265413    0.182082310    0.650510252
    0.107265577    0.432082415    0.740115821
    0.357265592    0.682082415    0.829721272
    0.607265711    0.932082653    0.919326782
    0.023931861    0.015415430    0.471299201
    0.273932099    0.265415549    0.560904741
    0.523932219    0.515415668    0.650510252
    0.773932457    0.765415788    0.740115821
    0.023932338    0.015415788    0.829721272
    0.273932815    0.265416145    0.919326782
    0.690598667    0.348748803    0.471299201
    0.940598607    0.598748803    0.560904741
    0.190598711    0.848748982    0.650510252
    0.440598845    0.098749161    0.740115762
    0.690598845    0.348749161    0.829721272
    0.940598845    0.598749280    0.919326842
