Si
 1.0000000000000000
    12.1440851858013588    0.0000000000000000    0.0000000000000000
     2.4288170371602713    7.2864511114808153    0.0000000000000000
     0.0000000000000000    0.0000000000000000   61.2714166666666671
 Si 
  96
Direct
  0.0000000000000000  0.0000000000000000  0.3264164775037843
  0.6111111111111109  0.1944444444444444  0.3338030103759637
  0.0000000000000000  0.4999999999999999  0.3264164775037843
  0.6111111111111108  0.6944444444444443  0.3338030103759637
  0.7222222222222220  0.8888888888888891  0.3411895432481431
  0.3333333333333334  0.0833333333333334  0.3485760761203225
  0.7222222222222221  0.3888888888888888  0.3411895432481431
  0.3333333333333334  0.5833333333333330  0.3485760761203225
  0.4444444444444444  0.7777777777777778  0.3559626089925019
  0.0555555555555554  0.9722222222222222  0.3633491418646813
  0.4444444444444444  0.2777777777777777  0.3559626089925019
  0.0555555555555554  0.4722222222222222  0.3633491418646813
  0.1666666666666665  0.6666666666666667  0.3707356747368606
  0.7777777777777777  0.8611111111111113  0.3781222076090400
  0.1666666666666667  0.1666666666666666  0.3707356747368606
  0.7777777777777777  0.3611111111111110  0.3781222076090400
  0.8888888888888887  0.5555555555555557  0.3855087404812194
  0.4999999999999998  0.7500000000000001  0.3928952733533988
  0.8888888888888887  0.0555555555555555  0.3855087404812194
  0.4999999999999998  0.2500000000000000  0.3928952733533989
  0.6111111111111107  0.4444444444444448  0.4002818062255782
  0.2222222222222219  0.6388888888888891  0.4076683390977576
  0.6111111111111107  0.9444444444444445  0.4002818062255782
  0.2222222222222221  0.1388888888888889  0.4076683390977576
  0.3333333333333331  0.3333333333333334  0.4150548719699370
  0.9444444444444440  0.5277777777777780  0.4224414048421164
  0.3333333333333331  0.8333333333333333  0.4150548719699370
  0.9444444444444440  0.0277777777777779  0.4224414048421164
  0.0555555555555549  0.2222222222222225  0.4298279377142957
  0.6666666666666665  0.4166666666666669  0.4372144705864752
  0.0555555555555549  0.7222222222222222  0.4298279377142957
  0.6666666666666665  0.9166666666666666  0.4372144705864752
  0.7777777777777773  0.1111111111111114  0.4446010034586546
  0.3888888888888884  0.3055555555555560  0.4519875363308339
  0.7777777777777773  0.6111111111111112  0.4446010034586545
  0.3888888888888884  0.8055555555555556  0.4519875363308339
  0.4999999999999996  0.0000000000000004  0.4593740692030133
  0.1111111111111107  0.1944444444444447  0.4667606020751927
  0.4999999999999996  0.5000000000000001  0.4593740692030133
  0.1111111111111107  0.6944444444444446  0.4667606020751927
  0.2222222222222223  0.8888888888888891  0.4741471349473720
  0.8333333333333329  0.0833333333333336  0.4815336678195515
  0.2222222222222223  0.3888888888888889  0.4741471349473720
  0.8333333333333329  0.5833333333333335  0.4815336678195515
  0.9444444444444445  0.7777777777777781  0.4889202006917309
  0.5555555555555554  0.9722222222222222  0.4963067335639103
  0.9444444444444445  0.2777777777777778  0.4889202006917309
  0.5555555555555554  0.4722222222222222  0.4963067335639103
  0.6666666666666663  0.6666666666666669  0.5036932664360896
  0.2777777777777763  0.8611111111111114  0.5110797993082690
  0.6666666666666661  0.1666666666666669  0.5036932664360896
  0.2777777777777763  0.3611111111111114  0.5110797993082690
  0.3888888888888884  0.5555555555555560  0.5184663321804485
  0.0000000000000000  0.7500000000000002  0.5258528650526277
  0.3888888888888884  0.0555555555555556  0.5184663321804485
  0.9999999999999996  0.2500000000000000  0.5258528650526277
  0.1111111111111107  0.4444444444444449  0.5332393979248072
  0.7222222222222214  0.6388888888888891  0.5406259307969865
  0.1111111111111107  0.9444444444444446  0.5332393979248072
  0.7222222222222214  0.1388888888888890  0.5406259307969865
  0.8333333333333325  0.3333333333333341  0.5480124636691660
  0.4444444444444446  0.5277777777777779  0.5553989965413453
  0.8333333333333325  0.8333333333333339  0.5480124636691660
  0.4444444444444437  0.0277777777777777  0.5553989965413453
  0.5555555555555550  0.2222222222222227  0.5627855294135248
  0.1666666666666652  0.4166666666666670  0.5701720622857041
  0.5555555555555550  0.7222222222222222  0.5627855294135247
  0.1666666666666651  0.9166666666666667  0.5701720622857041
  0.2777777777777768  0.1111111111111120  0.5775585951578835
  0.8888888888888888  0.3055555555555560  0.5849451280300628
  0.2777777777777767  0.6111111111111118  0.5775585951578835
  0.8888888888888884  0.8055555555555558  0.5849451280300628
  0.9999999999999991  0.0000000000000004  0.5923316609022423
  0.6111111111111098  0.1944444444444451  0.5997181937744216
  0.9999999999999991  0.5000000000000002  0.5923316609022423
  0.6111111111111099  0.6944444444444449  0.5997181937744216
  0.7222222222222205  0.8888888888888902  0.6071047266466011
  0.3333333333333321  0.0833333333333339  0.6144912595187805
  0.7222222222222214  0.3888888888888897  0.6071047266466011
  0.3333333333333321  0.5833333333333337  0.6144912595187805
  0.4444444444444446  0.7777777777777781  0.6218777923909596
  0.0555555555555545  0.9722222222222228  0.6292643252631392
  0.4444444444444446  0.2777777777777779  0.6218777923909596
  0.0555555555555554  0.4722222222222223  0.6292643252631391
  0.1666666666666660  0.6666666666666674  0.6366508581353185
  0.7777777777777777  0.8611111111111115  0.6440373910074980
  0.1666666666666670  0.1666666666666670  0.6366508581353185
  0.7777777777777770  0.3611111111111111  0.6440373910074980
  0.8888888888888875  0.5555555555555562  0.6514239238796773
  0.4999999999999982  0.7500000000000009  0.6588104567518567
  0.8888888888888875  0.0555555555555560  0.6514239238796773
  0.4999999999999982  0.2500000000000007  0.6588104567518567
  0.6111111111111099  0.4444444444444455  0.6661969896240361
  0.2222222222222214  0.6388888888888897  0.6735835224962156
  0.6111111111111098  0.9444444444444451  0.6661969896240361
  0.2222222222222205  0.1388888888888893  0.6735835224962156
