Sn+Si                                   
   1.00000000000000     
    12.9784002300000001    0.0000000000000000    0.0000000000000000
     6.4892001150000000   14.5102930069999996    0.0000000000000000
     0.0000000000000000    0.0000000000000000    6.6635937690000002
   Sn   Si
    24    36
Direct
  0.9871792200000016  0.0256415140000001  0.0000000000000000
  0.8371791840000000  0.3256415720000021  0.2177547809999965
  0.6871791479999985  0.6256416439999981  0.4355095920000025
  0.4871792499999970  0.0256415140000001  0.0000000000000000
  0.3371791539999975  0.3256415720000021  0.2177547809999965
  0.1871791330000008  0.6256416439999981  0.4355095920000025
  0.2871792019999972  0.6756414769999992  0.1088771519999980
  0.1371791810000005  0.9756414889999974  0.3266319929999995
  0.9871791010000024  0.2756415610000005  0.5443866849999992
  0.7871793509999989  0.6756414769999992  0.1088771519999980
  0.6371793149999974  0.9756414889999974  0.3266319929999995
  0.4871792499999970  0.2756415610000005  0.5443866849999992
  0.9871792790000029  0.5256415010000026  0.0000000309999990
  0.8371791840000000  0.8256415130000008  0.2177548259999966
  0.6871790889999971  0.1256417040000031  0.4355095920000025
  0.4871792499999970  0.5256415010000026  0.0000000309999990
  0.3371792439999979  0.8256415130000008  0.2177548259999966
  0.1871791180000031  0.1256417040000031  0.4355095920000025
  0.2871792319999997  0.1756415070000017  0.1088771670000028
  0.1371791660000028  0.4756415490000023  0.3266319929999995
  0.9871791599999966  0.7756416200000018  0.5443867440000005
  0.7871792910000011  0.1756415070000017  0.1088771670000028
  0.6371792549999995  0.4756415490000023  0.3266319929999995
  0.4871791599999966  0.7756416200000018  0.5443867440000005
  0.9829056259999973  0.9914528130000022  0.5443867440000005
  0.7829055790000012  0.8914527889999988  0.7266321780000027
  0.5829054120000023  0.7914527060000012  0.9088774319999970
  0.9829056259999973  0.3247861270000030  0.5443867440000005
  0.7829055790000012  0.2247860880000019  0.7266321780000027
  0.5829054120000023  0.1247860490000008  0.9088774319999970
  0.9829056259999973  0.6581194999999980  0.5443867440000005
  0.7829055790000012  0.5581194159999967  0.7266321780000027
  0.5829054120000023  0.4581193329999991  0.9088774319999970
  0.6329056619999989  0.1914528610000019  0.6355091929999972
  0.4329055850000003  0.0914528149999967  0.8177545670000015
  0.2329055220000029  0.9914527540000009  0.9999999400000021
  0.6329056619999989  0.5247861149999977  0.6355091929999972
  0.4329055850000003  0.4247860309999965  0.8177545670000015
  0.2329055220000029  0.3247860370000026  0.9999999400000021
  0.6329056619999989  0.8581194280000020  0.6355091929999972
  0.4329055850000003  0.7581192849999994  0.8177545670000015
  0.2329055220000029  0.6581193800000023  0.9999999400000021
  0.4829056259999973  0.9914528130000022  0.5443867440000005
  0.2829055489999988  0.8914527889999988  0.7266321780000027
  0.0829054419999977  0.7914527650000025  0.9088774319999970
  0.4829056259999973  0.3247860669999980  0.5443867440000005
  0.2829055489999988  0.2247860129999992  0.7266321780000027
  0.0829054419999977  0.1247860040000006  0.9088774319999970
  0.4829056259999973  0.6581194999999980  0.5443867440000005
  0.2829055489999988  0.5581194760000017  0.7266321780000027
  0.0829054419999977  0.4581193329999991  0.9088774319999970
  0.1329056769999966  0.1914528309999994  0.6355091929999972
  0.9329055549999978  0.0914527770000007  0.8177545670000015
  0.7329055069999981  0.9914527540000009  0.9999999400000021
  0.1329056769999966  0.5247861149999977  0.6355091929999972
  0.9329055549999978  0.4247860910000014  0.8177545670000015
  0.7329055069999981  0.3247860370000026  0.9999999400000021
  0.1329056769999966  0.8581194280000020  0.6355091929999972
  0.9329055549999978  0.7581193449999972  0.8177545670000015
  0.7329055069999981  0.6581193800000023  0.9999999400000021
 
  0.00000000E+00  0.00000000E+00  0.00000000E+00
  0.00000000E+00  0.00000000E+00  0.00000000E+00
  0.00000000E+00  0.00000000E+00  0.00000000E+00
  0.00000000E+00  0.00000000E+00  0.00000000E+00
  0.00000000E+00  0.00000000E+00  0.00000000E+00
  0.00000000E+00  0.00000000E+00  0.00000000E+00
  0.00000000E+00  0.00000000E+00  0.00000000E+00
  0.00000000E+00  0.00000000E+00  0.00000000E+00
  0.00000000E+00  0.00000000E+00  0.00000000E+00
  0.00000000E+00  0.00000000E+00  0.00000000E+00
  0.00000000E+00  0.00000000E+00  0.00000000E+00
  0.00000000E+00  0.00000000E+00  0.00000000E+00
  0.00000000E+00  0.00000000E+00  0.00000000E+00
  0.00000000E+00  0.00000000E+00  0.00000000E+00
  0.00000000E+00  0.00000000E+00  0.00000000E+00
  0.00000000E+00  0.00000000E+00  0.00000000E+00
  0.00000000E+00  0.00000000E+00  0.00000000E+00
  0.00000000E+00  0.00000000E+00  0.00000000E+00
  0.00000000E+00  0.00000000E+00  0.00000000E+00
  0.00000000E+00  0.00000000E+00  0.00000000E+00
  0.00000000E+00  0.00000000E+00  0.00000000E+00
  0.00000000E+00  0.00000000E+00  0.00000000E+00
  0.00000000E+00  0.00000000E+00  0.00000000E+00
  0.00000000E+00  0.00000000E+00  0.00000000E+00
  0.00000000E+00  0.00000000E+00  0.00000000E+00
  0.00000000E+00  0.00000000E+00  0.00000000E+00
  0.00000000E+00  0.00000000E+00  0.00000000E+00
  0.00000000E+00  0.00000000E+00  0.00000000E+00
  0.00000000E+00  0.00000000E+00  0.00000000E+00
  0.00000000E+00  0.00000000E+00  0.00000000E+00
  0.00000000E+00  0.00000000E+00  0.00000000E+00
  0.00000000E+00  0.00000000E+00  0.00000000E+00
  0.00000000E+00  0.00000000E+00  0.00000000E+00
  0.00000000E+00  0.00000000E+00  0.00000000E+00
  0.00000000E+00  0.00000000E+00  0.00000000E+00
  0.00000000E+00  0.00000000E+00  0.00000000E+00
  0.00000000E+00  0.00000000E+00  0.00000000E+00
  0.00000000E+00  0.00000000E+00  0.00000000E+00
  0.00000000E+00  0.00000000E+00  0.00000000E+00
  0.00000000E+00  0.00000000E+00  0.00000000E+00
  0.00000000E+00  0.00000000E+00  0.00000000E+00
  0.00000000E+00  0.00000000E+00  0.00000000E+00
  0.00000000E+00  0.00000000E+00  0.00000000E+00
  0.00000000E+00  0.00000000E+00  0.00000000E+00
  0.00000000E+00  0.00000000E+00  0.00000000E+00
  0.00000000E+00  0.00000000E+00  0.00000000E+00
  0.00000000E+00  0.00000000E+00  0.00000000E+00
  0.00000000E+00  0.00000000E+00  0.00000000E+00
  0.00000000E+00  0.00000000E+00  0.00000000E+00
  0.00000000E+00  0.00000000E+00  0.00000000E+00
  0.00000000E+00  0.00000000E+00  0.00000000E+00
  0.00000000E+00  0.00000000E+00  0.00000000E+00
  0.00000000E+00  0.00000000E+00  0.00000000E+00
  0.00000000E+00  0.00000000E+00  0.00000000E+00
  0.00000000E+00  0.00000000E+00  0.00000000E+00
  0.00000000E+00  0.00000000E+00  0.00000000E+00
  0.00000000E+00  0.00000000E+00  0.00000000E+00
  0.00000000E+00  0.00000000E+00  0.00000000E+00
  0.00000000E+00  0.00000000E+00  0.00000000E+00
  0.00000000E+00  0.00000000E+00  0.00000000E+00
