Ge+Sn
    1.000000000
   16.002676010    0.000000000    0.000000000
    8.001338005   13.858724594    0.000000000
    0.000000000    0.000000000   20.304012299
Ge  Sn 
96     72
Direct
    0.310883224    0.310883164    0.321762353
    0.977550030    0.977550030    0.000000025
    0.644216537    0.644216597    0.160881206
    0.810883164    0.310883164    0.321762353
    0.477550000    0.977550030    0.000000033
    0.144216582    0.644216597    0.160881206
    0.310883164    0.810883164    0.321762353
    0.977550030    0.477550000    0.000000031
    0.644216597    0.144216582    0.160881206
    0.810883164    0.810883164    0.321762353
    0.477550000    0.477550000    0.000000000
    0.144216567    0.144216567    0.160881177
    0.477549791    0.477549732    0.361982673
    0.144216686    0.144216612    0.040220331
    0.810883284    0.810883224    0.201101482
    0.977549791    0.477549672    0.361982673
    0.644216657    0.144216627    0.040220331
    0.310883284    0.810883224    0.201101482
    0.477549672    0.977549791    0.361982673
    0.144216627    0.644216657    0.040220331
    0.810883224    0.310883284    0.201101482
    0.977549672    0.977549791    0.361982644
    0.644216597    0.644216657    0.040220331
    0.310883164    0.310883254    0.201101452
    0.560883164    0.560883164    0.321762383
    0.227550015    0.227550015    0.000000035
    0.894216597    0.894216597    0.160881177
    0.060883213    0.560883164    0.321762413
    0.727550030    0.227550045    0.000000035
    0.394216597    0.894216597    0.160881206
    0.560883164    0.060883176    0.321762353
    0.227550015    0.727549970    0.000000012
    0.894216537    0.394216597    0.160881177
    0.060883190    0.060883105    0.321762353
    0.727550030    0.727549911    0.000000023
    0.394216627    0.394216567    0.160881206
    0.727549791    0.727549791    0.361982644
    0.394216627    0.394216627    0.040220268
    0.060883194    0.060883190    0.201101452
    0.227549791    0.727549791    0.361982644
    0.894216597    0.394216627    0.040220287
    0.560883164    0.060883190    0.201101452
    0.727549791    0.227549851    0.361982644
    0.394216627    0.894216657    0.040220287
    0.060883202    0.560883284    0.201101452
    0.227549851    0.227549851    0.361982644
    0.894216716    0.894216657    0.040220276
    0.560883284    0.560883284    0.201101452
    0.310883164    0.560883164    0.321762353
    0.977550030    0.227550015    0.000000020
    0.644216537    0.894216597    0.160881206
    0.810883164    0.560883164    0.321762383
    0.477550030    0.227550015    0.000000027
    0.144216597    0.894216597    0.160881206
    0.310883164    0.060883176    0.321762353
    0.977550030    0.727549970    0.000000027
    0.644216597    0.394216597    0.160881206
    0.810883164    0.060883090    0.321762353
    0.477550000    0.727549911    0.000000023
    0.144216612    0.394216537    0.160881177
    0.477549791    0.727549791    0.361982644
    0.144216612    0.394216597    0.040220287
    0.810883164    0.060883190    0.201101452
    0.977549732    0.727549791    0.361982644
    0.644216597    0.394216627    0.040220287
    0.310883164    0.060883190    0.201101452
    0.477549732    0.227549851    0.361982614
    0.144216627    0.894216657    0.040220276
    0.810883164    0.560883284    0.201101452
    0.977549791    0.227549851    0.361982614
    0.644216657    0.894216657    0.040220268
    0.310883224    0.560883284    0.201101452
    0.560883105    0.310883164    0.321762353
    0.227550015    0.977550030    0.000000022
    0.894216597    0.644216597    0.160881206
    0.060883183    0.310883164    0.321762383
    0.727549970    0.977550030    0.000000029
    0.394216627    0.644216597    0.160881206
    0.560883164    0.810883164    0.321762383
    0.227550000    0.477550000    0.000000031
    0.894216597    0.144216582    0.160881206
    0.060883179    0.810883105    0.321762353
    0.727549970    0.477549940    0.000000014
    0.394216597    0.144216537    0.160881177
    0.727549791    0.477549851    0.361982673
    0.394216686    0.144216716    0.040220316
    0.060883284    0.810883343    0.201101482
    0.227549672    0.477549851    0.361982673
    0.894216657    0.144216731    0.040220324
    0.560883284    0.810883343    0.201101452
    0.727549791    0.977549851    0.361982644
    0.394216686    0.644216716    0.040220331
    0.060883276    0.310883373    0.201101482
    0.227549732    0.977549791    0.361982673
    0.894216657    0.644216657    0.040220316
    0.560883284    0.310883284    0.201101452
    0.138364777    0.647968173    0.842448294
    0.138364777    0.314634800    0.473403871
    0.138364777    0.981301427    0.657926083
    0.471698105    0.981301546    0.842448235
    0.471698105    0.647968173    0.473403871
    0.471698105    0.314634800    0.657926083
    0.805031478    0.314634800    0.842448294
    0.805031478    0.981301546    0.473403871
    0.805031478    0.647968173    0.657926083
    0.471698105    0.647968173    0.888578892
    0.471698105    0.314634800    0.519534409
    0.471698105    0.981301427    0.704056621
    0.138364777    0.314634800    0.888578892
    0.138364777    0.981301427    0.519534409
    0.138364777    0.647968113    0.704056621
    0.805031538    0.981301427    0.888578892
    0.805031538    0.647968113    0.519534409
    0.805031538    0.314634800    0.704056621
    0.638364732    0.647968173    0.842448235
    0.638364732    0.314634800    0.473403871
    0.638364732    0.981301427    0.657926083
    0.305031449    0.314634800    0.842448235
    0.305031478    0.981301546    0.473403841
    0.305031478    0.647968173    0.657926083
    0.971698165    0.981301546    0.842448294
    0.971698165    0.647968173    0.473403871
    0.971698165    0.314634800    0.657926142
    0.305031419    0.981301546    0.888578892
    0.305031449    0.647968173    0.519534409
    0.305031449    0.314634800    0.704056621
    0.971698165    0.647968173    0.888578832
    0.971698165    0.314634800    0.519534349
    0.971698165    0.981301427    0.704056561
    0.638364792    0.314634800    0.888578892
    0.638364792    0.981301427    0.519534349
    0.638364792    0.647968173    0.704056561
    0.305031449    0.814634800    0.842448294
    0.305031449    0.481301516    0.473403871
    0.305031449    0.147968173    0.657926083
    0.638364732    0.147968173    0.842448294
    0.638364732    0.814634800    0.473403871
    0.638364732    0.481301457    0.657926083
    0.971698046    0.481301546    0.842448235
    0.971698046    0.147968292    0.473403811
    0.971698046    0.814634919    0.657926023
    0.638364732    0.814634919    0.888578892
    0.638364732    0.481301486    0.519534409
    0.638364732    0.147968173    0.704056621
    0.305031419    0.481301546    0.888578832
    0.305031419    0.147968173    0.519534349
    0.305031419    0.814634860    0.704056561
    0.971698165    0.147968173    0.888578892
    0.971698165    0.814634800    0.519534409
    0.971698165    0.481301427    0.704056621
    0.138364777    0.147968173    0.842448294
    0.138364777    0.814634800    0.473403871
    0.138364777    0.481301457    0.657926083
    0.805031478    0.814634800    0.842448235
    0.805031478    0.481301486    0.473403871
    0.805031478    0.147968173    0.657926083
    0.471698105    0.481301367    0.842448294
    0.471698105    0.147968054    0.473403871
    0.471698105    0.814634800    0.657926023
    0.138364777    0.814634919    0.888578892
    0.138364777    0.481301546    0.519534409
    0.138364777    0.147968173    0.704056621
    0.471698105    0.147968173    0.888578892
    0.471698105    0.814634860    0.519534409
    0.471698105    0.481301546    0.704056621
    0.805031478    0.481301606    0.888578892
    0.805031478    0.147968173    0.519534469
    0.805031478    0.814634919    0.704056621
