Ge+Ge
    1.000000000
    8.001338005    0.000000000    0.000000000
    4.000669003   12.002006531    0.000000000
    0.000000000    0.000000000   11.611743927
Ge 
48
Direct
    0.994305491    0.994305491    0.000000000
    0.827638865    0.827638865    0.243624032
    0.660972118    0.660972118    0.487248093
    0.327638805    0.327638805    0.000000000
    0.160972148    0.160972148    0.243624032
    0.994305432    0.994305432    0.487248093
    0.660972118    0.660972118    0.000000000
    0.494305432    0.494305432    0.243624032
    0.327638745    0.327638745    0.487248093
    0.244305477    0.994305491    0.121812016
    0.077638790    0.827638865    0.365436077
    0.910972118    0.660972118    0.609060228
    0.577638805    0.327638805    0.121812016
    0.410972118    0.160972133    0.365436077
    0.244305432    0.994305432    0.609060228
    0.910972178    0.660972118    0.121812016
    0.744305491    0.494305462    0.365436077
    0.577638805    0.327638775    0.609060228
    0.494305432    0.994305491    0.000000000
    0.327638775    0.827638865    0.243624032
    0.160972089    0.660972118    0.487248093
    0.160972178    0.660972118    0.000000000
    0.994305491    0.494305462    0.243624032
    0.827638805    0.327638775    0.487248093
    0.827638745    0.327638835    0.000000000
    0.660972118    0.160972163    0.243624032
    0.494305402    0.994305491    0.487248093
    0.077638827    0.327638835    0.121812016
    0.910972118    0.160972148    0.365436077
    0.744305491    0.994305491    0.609060228
    0.744305491    0.994305491    0.121812016
    0.577638805    0.827638805    0.365436077
    0.410972089    0.660972118    0.609060228
    0.410972148    0.660972118    0.121812016
    0.244305447    0.494305402    0.365436077
    0.077638745    0.327638716    0.609060228
    0.038795948    0.939236522    0.703020036
    0.649907053    0.217014313    0.784228086
    0.261018157    0.494792223    0.865436137
    0.538795948    0.939236522    0.703020036
    0.149907053    0.217014313    0.784228086
    0.761018097    0.494792223    0.865436137
    0.844351470    0.828125477    0.743624091
    0.455462635    0.105903149    0.824832141
    0.066573501    0.383681059    0.906040192
    0.344351470    0.828125477    0.743624091
    0.955462635    0.105903149    0.824832141
    0.566573620    0.383681059    0.906040192
