Sn+Ge
    1.000000000
   19.467599869    0.000000000    0.000000000
   -6.489200115   18.354230881    0.000000000
    0.000000000    0.000000000   25.800941467
Sn  Ge 
144     192
Direct
    0.991010249    0.985017061    0.000000004
    0.866010249    0.776683688    0.088922285
    0.741010189    0.568350196    0.177844614
    0.616010189    0.360016763    0.266766876
    0.491010129    0.151683390    0.355689168
    0.366010129    0.943349957    0.444611520
    0.991010249    0.318350405    0.000000004
    0.866010249    0.110017046    0.088922285
    0.741010189    0.901683569    0.177844614
    0.616010189    0.693350196    0.266766876
    0.491010129    0.485016763    0.355689168
    0.366010129    0.276683390    0.444611520
    0.991010249    0.651683807    0.000000004
    0.866010249    0.443350375    0.088922285
    0.741010189    0.235016942    0.177844614
    0.616010189    0.026683522    0.266766876
    0.491010129    0.818350136    0.355689168
    0.366010129    0.610016704    0.444611520
    0.491010249    0.151683748    0.000000008
    0.366010249    0.943350375    0.088922285
    0.241010204    0.735016942    0.177844599
    0.116010167    0.526683450    0.266766876
    0.991010189    0.318350077    0.355689168
    0.866010129    0.110016644    0.444611490
    0.491010249    0.485017061    0.000000008
    0.366010249    0.276683688    0.088922285
    0.241010204    0.068350248    0.177844599
    0.116010167    0.860016823    0.266766876
    0.991010189    0.651683450    0.355689168
    0.866010129    0.443350077    0.444611490
    0.491010249    0.818350375    0.000000008
    0.366010249    0.610017002    0.088922285
    0.241010204    0.401683569    0.177844599
    0.116010167    0.193350136    0.266766876
    0.991010189    0.985016763    0.355689168
    0.866010129    0.776683331    0.444611490
    0.241010249    0.068350412    0.000000003
    0.116010241    0.860017061    0.088922285
    0.991010189    0.651683569    0.177844599
    0.866010189    0.443350077    0.266766876
    0.741010189    0.235016763    0.355689168
    0.616010129    0.026683331    0.444611520
    0.241010249    0.401683748    0.000000003
    0.116010241    0.193350390    0.088922285
    0.991010189    0.985016942    0.177844599
    0.866010189    0.776683509    0.266766876
    0.741010189    0.568350077    0.355689168
    0.616010129    0.360016704    0.444611520
    0.241010249    0.735017121    0.000000003
    0.116010241    0.526683748    0.088922285
    0.991010189    0.318350255    0.177844599
    0.866010189    0.110016860    0.266766876
    0.741010189    0.901683509    0.355689168
    0.616010129    0.693350077    0.444611520
    0.741010249    0.235017091    0.000000008
    0.616010249    0.026683707    0.088922299
    0.491010219    0.818350196    0.177844614
    0.366010159    0.610016763    0.266766906
    0.241010159    0.401683450    0.355689198
    0.116010115    0.193350017    0.444611520
    0.741010249    0.568350375    0.000000008
    0.616010249    0.360017031    0.088922299
    0.491010219    0.151683584    0.177844614
    0.366010159    0.943350136    0.266766906
    0.241010159    0.735016763    0.355689198
    0.116010115    0.526683331    0.444611520
    0.741010249    0.901683807    0.000000008
    0.616010249    0.693350375    0.088922299
    0.491010219    0.485016942    0.177844614
    0.366010159    0.276683509    0.266766906
    0.241010159    0.068350151    0.355689198
    0.116010115    0.860016704    0.444611520
    0.366010249    0.026683766    0.000000016
    0.241010234    0.818350375    0.088922292
    0.116010197    0.610016942    0.177844614
    0.991010129    0.401683509    0.266766906
    0.866010129    0.193350136    0.355689198
    0.741010129    0.985016704    0.444611520
    0.366010249    0.360017091    0.000000016
    0.241010234    0.151683733    0.088922292
    0.116010197    0.943350315    0.177844614
    0.991010129    0.735016823    0.266766906
    0.866010129    0.526683450    0.355689198
    0.741010129    0.318350077    0.444611520
    0.366010249    0.693350494    0.000000016
    0.241010234    0.485017091    0.088922292
    0.116010197    0.276683658    0.177844614
    0.991010129    0.068350218    0.266766906
    0.866010129    0.860016823    0.355689198
    0.741010129    0.651683390    0.444611520
    0.866010308    0.193350419    0.000000000
    0.741010308    0.985017061    0.088922292
    0.616010249    0.776683569    0.177844614
    0.491010189    0.568350196    0.266766906
    0.366010189    0.360016763    0.355689198
    0.241010144    0.151683331    0.444611520
    0.866010308    0.526683807    0.000000000
    0.741010308    0.318350405    0.088922292
    0.616010249    0.110016957    0.177844614
    0.491010189    0.901683569    0.266766906
    0.366010189    0.693350196    0.355689198
    0.241010144    0.485016704    0.444611520
    0.866010308    0.860017121    0.000000000
    0.741010308    0.651683688    0.088922292
    0.616010249    0.443350285    0.177844614
    0.491010189    0.235016838    0.266766906
    0.366010189    0.026683476    0.355689198
    0.241010144    0.818350077    0.444611520
    0.116010249    0.276683748    0.000000003
    0.991010249    0.068350360    0.088922292
    0.866010189    0.860016942    0.177844614
    0.741010129    0.651683450    0.266766906
    0.616010189    0.443350077    0.355689168
    0.491010129    0.235016644    0.444611520
    0.116010249    0.610017121    0.000000003
    0.991010249    0.401683718    0.088922292
    0.866010189    0.193350270    0.177844614
    0.741010129    0.985016823    0.266766906
    0.616010189    0.776683450    0.355689168
    0.491010129    0.568350017    0.444611520
    0.116010249    0.943350375    0.000000003
    0.991010249    0.735016942    0.088922292
    0.866010189    0.526683509    0.177844614
    0.741010129    0.318350136    0.266766906
    0.616010189    0.110016756    0.355689168
    0.491010129    0.901683331    0.444611520
    0.616010249    0.110017069    0.000000013
    0.491010249    0.901683688    0.088922292
    0.366010189    0.693350196    0.177844614
    0.241010159    0.485016763    0.266766906
    0.116010159    0.276683450    0.355689198
    0.991010129    0.068350017    0.444611520
    0.616010249    0.443350375    0.000000013
    0.491010249    0.235017002    0.088922292
    0.366010189    0.026683571    0.177844614
    0.241010159    0.818350136    0.266766906
    0.116010159    0.610016704    0.355689198
    0.991010129    0.401683331    0.444611520
    0.616010249    0.776683748    0.000000013
    0.491010249    0.568350375    0.088922292
    0.366010189    0.360016853    0.177844614
    0.241010159    0.151683450    0.266766906
    0.116010159    0.943350077    0.355689198
    0.991010129    0.735016644    0.444611520
    0.682987452    0.765463173    0.528481901
    0.495487452    0.702963173    0.606011450
    0.307987452    0.640463173    0.683541059
    0.120487452    0.577963173    0.761070490
    0.932987511    0.515463173    0.838600039
    0.745487452    0.452963203    0.916129470
    0.432987452    0.515463173    0.528481901
    0.245487452    0.452963173    0.606011450
    0.057987452    0.390463173    0.683541059
    0.870487452    0.327963173    0.761070490
    0.682987511    0.265463173    0.838600039
    0.495487452    0.202963203    0.916129470
    0.182987452    0.765463173    0.528481901
    0.995487452    0.702963173    0.606011510
    0.807987392    0.640463173    0.683541000
    0.620487452    0.577963173    0.761070490
    0.432987452    0.515463173    0.838600039
    0.245487452    0.452963173    0.916129470
    0.932987452    0.515463173    0.528481901
    0.745487452    0.452963173    0.606011510
    0.557987452    0.390463173    0.683541000
    0.370487452    0.327963173    0.761070490
    0.182987452    0.265463173    0.838599980
    0.995487452    0.202963173    0.916129470
    0.682987452    0.265463173    0.528481901
    0.495487452    0.202963188    0.606011510
    0.307987452    0.140463158    0.683541000
    0.120487452    0.077963151    0.761070490
    0.932987511    0.015463114    0.838599980
    0.745487452    0.952963173    0.916129470
    0.432987452    0.015463114    0.528481901
    0.245487452    0.952963173    0.606011510
    0.057987452    0.890463173    0.683541000
    0.870487452    0.827963173    0.761070490
    0.682987511    0.765463233    0.838599980
    0.495487452    0.702963173    0.916129470
    0.182987452    0.265463173    0.528481901
    0.995487452    0.202963203    0.606011450
    0.807987452    0.140463173    0.683541000
    0.620487452    0.077963188    0.761070490
    0.432987452    0.015463114    0.838600039
    0.245487452    0.952963173    0.916129470
    0.932987452    0.015463114    0.528481901
    0.745487452    0.952963173    0.606011450
    0.557987452    0.890463173    0.683541000
    0.370487452    0.827963173    0.761070490
    0.182987452    0.765463233    0.838600039
    0.995487452    0.702963173    0.916129470
    0.557987452    0.890463173    0.528481901
    0.370487452    0.827963173    0.606011450
    0.182987452    0.765463173    0.683541000
    0.995487452    0.702963173    0.761070430
    0.807987511    0.640463173    0.838599980
    0.620487452    0.577963173    0.916129470
    0.057987452    0.890463173    0.528481901
    0.870487452    0.827963173    0.606011510
    0.682987392    0.765463114    0.683541059
    0.495487452    0.702963173    0.761070490
    0.307987452    0.640463173    0.838600039
    0.120487452    0.577963114    0.916129470
    0.807987452    0.640463173    0.528481901
    0.620487452    0.577963173    0.606011510
    0.432987452    0.515463173    0.683541000
    0.245487452    0.452963173    0.761070490
    0.057987452    0.390463173    0.838599980
    0.870487452    0.327963173    0.916129470
    0.557987452    0.390463203    0.528481901
    0.370487452    0.327963173    0.606011510
    0.182987452    0.265463173    0.683541000
    0.995487452    0.202963173    0.761070490
    0.807987511    0.140463173    0.838600039
    0.620487452    0.077963166    0.916129470
    0.307987452    0.640463173    0.528481901
    0.120487452    0.577963173    0.606011510
    0.932987452    0.515463114    0.683541000
    0.745487452    0.452963144    0.761070490
    0.557987511    0.390463144    0.838599980
    0.370487452    0.327963144    0.916129470
    0.057987452    0.390463173    0.528481901
    0.870487452    0.327963173    0.606011510
    0.682987452    0.265463144    0.683541000
    0.495487481    0.202963158    0.761070490
    0.307987452    0.140463158    0.838599980
    0.120487452    0.077963144    0.916129470
    0.807987452    0.140463188    0.528481901
    0.620487452    0.077963181    0.606011510
    0.432987452    0.015463114    0.683541000
    0.245487452    0.952963173    0.761070490
    0.057987452    0.890463233    0.838600039
    0.870487452    0.827963173    0.916129470
    0.307987452    0.140463114    0.528481901
    0.120487452    0.077963144    0.606011510
    0.932987452    0.015463114    0.683541000
    0.745487511    0.952963114    0.761070490
    0.557987511    0.890463114    0.838600099
    0.370487452    0.827963114    0.916129470
    0.682987452    0.890463173    0.528481901
    0.495487452    0.827963173    0.606011510
    0.307987452    0.765463173    0.683541000
    0.120487452    0.702963173    0.761070490
    0.932987452    0.640463173    0.838599980
    0.745487392    0.577963173    0.916129470
    0.432987452    0.640463173    0.528481901
    0.245487452    0.577963173    0.606011510
    0.057987452    0.515463173    0.683541000
    0.870487452    0.452963173    0.761070490
    0.682987511    0.390463203    0.838599980
    0.495487452    0.327963203    0.916129470
    0.182987452    0.890463173    0.528481901
    0.995487392    0.827963114    0.606011510
    0.807987332    0.765463114    0.683541000
    0.620487452    0.702963173    0.761070490
    0.432987452    0.640463173    0.838600039
    0.245487452    0.577963173    0.916129470
    0.932987452    0.640463173    0.528481901
    0.745487452    0.577963173    0.606011450
    0.557987392    0.515463173    0.683541000
    0.370487452    0.452963173    0.761070490
    0.182987452    0.390463173    0.838600039
    0.995487452    0.327963144    0.916129470
    0.682987452    0.390463173    0.528481901
    0.495487452    0.327963173    0.606011450
    0.307987452    0.265463173    0.683541000
    0.120487452    0.202963188    0.761070490
    0.932987511    0.140463188    0.838600039
    0.745487452    0.077963173    0.916129470
    0.432987452    0.140463173    0.528481901
    0.245487452    0.077963166    0.606011450
    0.057987452    0.015463114    0.683541000
    0.870487452    0.952963173    0.761070490
    0.682987511    0.890463233    0.838600039
    0.495487452    0.827963173    0.916129470
    0.182987452    0.390463173    0.528481901
    0.995487452    0.327963173    0.606011510
    0.807987452    0.265463144    0.683541059
    0.620487452    0.202963158    0.761070490
    0.432987452    0.140463158    0.838600039
    0.245487452    0.077963151    0.916129470
    0.932987452    0.140463173    0.528481901
    0.745487452    0.077963173    0.606011510
    0.557987452    0.015463114    0.683541059
    0.370487452    0.952963173    0.761070490
    0.182987452    0.890463233    0.838600039
    0.995487452    0.827963173    0.916129470
    0.807987452    0.765463173    0.528481901
    0.620487452    0.702963173    0.606011510
    0.432987452    0.640463173    0.683541000
    0.245487452    0.577963114    0.761070490
    0.057987452    0.515463114    0.838599980
    0.870487452    0.452963144    0.916129470
    0.557987452    0.515463173    0.528481901
    0.370487452    0.452963173    0.606011510
    0.182987452    0.390463173    0.683541000
    0.995487511    0.327963173    0.761070490
    0.807987511    0.265463173    0.838599980
    0.620487452    0.202963144    0.916129470
    0.307987452    0.765463233    0.528481901
    0.120487452    0.702963233    0.606011510
    0.932987511    0.640463233    0.683541000
    0.745487571    0.577963173    0.761070490
    0.557987571    0.515463233    0.838600039
    0.370487452    0.452963203    0.916129470
    0.057987452    0.515463233    0.528481901
    0.870487452    0.452963203    0.606011510
    0.682987452    0.390463173    0.683541000
    0.495487481    0.327963173    0.761070490
    0.307987452    0.265463203    0.838600039
    0.120487452    0.202963188    0.916129470
    0.807987452    0.265463173    0.528481901
    0.620487452    0.202963173    0.606011510
    0.432987452    0.140463173    0.683541000
    0.245487452    0.077963173    0.761070490
    0.057987452    0.015463114    0.838600039
    0.870487452    0.952963173    0.916129470
    0.557987452    0.015463114    0.528481901
    0.370487452    0.952963173    0.606011510
    0.182987452    0.890463173    0.683541000
    0.995487452    0.827963173    0.761070490
    0.807987511    0.765463233    0.838600039
    0.620487452    0.702963173    0.916129470
    0.307987452    0.265463233    0.528481901
    0.120487452    0.202963203    0.606011510
    0.932987452    0.140463158    0.683541000
    0.745487452    0.077963166    0.761070490
    0.557987571    0.015463114    0.838600039
    0.370487452    0.952963173    0.916129470
    0.057987452    0.015463114    0.528481901
    0.870487452    0.952963173    0.606011510
    0.682987452    0.890463114    0.683541000
    0.495487481    0.827963173    0.761070490
    0.307987452    0.765463173    0.838600039
    0.120487452    0.702963114    0.916129470
