Sn+Ge                                   
   1.00000000000000     
    12.9784002300000001    0.0000000000000000    0.0000000000000000
   -12.9784002300000001   14.5102930069999996    0.0000000000000000
     0.0000000000000000    0.0000000000000000    9.1904115680000000
   Sn   Ge
    24    24
Direct
  0.9795643089999970  0.0306535329999988  0.0000000089999972
  0.7795642609999973  0.3306535780000033  0.1578851490000019
  0.5795641540000034  0.6306536199999968  0.3157702979999968
  0.4795642500000028  0.0306535329999988  0.0000000089999972
  0.2795642020000031  0.3306535780000033  0.1578851490000019
  0.0795641320000016  0.6306536199999968  0.3157702979999968
  0.2545643150000032  0.6806535119999992  0.0789424179999969
  0.0545641590000017  0.9806534650000032  0.2368275819999965
  0.8545641300000000  0.2806535960000005  0.3947126870000019
  0.7545644039999999  0.6806535119999992  0.0789424179999969
  0.5545642379999975  0.9806534650000032  0.2368275819999965
  0.3545641600000025  0.2806535960000005  0.3947126870000019
  0.2295642790000016  0.5306534770000013  0.0000000000000000
  0.0295641909999986  0.8306534889999995  0.1578851490000019
  0.8295640349999971  0.1306536199999968  0.3157702979999968
  0.7295641899999978  0.5306534770000013  0.0000000000000000
  0.5295641419999981  0.8306534889999995  0.1578851490000019
  0.3295640349999971  0.1306536199999968  0.3157702979999968
  0.0045643300000009  0.1806535119999992  0.0789424259999976
  0.8045641779999997  0.4806535840000024  0.2368275819999965
  0.6045642500000028  0.7806536559999984  0.3947126870000019
  0.5045642850000007  0.1806535119999992  0.0789424259999976
  0.3045641779999997  0.4806535840000024  0.2368275819999965
  0.1045641680000031  0.7806536559999984  0.3947126870000019
  0.3451002839999973  0.4139068129999970  0.5568605659999974
  0.2284336089999996  0.9972400070000020  0.6130588050000014
  0.1117668150000029  0.5805732609999978  0.6692572239999990
  0.9950999619999976  0.1639065740000021  0.7254555820000022
  0.8784332870000000  0.7472398880000028  0.7816537619999977
  0.7617664340000019  0.3305728440000024  0.8378521200000009
  0.8451002839999973  0.6639066930000013  0.5568605659999974
  0.7284334900000005  0.2472399469999971  0.6130588050000014
  0.6117667560000015  0.8305732609999978  0.6692572239999990
  0.4950999619999976  0.4139065740000021  0.7254554029999980
  0.3784332279999987  0.9972397689999966  0.7816537019999998
  0.2617665530000011  0.5805729029999966  0.8378520010000017
  0.8451002839999973  0.9139066930000013  0.5568606260000024
  0.7284334900000005  0.4972400669999999  0.6130589249999971
  0.6117666959999966  0.0805733199999992  0.6692572239999990
  0.4950999920000001  0.6639064550000029  0.7254555230000008
  0.3784332870000000  0.2472398279999979  0.7816537619999977
  0.2617664340000019  0.8305727839999975  0.8378521200000009
  0.3451001640000015  0.1639068129999970  0.5568606260000024
  0.2284334900000005  0.7472399469999971  0.6130589249999971
  0.1117668150000029  0.3305732010000000  0.6692572239999990
  0.9950999619999976  0.9139064550000029  0.7254555230000008
  0.8784332279999987  0.4972398279999979  0.7816538209999990
  0.7617664340000019  0.0805728440000024  0.8378521200000009
 
  0.00000000E+00  0.00000000E+00  0.00000000E+00
  0.00000000E+00  0.00000000E+00  0.00000000E+00
  0.00000000E+00  0.00000000E+00  0.00000000E+00
  0.00000000E+00  0.00000000E+00  0.00000000E+00
  0.00000000E+00  0.00000000E+00  0.00000000E+00
  0.00000000E+00  0.00000000E+00  0.00000000E+00
  0.00000000E+00  0.00000000E+00  0.00000000E+00
  0.00000000E+00  0.00000000E+00  0.00000000E+00
  0.00000000E+00  0.00000000E+00  0.00000000E+00
  0.00000000E+00  0.00000000E+00  0.00000000E+00
  0.00000000E+00  0.00000000E+00  0.00000000E+00
  0.00000000E+00  0.00000000E+00  0.00000000E+00
  0.00000000E+00  0.00000000E+00  0.00000000E+00
  0.00000000E+00  0.00000000E+00  0.00000000E+00
  0.00000000E+00  0.00000000E+00  0.00000000E+00
  0.00000000E+00  0.00000000E+00  0.00000000E+00
  0.00000000E+00  0.00000000E+00  0.00000000E+00
  0.00000000E+00  0.00000000E+00  0.00000000E+00
  0.00000000E+00  0.00000000E+00  0.00000000E+00
  0.00000000E+00  0.00000000E+00  0.00000000E+00
  0.00000000E+00  0.00000000E+00  0.00000000E+00
  0.00000000E+00  0.00000000E+00  0.00000000E+00
  0.00000000E+00  0.00000000E+00  0.00000000E+00
  0.00000000E+00  0.00000000E+00  0.00000000E+00
  0.00000000E+00  0.00000000E+00  0.00000000E+00
  0.00000000E+00  0.00000000E+00  0.00000000E+00
  0.00000000E+00  0.00000000E+00  0.00000000E+00
  0.00000000E+00  0.00000000E+00  0.00000000E+00
  0.00000000E+00  0.00000000E+00  0.00000000E+00
  0.00000000E+00  0.00000000E+00  0.00000000E+00
  0.00000000E+00  0.00000000E+00  0.00000000E+00
  0.00000000E+00  0.00000000E+00  0.00000000E+00
  0.00000000E+00  0.00000000E+00  0.00000000E+00
  0.00000000E+00  0.00000000E+00  0.00000000E+00
  0.00000000E+00  0.00000000E+00  0.00000000E+00
  0.00000000E+00  0.00000000E+00  0.00000000E+00
  0.00000000E+00  0.00000000E+00  0.00000000E+00
  0.00000000E+00  0.00000000E+00  0.00000000E+00
  0.00000000E+00  0.00000000E+00  0.00000000E+00
  0.00000000E+00  0.00000000E+00  0.00000000E+00
  0.00000000E+00  0.00000000E+00  0.00000000E+00
  0.00000000E+00  0.00000000E+00  0.00000000E+00
  0.00000000E+00  0.00000000E+00  0.00000000E+00
  0.00000000E+00  0.00000000E+00  0.00000000E+00
  0.00000000E+00  0.00000000E+00  0.00000000E+00
  0.00000000E+00  0.00000000E+00  0.00000000E+00
  0.00000000E+00  0.00000000E+00  0.00000000E+00
  0.00000000E+00  0.00000000E+00  0.00000000E+00
