Sn+Ge
    1.000000000
   12.978400230    0.000000000    0.000000000
  -12.978400230   14.510293007    0.000000000
    0.000000000    0.000000000    9.190411568
Sn  Ge 
24     24
Direct
    0.979564309    0.030653533    0.000000009
    0.779564261    0.330653578    0.157885149
    0.579564154    0.630653620    0.315770298
    0.479564250    0.030653533    0.000000009
    0.279564202    0.330653578    0.157885149
    0.079564132    0.630653620    0.315770298
    0.254564315    0.680653512    0.078942418
    0.054564159    0.980653465    0.236827582
    0.854564130    0.280653596    0.394712687
    0.754564404    0.680653512    0.078942418
    0.554564238    0.980653465    0.236827582
    0.354564160    0.280653596    0.394712687
    0.229564279    0.530653477    0.000000000
    0.029564191    0.830653489    0.157885149
    0.829564035    0.130653620    0.315770298
    0.729564190    0.530653477    0.000000000
    0.529564142    0.830653489    0.157885149
    0.329564035    0.130653620    0.315770298
    0.004564330    0.180653512    0.078942426
    0.804564178    0.480653584    0.236827582
    0.604564250    0.780653656    0.394712687
    0.504564285    0.180653512    0.078942426
    0.304564178    0.480653584    0.236827582
    0.104564168    0.780653656    0.394712687
    0.345100284    0.413906813    0.556860566
    0.228433609    0.997240007    0.613058805
    0.111766815    0.580573261    0.669257224
    0.995099962    0.163906574    0.725455582
    0.878433287    0.747239888    0.781653762
    0.761766434    0.330572844    0.837852120
    0.845100284    0.663906693    0.556860566
    0.728433490    0.247239947    0.613058805
    0.611766756    0.830573261    0.669257224
    0.495099962    0.413906574    0.725455403
    0.378433228    0.997239769    0.781653702
    0.261766553    0.580572903    0.837852001
    0.845100284    0.913906693    0.556860626
    0.728433490    0.497240067    0.613058925
    0.611766696    0.080573320    0.669257224
    0.495099992    0.663906455    0.725455523
    0.378433287    0.247239828    0.781653762
    0.261766434    0.830572784    0.837852120
    0.345100164    0.163906813    0.556860626
    0.228433490    0.747239947    0.613058925
    0.111766815    0.330573201    0.669257224
    0.995099962    0.913906455    0.725455523
    0.878433228    0.497239828    0.781653821
    0.761766434    0.080572844    0.837852120
