Sn+Ge
    1.000000000
   19.467599869    0.000000000    0.000000000
   -6.489200115   18.354230881    0.000000000
    0.000000000    0.000000000   21.473068237
Sn  Ge 
144     192
Direct
    0.991010249    0.985017061    0.000000005
    0.866010249    0.776683688    0.106844470
    0.741010189    0.568350196    0.213688999
    0.616010189    0.360016763    0.320533454
    0.491010129    0.151683390    0.427377939
    0.366010129    0.943349957    0.534222484
    0.991010249    0.318350405    0.000000005
    0.866010249    0.110017046    0.106844470
    0.741010189    0.901683569    0.213688999
    0.616010189    0.693350196    0.320533454
    0.491010129    0.485016763    0.427377939
    0.366010129    0.276683390    0.534222484
    0.991010249    0.651683807    0.000000005
    0.866010249    0.443350375    0.106844470
    0.741010189    0.235016942    0.213688999
    0.616010189    0.026683522    0.320533454
    0.491010129    0.818350136    0.427377939
    0.366010129    0.610016704    0.534222484
    0.491010249    0.151683748    0.000000009
    0.366010249    0.943350375    0.106844470
    0.241010204    0.735016942    0.213688985
    0.116010167    0.526683450    0.320533454
    0.991010189    0.318350077    0.427377939
    0.866010129    0.110016644    0.534222424
    0.491010249    0.485017061    0.000000009
    0.366010249    0.276683688    0.106844470
    0.241010204    0.068350248    0.213688985
    0.116010167    0.860016823    0.320533454
    0.991010189    0.651683450    0.427377939
    0.866010129    0.443350077    0.534222424
    0.491010249    0.818350375    0.000000009
    0.366010249    0.610017002    0.106844470
    0.241010204    0.401683569    0.213688985
    0.116010167    0.193350136    0.320533454
    0.991010189    0.985016763    0.427377939
    0.866010129    0.776683331    0.534222424
    0.241010249    0.068350412    0.000000003
    0.116010241    0.860017061    0.106844470
    0.991010189    0.651683569    0.213688985
    0.866010189    0.443350077    0.320533454
    0.741010189    0.235016763    0.427377939
    0.616010129    0.026683331    0.534222484
    0.241010249    0.401683748    0.000000003
    0.116010241    0.193350390    0.106844470
    0.991010189    0.985016942    0.213688985
    0.866010189    0.776683509    0.320533454
    0.741010189    0.568350077    0.427377939
    0.616010129    0.360016704    0.534222484
    0.241010249    0.735017121    0.000000003
    0.116010241    0.526683748    0.106844470
    0.991010189    0.318350255    0.213688985
    0.866010189    0.110016860    0.320533454
    0.741010189    0.901683509    0.427377939
    0.616010129    0.693350077    0.534222484
    0.741010249    0.235017091    0.000000009
    0.616010249    0.026683707    0.106844492
    0.491010219    0.818350196    0.213688999
    0.366010159    0.610016763    0.320533484
    0.241010159    0.401683450    0.427377969
    0.116010115    0.193350017    0.534222484
    0.741010249    0.568350375    0.000000009
    0.616010249    0.360017031    0.106844492
    0.491010219    0.151683584    0.213688999
    0.366010159    0.943350136    0.320533484
    0.241010159    0.735016763    0.427377969
    0.116010115    0.526683331    0.534222484
    0.741010249    0.901683807    0.000000009
    0.616010249    0.693350375    0.106844492
    0.491010219    0.485016942    0.213688999
    0.366010159    0.276683509    0.320533484
    0.241010159    0.068350151    0.427377969
    0.116010115    0.860016704    0.534222484
    0.366010249    0.026683766    0.000000019
    0.241010234    0.818350375    0.106844485
    0.116010197    0.610016942    0.213688999
    0.991010129    0.401683509    0.320533484
    0.866010129    0.193350136    0.427377969
    0.741010129    0.985016704    0.534222484
    0.366010249    0.360017091    0.000000019
    0.241010234    0.151683733    0.106844485
    0.116010197    0.943350315    0.213688999
    0.991010129    0.735016823    0.320533484
    0.866010129    0.526683450    0.427377969
    0.741010129    0.318350077    0.534222484
    0.366010249    0.693350494    0.000000019
    0.241010234    0.485017091    0.106844485
    0.116010197    0.276683658    0.213688999
    0.991010129    0.068350218    0.320533484
    0.866010129    0.860016823    0.427377969
    0.741010129    0.651683390    0.534222484
    0.866010308    0.193350419    0.000000000
    0.741010308    0.985017061    0.106844485
    0.616010249    0.776683569    0.213688999
    0.491010189    0.568350196    0.320533484
    0.366010189    0.360016763    0.427377969
    0.241010144    0.151683331    0.534222484
    0.866010308    0.526683807    0.000000000
    0.741010308    0.318350405    0.106844485
    0.616010249    0.110016957    0.213688999
    0.491010189    0.901683569    0.320533484
    0.366010189    0.693350196    0.427377969
    0.241010144    0.485016704    0.534222484
    0.866010308    0.860017121    0.000000000
    0.741010308    0.651683688    0.106844485
    0.616010249    0.443350285    0.213688999
    0.491010189    0.235016838    0.320533484
    0.366010189    0.026683476    0.427377969
    0.241010144    0.818350077    0.534222484
    0.116010249    0.276683748    0.000000004
    0.991010249    0.068350360    0.106844485
    0.866010189    0.860016942    0.213688999
    0.741010129    0.651683450    0.320533484
    0.616010189    0.443350077    0.427377939
    0.491010129    0.235016644    0.534222484
    0.116010249    0.610017121    0.000000004
    0.991010249    0.401683718    0.106844485
    0.866010189    0.193350270    0.213688999
    0.741010129    0.985016823    0.320533484
    0.616010189    0.776683450    0.427377939
    0.491010129    0.568350017    0.534222484
    0.116010249    0.943350375    0.000000004
    0.991010249    0.735016942    0.106844485
    0.866010189    0.526683509    0.213688999
    0.741010129    0.318350136    0.320533484
    0.616010189    0.110016756    0.427377939
    0.491010129    0.901683331    0.534222484
    0.616010249    0.110017069    0.000000016
    0.491010249    0.901683688    0.106844485
    0.366010189    0.693350196    0.213688999
    0.241010159    0.485016763    0.320533484
    0.116010159    0.276683450    0.427377969
    0.991010129    0.068350017    0.534222484
    0.616010249    0.443350375    0.000000016
    0.491010249    0.235017002    0.106844485
    0.366010189    0.026683571    0.213688999
    0.241010159    0.818350136    0.320533484
    0.116010159    0.610016704    0.427377969
    0.991010129    0.401683331    0.534222484
    0.616010249    0.776683748    0.000000016
    0.491010249    0.568350375    0.106844485
    0.366010189    0.360016853    0.213688999
    0.241010159    0.151683450    0.320533484
    0.116010159    0.943350077    0.427377969
    0.991010129    0.735016644    0.534222484
    0.234533846    0.744844615    0.534222484
    0.047033850    0.682344615    0.627377927
    0.859533787    0.619844615    0.720533609
    0.672033846    0.557344615    0.813689053
    0.484533906    0.494844615    0.906844556
    0.297033846    0.432344645    1.000000000
    0.984533846    0.494844645    0.534222484
    0.797033846    0.432344615    0.627377927
    0.609533787    0.369844615    0.720533609
    0.422033846    0.307344615    0.813689053
    0.234533906    0.244844630    0.906844556
    0.047033846    0.182344645    1.000000000
    0.734533846    0.744844615    0.534222484
    0.547033846    0.682344615    0.627378047
    0.359533787    0.619844615    0.720533550
    0.172033831    0.557344615    0.813689053
    0.984533846    0.494844645    0.906844556
    0.797033846    0.432344615    1.000000000
    0.484533846    0.494844615    0.534222484
    0.297033846    0.432344615    0.627378047
    0.109533817    0.369844615    0.720533550
    0.922033846    0.307344615    0.813689053
    0.734533906    0.244844615    0.906844497
    0.547033846    0.182344615    1.000000000
    0.234533861    0.244844630    0.534222484
    0.047033854    0.182344630    0.627378047
    0.859533787    0.119844601    0.720533550
    0.672033906    0.057344597    0.813689053
    0.484533906    0.994844615    0.906844497
    0.297033846    0.932344615    1.000000000
    0.984533846    0.994844615    0.534222484
    0.797033846    0.932344615    0.627378047
    0.609533787    0.869844615    0.720533550
    0.422033846    0.807344615    0.813689053
    0.234533906    0.744844675    0.906844497
    0.047033846    0.682344615    1.000000000
    0.734533846    0.244844615    0.534222484
    0.547033846    0.182344645    0.627377927
    0.359533817    0.119844623    0.720533550
    0.172033846    0.057344630    0.813689053
    0.984533846    0.994844615    0.906844556
    0.797033846    0.932344615    1.000000000
    0.484533876    0.994844615    0.534222484
    0.297033876    0.932344615    0.627377927
    0.109533831    0.869844615    0.720533550
    0.922033846    0.807344615    0.813689053
    0.734533906    0.744844675    0.906844556
    0.547033846    0.682344615    1.000000000
    0.109533846    0.869844615    0.534222484
    0.922033846    0.807344615    0.627377927
    0.734533787    0.744844615    0.720533550
    0.547033846    0.682344615    0.813688993
    0.359533906    0.619844615    0.906844497
    0.172033846    0.557344615    1.000000000
    0.609533846    0.869844615    0.534222484
    0.422033846    0.807344615    0.627378047
    0.234533802    0.744844556    0.720533609
    0.047033843    0.682344615    0.813689053
    0.859533906    0.619844615    0.906844556
    0.672033846    0.557344556    1.000000000
    0.359533846    0.619844615    0.534222484
    0.172033831    0.557344615    0.627378047
    0.984533787    0.494844645    0.720533550
    0.797033846    0.432344615    0.813689053
    0.609533906    0.369844615    0.906844497
    0.422033846    0.307344615    1.000000000
    0.109533854    0.369844645    0.534222484
    0.922033846    0.307344615    0.627378047
    0.734533787    0.244844615    0.720533550
    0.547033846    0.182344615    0.813689053
    0.359533906    0.119844623    0.906844556
    0.172033846    0.057344612    1.000000000
    0.859533846    0.619844615    0.534222484
    0.672033846    0.557344615    0.627378047
    0.484533846    0.494844586    0.720533550
    0.297033876    0.432344586    0.813689053
    0.109533899    0.369844586    0.906844497
    0.922033846    0.307344586    1.000000000
    0.609533846    0.369844615    0.534222484
    0.422033846    0.307344615    0.627378047
    0.234533846    0.244844586    0.720533550
    0.047033876    0.182344601    0.813689053
    0.859533906    0.119844601    0.906844497
    0.672033906    0.057344589    1.000000000
    0.359533846    0.119844638    0.534222484
    0.172033861    0.057344627    0.627378047
    0.984533787    0.994844615    0.720533550
    0.797033846    0.932344615    0.813689053
    0.609533906    0.869844675    0.906844556
    0.422033846    0.807344615    1.000000000
    0.859533846    0.119844563    0.534222484
    0.672033846    0.057344586    0.627378047
    0.484533846    0.994844556    0.720533550
    0.297033906    0.932344556    0.813689053
    0.109533928    0.869844556    0.906844616
    0.922033906    0.807344556    1.000000000
    0.234533846    0.869844615    0.534222484
    0.047033835    0.807344615    0.627378047
    0.859533787    0.744844615    0.720533550
    0.672033787    0.682344615    0.813689053
    0.484533846    0.619844615    0.906844497
    0.297033787    0.557344615    1.000000000
    0.984533846    0.619844615    0.534222484
    0.797033846    0.557344615    0.627378047
    0.609533787    0.494844615    0.720533550
    0.422033846    0.432344615    0.813689053
    0.234533906    0.369844645    0.906844497
    0.047033846    0.307344645    1.000000000
    0.734533846    0.869844615    0.534222484
    0.547033787    0.807344556    0.627378047
    0.359533757    0.744844556    0.720533550
    0.172033831    0.682344615    0.813689053
    0.984533846    0.619844615    0.906844556
    0.797033846    0.557344615    1.000000000
    0.484533846    0.619844615    0.534222484
    0.297033846    0.557344615    0.627377927
    0.109533802    0.494844615    0.720533550
    0.922033787    0.432344615    0.813689053
    0.734533906    0.369844615    0.906844556
    0.547033846    0.307344586    1.000000000
    0.234533846    0.369844615    0.534222484
    0.047033846    0.307344615    0.627377927
    0.859533787    0.244844615    0.720533550
    0.672033846    0.182344630    0.813689053
    0.484533906    0.119844630    0.906844556
    0.297033846    0.057344619    1.000000000
    0.984533846    0.119844615    0.534222484
    0.797033846    0.057344612    0.627377927
    0.609533787    0.994844615    0.720533550
    0.422033846    0.932344615    0.813689053
    0.234533906    0.869844675    0.906844556
    0.047033846    0.807344615    1.000000000
    0.734533846    0.369844615    0.534222484
    0.547033846    0.307344615    0.627378047
    0.359533817    0.244844586    0.720533609
    0.172033831    0.182344601    0.813689053
    0.984533846    0.119844608    0.906844556
    0.797033846    0.057344597    1.000000000
    0.484533846    0.119844615    0.534222484
    0.297033846    0.057344615    0.627378047
    0.109533831    0.994844615    0.720533609
    0.922033846    0.932344615    0.813689053
    0.734533906    0.869844675    0.906844556
    0.547033846    0.807344615    1.000000000
    0.359533846    0.744844615    0.534222484
    0.172033846    0.682344615    0.627378047
    0.984533846    0.619844615    0.720533550
    0.797033846    0.557344556    0.813689053
    0.609533906    0.494844586    0.906844497
    0.422033846    0.432344586    1.000000000
    0.109533846    0.494844615    0.534222484
    0.922033846    0.432344615    0.627378047
    0.734533846    0.369844615    0.720533550
    0.547033906    0.307344615    0.813689053
    0.359533906    0.244844615    0.906844497
    0.172033846    0.182344586    1.000000000
    0.859533906    0.744844675    0.534222484
    0.672033906    0.682344675    0.627378047
    0.484533906    0.619844675    0.720533550
    0.297033936    0.557344615    0.813689053
    0.109533973    0.494844675    0.906844556
    0.922033906    0.432344645    1.000000000
    0.609533906    0.494844675    0.534222484
    0.422033876    0.432344645    0.627378047
    0.234533831    0.369844615    0.720533550
    0.047033872    0.307344615    0.813689053
    0.859533906    0.244844645    0.906844556
    0.672033906    0.182344630    1.000000000
    0.359533846    0.244844615    0.534222484
    0.172033846    0.182344615    0.627378047
    0.984533846    0.119844623    0.720533550
    0.797033846    0.057344619    0.813689053
    0.609533906    0.994844615    0.906844556
    0.422033846    0.932344615    1.000000000
    0.109533839    0.994844615    0.534222484
    0.922033846    0.932344615    0.627378047
    0.734533787    0.869844615    0.720533550
    0.547033846    0.807344615    0.813689053
    0.359533906    0.744844675    0.906844556
    0.172033846    0.682344615    1.000000000
    0.859533906    0.244844675    0.534222484
    0.672033906    0.182344645    0.627378047
    0.484533876    0.119844608    0.720533550
    0.297033876    0.057344612    0.813689053
    0.109533936    0.994844615    0.906844556
    0.922033906    0.932344615    1.000000000
    0.609533846    0.994844615    0.534222484
    0.422033846    0.932344615    0.627378047
    0.234533846    0.869844556    0.720533550
    0.047033872    0.807344615    0.813689053
    0.859533906    0.744844615    0.906844556
    0.672033906    0.682344556    1.000000000
