Sn+Sn                                   
   1.00000000000000     
     9.1771144870000008    0.0000000000000000    0.0000000000000000
     4.5885577199999998   13.7656726840000001    0.0000000000000000
     0.0000000000000000    0.0000000000000000   10.8153352740000006
   Sn
    48
Direct
  0.6617017980000028  0.6617017980000028  0.0000000000000000
  0.4950350519999986  0.4950350820000011  0.2999999520000003
  0.3283683359999969  0.3283684550000032  0.5999997850000014
  0.3283684550000032  0.3283684250000007  0.0000000000000000
  0.1617016940000013  0.1617017539999992  0.2999999520000003
  0.9950349929999973  0.9950351119999965  0.5999997850000014
  0.9950351119999965  0.9950351119999965  0.0000000000000000
  0.8283683060000016  0.8283684250000007  0.2999999520000003
  0.6617016200000023  0.6617017980000028  0.5999997850000014
  0.4117018279999982  0.6617017980000028  0.1499999460000012
  0.2450351119999965  0.4950351119999965  0.4499998690000027
  0.0783682989999974  0.3283683960000019  0.7499997620000016
  0.7450350519999986  0.9950350519999986  0.1499999460000012
  0.5783683659999994  0.8283684250000007  0.4499998690000027
  0.4117016200000023  0.6617016789999965  0.7499997620000016
  0.0783684250000007  0.3283683960000019  0.1499999460000012
  0.9117017390000015  0.1617017689999969  0.4499998690000027
  0.7450349329999995  0.9950350519999986  0.7499997620000016
  0.8283684849999986  0.3283684550000032  0.0000000000000000
  0.6617016789999965  0.1617017390000015  0.2999999520000003
  0.4950349929999973  0.9950351119999965  0.5999997850000014
  0.1617017980000028  0.6617017980000028  0.0000000000000000
  0.9950349929999973  0.4950350820000011  0.2999999520000003
  0.8283683060000016  0.3283684550000032  0.5999997850000014
  0.4950350519999986  0.9950351119999965  0.0000000000000000
  0.3283683359999969  0.8283684250000007  0.2999999520000003
  0.1617015899999998  0.6617017390000015  0.5999997850000014
  0.9117018580000007  0.6617017390000015  0.1499999460000012
  0.7450351720000015  0.4950350820000011  0.4499998690000027
  0.5783683060000016  0.3283683359999969  0.7499997620000016
  0.5783684250000007  0.3283684550000032  0.1499999460000012
  0.4117017390000015  0.1617017840000017  0.4499998690000027
  0.2450349329999995  0.9950350519999986  0.7499997620000016
  0.2450350670000034  0.9950351119999965  0.1499999460000012
  0.0783683510000017  0.8283684250000007  0.4499998690000027
  0.9117015599999974  0.6617016789999965  0.7499997620000016
  0.9893847700000009  0.9734618660000010  0.7499997620000016
  0.8782735469999992  0.6956839560000034  0.8499997850000014
  0.7671623829999987  0.4179061059999967  0.9499998089999977
  0.4893847700000009  0.9734618660000010  0.7499997620000016
  0.3782735759999980  0.6956839560000034  0.8499997850000014
  0.2671624119999976  0.4179061059999967  0.9499998089999977
  0.6838291879999971  0.0845729560000024  0.7999998330000011
  0.5727180239999967  0.8067950610000025  0.8999998569999974
  0.4616067709999996  0.5290171500000014  0.9999998810000008
  0.1838291729999995  0.0845729560000024  0.7999998330000011
  0.0727179800000002  0.8067951199999968  0.8999998569999974
  0.9616067409999971  0.5290170910000001  0.9999998810000008
 
  0.00000000E+00  0.00000000E+00  0.00000000E+00
  0.00000000E+00  0.00000000E+00  0.00000000E+00
  0.00000000E+00  0.00000000E+00  0.00000000E+00
  0.00000000E+00  0.00000000E+00  0.00000000E+00
  0.00000000E+00  0.00000000E+00  0.00000000E+00
  0.00000000E+00  0.00000000E+00  0.00000000E+00
  0.00000000E+00  0.00000000E+00  0.00000000E+00
  0.00000000E+00  0.00000000E+00  0.00000000E+00
  0.00000000E+00  0.00000000E+00  0.00000000E+00
  0.00000000E+00  0.00000000E+00  0.00000000E+00
  0.00000000E+00  0.00000000E+00  0.00000000E+00
  0.00000000E+00  0.00000000E+00  0.00000000E+00
  0.00000000E+00  0.00000000E+00  0.00000000E+00
  0.00000000E+00  0.00000000E+00  0.00000000E+00
  0.00000000E+00  0.00000000E+00  0.00000000E+00
  0.00000000E+00  0.00000000E+00  0.00000000E+00
  0.00000000E+00  0.00000000E+00  0.00000000E+00
  0.00000000E+00  0.00000000E+00  0.00000000E+00
  0.00000000E+00  0.00000000E+00  0.00000000E+00
  0.00000000E+00  0.00000000E+00  0.00000000E+00
  0.00000000E+00  0.00000000E+00  0.00000000E+00
  0.00000000E+00  0.00000000E+00  0.00000000E+00
  0.00000000E+00  0.00000000E+00  0.00000000E+00
  0.00000000E+00  0.00000000E+00  0.00000000E+00
  0.00000000E+00  0.00000000E+00  0.00000000E+00
  0.00000000E+00  0.00000000E+00  0.00000000E+00
  0.00000000E+00  0.00000000E+00  0.00000000E+00
  0.00000000E+00  0.00000000E+00  0.00000000E+00
  0.00000000E+00  0.00000000E+00  0.00000000E+00
  0.00000000E+00  0.00000000E+00  0.00000000E+00
  0.00000000E+00  0.00000000E+00  0.00000000E+00
  0.00000000E+00  0.00000000E+00  0.00000000E+00
  0.00000000E+00  0.00000000E+00  0.00000000E+00
  0.00000000E+00  0.00000000E+00  0.00000000E+00
  0.00000000E+00  0.00000000E+00  0.00000000E+00
  0.00000000E+00  0.00000000E+00  0.00000000E+00
  0.00000000E+00  0.00000000E+00  0.00000000E+00
  0.00000000E+00  0.00000000E+00  0.00000000E+00
  0.00000000E+00  0.00000000E+00  0.00000000E+00
  0.00000000E+00  0.00000000E+00  0.00000000E+00
  0.00000000E+00  0.00000000E+00  0.00000000E+00
  0.00000000E+00  0.00000000E+00  0.00000000E+00
  0.00000000E+00  0.00000000E+00  0.00000000E+00
  0.00000000E+00  0.00000000E+00  0.00000000E+00
  0.00000000E+00  0.00000000E+00  0.00000000E+00
  0.00000000E+00  0.00000000E+00  0.00000000E+00
  0.00000000E+00  0.00000000E+00  0.00000000E+00
  0.00000000E+00  0.00000000E+00  0.00000000E+00
