Ge+Sn                                   
   1.00000000000000     
    16.0026760099999983    0.0000000000000000    0.0000000000000000
     8.0013380049999991   13.8587245939999999    0.0000000000000000
     0.0000000000000000    0.0000000000000000   15.7794208529999995
   Ge   Sn
    96    72
Direct
  0.3108832240000012  0.3108831640000034  0.4140244720000013
  0.9775500300000033  0.9775500300000033  0.0000000329999992
  0.6442165369999984  0.6442165970000033  0.2070122809999972
  0.8108831640000034  0.3108831640000034  0.4140244720000013
  0.4775500000000008  0.9775500300000033  0.0000000430000000
  0.1442165819999985  0.6442165970000033  0.2070122809999972
  0.3108831640000034  0.8108831640000034  0.4140244720000013
  0.9775500300000033  0.4775500000000008  0.0000000400000033
  0.6442165970000033  0.1442165819999985  0.2070122809999972
  0.8108831640000034  0.8108831640000034  0.4140244720000013
  0.4775500000000008  0.4775500000000008  0.0000000000000000
  0.1442165670000009  0.1442165670000009  0.2070122359999971
  0.4775497910000013  0.4775497319999999  0.4657776060000032
  0.1442166860000000  0.1442166120000010  0.0517531070000032
  0.8108832839999991  0.8108832240000012  0.2587653100000011
  0.9775497910000013  0.4775496720000021  0.4657776060000032
  0.6442166570000012  0.1442166269999987  0.0517531070000032
  0.3108832839999991  0.8108832240000012  0.2587653100000011
  0.4775496720000021  0.9775497910000013  0.4657776060000032
  0.1442166269999987  0.6442166570000012  0.0517531070000032
  0.8108832240000012  0.3108832839999991  0.2587653100000011
  0.9775496720000021  0.9775497910000013  0.4657775760000007
  0.6442165970000033  0.6442166570000012  0.0517531070000032
  0.3108831640000034  0.3108832539999966  0.2587652799999987
  0.5608831640000034  0.5608831640000034  0.4140245019999966
  0.2275500149999985  0.2275500149999985  0.0000000450000002
  0.8942165970000033  0.8942165970000033  0.2070122359999971
  0.0608832129999968  0.5608831640000034  0.4140245620000016
  0.7275500300000033  0.2275500450000010  0.0000000450000002
  0.3942165970000033  0.8942165970000033  0.2070122809999972
  0.5608831640000034  0.0608831759999973  0.4140244720000013
  0.2275500149999985  0.7275499699999983  0.0000000149999977
  0.8942165369999984  0.3942165970000033  0.2070122359999971
  0.0608831899999984  0.0608831050000020  0.4140244720000013
  0.7275500300000033  0.7275499109999970  0.0000000289999988
  0.3942166269999987  0.3942165670000009  0.2070122809999972
  0.7275497910000013  0.7275497910000013  0.4657775160000028
  0.3942166269999987  0.3942166269999987  0.0517530260000001
  0.0608831939999988  0.0608831899999984  0.2587652799999987
  0.2275497910000013  0.7275497910000013  0.4657775160000028
  0.8942165970000033  0.3942166269999987  0.0517530520000022
  0.5608831640000034  0.0608831899999984  0.2587652799999987
  0.7275497910000013  0.2275498509999991  0.4657775160000028
  0.3942166269999987  0.8942166570000012  0.0517530520000022
  0.0608832019999994  0.5608832839999991  0.2587652799999987
  0.2275498509999991  0.2275498509999991  0.4657775160000028
  0.8942167160000025  0.8942166570000012  0.0517530369999974
  0.5608832839999991  0.5608832839999991  0.2587652799999987
  0.3108831640000034  0.5608831640000034  0.4140244720000013
  0.9775500300000033  0.2275500149999985  0.0000000249999985
  0.6442165369999984  0.8942165970000033  0.2070122809999972
  0.8108831640000034  0.5608831640000034  0.4140245019999966
  0.4775500300000033  0.2275500149999985  0.0000000349999993
  0.1442165970000033  0.8942165970000033  0.2070122809999972
  0.3108831640000034  0.0608831759999973  0.4140244720000013
  0.9775500300000033  0.7275499699999983  0.0000000349999993
  0.6442165970000033  0.3942165970000033  0.2070122809999972
  0.8108831640000034  0.0608830899999973  0.4140244720000013
  0.4775500000000008  0.7275499109999970  0.0000000289999988
  0.1442166120000010  0.3942165369999984  0.2070122359999971
  0.4775497910000013  0.7275497910000013  0.4657775160000028
  0.1442166120000010  0.3942165970000033  0.0517530520000022
  0.8108831640000034  0.0608831899999984  0.2587652799999987
  0.9775497319999999  0.7275497910000013  0.4657775160000028
  0.6442165970000033  0.3942166269999987  0.0517530520000022
  0.3108831640000034  0.0608831899999984  0.2587652799999987
  0.4775497319999999  0.2275498509999991  0.4657774570000015
  0.1442166269999987  0.8942166570000012  0.0517530369999974
  0.8108831640000034  0.5608832839999991  0.2587652799999987
  0.9775497910000013  0.2275498509999991  0.4657774570000015
  0.6442166570000012  0.8942166570000012  0.0517530260000001
  0.3108832240000012  0.5608832839999991  0.2587652799999987
  0.5608831050000020  0.3108831640000034  0.4140244720000013
  0.2275500149999985  0.9775500300000033  0.0000000280000023
  0.8942165970000033  0.6442165970000033  0.2070122809999972
  0.0608831830000014  0.3108831640000034  0.4140245019999966
  0.7275499699999983  0.9775500300000033  0.0000000380000031
  0.3942166269999987  0.6442165970000033  0.2070122809999972
  0.5608831640000034  0.8108831640000034  0.4140245019999966
  0.2275500000000008  0.4775500000000008  0.0000000400000033
  0.8942165970000033  0.1442165819999985  0.2070122809999972
  0.0608831790000011  0.8108831050000020  0.4140244720000013
  0.7275499699999983  0.4775499400000029  0.0000000180000015
  0.3942165970000033  0.1442165369999984  0.2070122359999971
  0.7275497910000013  0.4775498509999991  0.4657776060000032
  0.3942166860000000  0.1442167160000025  0.0517530890000018
  0.0608832839999991  0.8108833430000004  0.2587653100000011
  0.2275496720000021  0.4775498509999991  0.4657776060000032
  0.8942166570000012  0.1442167310000002  0.0517530959999988
  0.5608832839999991  0.8108833430000004  0.2587652799999987
  0.7275497910000013  0.9775498509999991  0.4657775760000007
  0.3942166860000000  0.6442167160000025  0.0517531070000032
  0.0608832759999984  0.3108833730000029  0.2587653100000011
  0.2275497319999999  0.9775497910000013  0.4657776060000032
  0.8942166570000012  0.6442166570000012  0.0517530890000018
  0.5608832839999991  0.3108832839999991  0.2587652799999987
  0.6790759559999984  0.6666667459999971  0.4657776649999974
  0.0124093290000005  0.6666667459999971  0.7032097579999999
  0.3457427020000026  0.6666667459999971  0.9406418800000012
  0.3457425530000009  0.3333333730000021  0.4657776060000032
  0.6790759559999984  0.3333333730000021  0.7032097579999999
  0.0124093290000005  0.3333333730000021  0.9406418800000012
  0.0124091730000018  0.0000000000000000  0.4657776649999974
  0.3457425530000009  0.0000000000000000  0.7032097579999999
  0.6790759559999984  0.0000000000000000  0.9406418800000012
  0.0124092100000013  0.6666667459999971  0.5251356360000017
  0.3457427020000026  0.6666667459999971  0.7625678779999987
  0.6790759559999984  0.6666667459999971  0.9999998810000008
  0.6790759559999984  0.3333333730000021  0.5251357559999974
  0.0124093290000005  0.3333333730000021  0.7625678779999987
  0.3457427020000026  0.3333333730000021  0.9999998810000008
  0.3457425530000009  0.0000000000000000  0.5251356360000017
  0.6790758969999970  0.0000000000000000  0.7625678779999987
  0.0124092100000013  0.0000000000000000  0.0000000000000000
  0.3457425530000009  0.8333333730000021  0.4657776649999974
  0.6790758369999992  0.8333333730000021  0.7032097579999999
  0.0124093290000005  0.8333333730000021  0.9406418800000012
  0.0124091770000021  0.5000000000000000  0.4657776649999974
  0.3457425830000034  0.5000000000000000  0.7032098769999990
  0.6790759559999984  0.5000000599999979  0.9406418800000012
  0.6790759559999984  0.1666666870000029  0.4657776649999974
  0.0124093290000005  0.1666666870000029  0.7032097579999999
  0.3457425830000034  0.1666667009999969  0.9406418800000012
  0.6790758969999970  0.8333333730000021  0.5251356360000017
  0.0124092100000013  0.8333333730000021  0.7625678779999987
  0.3457425830000034  0.8333333730000021  0.0000000000000000
  0.3457425530000009  0.5000000000000000  0.5251356360000017
  0.6790758969999970  0.5000000000000000  0.7625677589999995
  0.0124094490000033  0.5000000000000000  0.0000000000000000
  0.0124092100000013  0.1666666870000029  0.5251356360000017
  0.3457424639999971  0.1666666870000029  0.7625676389999967
  0.6790759559999984  0.1666666870000029  0.0000000000000000
  0.1790758819999994  0.6666667459999971  0.4657776649999974
  0.5124092699999991  0.6666667459999971  0.7032098769999990
  0.8457426430000012  0.6666667459999971  0.9406418800000012
  0.8457426430000012  0.3333333730000021  0.4657776649999974
  0.1790760760000012  0.3333333730000021  0.7032097579999999
  0.5124093290000005  0.3333333730000021  0.9406418800000012
  0.5124092100000013  0.0000000000000000  0.4657776060000032
  0.8457425830000034  0.0000000000000000  0.7032097579999999
  0.1790759559999984  0.0000000000000000  0.9406418800000012
  0.5124092100000013  0.6666667459999971  0.5251355170000025
  0.8457425240000020  0.6666667459999971  0.7625676389999967
  0.1790759559999984  0.6666667459999971  0.0000000000000000
  0.1790758220000015  0.3333333429999996  0.5251356360000017
  0.5124092100000013  0.3333333730000021  0.7625677589999995
  0.8457425830000034  0.3333333730000021  0.0000000000000000
  0.8457425830000034  0.0000000000000000  0.5251356360000017
  0.1790759559999984  0.0000000000000000  0.7625677589999995
  0.5124094490000033  0.0000000000000000  0.9999998810000008
  0.8457425240000020  0.8333334330000000  0.4657776060000032
  0.1790759559999984  0.8333334330000000  0.7032097579999999
  0.5124093290000005  0.8333334330000000  0.9406418800000012
  0.5124092100000013  0.5000000000000000  0.4657776649999974
  0.8457425240000020  0.5000000000000000  0.7032097579999999
  0.1790759559999984  0.5000000000000000  0.9406418800000012
  0.1790758670000017  0.1666666870000029  0.4657776649999974
  0.5124092699999991  0.1666666870000029  0.7032097579999999
  0.8457426430000012  0.1666666870000029  0.9406418800000012
  0.1790757480000025  0.8333334330000000  0.5251357559999974
  0.5124091510000000  0.8333334330000000  0.7625678779999987
  0.8457424039999992  0.8333334330000000  0.0000000000000000
  0.8457425240000020  0.5000000599999979  0.5251357559999974
  0.1790759559999984  0.5000000599999979  0.7625678779999987
  0.5124093290000005  0.5000000599999979  0.0000000000000000
  0.5124092100000013  0.1666666570000004  0.5251357559999974
  0.8457425240000020  0.1666666719999981  0.7625678779999987
  0.1790758369999992  0.1666666719999981  0.0000000000000000
 
  0.00000000E+00  0.00000000E+00  0.00000000E+00
  0.00000000E+00  0.00000000E+00  0.00000000E+00
  0.00000000E+00  0.00000000E+00  0.00000000E+00
  0.00000000E+00  0.00000000E+00  0.00000000E+00
  0.00000000E+00  0.00000000E+00  0.00000000E+00
  0.00000000E+00  0.00000000E+00  0.00000000E+00
  0.00000000E+00  0.00000000E+00  0.00000000E+00
  0.00000000E+00  0.00000000E+00  0.00000000E+00
  0.00000000E+00  0.00000000E+00  0.00000000E+00
  0.00000000E+00  0.00000000E+00  0.00000000E+00
  0.00000000E+00  0.00000000E+00  0.00000000E+00
  0.00000000E+00  0.00000000E+00  0.00000000E+00
  0.00000000E+00  0.00000000E+00  0.00000000E+00
  0.00000000E+00  0.00000000E+00  0.00000000E+00
  0.00000000E+00  0.00000000E+00  0.00000000E+00
  0.00000000E+00  0.00000000E+00  0.00000000E+00
  0.00000000E+00  0.00000000E+00  0.00000000E+00
  0.00000000E+00  0.00000000E+00  0.00000000E+00
  0.00000000E+00  0.00000000E+00  0.00000000E+00
  0.00000000E+00  0.00000000E+00  0.00000000E+00
  0.00000000E+00  0.00000000E+00  0.00000000E+00
  0.00000000E+00  0.00000000E+00  0.00000000E+00
  0.00000000E+00  0.00000000E+00  0.00000000E+00
  0.00000000E+00  0.00000000E+00  0.00000000E+00
  0.00000000E+00  0.00000000E+00  0.00000000E+00
  0.00000000E+00  0.00000000E+00  0.00000000E+00
  0.00000000E+00  0.00000000E+00  0.00000000E+00
  0.00000000E+00  0.00000000E+00  0.00000000E+00
  0.00000000E+00  0.00000000E+00  0.00000000E+00
  0.00000000E+00  0.00000000E+00  0.00000000E+00
  0.00000000E+00  0.00000000E+00  0.00000000E+00
  0.00000000E+00  0.00000000E+00  0.00000000E+00
  0.00000000E+00  0.00000000E+00  0.00000000E+00
  0.00000000E+00  0.00000000E+00  0.00000000E+00
  0.00000000E+00  0.00000000E+00  0.00000000E+00
  0.00000000E+00  0.00000000E+00  0.00000000E+00
  0.00000000E+00  0.00000000E+00  0.00000000E+00
  0.00000000E+00  0.00000000E+00  0.00000000E+00
  0.00000000E+00  0.00000000E+00  0.00000000E+00
  0.00000000E+00  0.00000000E+00  0.00000000E+00
  0.00000000E+00  0.00000000E+00  0.00000000E+00
  0.00000000E+00  0.00000000E+00  0.00000000E+00
  0.00000000E+00  0.00000000E+00  0.00000000E+00
  0.00000000E+00  0.00000000E+00  0.00000000E+00
  0.00000000E+00  0.00000000E+00  0.00000000E+00
  0.00000000E+00  0.00000000E+00  0.00000000E+00
  0.00000000E+00  0.00000000E+00  0.00000000E+00
  0.00000000E+00  0.00000000E+00  0.00000000E+00
  0.00000000E+00  0.00000000E+00  0.00000000E+00
  0.00000000E+00  0.00000000E+00  0.00000000E+00
  0.00000000E+00  0.00000000E+00  0.00000000E+00
  0.00000000E+00  0.00000000E+00  0.00000000E+00
  0.00000000E+00  0.00000000E+00  0.00000000E+00
  0.00000000E+00  0.00000000E+00  0.00000000E+00
  0.00000000E+00  0.00000000E+00  0.00000000E+00
  0.00000000E+00  0.00000000E+00  0.00000000E+00
  0.00000000E+00  0.00000000E+00  0.00000000E+00
  0.00000000E+00  0.00000000E+00  0.00000000E+00
  0.00000000E+00  0.00000000E+00  0.00000000E+00
  0.00000000E+00  0.00000000E+00  0.00000000E+00
  0.00000000E+00  0.00000000E+00  0.00000000E+00
  0.00000000E+00  0.00000000E+00  0.00000000E+00
  0.00000000E+00  0.00000000E+00  0.00000000E+00
  0.00000000E+00  0.00000000E+00  0.00000000E+00
  0.00000000E+00  0.00000000E+00  0.00000000E+00
  0.00000000E+00  0.00000000E+00  0.00000000E+00
  0.00000000E+00  0.00000000E+00  0.00000000E+00
  0.00000000E+00  0.00000000E+00  0.00000000E+00
  0.00000000E+00  0.00000000E+00  0.00000000E+00
  0.00000000E+00  0.00000000E+00  0.00000000E+00
  0.00000000E+00  0.00000000E+00  0.00000000E+00
  0.00000000E+00  0.00000000E+00  0.00000000E+00
  0.00000000E+00  0.00000000E+00  0.00000000E+00
  0.00000000E+00  0.00000000E+00  0.00000000E+00
  0.00000000E+00  0.00000000E+00  0.00000000E+00
  0.00000000E+00  0.00000000E+00  0.00000000E+00
  0.00000000E+00  0.00000000E+00  0.00000000E+00
  0.00000000E+00  0.00000000E+00  0.00000000E+00
  0.00000000E+00  0.00000000E+00  0.00000000E+00
  0.00000000E+00  0.00000000E+00  0.00000000E+00
  0.00000000E+00  0.00000000E+00  0.00000000E+00
  0.00000000E+00  0.00000000E+00  0.00000000E+00
  0.00000000E+00  0.00000000E+00  0.00000000E+00
  0.00000000E+00  0.00000000E+00  0.00000000E+00
  0.00000000E+00  0.00000000E+00  0.00000000E+00
  0.00000000E+00  0.00000000E+00  0.00000000E+00
  0.00000000E+00  0.00000000E+00  0.00000000E+00
  0.00000000E+00  0.00000000E+00  0.00000000E+00
  0.00000000E+00  0.00000000E+00  0.00000000E+00
  0.00000000E+00  0.00000000E+00  0.00000000E+00
  0.00000000E+00  0.00000000E+00  0.00000000E+00
  0.00000000E+00  0.00000000E+00  0.00000000E+00
  0.00000000E+00  0.00000000E+00  0.00000000E+00
  0.00000000E+00  0.00000000E+00  0.00000000E+00
  0.00000000E+00  0.00000000E+00  0.00000000E+00
  0.00000000E+00  0.00000000E+00  0.00000000E+00
  0.00000000E+00  0.00000000E+00  0.00000000E+00
  0.00000000E+00  0.00000000E+00  0.00000000E+00
  0.00000000E+00  0.00000000E+00  0.00000000E+00
  0.00000000E+00  0.00000000E+00  0.00000000E+00
  0.00000000E+00  0.00000000E+00  0.00000000E+00
  0.00000000E+00  0.00000000E+00  0.00000000E+00
  0.00000000E+00  0.00000000E+00  0.00000000E+00
  0.00000000E+00  0.00000000E+00  0.00000000E+00
  0.00000000E+00  0.00000000E+00  0.00000000E+00
  0.00000000E+00  0.00000000E+00  0.00000000E+00
  0.00000000E+00  0.00000000E+00  0.00000000E+00
  0.00000000E+00  0.00000000E+00  0.00000000E+00
  0.00000000E+00  0.00000000E+00  0.00000000E+00
  0.00000000E+00  0.00000000E+00  0.00000000E+00
  0.00000000E+00  0.00000000E+00  0.00000000E+00
  0.00000000E+00  0.00000000E+00  0.00000000E+00
  0.00000000E+00  0.00000000E+00  0.00000000E+00
  0.00000000E+00  0.00000000E+00  0.00000000E+00
  0.00000000E+00  0.00000000E+00  0.00000000E+00
  0.00000000E+00  0.00000000E+00  0.00000000E+00
  0.00000000E+00  0.00000000E+00  0.00000000E+00
  0.00000000E+00  0.00000000E+00  0.00000000E+00
  0.00000000E+00  0.00000000E+00  0.00000000E+00
  0.00000000E+00  0.00000000E+00  0.00000000E+00
  0.00000000E+00  0.00000000E+00  0.00000000E+00
  0.00000000E+00  0.00000000E+00  0.00000000E+00
  0.00000000E+00  0.00000000E+00  0.00000000E+00
  0.00000000E+00  0.00000000E+00  0.00000000E+00
  0.00000000E+00  0.00000000E+00  0.00000000E+00
  0.00000000E+00  0.00000000E+00  0.00000000E+00
  0.00000000E+00  0.00000000E+00  0.00000000E+00
  0.00000000E+00  0.00000000E+00  0.00000000E+00
  0.00000000E+00  0.00000000E+00  0.00000000E+00
  0.00000000E+00  0.00000000E+00  0.00000000E+00
  0.00000000E+00  0.00000000E+00  0.00000000E+00
  0.00000000E+00  0.00000000E+00  0.00000000E+00
  0.00000000E+00  0.00000000E+00  0.00000000E+00
  0.00000000E+00  0.00000000E+00  0.00000000E+00
  0.00000000E+00  0.00000000E+00  0.00000000E+00
  0.00000000E+00  0.00000000E+00  0.00000000E+00
  0.00000000E+00  0.00000000E+00  0.00000000E+00
  0.00000000E+00  0.00000000E+00  0.00000000E+00
  0.00000000E+00  0.00000000E+00  0.00000000E+00
  0.00000000E+00  0.00000000E+00  0.00000000E+00
  0.00000000E+00  0.00000000E+00  0.00000000E+00
  0.00000000E+00  0.00000000E+00  0.00000000E+00
  0.00000000E+00  0.00000000E+00  0.00000000E+00
  0.00000000E+00  0.00000000E+00  0.00000000E+00
  0.00000000E+00  0.00000000E+00  0.00000000E+00
  0.00000000E+00  0.00000000E+00  0.00000000E+00
  0.00000000E+00  0.00000000E+00  0.00000000E+00
  0.00000000E+00  0.00000000E+00  0.00000000E+00
  0.00000000E+00  0.00000000E+00  0.00000000E+00
  0.00000000E+00  0.00000000E+00  0.00000000E+00
  0.00000000E+00  0.00000000E+00  0.00000000E+00
  0.00000000E+00  0.00000000E+00  0.00000000E+00
  0.00000000E+00  0.00000000E+00  0.00000000E+00
  0.00000000E+00  0.00000000E+00  0.00000000E+00
  0.00000000E+00  0.00000000E+00  0.00000000E+00
  0.00000000E+00  0.00000000E+00  0.00000000E+00
  0.00000000E+00  0.00000000E+00  0.00000000E+00
  0.00000000E+00  0.00000000E+00  0.00000000E+00
  0.00000000E+00  0.00000000E+00  0.00000000E+00
  0.00000000E+00  0.00000000E+00  0.00000000E+00
  0.00000000E+00  0.00000000E+00  0.00000000E+00
  0.00000000E+00  0.00000000E+00  0.00000000E+00
  0.00000000E+00  0.00000000E+00  0.00000000E+00
  0.00000000E+00  0.00000000E+00  0.00000000E+00
  0.00000000E+00  0.00000000E+00  0.00000000E+00
  0.00000000E+00  0.00000000E+00  0.00000000E+00
  0.00000000E+00  0.00000000E+00  0.00000000E+00
  0.00000000E+00  0.00000000E+00  0.00000000E+00
