Ge+Si
    1.000000000
   16.002676010    0.000000000    0.000000000
    0.000000000   16.973402023    0.000000000
    0.000000000    0.000000000   10.122650146
Ge  Si 
48     108
Direct
    0.913237751    0.910024285    0.000000026
    0.538237751    0.521135390    0.065870076
    0.163237810    0.132246494    0.131740078
    0.788237810    0.743357420    0.197610214
    0.413237810    0.354468584    0.263480216
    0.038237691    0.965579510    0.329350263
    0.413237691    0.910024285    0.000000029
    0.038237717    0.521135330    0.065870076
    0.663237751    0.132246435    0.131740078
    0.288237691    0.743357420    0.197610140
    0.913237810    0.354468465    0.263480216
    0.538237810    0.965579748    0.329350382
    0.038237728    0.660024226    0.000000026
    0.663237751    0.271135300    0.065870047
    0.288237810    0.882246375    0.131740093
    0.913237810    0.493357420    0.197610140
    0.538237691    0.104468405    0.263480186
    0.163237691    0.715579629    0.329350263
    0.538237691    0.660024226    0.000000026
    0.163237706    0.271135300    0.065870047
    0.788237751    0.882246375    0.131740093
    0.413237691    0.493357480    0.197610140
    0.038237751    0.104468465    0.263480246
    0.663237691    0.715579629    0.329350293
    0.288237751    0.660024226    0.000000026
    0.913237751    0.271135300    0.065870047
    0.538237810    0.882246375    0.131740093
    0.163237810    0.493357420    0.197610140
    0.788237810    0.104468465    0.263480186
    0.413237810    0.715579510    0.329350263
    0.788237691    0.660024166    0.000000000
    0.413237721    0.271135300    0.065870047
    0.038237784    0.882246375    0.131740093
    0.663237751    0.493357420    0.197610125
    0.288237691    0.104468465    0.263480186
    0.913237810    0.715579629    0.329350293
    0.163237721    0.910024285    0.000000026
    0.788237691    0.521135330    0.065870076
    0.413237810    0.132246494    0.131740123
    0.038237751    0.743357420    0.197610214
    0.663237810    0.354468584    0.263480157
    0.288237691    0.965579510    0.329350263
    0.663237691    0.910024285    0.000000035
    0.288237751    0.521135330    0.065870047
    0.913237751    0.132246494    0.131740123
    0.538237810    0.743357420    0.197610214
    0.163237691    0.354468465    0.263480157
    0.788237810    0.965579748    0.329350263
    0.000000000    0.994067729    0.329350352
    0.000000000    0.827401042    0.597610235
    0.000000000    0.660734296    0.865869999
    0.333333343    0.994067729    0.329350352
    0.333333343    0.827401042    0.597610235
    0.333333343    0.660734296    0.865869999
    0.666666687    0.994067729    0.329350352
    0.666666687    0.827401042    0.597610235
    0.666666687    0.660734296    0.865869999
    0.000000000    0.327401042    0.329350352
    0.000000000    0.160734370    0.597610235
    0.000000000    0.994067669    0.865869999
    0.333333343    0.327401042    0.329350352
    0.333333343    0.160734370    0.597610235
    0.333333343    0.994067669    0.865869999
    0.666666687    0.327401042    0.329350352
    0.666666687    0.160734370    0.597610235
    0.666666687    0.994067669    0.865869999
    0.000000000    0.660734415    0.329350352
    0.000000000    0.494067699    0.597610235
    0.000000000    0.327401042    0.865869999
    0.333333343    0.660734415    0.329350352
    0.333333343    0.494067699    0.597610235
    0.333333343    0.327401042    0.865869999
    0.666666687    0.660734415    0.329350352
    0.666666687    0.494067699    0.597610235
    0.666666687    0.327401042    0.865869999
    0.083333336    0.077401049    0.463480294
    0.083333336    0.910734355    0.731739998
    0.083333336    0.744067669    0.999999881
    0.416666687    0.077401049    0.463480294
    0.416666687    0.910734355    0.731739998
    0.416666687    0.744067669    0.999999881
    0.750000000    0.077401049    0.463480294
    0.750000000    0.910734355    0.731739998
    0.750000000    0.744067669    0.999999881
    0.083333336    0.410734355    0.463480294
    0.083333336    0.244067669    0.731739998
    0.083333336    0.077400982    0.999999881
    0.416666687    0.410734355    0.463480294
    0.416666687    0.244067669    0.731739998
    0.416666687    0.077400982    0.999999881
    0.750000000    0.410734355    0.463480294
    0.750000000    0.244067669    0.731739998
    0.750000000    0.077400982    0.999999881
    0.083333336    0.744067729    0.463480294
    0.083333336    0.577401042    0.731739998
    0.083333336    0.410734355    0.999999881
    0.416666687    0.744067729    0.463480294
    0.416666687    0.577401042    0.731739998
    0.416666687    0.410734355    0.999999881
    0.750000000    0.744067729    0.463480294
    0.750000000    0.577401042    0.731739998
    0.750000000    0.410734355    0.999999881
    0.166666672    0.160734385    0.329350352
    0.166666672    0.994067669    0.597610235
    0.166666672    0.827400982    0.865869999
    0.500000000    0.160734385    0.329350352
    0.500000000    0.994067669    0.597610235
    0.500000000    0.827400982    0.865869999
    0.833333373    0.160734385    0.329350352
    0.833333373    0.994067669    0.597610235
    0.833333373    0.827400982    0.865869999
    0.166666672    0.494067699    0.329350352
    0.166666672    0.327401042    0.597610235
    0.166666672    0.160734311    0.865869999
    0.500000000    0.494067699    0.329350352
    0.500000000    0.327401042    0.597610235
    0.500000000    0.160734311    0.865869999
    0.833333373    0.494067699    0.329350352
    0.833333373    0.327401042    0.597610235
    0.833333373    0.160734311    0.865869999
    0.166666672    0.827401042    0.329350352
    0.166666672    0.660734355    0.597610235
    0.166666672    0.494067639    0.865869999
    0.500000000    0.827401042    0.329350352
    0.500000000    0.660734355    0.597610235
    0.500000000    0.494067639    0.865869999
    0.833333373    0.827401042    0.329350352
    0.833333373    0.660734355    0.597610235
    0.833333373    0.494067639    0.865869999
    0.250000000    0.244067714    0.463480294
    0.250000000    0.077401027    0.731739998
    0.250000000    0.910734355    0.999999881
    0.583333373    0.244067714    0.463480294
    0.583333373    0.077401027    0.731739998
    0.583333373    0.910734355    0.999999881
    0.916666687    0.244067714    0.463480294
    0.916666687    0.077401027    0.731739998
    0.916666687    0.910734355    0.999999881
    0.250000000    0.577401161    0.463480294
    0.250000000    0.410734445    0.731739998
    0.250000000    0.244067743    0.999999881
    0.583333373    0.577401161    0.463480294
    0.583333373    0.410734445    0.731739998
    0.583333373    0.244067743    0.999999881
    0.916666687    0.577401161    0.463480294
    0.916666687    0.410734445    0.731739998
    0.916666687    0.244067743    0.999999881
    0.250000000    0.910734355    0.463480294
    0.250000000    0.744067669    0.731739998
    0.250000000    0.577401042    0.999999881
    0.583333373    0.910734355    0.463480294
    0.583333373    0.744067669    0.731739998
    0.583333373    0.577401042    0.999999881
    0.916666687    0.910734355    0.463480294
    0.916666687    0.744067669    0.731739998
    0.916666687    0.577401042    0.999999881
