fcc Si+fcc Ge
    1.000000000
   13.423203790    0.000000000    0.000000000
   -6.711601895   15.007598076    0.000000000
    0.000000000    0.000000000   10.991485505
Si    Ge   
36     66
Direct
    0.000000000    0.666666667    0.000000000
    0.300000000    0.433333333    0.111483134
    0.600000000    0.200000000    0.222966268
    0.000000000    0.333333333    0.000000000
    0.300000000    0.100000000    0.111483134
    0.600000000    0.866666667    0.222966268
    0.000000000    0.000000000    0.000000000
    0.300000000    0.766666667    0.111483134
    0.600000000    0.533333333    0.222966268
    0.500000000    0.666666667    0.000000000
    0.800000000    0.433333333    0.111483134
    0.100000000    0.200000000    0.222966268
    0.500000000    0.333333333    0.000000000
    0.800000000    0.100000000    0.111483134
    0.100000000    0.866666667    0.222966268
    0.500000000    0.000000000    0.000000000
    0.800000000    0.766666667    0.111483134
    0.100000000    0.533333333    0.222966268
    0.150000000    0.800000000    0.055741567
    0.450000000    0.566666667    0.167224701
    0.750000000    0.333333333    0.278707835
    0.150000000    0.466666667    0.055741567
    0.450000000    0.233333333    0.167224701
    0.750000000    0.000000000    0.278707835
    0.150000000    0.133333333    0.055741567
    0.450000000    0.900000000    0.167224701
    0.750000000    0.666666667    0.278707835
    0.650000000    0.800000000    0.055741567
    0.950000000    0.566666667    0.167224701
    0.250000000    0.333333333    0.278707835
    0.650000000    0.466666667    0.055741567
    0.950000000    0.233333333    0.167224701
    0.250000000    0.000000000    0.278707835
    0.650000000    0.133333333    0.055741567
    0.950000000    0.900000000    0.167224701
    0.250000000    0.666666667    0.278707835
    0.000000000    0.171779141    0.351491446
    0.800000000    0.271779141    0.466636434
    0.600000000    0.371779141    0.581781423
    0.400000000    0.471779141    0.696926412
    0.200000000    0.571779141    0.812071401
    0.000000000    0.671779141    0.927216389
    0.333333333    0.505112474    0.351491446
    0.133333333    0.605112474    0.466636434
    0.933333333    0.705112474    0.581781423
    0.733333333    0.805112474    0.696926412
    0.533333333    0.905112474    0.812071401
    0.333333333    0.005112474    0.927216389
    0.666666667    0.838445808    0.351491446
    0.466666667    0.938445808    0.466636434
    0.266666667    0.038445808    0.581781423
    0.066666667    0.138445808    0.696926412
    0.866666667    0.238445808    0.812071401
    0.666666667    0.338445808    0.927216389
    0.166666667    0.838445808    0.351491446
    0.966666667    0.938445808    0.466636434
    0.766666667    0.038445808    0.581781423
    0.566666667    0.138445808    0.696926412
    0.366666667    0.238445808    0.812071401
    0.166666667    0.338445808    0.927216389
    0.500000000    0.171779141    0.351491446
    0.300000000    0.271779141    0.466636434
    0.100000000    0.371779141    0.581781423
    0.900000000    0.471779141    0.696926412
    0.700000000    0.571779141    0.812071401
    0.500000000    0.671779141    0.927216389
    0.833333333    0.505112474    0.351491446
    0.633333333    0.605112474    0.466636434
    0.433333333    0.705112474    0.581781423
    0.233333333    0.805112474    0.696926412
    0.033333333    0.905112474    0.812071401
    0.833333333    0.005112474    0.927216389
    0.150000000    0.471779141    0.409063940
    0.950000000    0.571779141    0.524208929
    0.750000000    0.671779141    0.639353918
    0.550000000    0.771779141    0.754498906
    0.350000000    0.871779141    0.869643895
    0.483333333    0.805112474    0.409063940
    0.283333333    0.905112474    0.524208929
    0.083333333    0.005112474    0.639353918
    0.883333333    0.105112474    0.754498906
    0.683333333    0.205112474    0.869643895
    0.816666667    0.138445808    0.409063940
    0.616666667    0.238445808    0.524208929
    0.416666667    0.338445808    0.639353918
    0.216666667    0.438445808    0.754498906
    0.016666667    0.538445808    0.869643895
    0.316666667    0.138445808    0.409063940
    0.116666667    0.238445808    0.524208929
    0.916666667    0.338445808    0.639353918
    0.716666667    0.438445808    0.754498906
    0.516666667    0.538445808    0.869643895
    0.650000000    0.471779141    0.409063940
    0.450000000    0.571779141    0.524208929
    0.250000000    0.671779141    0.639353918
    0.050000000    0.771779141    0.754498906
    0.850000000    0.871779141    0.869643895
    0.983333333    0.805112474    0.409063940
    0.783333333    0.905112474    0.524208929
    0.583333333    0.005112474    0.639353918
    0.383333333    0.105112474    0.754498906
    0.183333333    0.205112474    0.869643895
