Si+C                                    
   1.00000000000000     
    13.3031797409999992    0.0000000000000000    0.0000000000000000
    -6.6515893940000002   14.8734064099999994    0.0000000000000000
     0.0000000000000000    0.0000000000000000    5.0299243929999999
   Si   C 
    36    84
Direct
  0.0170943480000005  0.9914528130000022  0.0000000000000000
  0.2170944510000012  0.8914527299999975  0.2414368239999973
  0.4170945580000023  0.7914526460000033  0.4828736480000018
  0.0170943480000005  0.3247861270000030  0.0000000000000000
  0.2170944510000012  0.2247860430000017  0.2414368239999973
  0.4170945580000023  0.1247859449999993  0.4828736480000018
  0.0170943480000005  0.6581194999999980  0.0000000000000000
  0.2170944510000012  0.5581193570000025  0.2414368239999973
  0.4170945580000023  0.4581192429999987  0.4828736480000018
  0.3670942780000033  0.1914527859999993  0.1207181739999967
  0.5670943860000008  0.0914526950000010  0.3621550200000030
  0.7670944930000019  0.9914526339999981  0.6035918589999980
  0.3670942780000033  0.5247860549999999  0.1207181739999967
  0.5670943860000008  0.4247860010000011  0.3621550200000030
  0.7670944930000019  0.3247859180000034  0.6035918589999980
  0.3670942780000033  0.8581194280000020  0.1207181739999967
  0.5670943860000008  0.7581192259999980  0.3621550200000030
  0.7670944930000019  0.6581192020000017  0.6035918589999980
  0.5170943740000027  0.9914528130000022  0.0000000060000005
  0.7170944209999988  0.8914526699999996  0.2414367940000020
  0.9170945290000034  0.7914525870000020  0.4828736480000018
  0.5170943740000027  0.3247861270000030  0.0000000060000005
  0.7170944209999988  0.2247860129999992  0.2414367940000020
  0.9170945290000034  0.1247859220000009  0.4828736480000018
  0.5170943740000027  0.6581193800000023  0.0000000060000005
  0.7170944209999988  0.5581192969999975  0.2414367940000020
  0.9170945290000034  0.4581192429999987  0.4828736480000018
  0.8670942780000033  0.1914528009999970  0.1207181810000009
  0.0670944450000022  0.0914527250000035  0.3621550800000009
  0.2670943740000027  0.9914526339999981  0.6035917399999988
  0.8670942780000033  0.5247861149999977  0.1207181810000009
  0.0670944450000022  0.4247860010000011  0.3621550800000009
  0.2670943740000027  0.3247859180000034  0.6035917399999988
  0.8670942780000033  0.8581194879999998  0.1207181810000009
  0.0670944450000022  0.7581193449999972  0.3621550800000009
  0.2670943740000027  0.6581192610000031  0.6035917399999988
  0.8035419579999967  0.8271116020000022  0.9207184309999974
  0.1749704030000032  0.8556831479999971  0.6035919190000030
  0.4892562029999965  0.8413974640000035  0.7621552940000029
  0.9463990329999987  0.6842544080000010  0.9207185510000002
  0.3178274930000029  0.7128260140000009  0.6035919190000030
  0.6321132779999985  0.6985402110000010  0.7621552940000029
  0.0892561670000021  0.5413973329999990  0.9207184309999974
  0.4606846869999970  0.5699688790000010  0.6035919190000030
  0.7749704719999997  0.5556831359999990  0.7621552940000029
  0.2321133610000032  0.3985401690000003  0.9207184309999974
  0.6035418510000028  0.4271117449999977  0.6035919190000030
  0.9178276660000009  0.4128259419999978  0.7621552940000029
  0.3749704359999981  0.2556830349999970  0.9207184309999974
  0.7463989849999990  0.2842546110000015  0.6035919190000030
  0.0606847999999971  0.2699688370000004  0.7621552940000029
  0.5178276299999993  0.1128258849999995  0.9207184309999974
  0.8892561199999989  0.1413974760000016  0.6035919190000030
  0.2035418749999991  0.1271116879999994  0.7621552940000029
  0.6606848240000005  0.9699687359999984  0.9207184309999974
  0.0321132540000022  0.9985402820000004  0.6035919190000030
  0.3463990389999978  0.9842545389999984  0.7621552940000029
  0.3535418510000028  0.9271116259999985  0.9999997620000016
  0.7249702220000032  0.9556831720000005  0.6828734870000019
  0.0392560960000026  0.9413974289999985  0.8414367439999992
  0.4963989259999977  0.7842544319999973  0.9999998810000008
  0.8678272960000015  0.8128259779999993  0.6828734870000019
  0.1821130510000017  0.7985401749999994  0.8414366250000000
  0.6392562389999981  0.6413973570000024  0.9999998810000008
  0.0106846090000019  0.6699688429999995  0.6828734870000019
  0.3249704839999978  0.6556831600000024  0.8414366250000000
  0.7821133140000001  0.4985402820000004  0.9999998810000008
  0.1535416839999968  0.5271117690000011  0.6828734870000019
  0.4678275589999998  0.5128260250000025  0.8414366250000000
  0.9249702689999992  0.3556830590000004  0.9999998810000008
  0.2963987890000013  0.3842546050000024  0.6828734870000019
  0.6106845739999969  0.3699688609999967  0.8414367439999992
  0.0678275819999996  0.2128258939999981  0.9999998810000008
  0.4392560719999992  0.2413974850000002  0.6828734870000019
  0.7535418269999994  0.2271116969999980  0.8414367439999992
  0.2106847760000008  0.0699687970000014  0.9999998810000008
  0.5821131470000012  0.0985403359999992  0.6828734870000019
  0.8963989020000014  0.0842545699999988  0.8414367439999992
  0.3035420180000017  0.8271116020000022  0.9207185510000002
  0.6749704480000034  0.8556832670000034  0.6035919190000030
  0.9892562029999965  0.8413974050000022  0.7621552940000029
  0.4463992120000029  0.6842544080000010  0.9207185510000002
  0.8178277020000024  0.7128260730000022  0.6035919190000030
  0.1321133380000035  0.6985402110000010  0.7621552940000029
  0.5892564059999970  0.5413972739999977  0.9207185510000002
  0.9606847760000008  0.5699689389999989  0.6035919190000030
  0.2749705310000010  0.5556831359999990  0.7621552940000029
  0.7321134210000011  0.3985402289999982  0.9207185510000002
  0.1035418439999987  0.4271117750000002  0.6035919190000030
  0.4178276660000009  0.4128259720000003  0.7621552940000029
  0.8749705549999973  0.2556830050000016  0.9207184309999974
  0.2463989700000013  0.2842545809999990  0.6035919190000030
  0.5606847999999971  0.2699688080000016  0.7621552940000029
  0.0178276299999993  0.1128258780000024  0.9207184309999974
  0.3892561199999989  0.1413974459999991  0.6035919190000030
  0.7035419340000004  0.1271116730000017  0.7621552940000029
  0.1606848240000005  0.9699687359999984  0.9207184309999974
  0.5321132540000022  0.9985403419999983  0.6035919190000030
  0.8463990690000003  0.9842545389999984  0.7621552940000029
  0.8535417909999978  0.9271116259999985  0.9999998810000008
  0.2249702960000022  0.9556831720000005  0.6828734870000019
  0.5392560359999976  0.9413973690000006  0.8414367439999992
  0.9963988659999998  0.7842545509999965  0.9999998810000008
  0.3678273860000019  0.8128260969999985  0.6828734870000019
  0.6821131109999996  0.7985402939999986  0.8414367439999992
  0.1392561199999989  0.6413973570000024  0.9999997620000016
  0.5106846090000019  0.6699688429999995  0.6828734870000019
  0.8249704240000000  0.6556830999999974  0.8414367439999992
  0.2821133140000001  0.4985401630000013  0.9999998810000008
  0.6535417440000018  0.5271117090000033  0.6828734870000019
  0.9678274990000020  0.5128259060000033  0.8414367439999992
  0.4249703879999984  0.3556830879999993  0.9999998810000008
  0.7963987589999988  0.3842545749999999  0.6828736069999977
  0.1106846329999982  0.3699688319999979  0.8414367439999992
  0.5678277020000024  0.2128259090000029  0.0000000000000000
  0.9392560719999992  0.2413974850000002  0.6828734870000019
  0.2535418269999994  0.2271117120000028  0.8414367439999992
  0.7106847760000008  0.0699688199999997  0.9999997620000016
  0.0821131470000012  0.0985403279999986  0.6828734870000019
  0.3963990210000006  0.0842546080000020  0.8414367439999992
 
  0.00000000E+00  0.00000000E+00  0.00000000E+00
  0.00000000E+00  0.00000000E+00  0.00000000E+00
  0.00000000E+00  0.00000000E+00  0.00000000E+00
  0.00000000E+00  0.00000000E+00  0.00000000E+00
  0.00000000E+00  0.00000000E+00  0.00000000E+00
  0.00000000E+00  0.00000000E+00  0.00000000E+00
  0.00000000E+00  0.00000000E+00  0.00000000E+00
  0.00000000E+00  0.00000000E+00  0.00000000E+00
  0.00000000E+00  0.00000000E+00  0.00000000E+00
  0.00000000E+00  0.00000000E+00  0.00000000E+00
  0.00000000E+00  0.00000000E+00  0.00000000E+00
  0.00000000E+00  0.00000000E+00  0.00000000E+00
  0.00000000E+00  0.00000000E+00  0.00000000E+00
  0.00000000E+00  0.00000000E+00  0.00000000E+00
  0.00000000E+00  0.00000000E+00  0.00000000E+00
  0.00000000E+00  0.00000000E+00  0.00000000E+00
  0.00000000E+00  0.00000000E+00  0.00000000E+00
  0.00000000E+00  0.00000000E+00  0.00000000E+00
  0.00000000E+00  0.00000000E+00  0.00000000E+00
  0.00000000E+00  0.00000000E+00  0.00000000E+00
  0.00000000E+00  0.00000000E+00  0.00000000E+00
  0.00000000E+00  0.00000000E+00  0.00000000E+00
  0.00000000E+00  0.00000000E+00  0.00000000E+00
  0.00000000E+00  0.00000000E+00  0.00000000E+00
  0.00000000E+00  0.00000000E+00  0.00000000E+00
  0.00000000E+00  0.00000000E+00  0.00000000E+00
  0.00000000E+00  0.00000000E+00  0.00000000E+00
  0.00000000E+00  0.00000000E+00  0.00000000E+00
  0.00000000E+00  0.00000000E+00  0.00000000E+00
  0.00000000E+00  0.00000000E+00  0.00000000E+00
  0.00000000E+00  0.00000000E+00  0.00000000E+00
  0.00000000E+00  0.00000000E+00  0.00000000E+00
  0.00000000E+00  0.00000000E+00  0.00000000E+00
  0.00000000E+00  0.00000000E+00  0.00000000E+00
  0.00000000E+00  0.00000000E+00  0.00000000E+00
  0.00000000E+00  0.00000000E+00  0.00000000E+00
  0.00000000E+00  0.00000000E+00  0.00000000E+00
  0.00000000E+00  0.00000000E+00  0.00000000E+00
  0.00000000E+00  0.00000000E+00  0.00000000E+00
  0.00000000E+00  0.00000000E+00  0.00000000E+00
  0.00000000E+00  0.00000000E+00  0.00000000E+00
  0.00000000E+00  0.00000000E+00  0.00000000E+00
  0.00000000E+00  0.00000000E+00  0.00000000E+00
  0.00000000E+00  0.00000000E+00  0.00000000E+00
  0.00000000E+00  0.00000000E+00  0.00000000E+00
  0.00000000E+00  0.00000000E+00  0.00000000E+00
  0.00000000E+00  0.00000000E+00  0.00000000E+00
  0.00000000E+00  0.00000000E+00  0.00000000E+00
  0.00000000E+00  0.00000000E+00  0.00000000E+00
  0.00000000E+00  0.00000000E+00  0.00000000E+00
  0.00000000E+00  0.00000000E+00  0.00000000E+00
  0.00000000E+00  0.00000000E+00  0.00000000E+00
  0.00000000E+00  0.00000000E+00  0.00000000E+00
  0.00000000E+00  0.00000000E+00  0.00000000E+00
  0.00000000E+00  0.00000000E+00  0.00000000E+00
  0.00000000E+00  0.00000000E+00  0.00000000E+00
  0.00000000E+00  0.00000000E+00  0.00000000E+00
  0.00000000E+00  0.00000000E+00  0.00000000E+00
  0.00000000E+00  0.00000000E+00  0.00000000E+00
  0.00000000E+00  0.00000000E+00  0.00000000E+00
  0.00000000E+00  0.00000000E+00  0.00000000E+00
  0.00000000E+00  0.00000000E+00  0.00000000E+00
  0.00000000E+00  0.00000000E+00  0.00000000E+00
  0.00000000E+00  0.00000000E+00  0.00000000E+00
  0.00000000E+00  0.00000000E+00  0.00000000E+00
  0.00000000E+00  0.00000000E+00  0.00000000E+00
  0.00000000E+00  0.00000000E+00  0.00000000E+00
  0.00000000E+00  0.00000000E+00  0.00000000E+00
  0.00000000E+00  0.00000000E+00  0.00000000E+00
  0.00000000E+00  0.00000000E+00  0.00000000E+00
  0.00000000E+00  0.00000000E+00  0.00000000E+00
  0.00000000E+00  0.00000000E+00  0.00000000E+00
  0.00000000E+00  0.00000000E+00  0.00000000E+00
  0.00000000E+00  0.00000000E+00  0.00000000E+00
  0.00000000E+00  0.00000000E+00  0.00000000E+00
  0.00000000E+00  0.00000000E+00  0.00000000E+00
  0.00000000E+00  0.00000000E+00  0.00000000E+00
  0.00000000E+00  0.00000000E+00  0.00000000E+00
  0.00000000E+00  0.00000000E+00  0.00000000E+00
  0.00000000E+00  0.00000000E+00  0.00000000E+00
  0.00000000E+00  0.00000000E+00  0.00000000E+00
  0.00000000E+00  0.00000000E+00  0.00000000E+00
  0.00000000E+00  0.00000000E+00  0.00000000E+00
  0.00000000E+00  0.00000000E+00  0.00000000E+00
  0.00000000E+00  0.00000000E+00  0.00000000E+00
  0.00000000E+00  0.00000000E+00  0.00000000E+00
  0.00000000E+00  0.00000000E+00  0.00000000E+00
  0.00000000E+00  0.00000000E+00  0.00000000E+00
  0.00000000E+00  0.00000000E+00  0.00000000E+00
  0.00000000E+00  0.00000000E+00  0.00000000E+00
  0.00000000E+00  0.00000000E+00  0.00000000E+00
  0.00000000E+00  0.00000000E+00  0.00000000E+00
  0.00000000E+00  0.00000000E+00  0.00000000E+00
  0.00000000E+00  0.00000000E+00  0.00000000E+00
  0.00000000E+00  0.00000000E+00  0.00000000E+00
  0.00000000E+00  0.00000000E+00  0.00000000E+00
  0.00000000E+00  0.00000000E+00  0.00000000E+00
  0.00000000E+00  0.00000000E+00  0.00000000E+00
  0.00000000E+00  0.00000000E+00  0.00000000E+00
  0.00000000E+00  0.00000000E+00  0.00000000E+00
  0.00000000E+00  0.00000000E+00  0.00000000E+00
  0.00000000E+00  0.00000000E+00  0.00000000E+00
  0.00000000E+00  0.00000000E+00  0.00000000E+00
  0.00000000E+00  0.00000000E+00  0.00000000E+00
  0.00000000E+00  0.00000000E+00  0.00000000E+00
  0.00000000E+00  0.00000000E+00  0.00000000E+00
  0.00000000E+00  0.00000000E+00  0.00000000E+00
  0.00000000E+00  0.00000000E+00  0.00000000E+00
  0.00000000E+00  0.00000000E+00  0.00000000E+00
  0.00000000E+00  0.00000000E+00  0.00000000E+00
  0.00000000E+00  0.00000000E+00  0.00000000E+00
  0.00000000E+00  0.00000000E+00  0.00000000E+00
  0.00000000E+00  0.00000000E+00  0.00000000E+00
  0.00000000E+00  0.00000000E+00  0.00000000E+00
  0.00000000E+00  0.00000000E+00  0.00000000E+00
  0.00000000E+00  0.00000000E+00  0.00000000E+00
  0.00000000E+00  0.00000000E+00  0.00000000E+00
  0.00000000E+00  0.00000000E+00  0.00000000E+00
  0.00000000E+00  0.00000000E+00  0.00000000E+00
  0.00000000E+00  0.00000000E+00  0.00000000E+00
