Si+C
    1.000000000
   13.303179741    0.000000000    0.000000000
   -6.651589394   14.873406410    0.000000000
    0.000000000    0.000000000    5.029924393
Si  C  
36     84
Direct
    0.017094348    0.991452813    0.000000000
    0.217094451    0.891452730    0.241436824
    0.417094558    0.791452646    0.482873648
    0.017094348    0.324786127    0.000000000
    0.217094451    0.224786043    0.241436824
    0.417094558    0.124785945    0.482873648
    0.017094348    0.658119500    0.000000000
    0.217094451    0.558119357    0.241436824
    0.417094558    0.458119243    0.482873648
    0.367094278    0.191452786    0.120718174
    0.567094386    0.091452695    0.362155020
    0.767094493    0.991452634    0.603591859
    0.367094278    0.524786055    0.120718174
    0.567094386    0.424786001    0.362155020
    0.767094493    0.324785918    0.603591859
    0.367094278    0.858119428    0.120718174
    0.567094386    0.758119226    0.362155020
    0.767094493    0.658119202    0.603591859
    0.517094374    0.991452813    0.000000006
    0.717094421    0.891452670    0.241436794
    0.917094529    0.791452587    0.482873648
    0.517094374    0.324786127    0.000000006
    0.717094421    0.224786013    0.241436794
    0.917094529    0.124785922    0.482873648
    0.517094374    0.658119380    0.000000006
    0.717094421    0.558119297    0.241436794
    0.917094529    0.458119243    0.482873648
    0.867094278    0.191452801    0.120718181
    0.067094445    0.091452725    0.362155080
    0.267094374    0.991452634    0.603591740
    0.867094278    0.524786115    0.120718181
    0.067094445    0.424786001    0.362155080
    0.267094374    0.324785918    0.603591740
    0.867094278    0.858119488    0.120718181
    0.067094445    0.758119345    0.362155080
    0.267094374    0.658119261    0.603591740
    0.803541958    0.827111602    0.920718431
    0.174970403    0.855683148    0.603591919
    0.489256203    0.841397464    0.762155294
    0.946399033    0.684254408    0.920718551
    0.317827493    0.712826014    0.603591919
    0.632113278    0.698540211    0.762155294
    0.089256167    0.541397333    0.920718431
    0.460684687    0.569968879    0.603591919
    0.774970472    0.555683136    0.762155294
    0.232113361    0.398540169    0.920718431
    0.603541851    0.427111745    0.603591919
    0.917827666    0.412825942    0.762155294
    0.374970436    0.255683035    0.920718431
    0.746398985    0.284254611    0.603591919
    0.060684800    0.269968837    0.762155294
    0.517827630    0.112825885    0.920718431
    0.889256120    0.141397476    0.603591919
    0.203541875    0.127111688    0.762155294
    0.660684824    0.969968736    0.920718431
    0.032113254    0.998540282    0.603591919
    0.346399039    0.984254539    0.762155294
    0.353541851    0.927111626    0.999999762
    0.724970222    0.955683172    0.682873487
    0.039256096    0.941397429    0.841436744
    0.496398926    0.784254432    0.999999881
    0.867827296    0.812825978    0.682873487
    0.182113051    0.798540175    0.841436625
    0.639256239    0.641397357    0.999999881
    0.010684609    0.669968843    0.682873487
    0.324970484    0.655683160    0.841436625
    0.782113314    0.498540282    0.999999881
    0.153541684    0.527111769    0.682873487
    0.467827559    0.512826025    0.841436625
    0.924970269    0.355683059    0.999999881
    0.296398789    0.384254605    0.682873487
    0.610684574    0.369968861    0.841436744
    0.067827582    0.212825894    0.999999881
    0.439256072    0.241397485    0.682873487
    0.753541827    0.227111697    0.841436744
    0.210684776    0.069968797    0.999999881
    0.582113147    0.098540336    0.682873487
    0.896398902    0.084254570    0.841436744
    0.303542018    0.827111602    0.920718551
    0.674970448    0.855683267    0.603591919
    0.989256203    0.841397405    0.762155294
    0.446399212    0.684254408    0.920718551
    0.817827702    0.712826073    0.603591919
    0.132113338    0.698540211    0.762155294
    0.589256406    0.541397274    0.920718551
    0.960684776    0.569968939    0.603591919
    0.274970531    0.555683136    0.762155294
    0.732113421    0.398540229    0.920718551
    0.103541844    0.427111775    0.603591919
    0.417827666    0.412825972    0.762155294
    0.874970555    0.255683005    0.920718431
    0.246398970    0.284254581    0.603591919
    0.560684800    0.269968808    0.762155294
    0.017827630    0.112825878    0.920718431
    0.389256120    0.141397446    0.603591919
    0.703541934    0.127111673    0.762155294
    0.160684824    0.969968736    0.920718431
    0.532113254    0.998540342    0.603591919
    0.846399069    0.984254539    0.762155294
    0.853541791    0.927111626    0.999999881
    0.224970296    0.955683172    0.682873487
    0.539256036    0.941397369    0.841436744
    0.996398866    0.784254551    0.999999881
    0.367827386    0.812826097    0.682873487
    0.682113111    0.798540294    0.841436744
    0.139256120    0.641397357    0.999999762
    0.510684609    0.669968843    0.682873487
    0.824970424    0.655683100    0.841436744
    0.282113314    0.498540163    0.999999881
    0.653541744    0.527111709    0.682873487
    0.967827499    0.512825906    0.841436744
    0.424970388    0.355683088    0.999999881
    0.796398759    0.384254575    0.682873607
    0.110684633    0.369968832    0.841436744
    0.567827702    0.212825909    1.000000000
    0.939256072    0.241397485    0.682873487
    0.253541827    0.227111712    0.841436744
    0.710684776    0.069968820    0.999999762
    0.082113147    0.098540328    0.682873487
    0.396399021    0.084254608    0.841436744
