Ge+Sn
    1.000000000
   11.315600395    0.000000000    0.000000000
    0.000000000   16.002676010    0.000000000
    0.000000000    0.000000000   25.800939560
Ge  Sn 
96     72
Direct
    0.970662773    0.455994159    0.000000018
    0.720662713    0.080994137    0.077529535
    0.470662773    0.705994129    0.155059069
    0.220662892    0.330994248    0.232588530
    0.970662713    0.955994129    0.310118079
    0.720662713    0.580994129    0.387647629
    0.470662773    0.455994159    0.000000018
    0.220662758    0.080994137    0.077529535
    0.970662773    0.705994129    0.155059069
    0.720662832    0.330994248    0.232588530
    0.470662832    0.955994129    0.310118079
    0.220662773    0.580994129    0.387647629
    0.970662773    0.955994129    0.000000016
    0.720662713    0.580994129    0.077529542
    0.470662773    0.205994129    0.155059054
    0.220662892    0.830994368    0.232588530
    0.970662713    0.455994129    0.310118109
    0.720662713    0.080994129    0.387647599
    0.470662773    0.955994129    0.000000016
    0.220662758    0.580994129    0.077529542
    0.970662773    0.205994129    0.155059054
    0.720662832    0.830994368    0.232588530
    0.470662832    0.455994129    0.310118109
    0.220662773    0.080994129    0.387647599
    0.970662773    0.705994129    0.000000021
    0.720662713    0.330994129    0.077529535
    0.470662773    0.955994129    0.155059054
    0.220662892    0.580994248    0.232588559
    0.970662713    0.205994189    0.310118109
    0.720662713    0.830994129    0.387647629
    0.470662773    0.705994129    0.000000021
    0.220662758    0.330994129    0.077529535
    0.970662773    0.955994129    0.155059054
    0.720662832    0.580994248    0.232588559
    0.470662832    0.205994189    0.310118109
    0.220662773    0.830994129    0.387647629
    0.970662773    0.205994144    0.000000017
    0.720662713    0.830994129    0.077529535
    0.470662773    0.455994129    0.155059054
    0.220662892    0.080994248    0.232588559
    0.970662713    0.705994248    0.310118079
    0.720662713    0.330994129    0.387647599
    0.470662773    0.205994144    0.000000017
    0.220662758    0.830994129    0.077529535
    0.970662773    0.455994129    0.155059054
    0.720662832    0.080994248    0.232588559
    0.470662832    0.705994248    0.310118079
    0.220662773    0.330994129    0.387647599
    0.345662743    0.580994189    0.000000026
    0.095662758    0.205994159    0.077529535
    0.845662773    0.830994129    0.155059054
    0.595662832    0.455994248    0.232588530
    0.345662773    0.080994189    0.310118109
    0.095662713    0.705994129    0.387647629
    0.845662832    0.580994189    0.000000026
    0.595662773    0.205994159    0.077529535
    0.345662802    0.830994129    0.155059054
    0.095662884    0.455994248    0.232588530
    0.845662832    0.080994189    0.310118109
    0.595662773    0.705994129    0.387647629
    0.345662743    0.080994137    0.000000013
    0.095662758    0.705994129    0.077529535
    0.845662773    0.330994129    0.155059054
    0.595662832    0.955994248    0.232588559
    0.345662773    0.580994248    0.310118079
    0.095662713    0.205994010    0.387647599
    0.845662832    0.080994137    0.000000013
    0.595662773    0.705994129    0.077529535
    0.345662802    0.330994129    0.155059054
    0.095662884    0.955994248    0.232588559
    0.845662832    0.580994248    0.310118079
    0.595662773    0.205994010    0.387647599
    0.345662743    0.830994189    0.000000000
    0.095662758    0.455994189    0.077529535
    0.845662773    0.080994174    0.155059054
    0.595662832    0.705994308    0.232588530
    0.345662773    0.330994248    0.310118079
    0.095662713    0.955994129    0.387647569
    0.845662832    0.830994189    0.000000000
    0.595662773    0.455994189    0.077529535
    0.345662802    0.080994174    0.155059054
    0.095662884    0.705994308    0.232588530
    0.845662832    0.330994248    0.310118079
    0.595662773    0.955994129    0.387647569
    0.345662743    0.330994129    0.000000018
    0.095662758    0.955994129    0.077529542
    0.845662773    0.580994129    0.155059054
    0.595662832    0.205994248    0.232588559
    0.345662773    0.830994129    0.310118079
    0.095662713    0.455994129    0.387647599
    0.845662832    0.330994129    0.000000018
    0.595662773    0.955994129    0.077529542
    0.345662802    0.580994129    0.155059054
    0.095662884    0.205994248    0.232588559
    0.845662832    0.830994129    0.310118079
    0.595662773    0.455994129    0.387647599
    0.223214284    0.227303505    0.471518010
    0.223214269    0.977303386    0.560440361
    0.223214149    0.727303267    0.649362683
    0.223214149    0.477303088    0.738284945
    0.223214030    0.227303028    0.827207208
    0.223214030    0.977302909    0.916129589
    0.889881015    0.560636878    0.471518010
    0.889880955    0.310636818    0.560440361
    0.889880896    0.060636640    0.649362683
    0.889880896    0.810636520    0.738284945
    0.889880836    0.560636461    0.827207267
    0.889880776    0.310636282    0.916129589
    0.556547701    0.893970191    0.471518010
    0.556547642    0.643970132    0.560440361
    0.556547582    0.393970013    0.649362683
    0.556547523    0.143969893    0.738284945
    0.556547463    0.893969834    0.827207267
    0.556547463    0.643969655    0.916129589
    0.556547642    0.393970191    0.471518010
    0.556547582    0.143970132    0.560440361
    0.556547523    0.893970013    0.649362683
    0.556547523    0.643969774    0.738284945
    0.556547523    0.393969715    0.827207208
    0.556547463    0.143969655    0.916129589
    0.223214284    0.727303505    0.471518010
    0.223214269    0.477303445    0.560440361
    0.223214149    0.227303386    0.649362683
    0.223214149    0.977303147    0.738284945
    0.223214030    0.727303147    0.827207208
    0.223214030    0.477302969    0.916129589
    0.889881074    0.060636997    0.471518010
    0.889881015    0.810636818    0.560440421
    0.889880896    0.560636699    0.649362683
    0.889880896    0.310636580    0.738284945
    0.889880776    0.060636520    0.827207267
    0.889880776    0.810636342    0.916129589
    0.806547642    0.393970191    0.471518040
    0.806547642    0.143970132    0.560440361
    0.806547582    0.893969893    0.649362683
    0.806547463    0.643969834    0.738284945
    0.806547523    0.393969774    0.827207208
    0.806547403    0.143969774    0.916129589
    0.473214269    0.727303505    0.471518040
    0.473214209    0.477303445    0.560440361
    0.473214209    0.227303386    0.649362683
    0.473214090    0.977303147    0.738284945
    0.473214030    0.727303147    0.827207267
    0.473214000    0.477302969    0.916129589
    0.139881015    0.060636878    0.471518010
    0.139880896    0.810636818    0.560440361
    0.139880776    0.560636640    0.649362683
    0.139880776    0.310636550    0.738284945
    0.139880776    0.060636520    0.827207208
    0.139880776    0.810636282    0.916129589
    0.473214328    0.227303505    0.471518010
    0.473214269    0.977303445    0.560440421
    0.473214269    0.727303267    0.649362683
    0.473214149    0.477303147    0.738284945
    0.473214090    0.227303147    0.827207267
    0.473213971    0.977303028    0.916129589
    0.139881134    0.560636878    0.471518040
    0.139881015    0.310636818    0.560440421
    0.139880896    0.060636640    0.649362683
    0.139880896    0.810636520    0.738284945
    0.139880896    0.560636461    0.827207208
    0.139880776    0.310636401    0.916129589
    0.806547701    0.893970191    0.471518040
    0.806547582    0.643970132    0.560440421
    0.806547523    0.393970013    0.649362683
    0.806547523    0.143969893    0.738284945
    0.806547463    0.893969834    0.827207208
    0.806547463    0.643969715    0.916129589
