Ge+Ge                                   
   1.00000000000000     
     8.0013380049999991    0.0000000000000000    0.0000000000000000
     4.0006690029999996   12.0020065309999993    0.0000000000000000
     0.0000000000000000    0.0000000000000000   11.6117439269999991
   Ge
    48
Direct
  0.9943054909999987  0.9943054909999987  0.0000000000000000
  0.8276388649999973  0.8276388649999973  0.2436240319999996
  0.6609721179999966  0.6609721179999966  0.4872480929999981
  0.3276388049999994  0.3276388049999994  0.0000000000000000
  0.1609721479999990  0.1609721479999990  0.2436240319999996
  0.9943054319999973  0.9943054319999973  0.4872480929999981
  0.6609721179999966  0.6609721179999966  0.0000000000000000
  0.4943054319999973  0.4943054319999973  0.2436240319999996
  0.3276387450000016  0.3276387450000016  0.4872480929999981
  0.2443054769999975  0.9943054909999987  0.1218120159999998
  0.0776387900000017  0.8276388649999973  0.3654360769999982
  0.9109721179999966  0.6609721179999966  0.6090602279999970
  0.5776388049999994  0.3276388049999994  0.1218120159999998
  0.4109721179999966  0.1609721330000013  0.3654360769999982
  0.2443054319999973  0.9943054319999973  0.6090602279999970
  0.9109721780000015  0.6609721179999966  0.1218120159999998
  0.7443054909999987  0.4943054619999998  0.3654360769999982
  0.5776388049999994  0.3276387749999969  0.6090602279999970
  0.4943054319999973  0.9943054909999987  0.0000000000000000
  0.3276387749999969  0.8276388649999973  0.2436240319999996
  0.1609720889999977  0.6609721179999966  0.4872480929999981
  0.1609721780000015  0.6609721179999966  0.0000000000000000
  0.9943054909999987  0.4943054619999998  0.2436240319999996
  0.8276388049999994  0.3276387749999969  0.4872480929999981
  0.8276387450000016  0.3276388350000019  0.0000000000000000
  0.6609721179999966  0.1609721629999967  0.2436240319999996
  0.4943054020000019  0.9943054909999987  0.4872480929999981
  0.0776388270000012  0.3276388350000019  0.1218120159999998
  0.9109721179999966  0.1609721479999990  0.3654360769999982
  0.7443054909999987  0.9943054909999987  0.6090602279999970
  0.7443054909999987  0.9943054909999987  0.1218120159999998
  0.5776388049999994  0.8276388049999994  0.3654360769999982
  0.4109720889999977  0.6609721179999966  0.6090602279999970
  0.4109721479999990  0.6609721179999966  0.1218120159999998
  0.2443054470000021  0.4943054020000019  0.3654360769999982
  0.0776387450000016  0.3276387160000027  0.6090602279999970
  0.0387959480000006  0.9392365220000016  0.7030200359999981
  0.6499070529999997  0.2170143130000000  0.7842280859999988
  0.2610181570000023  0.4947922229999975  0.8654361370000032
  0.5387959480000006  0.9392365220000016  0.7030200359999981
  0.1499070529999997  0.2170143130000000  0.7842280859999988
  0.7610180969999973  0.4947922229999975  0.8654361370000032
  0.8443514699999994  0.8281254770000004  0.7436240910000009
  0.4554626350000035  0.1059031489999995  0.8248321410000017
  0.0665735010000006  0.3836810589999970  0.9060401919999990
  0.3443514699999994  0.8281254770000004  0.7436240910000009
  0.9554626350000035  0.1059031489999995  0.8248321410000017
  0.5665736199999998  0.3836810589999970  0.9060401919999990
 
  0.00000000E+00  0.00000000E+00  0.00000000E+00
  0.00000000E+00  0.00000000E+00  0.00000000E+00
  0.00000000E+00  0.00000000E+00  0.00000000E+00
  0.00000000E+00  0.00000000E+00  0.00000000E+00
  0.00000000E+00  0.00000000E+00  0.00000000E+00
  0.00000000E+00  0.00000000E+00  0.00000000E+00
  0.00000000E+00  0.00000000E+00  0.00000000E+00
  0.00000000E+00  0.00000000E+00  0.00000000E+00
  0.00000000E+00  0.00000000E+00  0.00000000E+00
  0.00000000E+00  0.00000000E+00  0.00000000E+00
  0.00000000E+00  0.00000000E+00  0.00000000E+00
  0.00000000E+00  0.00000000E+00  0.00000000E+00
  0.00000000E+00  0.00000000E+00  0.00000000E+00
  0.00000000E+00  0.00000000E+00  0.00000000E+00
  0.00000000E+00  0.00000000E+00  0.00000000E+00
  0.00000000E+00  0.00000000E+00  0.00000000E+00
  0.00000000E+00  0.00000000E+00  0.00000000E+00
  0.00000000E+00  0.00000000E+00  0.00000000E+00
  0.00000000E+00  0.00000000E+00  0.00000000E+00
  0.00000000E+00  0.00000000E+00  0.00000000E+00
  0.00000000E+00  0.00000000E+00  0.00000000E+00
  0.00000000E+00  0.00000000E+00  0.00000000E+00
  0.00000000E+00  0.00000000E+00  0.00000000E+00
  0.00000000E+00  0.00000000E+00  0.00000000E+00
  0.00000000E+00  0.00000000E+00  0.00000000E+00
  0.00000000E+00  0.00000000E+00  0.00000000E+00
  0.00000000E+00  0.00000000E+00  0.00000000E+00
  0.00000000E+00  0.00000000E+00  0.00000000E+00
  0.00000000E+00  0.00000000E+00  0.00000000E+00
  0.00000000E+00  0.00000000E+00  0.00000000E+00
  0.00000000E+00  0.00000000E+00  0.00000000E+00
  0.00000000E+00  0.00000000E+00  0.00000000E+00
  0.00000000E+00  0.00000000E+00  0.00000000E+00
  0.00000000E+00  0.00000000E+00  0.00000000E+00
  0.00000000E+00  0.00000000E+00  0.00000000E+00
  0.00000000E+00  0.00000000E+00  0.00000000E+00
  0.00000000E+00  0.00000000E+00  0.00000000E+00
  0.00000000E+00  0.00000000E+00  0.00000000E+00
  0.00000000E+00  0.00000000E+00  0.00000000E+00
  0.00000000E+00  0.00000000E+00  0.00000000E+00
  0.00000000E+00  0.00000000E+00  0.00000000E+00
  0.00000000E+00  0.00000000E+00  0.00000000E+00
  0.00000000E+00  0.00000000E+00  0.00000000E+00
  0.00000000E+00  0.00000000E+00  0.00000000E+00
  0.00000000E+00  0.00000000E+00  0.00000000E+00
  0.00000000E+00  0.00000000E+00  0.00000000E+00
  0.00000000E+00  0.00000000E+00  0.00000000E+00
  0.00000000E+00  0.00000000E+00  0.00000000E+00
