Ge+Sn
    1.000000000
   11.315600395    0.000000000    0.000000000
    0.000000000   17.891534805    0.000000000
    0.000000000   -0.000000320   13.867381096
Ge  Sn 
48     48
Direct
    0.945568740    0.076203801    0.000000012
    0.695568681    0.426203907    0.064509526
    0.445568681    0.776203990    0.129019037
    0.195568621    0.126204133    0.193528622
    0.945568681    0.476204157    0.258038104
    0.695568681    0.826204300    0.322547555
    0.445568740    0.076203801    0.000000012
    0.195568711    0.426203907    0.064509526
    0.945568681    0.776203990    0.129019037
    0.695568681    0.126204133    0.193528622
    0.445568681    0.476204157    0.258038104
    0.195568621    0.826204300    0.322547555
    0.070568725    0.826203942    0.000000030
    0.820568681    0.176204085    0.064509511
    0.570568681    0.526204109    0.129018992
    0.320568621    0.876204133    0.193528607
    0.070568621    0.226204157    0.258038133
    0.820568562    0.576204300    0.322547615
    0.570568740    0.826203942    0.000000030
    0.320568740    0.176204085    0.064509511
    0.070568711    0.526204109    0.129018992
    0.820568681    0.876204133    0.193528607
    0.570568681    0.226204157    0.258038133
    0.320568621    0.576204300    0.322547615
    0.945568740    0.576203823    0.000000016
    0.695568681    0.926203907    0.064509496
    0.445568681    0.276203990    0.129019052
    0.195568621    0.626204133    0.193528548
    0.945568681    0.976204157    0.258038104
    0.695568681    0.326204300    0.322547615
    0.445568740    0.576203823    0.000000016
    0.195568711    0.926203907    0.064509496
    0.945568681    0.276203990    0.129019052
    0.695568681    0.626204133    0.193528548
    0.445568681    0.976204157    0.258038104
    0.195568621    0.326204300    0.322547615
    0.070568725    0.326203823    0.000000000
    0.820568681    0.676203966    0.064509533
    0.570568681    0.026203990    0.129019037
    0.320568621    0.376204133    0.193528563
    0.070568621    0.726204157    0.258038074
    0.820568562    0.076204300    0.322547525
    0.570568740    0.326203823    0.000000000
    0.320568740    0.676203966    0.064509533
    0.070568711    0.026203990    0.129019037
    0.820568681    0.376204133    0.193528563
    0.570568681    0.726204157    0.258038074
    0.320568621    0.076204300    0.322547525
    0.565928936    0.213803411    0.422475368
    0.232595444    0.088803411    0.517994761
    0.899262190    0.963803411    0.613514006
    0.565928817    0.838803411    0.709033370
    0.232595325    0.713803291    0.804552794
    0.899261832    0.588803291    0.900072098
    0.565928936    0.713803411    0.422475368
    0.232595444    0.588803291    0.517994761
    0.899262190    0.463803291    0.613514006
    0.565928817    0.338803291    0.709033370
    0.232595325    0.213803291    0.804552794
    0.899261832    0.088803291    0.900072098
    0.815928936    0.463803411    0.422475368
    0.482595563    0.338803411    0.517994761
    0.149262190    0.213803411    0.613514066
    0.815928817    0.088803411    0.709033370
    0.482595444    0.963803411    0.804552794
    0.149261832    0.838803291    0.900072217
    0.815928936    0.963803411    0.422475368
    0.482595444    0.838803411    0.517994761
    0.149262190    0.713803411    0.613514006
    0.815928817    0.588803411    0.709033370
    0.482595444    0.463803291    0.804552674
    0.149261832    0.338803291    0.900072217
    0.565928936    0.463803411    0.422475368
    0.232595444    0.338803411    0.517994761
    0.899262190    0.213803411    0.613514006
    0.565928817    0.088803411    0.709033370
    0.232595325    0.963803351    0.804552794
    0.899261951    0.838803291    0.900072098
    0.565928936    0.963803411    0.422475368
    0.232595444    0.838803411    0.517994761
    0.899262190    0.713803411    0.613514006
    0.565928817    0.588803411    0.709033370
    0.232595444    0.463803291    0.804552794
    0.899261832    0.338803291    0.900072098
    0.815928936    0.213803411    0.422475398
    0.482595563    0.088803411    0.517994761
    0.149262190    0.963803411    0.613514006
    0.815928817    0.838803411    0.709033370
    0.482595444    0.713803411    0.804552794
    0.149261951    0.588803291    0.900072098
    0.815928936    0.713803411    0.422475368
    0.482595563    0.588803291    0.517994761
    0.149262190    0.463803291    0.613514006
    0.815928817    0.338803291    0.709033370
    0.482595444    0.213803291    0.804552794
    0.149261951    0.088803291    0.900072098
