Sn+Ge                                   
   1.00000000000000     
    12.9784002300000001    0.0000000000000000    0.0000000000000000
   -12.9784002300000001   14.5102930069999996    0.0000000000000000
     0.0000000000000000    0.0000000000000000    6.2100000380000004
   Sn   Ge
    24    24
Direct
  0.4743584989999974  0.9743584989999974  0.0000000000000000
  0.1743583530000024  0.6743584279999979  0.2336601169999994
  0.8743582959999969  0.3743583560000019  0.4673203230000027
  0.9743584989999974  0.9743584989999974  0.0000000000000000
  0.6743583680000000  0.6743584279999979  0.2336601169999994
  0.3743582959999969  0.3743583560000019  0.4673203230000027
  0.6993584630000029  0.3243584929999983  0.1168298420000013
  0.3993583620000010  0.0243584460000008  0.3504899739999985
  0.0993583200000003  0.7243584389999995  0.5841500760000002
  0.1993584780000006  0.3243584929999983  0.1168298420000013
  0.8993583920000034  0.0243584460000008  0.3504899739999985
  0.5993583200000003  0.7243584389999995  0.5841500760000002
  0.7243584389999995  0.4743584989999974  0.0000000240000020
  0.4243583379999976  0.1743583980000025  0.2336601610000031
  0.1243581920000025  0.8743582959999969  0.4673203230000027
  0.2243584690000020  0.4743584989999974  0.0000000240000020
  0.9243583680000000  0.1743583980000025  0.2336601610000031
  0.6243582370000027  0.8743582959999969  0.4673203230000027
  0.9493585820000021  0.8243585820000021  0.1168298569999990
  0.6493585110000026  0.5243585710000005  0.3504899140000006
  0.3493583799999982  0.2243584989999974  0.5841500760000002
  0.4493587910000016  0.8243585820000021  0.1168298569999990
  0.1493586449999995  0.5243585710000005  0.3504899140000006
  0.8493585590000023  0.2243584989999974  0.5841500760000002
  0.9730072620000030  0.9035974740000015  0.5841500760000002
  0.8563405279999969  0.4869307279999973  0.6673200130000012
  0.7396737930000015  0.0702639820000002  0.7504899500000022
  0.6230069400000033  0.6535972360000031  0.8336601259999981
  0.5063402649999986  0.2369306089999981  0.9168299439999998
  0.3896734120000005  0.8202636239999990  0.0000000000000000
  0.4730072620000030  0.1535974439999990  0.5841500760000002
  0.3563404980000016  0.7369306679999994  0.6673200130000012
  0.2396737489999978  0.3202639820000002  0.7504900690000014
  0.1230069470000004  0.9035972360000031  0.8336600069999989
  0.0063401920000032  0.4869304899999989  0.9168299439999998
  0.8896735309999997  0.0702636239999990  0.9999998810000008
  0.4730072620000030  0.4035974439999990  0.5841501359999981
  0.3563404679999991  0.9869307279999973  0.6673200130000012
  0.2396737039999977  0.5702639820000002  0.7504900690000014
  0.1230069770000028  0.1535971759999981  0.8336600069999989
  0.0063402500000009  0.7369304899999989  0.9168299439999998
  0.8896734120000005  0.3202635049999998  0.0000000000000000
  0.9730072019999980  0.6535974740000015  0.5841501359999981
  0.8563404679999991  0.2369306829999971  0.6673201320000004
  0.7396737340000001  0.8202639220000023  0.7504900690000014
  0.6230069400000033  0.4035971759999981  0.8336600069999989
  0.5063402059999973  0.9869304899999989  0.9168299439999998
  0.3896734120000005  0.5702635049999998  0.0000000000000000
 
  0.00000000E+00  0.00000000E+00  0.00000000E+00
  0.00000000E+00  0.00000000E+00  0.00000000E+00
  0.00000000E+00  0.00000000E+00  0.00000000E+00
  0.00000000E+00  0.00000000E+00  0.00000000E+00
  0.00000000E+00  0.00000000E+00  0.00000000E+00
  0.00000000E+00  0.00000000E+00  0.00000000E+00
  0.00000000E+00  0.00000000E+00  0.00000000E+00
  0.00000000E+00  0.00000000E+00  0.00000000E+00
  0.00000000E+00  0.00000000E+00  0.00000000E+00
  0.00000000E+00  0.00000000E+00  0.00000000E+00
  0.00000000E+00  0.00000000E+00  0.00000000E+00
  0.00000000E+00  0.00000000E+00  0.00000000E+00
  0.00000000E+00  0.00000000E+00  0.00000000E+00
  0.00000000E+00  0.00000000E+00  0.00000000E+00
  0.00000000E+00  0.00000000E+00  0.00000000E+00
  0.00000000E+00  0.00000000E+00  0.00000000E+00
  0.00000000E+00  0.00000000E+00  0.00000000E+00
  0.00000000E+00  0.00000000E+00  0.00000000E+00
  0.00000000E+00  0.00000000E+00  0.00000000E+00
  0.00000000E+00  0.00000000E+00  0.00000000E+00
  0.00000000E+00  0.00000000E+00  0.00000000E+00
  0.00000000E+00  0.00000000E+00  0.00000000E+00
  0.00000000E+00  0.00000000E+00  0.00000000E+00
  0.00000000E+00  0.00000000E+00  0.00000000E+00
  0.00000000E+00  0.00000000E+00  0.00000000E+00
  0.00000000E+00  0.00000000E+00  0.00000000E+00
  0.00000000E+00  0.00000000E+00  0.00000000E+00
  0.00000000E+00  0.00000000E+00  0.00000000E+00
  0.00000000E+00  0.00000000E+00  0.00000000E+00
  0.00000000E+00  0.00000000E+00  0.00000000E+00
  0.00000000E+00  0.00000000E+00  0.00000000E+00
  0.00000000E+00  0.00000000E+00  0.00000000E+00
  0.00000000E+00  0.00000000E+00  0.00000000E+00
  0.00000000E+00  0.00000000E+00  0.00000000E+00
  0.00000000E+00  0.00000000E+00  0.00000000E+00
  0.00000000E+00  0.00000000E+00  0.00000000E+00
  0.00000000E+00  0.00000000E+00  0.00000000E+00
  0.00000000E+00  0.00000000E+00  0.00000000E+00
  0.00000000E+00  0.00000000E+00  0.00000000E+00
  0.00000000E+00  0.00000000E+00  0.00000000E+00
  0.00000000E+00  0.00000000E+00  0.00000000E+00
  0.00000000E+00  0.00000000E+00  0.00000000E+00
  0.00000000E+00  0.00000000E+00  0.00000000E+00
  0.00000000E+00  0.00000000E+00  0.00000000E+00
  0.00000000E+00  0.00000000E+00  0.00000000E+00
  0.00000000E+00  0.00000000E+00  0.00000000E+00
  0.00000000E+00  0.00000000E+00  0.00000000E+00
  0.00000000E+00  0.00000000E+00  0.00000000E+00
