Sn+Ge
    1.000000000
   12.978400230    0.000000000    0.000000000
  -12.978400230   14.510293007    0.000000000
    0.000000000    0.000000000    6.210000038
Sn  Ge 
24     24
Direct
    0.474358499    0.974358499    0.000000000
    0.174358353    0.674358428    0.233660117
    0.874358296    0.374358356    0.467320323
    0.974358499    0.974358499    0.000000000
    0.674358368    0.674358428    0.233660117
    0.374358296    0.374358356    0.467320323
    0.699358463    0.324358493    0.116829842
    0.399358362    0.024358446    0.350489974
    0.099358320    0.724358439    0.584150076
    0.199358478    0.324358493    0.116829842
    0.899358392    0.024358446    0.350489974
    0.599358320    0.724358439    0.584150076
    0.724358439    0.474358499    0.000000024
    0.424358338    0.174358398    0.233660161
    0.124358192    0.874358296    0.467320323
    0.224358469    0.474358499    0.000000024
    0.924358368    0.174358398    0.233660161
    0.624358237    0.874358296    0.467320323
    0.949358582    0.824358582    0.116829857
    0.649358511    0.524358571    0.350489914
    0.349358380    0.224358499    0.584150076
    0.449358791    0.824358582    0.116829857
    0.149358645    0.524358571    0.350489914
    0.849358559    0.224358499    0.584150076
    0.973007262    0.903597474    0.584150076
    0.856340528    0.486930728    0.667320013
    0.739673793    0.070263982    0.750489950
    0.623006940    0.653597236    0.833660126
    0.506340265    0.236930609    0.916829944
    0.389673412    0.820263624    1.000000000
    0.473007262    0.153597444    0.584150076
    0.356340498    0.736930668    0.667320013
    0.239673749    0.320263982    0.750490069
    0.123006947    0.903597236    0.833660007
    0.006340192    0.486930490    0.916829944
    0.889673531    0.070263624    0.999999881
    0.473007262    0.403597444    0.584150136
    0.356340468    0.986930728    0.667320013
    0.239673704    0.570263982    0.750490069
    0.123006977    0.153597176    0.833660007
    0.006340250    0.736930490    0.916829944
    0.889673412    0.320263505    1.000000000
    0.973007202    0.653597474    0.584150136
    0.856340468    0.236930683    0.667320132
    0.739673734    0.820263922    0.750490069
    0.623006940    0.403597176    0.833660007
    0.506340206    0.986930490    0.916829944
    0.389673412    0.570263505    1.000000000
