fcc Si+fcc Ge
    1.000000000
    9.491638425    0.000000000    0.000000000
    0.000000000   13.423203790    0.000000000
    0.000000000    0.000000000   24.092923856
Si    Ge   
72     72
Direct
    0.000000000    0.000000000    0.000000000
    0.000000000    0.750000000    0.080416665
    0.000000000    0.500000000    0.160833329
    0.000000000    0.250000000    0.241249994
    0.448581560    0.991228070    0.493396442
    0.000000000    0.750000000    0.402083324
    0.365248227    0.074561404    0.908686882
    0.333333333    0.083333333    0.080416665
    0.333333333    0.833333333    0.160833329
    0.333333333    0.583333333    0.241249994
    0.333333333    0.333333333    0.321666659
    0.365248227    0.824561404    0.493396442
    0.031914894    0.407894737    0.908686882
    0.666666667    0.416666667    0.080416665
    0.666666667    0.166666667    0.160833329
    0.666666667    0.916666667    0.241249994
    0.666666667    0.666666667    0.321666659
    0.031914894    0.157894737    0.493396442
    0.698581560    0.741228070    0.908686882
    0.448581560    0.241228070    0.908686882
    0.000000000    0.000000000    0.160833329
    0.000000000    0.750000000    0.241249994
    0.000000000    0.500000000    0.321666659
    0.698581560    0.491228070    0.493396442
    0.365248227    0.574561404    0.908686882
    0.333333333    0.583333333    0.080416665
    0.333333333    0.333333333    0.160833329
    0.333333333    0.083333333    0.241249994
    0.333333333    0.833333333    0.321666659
    0.365248227    0.324561404    0.493396442
    0.666666667    0.166666667    0.000000000
    0.666666667    0.916666667    0.080416665
    0.666666667    0.666666667    0.160833329
    0.666666667    0.416666667    0.241249994
    0.666666667    0.166666667    0.321666659
    0.666666667    0.916666667    0.402083324
    0.083333333    0.333333333    0.000000000
    0.083333333    0.083333333    0.080416665
    0.083333333    0.833333333    0.160833329
    0.083333333    0.583333333    0.241249994
    0.083333333    0.333333333    0.321666659
    0.083333333    0.083333333    0.402083324
    0.416666667    0.666666667    0.000000000
    0.416666667    0.416666667    0.080416665
    0.416666667    0.166666667    0.160833329
    0.416666667    0.916666667    0.241249994
    0.416666667    0.666666667    0.321666659
    0.416666667    0.416666667    0.402083324
    0.750000000    0.000000000    0.000000000
    0.750000000    0.750000000    0.080416665
    0.750000000    0.500000000    0.160833329
    0.750000000    0.250000000    0.241249994
    0.750000000    0.000000000    0.321666659
    0.750000000    0.750000000    0.402083324
    0.083333333    0.833333333    0.000000000
    0.083333333    0.583333333    0.080416665
    0.083333333    0.333333333    0.160833329
    0.083333333    0.083333333    0.241249994
    0.083333333    0.833333333    0.321666659
    0.083333333    0.583333333    0.402083324
    0.416666667    0.166666667    0.000000000
    0.416666667    0.916666667    0.080416665
    0.416666667    0.666666667    0.160833329
    0.416666667    0.416666667    0.241249994
    0.416666667    0.166666667    0.321666659
    0.416666667    0.916666667    0.402083324
    0.115248227    0.574561404    0.908686882
    0.750000000    0.250000000    0.080416665
    0.750000000    0.000000000    0.160833329
    0.750000000    0.750000000    0.241249994
    0.750000000    0.500000000    0.321666659
    0.115248227    0.324561404    0.493396442
    0.666666667    0.416666667    0.402083324
    0.031914894    0.407894737    0.576454530
    0.031914894    0.657894737    0.659512618
    0.031914894    0.907894737    0.742570706
    0.031914894    0.157894737    0.825628794
    0.666666667    0.666666667    0.000000000
    0.333333333    0.083333333    0.402083324
    0.365248227    0.074561404    0.576454530
    0.365248227    0.324561404    0.659512618
    0.365248227    0.574561404    0.742570706
    0.365248227    0.824561404    0.825628794
    0.333333333    0.333333333    0.000000000
    0.000000000    0.250000000    0.402083324
    0.698581560    0.741228070    0.576454530
    0.698581560    0.991228070    0.659512618
    0.698581560    0.241228070    0.742570706
    0.698581560    0.491228070    0.825628794
    0.000000000    0.500000000    0.000000000
    0.031914894    0.657894737    0.493396442
    0.031914894    0.907894737    0.576454530
    0.031914894    0.157894737    0.659512618
    0.031914894    0.407894737    0.742570706
    0.031914894    0.657894737    0.825628794
    0.031914894    0.907894737    0.908686882
    0.333333333    0.583333333    0.402083324
    0.365248227    0.574561404    0.576454530
    0.365248227    0.824561404    0.659512618
    0.365248227    0.074561404    0.742570706
    0.365248227    0.324561404    0.825628794
    0.333333333    0.833333333    0.000000000
    0.698581560    0.991228070    0.493396442
    0.698581560    0.241228070    0.576454530
    0.698581560    0.491228070    0.659512618
    0.698581560    0.741228070    0.742570706
    0.698581560    0.991228070    0.825628794
    0.698581560    0.241228070    0.908686882
    0.115248227    0.824561404    0.493396442
    0.115248227    0.074561404    0.576454530
    0.115248227    0.324561404    0.659512618
    0.115248227    0.574561404    0.742570706
    0.115248227    0.824561404    0.825628794
    0.115248227    0.074561404    0.908686882
    0.448581560    0.491228070    0.493396442
    0.448581560    0.741228070    0.576454530
    0.448581560    0.991228070    0.659512618
    0.448581560    0.241228070    0.742570706
    0.448581560    0.491228070    0.825628794
    0.448581560    0.741228070    0.908686882
    0.781914894    0.157894737    0.493396442
    0.781914894    0.407894737    0.576454530
    0.781914894    0.657894737    0.659512618
    0.781914894    0.907894737    0.742570706
    0.781914894    0.157894737    0.825628794
    0.781914894    0.407894737    0.908686882
    0.750000000    0.250000000    0.402083324
    0.115248227    0.574561404    0.576454530
    0.115248227    0.824561404    0.659512618
    0.115248227    0.074561404    0.742570706
    0.115248227    0.324561404    0.825628794
    0.750000000    0.500000000    0.000000000
    0.000000000    0.000000000    0.321666659
    0.448581560    0.241228070    0.576454530
    0.448581560    0.491228070    0.659512618
    0.448581560    0.741228070    0.742570706
    0.448581560    0.991228070    0.825628794
    0.000000000    0.250000000    0.080416665
    0.781914894    0.657894737    0.493396442
    0.781914894    0.907894737    0.576454530
    0.781914894    0.157894737    0.659512618
    0.781914894    0.407894737    0.742570706
    0.781914894    0.657894737    0.825628794
    0.781914894    0.907894737    0.908686882
