fcc Si+fcc Ge                           
   1.00000000000000     
    13.4232037900000005    0.0000000000000000    0.0000000000000000
     6.7116018950000003   15.0075980760000007    0.0000000000000000
     0.0000000000000000    0.0000000000000000    7.8274493170000001
   Si   Ge
    36    36
Direct
  0.3999999999999986  0.2000000000000028  0.3130943939999966
  0.3333333329999988  0.6666666670000012  0.0000000000000000
  0.8666666669999969  0.4333333330000002  0.1565471970000019
  0.7333333329999974  0.8666666669999969  0.3130943939999966
  0.6666666670000012  0.3333333329999988  0.0000000000000000
  0.2000000000000028  0.1000000000000014  0.1565471970000019
  0.0666666669999998  0.5333333330000016  0.3130943939999966
  0.0000000000000000  0.0000000000000000  0.0000000000000000
  0.5333333330000016  0.7666666670000026  0.1565471970000019
  0.8999999999999986  0.2000000000000028  0.3130943939999966
  0.8333333329999988  0.6666666670000012  0.0000000000000000
  0.3666666669999969  0.4333333330000002  0.1565471970000019
  0.2333333329999974  0.8666666669999969  0.3130943939999966
  0.1666666670000012  0.3333333329999988  0.0000000000000000
  0.7000000000000028  0.1000000000000014  0.1565471970000019
  0.5666666669999998  0.5333333330000016  0.3130943939999966
  0.5000000000000000  0.0000000000000000  0.0000000000000000
  0.0333333330000016  0.7666666670000026  0.1565471970000019
  0.4166666670000012  0.3333333329999988  0.3913679930000029
  0.3500000000000014  0.7999999999999972  0.0782735989999992
  0.8833333330000031  0.5666666669999998  0.2348207960000011
  0.7500000000000000  0.0000000000000000  0.3913679930000029
  0.6833333330000002  0.4666666669999984  0.0782735989999992
  0.2166666669999984  0.2333333329999974  0.2348207960000011
  0.0833333329999988  0.6666666670000012  0.3913679930000029
  0.0166666670000026  0.1333333330000031  0.0782735989999992
  0.5499999999999972  0.8999999999999986  0.2348207960000011
  0.9166666670000012  0.3333333329999988  0.3913679930000029
  0.8500000000000014  0.7999999999999972  0.0782735989999992
  0.3833333330000031  0.5666666669999998  0.2348207960000011
  0.2500000000000000  0.0000000000000000  0.3913679930000029
  0.1833333330000002  0.4666666669999984  0.0782735989999992
  0.7166666669999984  0.2333333329999974  0.2348207960000011
  0.5833333329999988  0.6666666670000012  0.3913679930000029
  0.5166666670000026  0.1333333330000031  0.0782735989999992
  0.0499999999999972  0.8999999999999986  0.2348207960000011
  0.8345864659999975  0.1717791410000018  0.4935724230000034
  0.5345864660000004  0.9384458079999973  0.6552616820000026
  0.2345864660000032  0.7051124740000034  0.8169509399999981
  0.8345864659999975  0.5051124740000006  0.4935724230000034
  0.5345864660000004  0.2717791410000032  0.6552616820000026
  0.2345864660000032  0.0384458079999987  0.8169509399999981
  0.8345864659999975  0.8384458080000030  0.4935724230000034
  0.5345864660000004  0.6051124740000020  0.6552616820000026
  0.2345864660000032  0.3717791409999975  0.8169509399999981
  0.3345864659999975  0.1717791410000018  0.4935724230000034
  0.0345864660000004  0.9384458079999973  0.6552616820000026
  0.7345864660000032  0.7051124740000034  0.8169509399999981
  0.3345864659999975  0.5051124740000006  0.4935724230000034
  0.0345864660000004  0.2717791410000032  0.6552616820000026
  0.7345864660000032  0.0384458079999987  0.8169509399999981
  0.3345864659999975  0.8384458080000030  0.4935724230000034
  0.0345864660000004  0.6051124740000020  0.6552616820000026
  0.7345864660000032  0.3717791409999975  0.8169509399999981
  0.6845864659999989  0.4717791409999990  0.5744170529999977
  0.3845864660000018  0.2384458080000016  0.7361063110000003
  0.0845864659999975  0.0051124740000006  0.8977955690000030
  0.6845864659999989  0.8051124739999977  0.5744170529999977
  0.3845864660000018  0.5717791410000004  0.7361063110000003
  0.0845864659999975  0.3384458080000030  0.8977955690000030
  0.6845864659999989  0.1384458080000002  0.5744170529999977
  0.3845864660000018  0.9051124739999992  0.7361063110000003
  0.0845864659999975  0.6717791410000018  0.8977955690000030
  0.1845864659999989  0.4717791409999990  0.5744170529999977
  0.8845864660000018  0.2384458080000016  0.7361063110000003
  0.5845864659999975  0.0051124740000006  0.8977955690000030
  0.1845864659999989  0.8051124739999977  0.5744170529999977
  0.8845864660000018  0.5717791410000004  0.7361063110000003
  0.5845864659999975  0.3384458080000030  0.8977955690000030
  0.1845864659999989  0.1384458080000002  0.5744170529999977
  0.8845864660000018  0.9051124739999992  0.7361063110000003
  0.5845864659999975  0.6717791410000018  0.8977955690000030
 
  0.00000000E+00  0.00000000E+00  0.00000000E+00
  0.00000000E+00  0.00000000E+00  0.00000000E+00
  0.00000000E+00  0.00000000E+00  0.00000000E+00
  0.00000000E+00  0.00000000E+00  0.00000000E+00
  0.00000000E+00  0.00000000E+00  0.00000000E+00
  0.00000000E+00  0.00000000E+00  0.00000000E+00
  0.00000000E+00  0.00000000E+00  0.00000000E+00
  0.00000000E+00  0.00000000E+00  0.00000000E+00
  0.00000000E+00  0.00000000E+00  0.00000000E+00
  0.00000000E+00  0.00000000E+00  0.00000000E+00
  0.00000000E+00  0.00000000E+00  0.00000000E+00
  0.00000000E+00  0.00000000E+00  0.00000000E+00
  0.00000000E+00  0.00000000E+00  0.00000000E+00
  0.00000000E+00  0.00000000E+00  0.00000000E+00
  0.00000000E+00  0.00000000E+00  0.00000000E+00
  0.00000000E+00  0.00000000E+00  0.00000000E+00
  0.00000000E+00  0.00000000E+00  0.00000000E+00
  0.00000000E+00  0.00000000E+00  0.00000000E+00
  0.00000000E+00  0.00000000E+00  0.00000000E+00
  0.00000000E+00  0.00000000E+00  0.00000000E+00
  0.00000000E+00  0.00000000E+00  0.00000000E+00
  0.00000000E+00  0.00000000E+00  0.00000000E+00
  0.00000000E+00  0.00000000E+00  0.00000000E+00
  0.00000000E+00  0.00000000E+00  0.00000000E+00
  0.00000000E+00  0.00000000E+00  0.00000000E+00
  0.00000000E+00  0.00000000E+00  0.00000000E+00
  0.00000000E+00  0.00000000E+00  0.00000000E+00
  0.00000000E+00  0.00000000E+00  0.00000000E+00
  0.00000000E+00  0.00000000E+00  0.00000000E+00
  0.00000000E+00  0.00000000E+00  0.00000000E+00
  0.00000000E+00  0.00000000E+00  0.00000000E+00
  0.00000000E+00  0.00000000E+00  0.00000000E+00
  0.00000000E+00  0.00000000E+00  0.00000000E+00
  0.00000000E+00  0.00000000E+00  0.00000000E+00
  0.00000000E+00  0.00000000E+00  0.00000000E+00
  0.00000000E+00  0.00000000E+00  0.00000000E+00
  0.00000000E+00  0.00000000E+00  0.00000000E+00
  0.00000000E+00  0.00000000E+00  0.00000000E+00
  0.00000000E+00  0.00000000E+00  0.00000000E+00
  0.00000000E+00  0.00000000E+00  0.00000000E+00
  0.00000000E+00  0.00000000E+00  0.00000000E+00
  0.00000000E+00  0.00000000E+00  0.00000000E+00
  0.00000000E+00  0.00000000E+00  0.00000000E+00
  0.00000000E+00  0.00000000E+00  0.00000000E+00
  0.00000000E+00  0.00000000E+00  0.00000000E+00
  0.00000000E+00  0.00000000E+00  0.00000000E+00
  0.00000000E+00  0.00000000E+00  0.00000000E+00
  0.00000000E+00  0.00000000E+00  0.00000000E+00
  0.00000000E+00  0.00000000E+00  0.00000000E+00
  0.00000000E+00  0.00000000E+00  0.00000000E+00
  0.00000000E+00  0.00000000E+00  0.00000000E+00
  0.00000000E+00  0.00000000E+00  0.00000000E+00
  0.00000000E+00  0.00000000E+00  0.00000000E+00
  0.00000000E+00  0.00000000E+00  0.00000000E+00
  0.00000000E+00  0.00000000E+00  0.00000000E+00
  0.00000000E+00  0.00000000E+00  0.00000000E+00
  0.00000000E+00  0.00000000E+00  0.00000000E+00
  0.00000000E+00  0.00000000E+00  0.00000000E+00
  0.00000000E+00  0.00000000E+00  0.00000000E+00
  0.00000000E+00  0.00000000E+00  0.00000000E+00
  0.00000000E+00  0.00000000E+00  0.00000000E+00
  0.00000000E+00  0.00000000E+00  0.00000000E+00
  0.00000000E+00  0.00000000E+00  0.00000000E+00
  0.00000000E+00  0.00000000E+00  0.00000000E+00
  0.00000000E+00  0.00000000E+00  0.00000000E+00
  0.00000000E+00  0.00000000E+00  0.00000000E+00
  0.00000000E+00  0.00000000E+00  0.00000000E+00
  0.00000000E+00  0.00000000E+00  0.00000000E+00
  0.00000000E+00  0.00000000E+00  0.00000000E+00
  0.00000000E+00  0.00000000E+00  0.00000000E+00
  0.00000000E+00  0.00000000E+00  0.00000000E+00
  0.00000000E+00  0.00000000E+00  0.00000000E+00
