Ge+Si                                   
   1.00000000000000     
    16.0026760099999983    0.0000000000000000    0.0000000000000000
     0.0000000000000000   16.9734001160000005    0.0000000000000000
     0.0000000000000000    0.0000000000000000   14.2952623370000005
   Ge   Si
   144    72
Direct
  0.9896892309999998  0.9862523079999974  0.0000000269999987
  0.8646892309999998  0.8195856210000017  0.1399298910000013
  0.7396892309999998  0.6529189350000024  0.2798598110000015
  0.6146892309999998  0.4862522479999996  0.4197896419999978
  0.4896892909999977  0.3195855620000003  0.5597195029999966
  0.3646892309999998  0.1529188749999975  0.6996495129999971
  0.9896892309999998  0.3195856509999970  0.0000000269999987
  0.8646892309999998  0.1529189500000001  0.1399298910000013
  0.7396892309999998  0.9862522479999996  0.2798598110000015
  0.6146892309999998  0.8195855620000003  0.4197896419999978
  0.4896892909999977  0.6529189350000024  0.5597195029999966
  0.3646892309999998  0.4862521889999982  0.6996495129999971
  0.9896892309999998  0.6529189939999966  0.0000000269999987
  0.8646892309999998  0.4862523079999974  0.1399298910000013
  0.7396892309999998  0.3195855920000028  0.2798598110000015
  0.6146892309999998  0.1529189350000024  0.4197896419999978
  0.4896892909999977  0.9862522479999996  0.5597195029999966
  0.3646892309999998  0.8195855620000003  0.6996495129999971
  0.4896892309999998  0.9862523079999974  0.0000000240000020
  0.3646892309999998  0.8195856210000017  0.1399299059999990
  0.2396892160000021  0.6529189350000024  0.2798598110000015
  0.1146892309999998  0.4862522479999996  0.4197897020000028
  0.9896892309999998  0.3195855620000003  0.5597195630000016
  0.8646892309999998  0.1529188749999975  0.6996494529999993
  0.4896892309999998  0.3195856509999970  0.0000000240000020
  0.3646892309999998  0.1529189500000001  0.1399299059999990
  0.2396892160000021  0.9862522479999996  0.2798598110000015
  0.1146892309999998  0.8195855620000003  0.4197897020000028
  0.9896892309999998  0.6529189350000024  0.5597195630000016
  0.8646892309999998  0.4862521889999982  0.6996494529999993
  0.4896892309999998  0.6529189939999966  0.0000000240000020
  0.3646892309999998  0.4862523079999974  0.1399299059999990
  0.2396892160000021  0.3195855920000028  0.2798598110000015
  0.1146892309999998  0.1529189350000024  0.4197897020000028
  0.9896892309999998  0.9862522479999996  0.5597195630000016
  0.8646892309999998  0.8195855620000003  0.6996494529999993
  0.2396892309999998  0.9862523079999974  0.0000000329999992
  0.1146892309999998  0.8195856210000017  0.1399299059999990
  0.9896892309999998  0.6529189350000024  0.2798598110000015
  0.8646892309999998  0.4862522479999996  0.4197897020000028
  0.7396892309999998  0.3195855620000003  0.5597195630000016
  0.6146892309999998  0.1529188749999975  0.6996495129999971
  0.2396892309999998  0.3195856509999970  0.0000000329999992
  0.1146892309999998  0.1529189500000001  0.1399299059999990
  0.9896892309999998  0.9862522479999996  0.2798598110000015
  0.8646892309999998  0.8195855620000003  0.4197897020000028
  0.7396892309999998  0.6529189350000024  0.5597195630000016
  0.6146892309999998  0.4862521889999982  0.6996495129999971
  0.2396892309999998  0.6529189939999966  0.0000000329999992
  0.1146892309999998  0.4862523079999974  0.1399299059999990
  0.9896892309999998  0.3195855920000028  0.2798598110000015
  0.8646892309999998  0.1529189350000024  0.4197897020000028
  0.7396892309999998  0.9862522479999996  0.5597195630000016
  0.6146892309999998  0.8195855620000003  0.6996495129999971
  0.7396892309999998  0.9862523079999974  0.0000000149999977
  0.6146892309999998  0.8195856210000017  0.1399299059999990
  0.4896892009999974  0.6529189350000024  0.2798597809999990
  0.3646892309999998  0.4862522479999996  0.4197897020000028
  0.2396892459999975  0.3195855620000003  0.5597195630000016
  0.1146892309999998  0.1529188749999975  0.6996494529999993
  0.7396892309999998  0.3195856509999970  0.0000000149999977
  0.6146892309999998  0.1529189500000001  0.1399299059999990
  0.4896892009999974  0.9862522479999996  0.2798597809999990
  0.3646892309999998  0.8195855620000003  0.4197897020000028
  0.2396892459999975  0.6529189350000024  0.5597195630000016
  0.1146892309999998  0.4862521889999982  0.6996494529999993
  0.7396892309999998  0.6529189939999966  0.0000000149999977
  0.6146892309999998  0.4862523079999974  0.1399299059999990
  0.4896892009999974  0.3195855920000028  0.2798597809999990
  0.3646892309999998  0.1529189350000024  0.4197897020000028
  0.2396892459999975  0.9862522479999996  0.5597195630000016
  0.1146892309999998  0.8195855620000003  0.6996494529999993
  0.3646892309999998  0.2362523079999974  0.0000000160000013
  0.2396892309999998  0.0695856210000017  0.1399298910000013
  0.1146892089999980  0.9029188749999975  0.2798597809999990
  0.9896892309999998  0.7362521889999982  0.4197897020000028
  0.8646892309999998  0.5695855620000003  0.5597195630000016
  0.7396892309999998  0.4029188749999975  0.6996495129999971
  0.3646892309999998  0.5695856809999995  0.0000000160000013
  0.2396892309999998  0.4029189939999966  0.1399298910000013
  0.1146892089999980  0.2362522929999997  0.2798597809999990
  0.9896892309999998  0.0695856139999975  0.4197897020000028
  0.8646892309999998  0.9029189350000024  0.5597195630000016
  0.7396892309999998  0.7362521889999982  0.6996495129999971
  0.3646892309999998  0.9029189939999966  0.0000000160000013
  0.2396892309999998  0.7362523079999974  0.1399298910000013
  0.1146892089999980  0.5695855620000003  0.2798597809999990
  0.9896892309999998  0.4029189049999999  0.4197897020000028
  0.8646892309999998  0.2362522629999972  0.5597195630000016
  0.7396892309999998  0.0695855470000026  0.6996495129999971
  0.8646892909999977  0.2362523079999974  0.0000000000000000
  0.7396892909999977  0.0695856210000017  0.1399298910000013
  0.6146892909999977  0.9029188749999975  0.2798597809999990
  0.4896892909999977  0.7362521889999982  0.4197896419999978
  0.3646892909999977  0.5695855620000003  0.5597195029999966
  0.2396892909999977  0.4029188749999975  0.6996494529999993
  0.8646892909999977  0.5695856809999995  0.0000000000000000
  0.7396892909999977  0.4029189939999966  0.1399298910000013
  0.6146892909999977  0.2362522929999997  0.2798597809999990
  0.4896892909999977  0.0695856139999975  0.4197896419999978
  0.3646892909999977  0.9029189350000024  0.5597195029999966
  0.2396892909999977  0.7362521889999982  0.6996494529999993
  0.8646892909999977  0.9029189939999966  0.0000000000000000
  0.7396892909999977  0.7362523079999974  0.1399298910000013
  0.6146892909999977  0.5695855620000003  0.2798597809999990
  0.4896892909999977  0.4029189049999999  0.4197896419999978
  0.3646892909999977  0.2362522629999972  0.5597195029999966
  0.2396892909999977  0.0695855470000026  0.6996494529999993
  0.1146892229999992  0.2362523079999974  0.0000000300000025
  0.9896892309999998  0.0695856210000017  0.1399299059999990
  0.8646892309999998  0.9029188749999975  0.2798597809999990
  0.7396892309999998  0.7362521889999982  0.4197897020000028
  0.6146892309999998  0.5695855620000003  0.5597195630000016
  0.4896892309999998  0.4029188749999975  0.6996494529999993
  0.1146892229999992  0.5695856809999995  0.0000000300000025
  0.9896892309999998  0.4029189939999966  0.1399299059999990
  0.8646892309999998  0.2362522929999997  0.2798597809999990
  0.7396892309999998  0.0695856139999975  0.4197897020000028
  0.6146892309999998  0.9029189350000024  0.5597195630000016
  0.4896892309999998  0.7362521889999982  0.6996494529999993
  0.1146892229999992  0.9029189939999966  0.0000000300000025
  0.9896892309999998  0.7362523079999974  0.1399299059999990
  0.8646892309999998  0.5695855620000003  0.2798597809999990
  0.7396892309999998  0.4029189049999999  0.4197897020000028
  0.6146892309999998  0.2362522629999972  0.5597195630000016
  0.4896892309999998  0.0695855470000026  0.6996494529999993
  0.6146892309999998  0.2362523079999974  0.0000000080000007
  0.4896892309999998  0.0695856210000017  0.1399299059999990
  0.3646892309999998  0.9029188749999975  0.2798597809999990
  0.2396892309999998  0.7362521889999982  0.4197897020000028
  0.1146892530000017  0.5695855620000003  0.5597195029999966
  0.9896892309999998  0.4029188749999975  0.6996494529999993
  0.6146892309999998  0.5695856809999995  0.0000000080000007
  0.4896892309999998  0.4029189939999966  0.1399299059999990
  0.3646892309999998  0.2362522929999997  0.2798597809999990
  0.2396892309999998  0.0695856139999975  0.4197897020000028
  0.1146892530000017  0.9029189350000024  0.5597195029999966
  0.9896892309999998  0.7362521889999982  0.6996494529999993
  0.6146892309999998  0.9029189939999966  0.0000000080000007
  0.4896892309999998  0.7362523079999974  0.1399299059999990
  0.3646892309999998  0.5695855620000003  0.2798597809999990
  0.2396892309999998  0.4029189049999999  0.4197897020000028
  0.1146892530000017  0.2362522629999972  0.5597195029999966
  0.9896892309999998  0.0695855470000026  0.6996494529999993
  0.1303789019999968  0.8262046580000018  0.0000000000000000
  0.9637124540000030  0.0762039119999969  0.6996495719999984
  0.7970457079999989  0.4262040260000006  0.7597196099999977
  0.6303790810000010  0.7762041690000032  0.8197897670000032
  0.4637122749999989  0.1262044910000029  0.8798599240000016
  0.2970455290000018  0.4762046339999984  0.9399299620000008
  0.4637122749999989  0.8262046580000018  0.0000000000000000
  0.2970457970000027  0.0762039119999969  0.6996495719999984
  0.1303790810000010  0.4262040260000006  0.7597196099999977
  0.9637123939999981  0.7762041690000032  0.8197897670000032
  0.7970455880000031  0.1262044910000029  0.8798599240000016
  0.6303788419999989  0.4762046339999984  0.9399299620000008
  0.7970455880000031  0.8262046580000018  0.0000000000000000
  0.6303791400000023  0.0762039119999969  0.6996495719999984
  0.4637124240000006  0.4262040260000006  0.7597196099999977
  0.2970457670000002  0.7762041690000032  0.8197897670000032
  0.1303789760000029  0.1262044910000029  0.8798599240000016
  0.9637122150000010  0.4762046339999984  0.9399299620000008
  0.2137122150000010  0.5762047770000009  0.0000000000000000
  0.0470457670000002  0.8262040019999972  0.6996494529999993
  0.8803790810000010  0.1762042049999977  0.7597196099999977
  0.7137123349999968  0.5262044669999995  0.8197896479999969
  0.5470455880000031  0.8762046100000020  0.8798598050000024
  0.3803789620000018  0.2262046339999984  0.9399299620000008
  0.5470455880000031  0.5762047770000009  0.0000000000000000
  0.3803790810000010  0.8262040019999972  0.6996494529999993
  0.2137123790000004  0.1762042049999977  0.7597196099999977
  0.0470456930000012  0.5262044669999995  0.8197896479999969
  0.8803789620000018  0.8762046100000020  0.8798598050000024
  0.7137123349999968  0.2262046339999984  0.9399299620000008
  0.8803789019999968  0.5762047770000009  0.0000000000000000
  0.7137123939999981  0.8262040019999972  0.6996494529999993
  0.5470457079999989  0.1762042049999977  0.7597196099999977
  0.3803789910000006  0.5262044669999995  0.8197896479999969
  0.2137122299999987  0.8762046100000020  0.8798598050000024
  0.0470455809999990  0.2262046339999984  0.9399299620000008
  0.1303789019999968  0.3262047770000009  0.0000000000000000
  0.9637123939999981  0.5762040019999972  0.6996494529999993
  0.7970457079999989  0.9262041449999998  0.7597196099999977
  0.6303790210000031  0.2762042279999974  0.8197896479999969
  0.4637122749999989  0.6262044910000029  0.8798599240000016
  0.2970456480000010  0.9762046339999984  0.9399299620000008
  0.4637122749999989  0.3262047770000009  0.0000000000000000
  0.2970457670000002  0.5762040019999972  0.6996494529999993
  0.1303790509999985  0.9262041449999998  0.7597196099999977
  0.9637123939999981  0.2762042279999974  0.8197896479999969
  0.7970455880000031  0.6262044910000029  0.8798599240000016
  0.6303789620000018  0.9762046339999984  0.9399299620000008
  0.7970455880000031  0.3262047770000009  0.0000000000000000
  0.6303791400000023  0.5762040019999972  0.6996494529999993
  0.4637123939999981  0.9262041449999998  0.7597196099999977
  0.2970457380000013  0.2762042279999974  0.8197896479999969
  0.1303789760000029  0.6262044910000029  0.8798599240000016
  0.9637123349999968  0.9762046339999984  0.9399299620000008
  0.2137122150000010  0.0762047770000009  0.0000000000000000
  0.0470457670000002  0.3262039119999969  0.6996495719999984
  0.8803790810000010  0.6762040260000006  0.7597196099999977
  0.7137123939999981  0.0262042279999974  0.8197896479999969
  0.5470455880000031  0.3762044910000029  0.8798598050000024
  0.3803788419999989  0.7262047529999975  0.9399299620000008
  0.5470455880000031  0.0762047770000009  0.0000000000000000
  0.3803791110000034  0.3262039119999969  0.6996495719999984
  0.2137124090000029  0.6762040260000006  0.7597196099999977
  0.0470457260000003  0.0262042279999974  0.8197896479999969
  0.8803789620000018  0.3762044910000029  0.8798598050000024
  0.7137122150000010  0.7262047529999975  0.9399299620000008
  0.8803789620000018  0.0762047770000009  0.0000000000000000
  0.7137124540000030  0.3262039119999969  0.6996495719999984
  0.5470457670000002  0.6762040260000006  0.7597196099999977
  0.3803790810000010  0.0262042279999974  0.8197896479999969
  0.2137122899999966  0.3762044910000029  0.8798598050000024
  0.0470455399999992  0.7262047529999975  0.9399299620000008
 
  0.00000000E+00  0.00000000E+00  0.00000000E+00
  0.00000000E+00  0.00000000E+00  0.00000000E+00
  0.00000000E+00  0.00000000E+00  0.00000000E+00
  0.00000000E+00  0.00000000E+00  0.00000000E+00
  0.00000000E+00  0.00000000E+00  0.00000000E+00
  0.00000000E+00  0.00000000E+00  0.00000000E+00
  0.00000000E+00  0.00000000E+00  0.00000000E+00
  0.00000000E+00  0.00000000E+00  0.00000000E+00
  0.00000000E+00  0.00000000E+00  0.00000000E+00
  0.00000000E+00  0.00000000E+00  0.00000000E+00
  0.00000000E+00  0.00000000E+00  0.00000000E+00
  0.00000000E+00  0.00000000E+00  0.00000000E+00
  0.00000000E+00  0.00000000E+00  0.00000000E+00
  0.00000000E+00  0.00000000E+00  0.00000000E+00
  0.00000000E+00  0.00000000E+00  0.00000000E+00
  0.00000000E+00  0.00000000E+00  0.00000000E+00
  0.00000000E+00  0.00000000E+00  0.00000000E+00
  0.00000000E+00  0.00000000E+00  0.00000000E+00
  0.00000000E+00  0.00000000E+00  0.00000000E+00
  0.00000000E+00  0.00000000E+00  0.00000000E+00
  0.00000000E+00  0.00000000E+00  0.00000000E+00
  0.00000000E+00  0.00000000E+00  0.00000000E+00
  0.00000000E+00  0.00000000E+00  0.00000000E+00
  0.00000000E+00  0.00000000E+00  0.00000000E+00
  0.00000000E+00  0.00000000E+00  0.00000000E+00
  0.00000000E+00  0.00000000E+00  0.00000000E+00
  0.00000000E+00  0.00000000E+00  0.00000000E+00
  0.00000000E+00  0.00000000E+00  0.00000000E+00
  0.00000000E+00  0.00000000E+00  0.00000000E+00
  0.00000000E+00  0.00000000E+00  0.00000000E+00
  0.00000000E+00  0.00000000E+00  0.00000000E+00
  0.00000000E+00  0.00000000E+00  0.00000000E+00
  0.00000000E+00  0.00000000E+00  0.00000000E+00
  0.00000000E+00  0.00000000E+00  0.00000000E+00
  0.00000000E+00  0.00000000E+00  0.00000000E+00
  0.00000000E+00  0.00000000E+00  0.00000000E+00
  0.00000000E+00  0.00000000E+00  0.00000000E+00
  0.00000000E+00  0.00000000E+00  0.00000000E+00
  0.00000000E+00  0.00000000E+00  0.00000000E+00
  0.00000000E+00  0.00000000E+00  0.00000000E+00
  0.00000000E+00  0.00000000E+00  0.00000000E+00
  0.00000000E+00  0.00000000E+00  0.00000000E+00
  0.00000000E+00  0.00000000E+00  0.00000000E+00
  0.00000000E+00  0.00000000E+00  0.00000000E+00
  0.00000000E+00  0.00000000E+00  0.00000000E+00
  0.00000000E+00  0.00000000E+00  0.00000000E+00
  0.00000000E+00  0.00000000E+00  0.00000000E+00
  0.00000000E+00  0.00000000E+00  0.00000000E+00
  0.00000000E+00  0.00000000E+00  0.00000000E+00
  0.00000000E+00  0.00000000E+00  0.00000000E+00
  0.00000000E+00  0.00000000E+00  0.00000000E+00
  0.00000000E+00  0.00000000E+00  0.00000000E+00
  0.00000000E+00  0.00000000E+00  0.00000000E+00
  0.00000000E+00  0.00000000E+00  0.00000000E+00
  0.00000000E+00  0.00000000E+00  0.00000000E+00
  0.00000000E+00  0.00000000E+00  0.00000000E+00
  0.00000000E+00  0.00000000E+00  0.00000000E+00
  0.00000000E+00  0.00000000E+00  0.00000000E+00
  0.00000000E+00  0.00000000E+00  0.00000000E+00
  0.00000000E+00  0.00000000E+00  0.00000000E+00
  0.00000000E+00  0.00000000E+00  0.00000000E+00
  0.00000000E+00  0.00000000E+00  0.00000000E+00
  0.00000000E+00  0.00000000E+00  0.00000000E+00
  0.00000000E+00  0.00000000E+00  0.00000000E+00
  0.00000000E+00  0.00000000E+00  0.00000000E+00
  0.00000000E+00  0.00000000E+00  0.00000000E+00
  0.00000000E+00  0.00000000E+00  0.00000000E+00
  0.00000000E+00  0.00000000E+00  0.00000000E+00
  0.00000000E+00  0.00000000E+00  0.00000000E+00
  0.00000000E+00  0.00000000E+00  0.00000000E+00
  0.00000000E+00  0.00000000E+00  0.00000000E+00
  0.00000000E+00  0.00000000E+00  0.00000000E+00
  0.00000000E+00  0.00000000E+00  0.00000000E+00
  0.00000000E+00  0.00000000E+00  0.00000000E+00
  0.00000000E+00  0.00000000E+00  0.00000000E+00
  0.00000000E+00  0.00000000E+00  0.00000000E+00
  0.00000000E+00  0.00000000E+00  0.00000000E+00
  0.00000000E+00  0.00000000E+00  0.00000000E+00
  0.00000000E+00  0.00000000E+00  0.00000000E+00
  0.00000000E+00  0.00000000E+00  0.00000000E+00
  0.00000000E+00  0.00000000E+00  0.00000000E+00
  0.00000000E+00  0.00000000E+00  0.00000000E+00
  0.00000000E+00  0.00000000E+00  0.00000000E+00
  0.00000000E+00  0.00000000E+00  0.00000000E+00
  0.00000000E+00  0.00000000E+00  0.00000000E+00
  0.00000000E+00  0.00000000E+00  0.00000000E+00
  0.00000000E+00  0.00000000E+00  0.00000000E+00
  0.00000000E+00  0.00000000E+00  0.00000000E+00
  0.00000000E+00  0.00000000E+00  0.00000000E+00
  0.00000000E+00  0.00000000E+00  0.00000000E+00
  0.00000000E+00  0.00000000E+00  0.00000000E+00
  0.00000000E+00  0.00000000E+00  0.00000000E+00
  0.00000000E+00  0.00000000E+00  0.00000000E+00
  0.00000000E+00  0.00000000E+00  0.00000000E+00
  0.00000000E+00  0.00000000E+00  0.00000000E+00
  0.00000000E+00  0.00000000E+00  0.00000000E+00
  0.00000000E+00  0.00000000E+00  0.00000000E+00
  0.00000000E+00  0.00000000E+00  0.00000000E+00
  0.00000000E+00  0.00000000E+00  0.00000000E+00
  0.00000000E+00  0.00000000E+00  0.00000000E+00
  0.00000000E+00  0.00000000E+00  0.00000000E+00
  0.00000000E+00  0.00000000E+00  0.00000000E+00
  0.00000000E+00  0.00000000E+00  0.00000000E+00
  0.00000000E+00  0.00000000E+00  0.00000000E+00
  0.00000000E+00  0.00000000E+00  0.00000000E+00
  0.00000000E+00  0.00000000E+00  0.00000000E+00
  0.00000000E+00  0.00000000E+00  0.00000000E+00
  0.00000000E+00  0.00000000E+00  0.00000000E+00
  0.00000000E+00  0.00000000E+00  0.00000000E+00
  0.00000000E+00  0.00000000E+00  0.00000000E+00
  0.00000000E+00  0.00000000E+00  0.00000000E+00
  0.00000000E+00  0.00000000E+00  0.00000000E+00
  0.00000000E+00  0.00000000E+00  0.00000000E+00
  0.00000000E+00  0.00000000E+00  0.00000000E+00
  0.00000000E+00  0.00000000E+00  0.00000000E+00
  0.00000000E+00  0.00000000E+00  0.00000000E+00
  0.00000000E+00  0.00000000E+00  0.00000000E+00
  0.00000000E+00  0.00000000E+00  0.00000000E+00
  0.00000000E+00  0.00000000E+00  0.00000000E+00
  0.00000000E+00  0.00000000E+00  0.00000000E+00
  0.00000000E+00  0.00000000E+00  0.00000000E+00
  0.00000000E+00  0.00000000E+00  0.00000000E+00
  0.00000000E+00  0.00000000E+00  0.00000000E+00
  0.00000000E+00  0.00000000E+00  0.00000000E+00
  0.00000000E+00  0.00000000E+00  0.00000000E+00
  0.00000000E+00  0.00000000E+00  0.00000000E+00
  0.00000000E+00  0.00000000E+00  0.00000000E+00
  0.00000000E+00  0.00000000E+00  0.00000000E+00
  0.00000000E+00  0.00000000E+00  0.00000000E+00
  0.00000000E+00  0.00000000E+00  0.00000000E+00
  0.00000000E+00  0.00000000E+00  0.00000000E+00
  0.00000000E+00  0.00000000E+00  0.00000000E+00
  0.00000000E+00  0.00000000E+00  0.00000000E+00
  0.00000000E+00  0.00000000E+00  0.00000000E+00
  0.00000000E+00  0.00000000E+00  0.00000000E+00
  0.00000000E+00  0.00000000E+00  0.00000000E+00
  0.00000000E+00  0.00000000E+00  0.00000000E+00
  0.00000000E+00  0.00000000E+00  0.00000000E+00
  0.00000000E+00  0.00000000E+00  0.00000000E+00
  0.00000000E+00  0.00000000E+00  0.00000000E+00
  0.00000000E+00  0.00000000E+00  0.00000000E+00
  0.00000000E+00  0.00000000E+00  0.00000000E+00
  0.00000000E+00  0.00000000E+00  0.00000000E+00
  0.00000000E+00  0.00000000E+00  0.00000000E+00
  0.00000000E+00  0.00000000E+00  0.00000000E+00
  0.00000000E+00  0.00000000E+00  0.00000000E+00
  0.00000000E+00  0.00000000E+00  0.00000000E+00
  0.00000000E+00  0.00000000E+00  0.00000000E+00
  0.00000000E+00  0.00000000E+00  0.00000000E+00
  0.00000000E+00  0.00000000E+00  0.00000000E+00
  0.00000000E+00  0.00000000E+00  0.00000000E+00
  0.00000000E+00  0.00000000E+00  0.00000000E+00
  0.00000000E+00  0.00000000E+00  0.00000000E+00
  0.00000000E+00  0.00000000E+00  0.00000000E+00
  0.00000000E+00  0.00000000E+00  0.00000000E+00
  0.00000000E+00  0.00000000E+00  0.00000000E+00
  0.00000000E+00  0.00000000E+00  0.00000000E+00
  0.00000000E+00  0.00000000E+00  0.00000000E+00
  0.00000000E+00  0.00000000E+00  0.00000000E+00
  0.00000000E+00  0.00000000E+00  0.00000000E+00
  0.00000000E+00  0.00000000E+00  0.00000000E+00
  0.00000000E+00  0.00000000E+00  0.00000000E+00
  0.00000000E+00  0.00000000E+00  0.00000000E+00
  0.00000000E+00  0.00000000E+00  0.00000000E+00
  0.00000000E+00  0.00000000E+00  0.00000000E+00
  0.00000000E+00  0.00000000E+00  0.00000000E+00
  0.00000000E+00  0.00000000E+00  0.00000000E+00
  0.00000000E+00  0.00000000E+00  0.00000000E+00
  0.00000000E+00  0.00000000E+00  0.00000000E+00
  0.00000000E+00  0.00000000E+00  0.00000000E+00
  0.00000000E+00  0.00000000E+00  0.00000000E+00
  0.00000000E+00  0.00000000E+00  0.00000000E+00
  0.00000000E+00  0.00000000E+00  0.00000000E+00
  0.00000000E+00  0.00000000E+00  0.00000000E+00
  0.00000000E+00  0.00000000E+00  0.00000000E+00
  0.00000000E+00  0.00000000E+00  0.00000000E+00
  0.00000000E+00  0.00000000E+00  0.00000000E+00
  0.00000000E+00  0.00000000E+00  0.00000000E+00
  0.00000000E+00  0.00000000E+00  0.00000000E+00
  0.00000000E+00  0.00000000E+00  0.00000000E+00
  0.00000000E+00  0.00000000E+00  0.00000000E+00
  0.00000000E+00  0.00000000E+00  0.00000000E+00
  0.00000000E+00  0.00000000E+00  0.00000000E+00
  0.00000000E+00  0.00000000E+00  0.00000000E+00
  0.00000000E+00  0.00000000E+00  0.00000000E+00
  0.00000000E+00  0.00000000E+00  0.00000000E+00
  0.00000000E+00  0.00000000E+00  0.00000000E+00
  0.00000000E+00  0.00000000E+00  0.00000000E+00
  0.00000000E+00  0.00000000E+00  0.00000000E+00
  0.00000000E+00  0.00000000E+00  0.00000000E+00
  0.00000000E+00  0.00000000E+00  0.00000000E+00
  0.00000000E+00  0.00000000E+00  0.00000000E+00
  0.00000000E+00  0.00000000E+00  0.00000000E+00
  0.00000000E+00  0.00000000E+00  0.00000000E+00
  0.00000000E+00  0.00000000E+00  0.00000000E+00
  0.00000000E+00  0.00000000E+00  0.00000000E+00
  0.00000000E+00  0.00000000E+00  0.00000000E+00
  0.00000000E+00  0.00000000E+00  0.00000000E+00
  0.00000000E+00  0.00000000E+00  0.00000000E+00
  0.00000000E+00  0.00000000E+00  0.00000000E+00
  0.00000000E+00  0.00000000E+00  0.00000000E+00
  0.00000000E+00  0.00000000E+00  0.00000000E+00
  0.00000000E+00  0.00000000E+00  0.00000000E+00
  0.00000000E+00  0.00000000E+00  0.00000000E+00
  0.00000000E+00  0.00000000E+00  0.00000000E+00
  0.00000000E+00  0.00000000E+00  0.00000000E+00
  0.00000000E+00  0.00000000E+00  0.00000000E+00
  0.00000000E+00  0.00000000E+00  0.00000000E+00
  0.00000000E+00  0.00000000E+00  0.00000000E+00
  0.00000000E+00  0.00000000E+00  0.00000000E+00
  0.00000000E+00  0.00000000E+00  0.00000000E+00
  0.00000000E+00  0.00000000E+00  0.00000000E+00
  0.00000000E+00  0.00000000E+00  0.00000000E+00
  0.00000000E+00  0.00000000E+00  0.00000000E+00
  0.00000000E+00  0.00000000E+00  0.00000000E+00
  0.00000000E+00  0.00000000E+00  0.00000000E+00
