fcc Si+fcc Ge                           
   1.00000000000000     
     7.7498903219999997    0.0000000000000000    0.0000000000000000
     3.8749451609999999   11.6248354830000000    0.0000000000000000
     0.0000000000000000    0.0000000000000000   18.8333333329999988
   Si   Ge
    12    66
Direct
  0.0000000000000000  0.0000000000000000  0.0000000000000000
  0.1111111109999996  0.2777777780000008  0.0484955749999969
  0.2222222219999992  0.5555555560000016  0.0969911500000009
  0.5000000000000000  0.0000000000000000  0.0000000000000000
  0.6111111109999996  0.2777777780000008  0.0484955749999969
  0.7222222219999992  0.5555555560000016  0.0969911500000009
  0.8055555560000016  0.8888888890000004  0.0242477879999967
  0.9166666670000012  0.1666666670000012  0.0727433630000007
  0.0277777780000008  0.4444444439999984  0.1212389379999976
  0.3055555560000016  0.8888888890000004  0.0242477879999967
  0.4166666670000012  0.1666666670000012  0.0727433630000007
  0.5277777780000008  0.4444444439999984  0.1212389379999976
  0.4298245609999967  0.7199453550000001  0.2600884960000016
  0.7631578949999991  0.5532786890000025  0.4103539819999966
  0.0964912279999979  0.3866120220000013  0.5606194690000024
  0.4298245609999967  0.2199453550000001  0.7108849560000010
  0.7631578949999991  0.0532786890000025  0.8611504420000031
  0.7631578949999991  0.0532786890000025  0.2600884960000016
  0.0964912279999979  0.8866120220000013  0.4103539819999966
  0.4298245609999967  0.7199453550000001  0.5606194690000024
  0.7631578949999991  0.5532786890000025  0.7108849560000010
  0.0964912279999979  0.3866120220000013  0.8611504420000031
  0.0964912279999979  0.3866120220000013  0.2600884960000016
  0.4298245609999967  0.2199453550000001  0.4103539819999966
  0.7631578949999991  0.0532786890000025  0.5606194690000024
  0.0964912279999979  0.8866120220000013  0.7108849560000010
  0.4298245609999967  0.7199453550000001  0.8611504420000031
  0.9298245609999967  0.7199453550000001  0.2600884960000016
  0.2631578949999991  0.5532786890000025  0.4103539819999966
  0.5964912279999979  0.3866120220000013  0.5606194690000024
  0.9298245609999967  0.2199453550000001  0.7108849560000010
  0.2631578949999991  0.0532786890000025  0.8611504420000031
  0.2631578949999991  0.0532786890000025  0.2600884960000016
  0.5964912279999979  0.8866120220000013  0.4103539819999966
  0.9298245609999967  0.7199453550000001  0.5606194690000024
  0.2631578949999991  0.5532786890000025  0.7108849560000010
  0.5964912279999979  0.3866120220000013  0.8611504420000031
  0.5964912279999979  0.3866120220000013  0.2600884960000016
  0.9298245609999967  0.2199453550000001  0.4103539819999966
  0.2631578949999991  0.0532786890000025  0.5606194690000024
  0.5964912279999979  0.8866120220000013  0.7108849560000010
  0.9298245609999967  0.7199453550000001  0.8611504420000031
  0.0131578949999991  0.0532786890000025  0.1849557520000005
  0.3464912279999979  0.8866120220000013  0.3352212389999991
  0.6798245609999967  0.7199453550000001  0.4854867259999978
  0.0131578949999991  0.5532786890000025  0.6357522119999999
  0.3464912279999979  0.3866120220000013  0.7860176989999985
  0.6798245609999967  0.2199453550000001  0.9362831859999972
  0.3464912279999979  0.3866120220000013  0.1849557520000005
  0.6798245609999967  0.2199453550000001  0.3352212389999991
  0.0131578949999991  0.0532786890000025  0.4854867259999978
  0.3464912279999979  0.8866120220000013  0.6357522119999999
  0.6798245609999967  0.7199453550000001  0.7860176989999985
  0.0131578949999991  0.5532786890000025  0.9362831859999972
  0.6798245609999967  0.7199453550000001  0.1849557520000005
  0.0131578949999991  0.5532786890000025  0.3352212389999991
  0.3464912279999979  0.3866120220000013  0.4854867259999978
  0.6798245609999967  0.2199453550000001  0.6357522119999999
  0.0131578949999991  0.0532786890000025  0.7860176989999985
  0.3464912279999979  0.8866120220000013  0.9362831859999972
  0.5131578949999991  0.0532786890000025  0.1849557520000005
  0.8464912279999979  0.8866120220000013  0.3352212389999991
  0.1798245609999967  0.7199453550000001  0.4854867259999978
  0.5131578949999991  0.5532786890000025  0.6357522119999999
  0.8464912279999979  0.3866120220000013  0.7860176989999985
  0.1798245609999967  0.2199453550000001  0.9362831859999972
  0.8464912279999979  0.3866120220000013  0.1849557520000005
  0.1798245609999967  0.2199453550000001  0.3352212389999991
  0.5131578949999991  0.0532786890000025  0.4854867259999978
  0.8464912279999979  0.8866120220000013  0.6357522119999999
  0.1798245609999967  0.7199453550000001  0.7860176989999985
  0.5131578949999991  0.5532786890000025  0.9362831859999972
  0.1798245609999967  0.7199453550000001  0.1849557520000005
  0.5131578949999991  0.5532786890000025  0.3352212389999991
  0.8464912279999979  0.3866120220000013  0.4854867259999978
  0.1798245609999967  0.2199453550000001  0.6357522119999999
  0.5131578949999991  0.0532786890000025  0.7860176989999985
  0.8464912279999979  0.8866120220000013  0.9362831859999972
 
  0.00000000E+00  0.00000000E+00  0.00000000E+00
  0.00000000E+00  0.00000000E+00  0.00000000E+00
  0.00000000E+00  0.00000000E+00  0.00000000E+00
  0.00000000E+00  0.00000000E+00  0.00000000E+00
  0.00000000E+00  0.00000000E+00  0.00000000E+00
  0.00000000E+00  0.00000000E+00  0.00000000E+00
  0.00000000E+00  0.00000000E+00  0.00000000E+00
  0.00000000E+00  0.00000000E+00  0.00000000E+00
  0.00000000E+00  0.00000000E+00  0.00000000E+00
  0.00000000E+00  0.00000000E+00  0.00000000E+00
  0.00000000E+00  0.00000000E+00  0.00000000E+00
  0.00000000E+00  0.00000000E+00  0.00000000E+00
  0.00000000E+00  0.00000000E+00  0.00000000E+00
  0.00000000E+00  0.00000000E+00  0.00000000E+00
  0.00000000E+00  0.00000000E+00  0.00000000E+00
  0.00000000E+00  0.00000000E+00  0.00000000E+00
  0.00000000E+00  0.00000000E+00  0.00000000E+00
  0.00000000E+00  0.00000000E+00  0.00000000E+00
  0.00000000E+00  0.00000000E+00  0.00000000E+00
  0.00000000E+00  0.00000000E+00  0.00000000E+00
  0.00000000E+00  0.00000000E+00  0.00000000E+00
  0.00000000E+00  0.00000000E+00  0.00000000E+00
  0.00000000E+00  0.00000000E+00  0.00000000E+00
  0.00000000E+00  0.00000000E+00  0.00000000E+00
  0.00000000E+00  0.00000000E+00  0.00000000E+00
  0.00000000E+00  0.00000000E+00  0.00000000E+00
  0.00000000E+00  0.00000000E+00  0.00000000E+00
  0.00000000E+00  0.00000000E+00  0.00000000E+00
  0.00000000E+00  0.00000000E+00  0.00000000E+00
  0.00000000E+00  0.00000000E+00  0.00000000E+00
  0.00000000E+00  0.00000000E+00  0.00000000E+00
  0.00000000E+00  0.00000000E+00  0.00000000E+00
  0.00000000E+00  0.00000000E+00  0.00000000E+00
  0.00000000E+00  0.00000000E+00  0.00000000E+00
  0.00000000E+00  0.00000000E+00  0.00000000E+00
  0.00000000E+00  0.00000000E+00  0.00000000E+00
  0.00000000E+00  0.00000000E+00  0.00000000E+00
  0.00000000E+00  0.00000000E+00  0.00000000E+00
  0.00000000E+00  0.00000000E+00  0.00000000E+00
  0.00000000E+00  0.00000000E+00  0.00000000E+00
  0.00000000E+00  0.00000000E+00  0.00000000E+00
  0.00000000E+00  0.00000000E+00  0.00000000E+00
  0.00000000E+00  0.00000000E+00  0.00000000E+00
  0.00000000E+00  0.00000000E+00  0.00000000E+00
  0.00000000E+00  0.00000000E+00  0.00000000E+00
  0.00000000E+00  0.00000000E+00  0.00000000E+00
  0.00000000E+00  0.00000000E+00  0.00000000E+00
  0.00000000E+00  0.00000000E+00  0.00000000E+00
  0.00000000E+00  0.00000000E+00  0.00000000E+00
  0.00000000E+00  0.00000000E+00  0.00000000E+00
  0.00000000E+00  0.00000000E+00  0.00000000E+00
  0.00000000E+00  0.00000000E+00  0.00000000E+00
  0.00000000E+00  0.00000000E+00  0.00000000E+00
  0.00000000E+00  0.00000000E+00  0.00000000E+00
  0.00000000E+00  0.00000000E+00  0.00000000E+00
  0.00000000E+00  0.00000000E+00  0.00000000E+00
  0.00000000E+00  0.00000000E+00  0.00000000E+00
  0.00000000E+00  0.00000000E+00  0.00000000E+00
  0.00000000E+00  0.00000000E+00  0.00000000E+00
  0.00000000E+00  0.00000000E+00  0.00000000E+00
  0.00000000E+00  0.00000000E+00  0.00000000E+00
  0.00000000E+00  0.00000000E+00  0.00000000E+00
  0.00000000E+00  0.00000000E+00  0.00000000E+00
  0.00000000E+00  0.00000000E+00  0.00000000E+00
  0.00000000E+00  0.00000000E+00  0.00000000E+00
  0.00000000E+00  0.00000000E+00  0.00000000E+00
  0.00000000E+00  0.00000000E+00  0.00000000E+00
  0.00000000E+00  0.00000000E+00  0.00000000E+00
  0.00000000E+00  0.00000000E+00  0.00000000E+00
  0.00000000E+00  0.00000000E+00  0.00000000E+00
  0.00000000E+00  0.00000000E+00  0.00000000E+00
  0.00000000E+00  0.00000000E+00  0.00000000E+00
  0.00000000E+00  0.00000000E+00  0.00000000E+00
  0.00000000E+00  0.00000000E+00  0.00000000E+00
  0.00000000E+00  0.00000000E+00  0.00000000E+00
  0.00000000E+00  0.00000000E+00  0.00000000E+00
  0.00000000E+00  0.00000000E+00  0.00000000E+00
  0.00000000E+00  0.00000000E+00  0.00000000E+00
