fcc Si+fcc Ge
    1.000000000
    7.749890322    0.000000000    0.000000000
    3.874945161   11.624835483    0.000000000
    0.000000000    0.000000000   18.833333333
Si    Ge   
12     66
Direct
    0.000000000    0.000000000    0.000000000
    0.111111111    0.277777778    0.048495575
    0.222222222    0.555555556    0.096991150
    0.500000000    0.000000000    0.000000000
    0.611111111    0.277777778    0.048495575
    0.722222222    0.555555556    0.096991150
    0.805555556    0.888888889    0.024247788
    0.916666667    0.166666667    0.072743363
    0.027777778    0.444444444    0.121238938
    0.305555556    0.888888889    0.024247788
    0.416666667    0.166666667    0.072743363
    0.527777778    0.444444444    0.121238938
    0.429824561    0.719945355    0.260088496
    0.763157895    0.553278689    0.410353982
    0.096491228    0.386612022    0.560619469
    0.429824561    0.219945355    0.710884956
    0.763157895    0.053278689    0.861150442
    0.763157895    0.053278689    0.260088496
    0.096491228    0.886612022    0.410353982
    0.429824561    0.719945355    0.560619469
    0.763157895    0.553278689    0.710884956
    0.096491228    0.386612022    0.861150442
    0.096491228    0.386612022    0.260088496
    0.429824561    0.219945355    0.410353982
    0.763157895    0.053278689    0.560619469
    0.096491228    0.886612022    0.710884956
    0.429824561    0.719945355    0.861150442
    0.929824561    0.719945355    0.260088496
    0.263157895    0.553278689    0.410353982
    0.596491228    0.386612022    0.560619469
    0.929824561    0.219945355    0.710884956
    0.263157895    0.053278689    0.861150442
    0.263157895    0.053278689    0.260088496
    0.596491228    0.886612022    0.410353982
    0.929824561    0.719945355    0.560619469
    0.263157895    0.553278689    0.710884956
    0.596491228    0.386612022    0.861150442
    0.596491228    0.386612022    0.260088496
    0.929824561    0.219945355    0.410353982
    0.263157895    0.053278689    0.560619469
    0.596491228    0.886612022    0.710884956
    0.929824561    0.719945355    0.861150442
    0.013157895    0.053278689    0.184955752
    0.346491228    0.886612022    0.335221239
    0.679824561    0.719945355    0.485486726
    0.013157895    0.553278689    0.635752212
    0.346491228    0.386612022    0.786017699
    0.679824561    0.219945355    0.936283186
    0.346491228    0.386612022    0.184955752
    0.679824561    0.219945355    0.335221239
    0.013157895    0.053278689    0.485486726
    0.346491228    0.886612022    0.635752212
    0.679824561    0.719945355    0.786017699
    0.013157895    0.553278689    0.936283186
    0.679824561    0.719945355    0.184955752
    0.013157895    0.553278689    0.335221239
    0.346491228    0.386612022    0.485486726
    0.679824561    0.219945355    0.635752212
    0.013157895    0.053278689    0.786017699
    0.346491228    0.886612022    0.936283186
    0.513157895    0.053278689    0.184955752
    0.846491228    0.886612022    0.335221239
    0.179824561    0.719945355    0.485486726
    0.513157895    0.553278689    0.635752212
    0.846491228    0.386612022    0.786017699
    0.179824561    0.219945355    0.936283186
    0.846491228    0.386612022    0.184955752
    0.179824561    0.219945355    0.335221239
    0.513157895    0.053278689    0.485486726
    0.846491228    0.886612022    0.635752212
    0.179824561    0.719945355    0.786017699
    0.513157895    0.553278689    0.936283186
    0.179824561    0.719945355    0.184955752
    0.513157895    0.553278689    0.335221239
    0.846491228    0.386612022    0.485486726
    0.179824561    0.219945355    0.635752212
    0.513157895    0.053278689    0.786017699
    0.846491228    0.886612022    0.936283186
