Sn+Ge
    1.000000000
   12.978400230    0.000000000    0.000000000
  -12.978400230   14.510293007    0.000000000
    0.000000000    0.000000000    8.991717339
Sn  Ge 
24     24
Direct
    0.474358499    0.974358499    0.000000000
    0.174358353    0.674358428    0.161374003
    0.874358296    0.374358356    0.322748035
    0.974358499    0.974358499    0.000000000
    0.674358368    0.674358428    0.161374003
    0.374358296    0.374358356    0.322748035
    0.699358463    0.324358493    0.080686852
    0.399358362    0.024358446    0.242060855
    0.099358320    0.724358439    0.403434843
    0.199358478    0.324358493    0.080686852
    0.899358392    0.024358446    0.242060855
    0.599358320    0.724358439    0.403434843
    0.724358439    0.474358499    0.000000016
    0.424358338    0.174358398    0.161374018
    0.124358192    0.874358296    0.322748035
    0.224358469    0.474358499    0.000000016
    0.924358368    0.174358398    0.161374018
    0.624358237    0.874358296    0.322748035
    0.949358582    0.824358582    0.080686860
    0.649358511    0.524358571    0.242060825
    0.349358380    0.224358499    0.403434843
    0.449358791    0.824358582    0.080686860
    0.149358645    0.524358571    0.242060825
    0.849358559    0.224358499    0.403434843
    0.329596400    0.352051020    0.558117092
    0.212929726    0.935384333    0.615557194
    0.096262932    0.518717587    0.672997355
    0.979596078    0.102050781    0.730437636
    0.862929404    0.685384214    0.787877619
    0.746262550    0.268717289    0.845317841
    0.829596400    0.602051020    0.558117092
    0.712929606    0.185384274    0.615557194
    0.596262872    0.768717587    0.672997415
    0.479596078    0.352050781    0.730437398
    0.362929344    0.935384095    0.787877560
    0.246262670    0.518717229    0.845317721
    0.829596400    0.852051020    0.558117151
    0.712929606    0.435384274    0.615557194
    0.596262813    0.018717527    0.672997415
    0.479596108    0.602050781    0.730437517
    0.362929404    0.185384035    0.787877560
    0.246262550    0.768717110    0.845317781
    0.329596281    0.102051020    0.558117151
    0.212929606    0.685384274    0.615557253
    0.096262932    0.268717527    0.672997415
    0.979596078    0.852050781    0.730437517
    0.862929344    0.435384035    0.787877619
    0.746262550    0.018717051    0.845317841
