fcc Si+fcc Ge                           
   1.00000000000000     
    13.4232037900000005    0.0000000000000000    0.0000000000000000
     6.7116018950000003   15.0075980760000007    0.0000000000000000
     0.0000000000000000    0.0000000000000000    7.6274493170000000
   Si   Ge
    36    36
Direct
  0.3999999999999986  0.2000000000000028  0.3213040690000000
  0.3333333329999988  0.6666666670000012  0.0000000000000000
  0.8666666669999969  0.4333333330000002  0.1606520349999982
  0.7333333329999974  0.8666666669999969  0.3213040690000000
  0.6666666670000012  0.3333333329999988  0.0000000000000000
  0.2000000000000028  0.1000000000000014  0.1606520349999982
  0.0666666669999998  0.5333333330000016  0.3213040690000000
  0.0000000000000000  0.0000000000000000  0.0000000000000000
  0.5333333330000016  0.7666666670000026  0.1606520349999982
  0.8999999999999986  0.2000000000000028  0.3213040690000000
  0.8333333329999988  0.6666666670000012  0.0000000000000000
  0.3666666669999969  0.4333333330000002  0.1606520349999982
  0.2333333329999974  0.8666666669999969  0.3213040690000000
  0.1666666670000012  0.3333333329999988  0.0000000000000000
  0.7000000000000028  0.1000000000000014  0.1606520349999982
  0.5666666669999998  0.5333333330000016  0.3213040690000000
  0.5000000000000000  0.0000000000000000  0.0000000000000000
  0.0333333330000016  0.7666666670000026  0.1606520349999982
  0.4166666670000012  0.3333333329999988  0.4016300870000009
  0.3500000000000014  0.7999999999999972  0.0803260169999973
  0.8833333330000031  0.5666666669999998  0.2409780520000027
  0.7500000000000000  0.0000000000000000  0.4016300870000009
  0.6833333330000002  0.4666666669999984  0.0803260169999973
  0.2166666669999984  0.2333333329999974  0.2409780520000027
  0.0833333329999988  0.6666666670000012  0.4016300870000009
  0.0166666670000026  0.1333333330000031  0.0803260169999973
  0.5499999999999972  0.8999999999999986  0.2409780520000027
  0.9166666670000012  0.3333333329999988  0.4016300870000009
  0.8500000000000014  0.7999999999999972  0.0803260169999973
  0.3833333330000031  0.5666666669999998  0.2409780520000027
  0.2500000000000000  0.0000000000000000  0.4016300870000009
  0.1833333330000002  0.4666666669999984  0.0803260169999973
  0.7166666669999984  0.2333333329999974  0.2409780520000027
  0.5833333329999988  0.6666666670000012  0.4016300870000009
  0.5166666670000026  0.1333333330000031  0.0803260169999973
  0.0499999999999972  0.8999999999999986  0.2409780520000027
  0.3383458650000009  0.1656441720000004  0.4934038849999993
  0.0383458649999966  0.9323108379999994  0.6593328120000024
  0.7383458649999994  0.6989775050000020  0.8252617380000018
  0.3383458650000009  0.4989775049999992  0.4934038849999993
  0.0383458649999966  0.2656441720000018  0.6593328120000024
  0.7383458649999994  0.0323108380000008  0.8252617380000018
  0.3383458650000009  0.8323108379999979  0.4934038849999993
  0.0383458649999966  0.5989775050000006  0.6593328120000024
  0.7383458649999994  0.3656441720000032  0.8252617380000018
  0.8383458650000009  0.1656441720000004  0.4934038849999993
  0.5383458649999966  0.9323108379999994  0.6593328120000024
  0.2383458649999994  0.6989775050000020  0.8252617380000018
  0.8383458650000009  0.4989775049999992  0.4934038849999993
  0.5383458649999966  0.2656441720000018  0.6593328120000024
  0.2383458649999994  0.0323108380000008  0.8252617380000018
  0.8383458650000009  0.8323108379999979  0.4934038849999993
  0.5383458649999966  0.5989775050000006  0.6593328120000024
  0.2383458649999994  0.3656441720000032  0.8252617380000018
  0.1883458650000023  0.4656441719999975  0.5763683489999991
  0.8883458649999980  0.2323108379999965  0.7422972749999985
  0.5883458650000009  0.9989775049999992  0.9082262009999980
  0.1883458650000023  0.7989775050000034  0.5763683489999991
  0.8883458649999980  0.5656441719999989  0.7422972749999985
  0.5883458650000009  0.3323108379999979  0.9082262009999980
  0.1883458650000023  0.1323108380000022  0.5763683489999991
  0.8883458649999980  0.8989775049999977  0.7422972749999985
  0.5883458650000009  0.6656441720000004  0.9082262009999980
  0.6883458650000023  0.4656441719999975  0.5763683489999991
  0.3883458649999980  0.2323108379999965  0.7422972749999985
  0.0883458650000009  0.9989775049999992  0.9082262009999980
  0.6883458650000023  0.7989775050000034  0.5763683489999991
  0.3883458649999980  0.5656441719999989  0.7422972749999985
  0.0883458650000009  0.3323108379999979  0.9082262009999980
  0.6883458650000023  0.1323108380000022  0.5763683489999991
  0.3883458649999980  0.8989775049999977  0.7422972749999985
  0.0883458650000009  0.6656441720000004  0.9082262009999980
 
  0.00000000E+00  0.00000000E+00  0.00000000E+00
  0.00000000E+00  0.00000000E+00  0.00000000E+00
  0.00000000E+00  0.00000000E+00  0.00000000E+00
  0.00000000E+00  0.00000000E+00  0.00000000E+00
  0.00000000E+00  0.00000000E+00  0.00000000E+00
  0.00000000E+00  0.00000000E+00  0.00000000E+00
  0.00000000E+00  0.00000000E+00  0.00000000E+00
  0.00000000E+00  0.00000000E+00  0.00000000E+00
  0.00000000E+00  0.00000000E+00  0.00000000E+00
  0.00000000E+00  0.00000000E+00  0.00000000E+00
  0.00000000E+00  0.00000000E+00  0.00000000E+00
  0.00000000E+00  0.00000000E+00  0.00000000E+00
  0.00000000E+00  0.00000000E+00  0.00000000E+00
  0.00000000E+00  0.00000000E+00  0.00000000E+00
  0.00000000E+00  0.00000000E+00  0.00000000E+00
  0.00000000E+00  0.00000000E+00  0.00000000E+00
  0.00000000E+00  0.00000000E+00  0.00000000E+00
  0.00000000E+00  0.00000000E+00  0.00000000E+00
  0.00000000E+00  0.00000000E+00  0.00000000E+00
  0.00000000E+00  0.00000000E+00  0.00000000E+00
  0.00000000E+00  0.00000000E+00  0.00000000E+00
  0.00000000E+00  0.00000000E+00  0.00000000E+00
  0.00000000E+00  0.00000000E+00  0.00000000E+00
  0.00000000E+00  0.00000000E+00  0.00000000E+00
  0.00000000E+00  0.00000000E+00  0.00000000E+00
  0.00000000E+00  0.00000000E+00  0.00000000E+00
  0.00000000E+00  0.00000000E+00  0.00000000E+00
  0.00000000E+00  0.00000000E+00  0.00000000E+00
  0.00000000E+00  0.00000000E+00  0.00000000E+00
  0.00000000E+00  0.00000000E+00  0.00000000E+00
  0.00000000E+00  0.00000000E+00  0.00000000E+00
  0.00000000E+00  0.00000000E+00  0.00000000E+00
  0.00000000E+00  0.00000000E+00  0.00000000E+00
  0.00000000E+00  0.00000000E+00  0.00000000E+00
  0.00000000E+00  0.00000000E+00  0.00000000E+00
  0.00000000E+00  0.00000000E+00  0.00000000E+00
  0.00000000E+00  0.00000000E+00  0.00000000E+00
  0.00000000E+00  0.00000000E+00  0.00000000E+00
  0.00000000E+00  0.00000000E+00  0.00000000E+00
  0.00000000E+00  0.00000000E+00  0.00000000E+00
  0.00000000E+00  0.00000000E+00  0.00000000E+00
  0.00000000E+00  0.00000000E+00  0.00000000E+00
  0.00000000E+00  0.00000000E+00  0.00000000E+00
  0.00000000E+00  0.00000000E+00  0.00000000E+00
  0.00000000E+00  0.00000000E+00  0.00000000E+00
  0.00000000E+00  0.00000000E+00  0.00000000E+00
  0.00000000E+00  0.00000000E+00  0.00000000E+00
  0.00000000E+00  0.00000000E+00  0.00000000E+00
  0.00000000E+00  0.00000000E+00  0.00000000E+00
  0.00000000E+00  0.00000000E+00  0.00000000E+00
  0.00000000E+00  0.00000000E+00  0.00000000E+00
  0.00000000E+00  0.00000000E+00  0.00000000E+00
  0.00000000E+00  0.00000000E+00  0.00000000E+00
  0.00000000E+00  0.00000000E+00  0.00000000E+00
  0.00000000E+00  0.00000000E+00  0.00000000E+00
  0.00000000E+00  0.00000000E+00  0.00000000E+00
  0.00000000E+00  0.00000000E+00  0.00000000E+00
  0.00000000E+00  0.00000000E+00  0.00000000E+00
  0.00000000E+00  0.00000000E+00  0.00000000E+00
  0.00000000E+00  0.00000000E+00  0.00000000E+00
  0.00000000E+00  0.00000000E+00  0.00000000E+00
  0.00000000E+00  0.00000000E+00  0.00000000E+00
  0.00000000E+00  0.00000000E+00  0.00000000E+00
  0.00000000E+00  0.00000000E+00  0.00000000E+00
  0.00000000E+00  0.00000000E+00  0.00000000E+00
  0.00000000E+00  0.00000000E+00  0.00000000E+00
  0.00000000E+00  0.00000000E+00  0.00000000E+00
  0.00000000E+00  0.00000000E+00  0.00000000E+00
  0.00000000E+00  0.00000000E+00  0.00000000E+00
  0.00000000E+00  0.00000000E+00  0.00000000E+00
  0.00000000E+00  0.00000000E+00  0.00000000E+00
  0.00000000E+00  0.00000000E+00  0.00000000E+00
