Ge+Sn
    1.000000000
   11.315600395    0.000000000    0.000000000
  -11.315600395   16.002676010    0.000000000
    0.000000000    0.000000000   21.473068237
Ge  Sn 
96     72
Direct
    0.985331416    0.455994159    0.000000022
    0.860331416    0.080994137    0.093155526
    0.735331416    0.705994129    0.186311051
    0.610331416    0.330994248    0.279466480
    0.485331357    0.955994129    0.372621983
    0.360331357    0.580994129    0.465777546
    0.485331386    0.455994159    0.000000022
    0.360331416    0.080994137    0.093155526
    0.235331357    0.705994129    0.186311051
    0.110331379    0.330994248    0.279466480
    0.985331476    0.955994129    0.372621983
    0.860331416    0.580994129    0.465777546
    0.985331357    0.955994129    0.000000019
    0.860331416    0.580994129    0.093155533
    0.735331416    0.205994129    0.186311036
    0.610331416    0.830994368    0.279466480
    0.485331416    0.455994129    0.372622073
    0.360331357    0.080994129    0.465777516
    0.485331386    0.955994129    0.000000019
    0.360331357    0.580994129    0.093155533
    0.235331446    0.205994129    0.186311036
    0.110331491    0.830994368    0.279466480
    0.985331297    0.455994129    0.372622073
    0.860331357    0.080994129    0.465777516
    0.235331371    0.705994129    0.000000025
    0.110331371    0.330994129    0.093155526
    0.985331357    0.955994129    0.186311036
    0.860331357    0.580994248    0.279466510
    0.735331357    0.205994189    0.372622073
    0.610331297    0.830994129    0.465777546
    0.735331357    0.705994129    0.000000025
    0.610331357    0.330994129    0.093155526
    0.485331327    0.955994129    0.186311036
    0.360331357    0.580994248    0.279466510
    0.235331371    0.205994189    0.372622073
    0.110331364    0.830994129    0.465777546
    0.235331386    0.205994144    0.000000021
    0.110331394    0.830994129    0.093155526
    0.985331357    0.455994129    0.186311036
    0.860331357    0.080994248    0.279466510
    0.735331476    0.705994248    0.372621983
    0.610331357    0.330994129    0.465777516
    0.735331297    0.205994144    0.000000021
    0.610331357    0.830994129    0.093155526
    0.485331386    0.455994129    0.186311036
    0.360331297    0.080994248    0.279466510
    0.235331386    0.705994248    0.372621983
    0.110331260    0.330994129    0.465777516
    0.985331416    0.580994189    0.000000031
    0.860331416    0.205994159    0.093155526
    0.735331357    0.830994129    0.186311036
    0.610331416    0.455994248    0.279466480
    0.485331357    0.080994189    0.372622073
    0.360331357    0.705994129    0.465777546
    0.485331416    0.580994189    0.000000031
    0.360331416    0.205994159    0.093155526
    0.235331401    0.830994129    0.186311036
    0.110331431    0.455994248    0.279466480
    0.985331357    0.080994189    0.372622073
    0.860331416    0.705994129    0.465777546
    0.985331357    0.080994137    0.000000016
    0.860331416    0.705994129    0.093155526
    0.735331416    0.330994129    0.186311036
    0.610331416    0.955994248    0.279466510
    0.485331416    0.580994248    0.372621983
    0.360331357    0.205994010    0.465777516
    0.485331386    0.080994137    0.000000016
    0.360331357    0.705994129    0.093155526
    0.235331401    0.330994129    0.186311036
    0.110331446    0.955994248    0.279466510
    0.985331535    0.580994248    0.372621983
    0.860331237    0.205994010    0.465777516
    0.235331446    0.830994189    0.000000000
    0.110331416    0.455994189    0.093155526
    0.985331416    0.080994174    0.186311036
    0.860331416    0.705994308    0.279466480
    0.735331416    0.330994248    0.372621983
    0.610331416    0.955994129    0.465777487
    0.735331416    0.830994189    0.000000000
    0.610331416    0.455994189    0.093155526
    0.485331386    0.080994174    0.186311036
    0.360331416    0.705994308    0.279466480
    0.235331416    0.330994248    0.372621983
    0.110331357    0.955994129    0.465777487
    0.235331371    0.330994129    0.000000022
    0.110331379    0.955994129    0.093155533
    0.985331357    0.580994129    0.186311036
    0.860331416    0.205994248    0.279466510
    0.735331357    0.830994129    0.372621983
    0.610331416    0.455994129    0.465777516
    0.735331357    0.330994129    0.000000022
    0.610331357    0.955994129    0.093155533
    0.485331386    0.580994129    0.186311036
    0.360331416    0.205994248    0.279466510
    0.235331461    0.830994129    0.372621983
    0.110331304    0.455994129    0.465777516
    0.982020497    0.648687184    0.465777546
    0.732020497    0.398687124    0.572621942
    0.482020378    0.148687005    0.679466605
    0.232020319    0.898686886    0.786311030
    0.982020259    0.648686886    0.893155456
    0.732020259    0.398686767    1.000000000
    0.982020497    0.315353841    0.465777546
    0.732020497    0.065353788    0.572621942
    0.482020378    0.815353632    0.679466605
    0.232020319    0.565353513    0.786311030
    0.982020259    0.315353513    0.893155456
    0.732020259    0.065353394    1.000000000
    0.982020497    0.982020497    0.465777546
    0.732020497    0.732020438    0.572621942
    0.482020378    0.482020259    0.679466605
    0.232020319    0.232020140    0.786311030
    0.982020259    0.982020140    0.893155456
    0.732020259    0.732020020    1.000000000
    0.482020497    0.815353870    0.465777546
    0.232020482    0.565353751    0.572621942
    0.982020378    0.315353692    0.679466486
    0.732020378    0.065353587    0.786311030
    0.482020319    0.815353513    0.893155456
    0.232020259    0.565353394    1.000000000
    0.482020497    0.482020468    0.465777546
    0.232020482    0.232020438    0.572621942
    0.982020378    0.982020319    0.679466486
    0.732020378    0.732020199    0.786311030
    0.482020319    0.482020140    0.893155456
    0.232020259    0.232020080    1.000000000
    0.482020497    0.148687169    0.465777546
    0.232020482    0.898687124    0.572621942
    0.982020378    0.648687005    0.679466486
    0.732020378    0.398686826    0.786311030
    0.482020319    0.148686767    0.893155456
    0.232020259    0.898686647    1.000000000
    0.732020497    0.648687243    0.465777546
    0.482020468    0.398687214    0.572622061
    0.232020393    0.148687080    0.679466605
    0.982020319    0.898686945    0.786311030
    0.732020259    0.648686945    0.893155575
    0.482020259    0.398686826    1.000000000
    0.732020497    0.315353841    0.465777546
    0.482020468    0.065353781    0.572622061
    0.232020393    0.815353632    0.679466605
    0.982020319    0.565353513    0.786311030
    0.732020259    0.315353513    0.893155575
    0.482020259    0.065353394    1.000000000
    0.732020497    0.982020497    0.465777546
    0.482020468    0.732020438    0.572622061
    0.232020393    0.482020319    0.679466605
    0.982020319    0.232020199    0.786311030
    0.732020259    0.982020140    0.893155575
    0.482020259    0.732020140    1.000000000
    0.232020497    0.815353811    0.465777546
    0.982020497    0.565353751    0.572622061
    0.732020378    0.315353572    0.679466605
    0.482020259    0.065353468    0.786311030
    0.232020319    0.815353453    0.893155456
    0.982020259    0.565353334    1.000000000
    0.232020497    0.482020468    0.465777546
    0.982020497    0.232020438    0.572622061
    0.732020378    0.982020319    0.679466605
    0.482020259    0.732020199    0.786311030
    0.232020319    0.482020140    0.893155456
    0.982020259    0.232020080    1.000000000
    0.232020497    0.148687154    0.465777546
    0.982020497    0.898687124    0.572622061
    0.732020378    0.648687005    0.679466605
    0.482020259    0.398686826    0.786311030
    0.232020319    0.148686886    0.893155456
    0.982020259    0.898686647    1.000000000
