Ge+Sn                                   
   1.00000000000000     
    11.3156003950000006    0.0000000000000000    0.0000000000000000
     0.0000000000000000   16.0026760099999983    0.0000000000000000
     0.0000000000000000    0.0000000000000000   25.8009395599999998
   Ge   Sn
    96    72
Direct
  0.9706627730000008  0.4559941589999994  0.0000000180000015
  0.7206627130000030  0.0809941369999976  0.0775295349999965
  0.4706627730000008  0.7059941289999969  0.1550590690000035
  0.2206628920000000  0.3309942480000032  0.2325885300000010
  0.9706627130000030  0.9559941289999969  0.3101180789999987
  0.7206627130000030  0.5809941289999969  0.3876476289999999
  0.4706627730000008  0.4559941589999994  0.0000000180000015
  0.2206627580000031  0.0809941369999976  0.0775295349999965
  0.9706627730000008  0.7059941289999969  0.1550590690000035
  0.7206628320000021  0.3309942480000032  0.2325885300000010
  0.4706628320000021  0.9559941289999969  0.3101180789999987
  0.2206627730000008  0.5809941289999969  0.3876476289999999
  0.9706627730000008  0.9559941289999969  0.0000000160000013
  0.7206627130000030  0.5809941289999969  0.0775295420000006
  0.4706627730000008  0.2059941289999969  0.1550590539999988
  0.2206628920000000  0.8309943679999989  0.2325885300000010
  0.9706627130000030  0.4559941289999969  0.3101181090000011
  0.7206627130000030  0.0809941289999969  0.3876475989999975
  0.4706627730000008  0.9559941289999969  0.0000000160000013
  0.2206627580000031  0.5809941289999969  0.0775295420000006
  0.9706627730000008  0.2059941289999969  0.1550590539999988
  0.7206628320000021  0.8309943679999989  0.2325885300000010
  0.4706628320000021  0.4559941289999969  0.3101181090000011
  0.2206627730000008  0.0809941289999969  0.3876475989999975
  0.9706627730000008  0.7059941289999969  0.0000000209999982
  0.7206627130000030  0.3309941289999969  0.0775295349999965
  0.4706627730000008  0.9559941289999969  0.1550590539999988
  0.2206628920000000  0.5809942480000032  0.2325885589999999
  0.9706627130000030  0.2059941890000019  0.3101181090000011
  0.7206627130000030  0.8309941289999969  0.3876476289999999
  0.4706627730000008  0.7059941289999969  0.0000000209999982
  0.2206627580000031  0.3309941289999969  0.0775295349999965
  0.9706627730000008  0.9559941289999969  0.1550590539999988
  0.7206628320000021  0.5809942480000032  0.2325885589999999
  0.4706628320000021  0.2059941890000019  0.3101181090000011
  0.2206627730000008  0.8309941289999969  0.3876476289999999
  0.9706627730000008  0.2059941440000017  0.0000000169999979
  0.7206627130000030  0.8309941289999969  0.0775295349999965
  0.4706627730000008  0.4559941289999969  0.1550590539999988
  0.2206628920000000  0.0809942480000032  0.2325885589999999
  0.9706627130000030  0.7059942480000032  0.3101180789999987
  0.7206627130000030  0.3309941289999969  0.3876475989999975
  0.4706627730000008  0.2059941440000017  0.0000000169999979
  0.2206627580000031  0.8309941289999969  0.0775295349999965
  0.9706627730000008  0.4559941289999969  0.1550590539999988
  0.7206628320000021  0.0809942480000032  0.2325885589999999
  0.4706628320000021  0.7059942480000032  0.3101180789999987
  0.2206627730000008  0.3309941289999969  0.3876475989999975
  0.3456627429999983  0.5809941890000019  0.0000000260000022
  0.0956627580000031  0.2059941589999994  0.0775295349999965
  0.8456627730000008  0.8309941289999969  0.1550590539999988
  0.5956628320000021  0.4559942480000032  0.2325885300000010
  0.3456627730000008  0.0809941890000019  0.3101181090000011
  0.0956627130000030  0.7059941289999969  0.3876476289999999
  0.8456628320000021  0.5809941890000019  0.0000000260000022
  0.5956627730000008  0.2059941589999994  0.0775295349999965
  0.3456628019999997  0.8309941289999969  0.1550590539999988
  0.0956628839999993  0.4559942480000032  0.2325885300000010
  0.8456628320000021  0.0809941890000019  0.3101181090000011
  0.5956627730000008  0.7059941289999969  0.3876476289999999
  0.3456627429999983  0.0809941369999976  0.0000000129999975
  0.0956627580000031  0.7059941289999969  0.0775295349999965
  0.8456627730000008  0.3309941289999969  0.1550590539999988
  0.5956628320000021  0.9559942480000032  0.2325885589999999
  0.3456627730000008  0.5809942480000032  0.3101180789999987
  0.0956627130000030  0.2059940099999977  0.3876475989999975
  0.8456628320000021  0.0809941369999976  0.0000000129999975
  0.5956627730000008  0.7059941289999969  0.0775295349999965
  0.3456628019999997  0.3309941289999969  0.1550590539999988
  0.0956628839999993  0.9559942480000032  0.2325885589999999
  0.8456628320000021  0.5809942480000032  0.3101180789999987
  0.5956627730000008  0.2059940099999977  0.3876475989999975
  0.3456627429999983  0.8309941890000019  0.0000000000000000
  0.0956627580000031  0.4559941890000019  0.0775295349999965
  0.8456627730000008  0.0809941739999971  0.1550590539999988
  0.5956628320000021  0.7059943080000011  0.2325885300000010
  0.3456627730000008  0.3309942480000032  0.3101180789999987
  0.0956627130000030  0.9559941289999969  0.3876475690000021
  0.8456628320000021  0.8309941890000019  0.0000000000000000
  0.5956627730000008  0.4559941890000019  0.0775295349999965
  0.3456628019999997  0.0809941739999971  0.1550590539999988
  0.0956628839999993  0.7059943080000011  0.2325885300000010
  0.8456628320000021  0.3309942480000032  0.3101180789999987
  0.5956627730000008  0.9559941289999969  0.3876475690000021
  0.3456627429999983  0.3309941289999969  0.0000000180000015
  0.0956627580000031  0.9559941289999969  0.0775295420000006
  0.8456627730000008  0.5809941289999969  0.1550590539999988
  0.5956628320000021  0.2059942480000032  0.2325885589999999
  0.3456627730000008  0.8309941289999969  0.3101180789999987
  0.0956627130000030  0.4559941289999969  0.3876475989999975
  0.8456628320000021  0.3309941289999969  0.0000000180000015
  0.5956627730000008  0.9559941289999969  0.0775295420000006
  0.3456628019999997  0.5809941289999969  0.1550590539999988
  0.0956628839999993  0.2059942480000032  0.2325885589999999
  0.8456628320000021  0.8309941289999969  0.3101180789999987
  0.5956627730000008  0.4559941289999969  0.3876475989999975
  0.2232142840000009  0.7304482460000017  0.4715180099999969
  0.2232142690000032  0.4804480080000033  0.5604403609999977
  0.2232141490000004  0.2304480080000033  0.6493626829999997
  0.2232141490000004  0.9804477690000013  0.7382849449999966
  0.2232140300000012  0.7304477690000013  0.8272072079999973
  0.2232140300000012  0.4804475310000029  0.9161295890000005
  0.8898810150000003  0.0637814999999975  0.4715180099999969
  0.8898809550000024  0.8137814999999975  0.5604403609999977
  0.8898808960000011  0.5637812610000026  0.6493626829999997
  0.8898808960000011  0.3137812610000026  0.7382849449999966
  0.8898808360000032  0.0637811420000034  0.8272072669999986
  0.8898807759999983  0.8137809629999992  0.9161295890000005
  0.5565477009999995  0.3971148729999996  0.4715180099999969
  0.5565476419999982  0.1471147540000004  0.5604403609999977
  0.5565475820000003  0.8971146940000025  0.6493626829999997
  0.5565475229999990  0.6471145149999984  0.7382849449999966
  0.5565474630000011  0.3971145149999984  0.8272072669999986
  0.5565474630000011  0.1471142770000000  0.9161295890000005
  0.5565476419999982  0.8971148729999996  0.4715180099999969
  0.5565475820000003  0.6471147540000004  0.5604403609999977
  0.5565475229999990  0.3971147540000004  0.6493626829999997
  0.5565475229999990  0.1471145149999984  0.7382849449999966
  0.5565475229999990  0.8971143959999992  0.8272072079999973
  0.5565474630000011  0.6471142770000000  0.9161295890000005
  0.2232142840000009  0.2304482460000017  0.4715180099999969
  0.2232142690000032  0.9804481270000025  0.5604403609999977
  0.2232141490000004  0.7304480080000033  0.6493626829999997
  0.2232141490000004  0.4804477690000013  0.7382849449999966
  0.2232140300000012  0.2304477690000013  0.8272072079999973
  0.2232140300000012  0.9804476500000021  0.9161295890000005
  0.8898810740000016  0.5637816189999967  0.4715180099999969
  0.8898810150000003  0.3137814999999975  0.5604404210000027
  0.8898808960000011  0.0637813809999983  0.6493626829999997
  0.8898808960000011  0.8137812610000026  0.7382849449999966
  0.8898807759999983  0.5637812610000026  0.8272072669999986
  0.8898807759999983  0.3137810229999971  0.9161295890000005
  0.8065476419999982  0.8971148729999996  0.4715180399999994
  0.8065476419999982  0.6471147540000004  0.5604403609999977
  0.8065475820000003  0.3971145149999984  0.6493626829999997
  0.8065474630000011  0.1471145149999984  0.7382849449999966
  0.8065475229999990  0.8971144559999971  0.8272072079999973
  0.8065474030000033  0.6471145149999984  0.9161295890000005
  0.4732142690000032  0.2304481270000025  0.4715180399999994
  0.4732142089999982  0.9804481270000025  0.5604403609999977
  0.4732142089999982  0.7304480080000033  0.6493626829999997
  0.4732140899999990  0.4804477690000013  0.7382849449999966
  0.4732140300000012  0.2304477690000013  0.8272072669999986
  0.4732139999999987  0.9804476500000021  0.9161295890000005
  0.1398810150000003  0.5637814999999975  0.4715180099999969
  0.1398808960000011  0.3137814999999975  0.5604403609999977
  0.1398807759999983  0.0637812610000026  0.6493626829999997
  0.1398807759999983  0.8137812020000013  0.7382849449999966
  0.1398807759999983  0.5637811420000034  0.8272072079999973
  0.1398807759999983  0.3137810229999971  0.9161295890000005
  0.4732143279999974  0.7304482460000017  0.4715180099999969
  0.4732142690000032  0.4804481270000025  0.5604404210000027
  0.4732142690000032  0.2304480080000033  0.6493626829999997
  0.4732141490000004  0.9804478289999992  0.7382849449999966
  0.4732140899999990  0.7304477690000013  0.8272072669999986
  0.4732139709999998  0.4804477690000013  0.9161295890000005
  0.1398811339999995  0.0637814999999975  0.4715180399999994
  0.1398810150000003  0.8137814999999975  0.5604404210000027
  0.1398808960000011  0.5637812610000026  0.6493626829999997
  0.1398808960000011  0.3137812610000026  0.7382849449999966
  0.1398808960000011  0.0637811420000034  0.8272072079999973
  0.1398807759999983  0.8137810830000021  0.9161295890000005
  0.8065477009999995  0.3971148729999996  0.4715180399999994
  0.8065475820000003  0.1471147540000004  0.5604404210000027
  0.8065475229999990  0.8971146940000025  0.6493626829999997
  0.8065475229999990  0.6471145149999984  0.7382849449999966
  0.8065474630000011  0.3971145149999984  0.8272072079999973
  0.8065474630000011  0.1471143959999992  0.9161295890000005
 
  0.00000000E+00  0.00000000E+00  0.00000000E+00
  0.00000000E+00  0.00000000E+00  0.00000000E+00
  0.00000000E+00  0.00000000E+00  0.00000000E+00
  0.00000000E+00  0.00000000E+00  0.00000000E+00
  0.00000000E+00  0.00000000E+00  0.00000000E+00
  0.00000000E+00  0.00000000E+00  0.00000000E+00
  0.00000000E+00  0.00000000E+00  0.00000000E+00
  0.00000000E+00  0.00000000E+00  0.00000000E+00
  0.00000000E+00  0.00000000E+00  0.00000000E+00
  0.00000000E+00  0.00000000E+00  0.00000000E+00
  0.00000000E+00  0.00000000E+00  0.00000000E+00
  0.00000000E+00  0.00000000E+00  0.00000000E+00
  0.00000000E+00  0.00000000E+00  0.00000000E+00
  0.00000000E+00  0.00000000E+00  0.00000000E+00
  0.00000000E+00  0.00000000E+00  0.00000000E+00
  0.00000000E+00  0.00000000E+00  0.00000000E+00
  0.00000000E+00  0.00000000E+00  0.00000000E+00
  0.00000000E+00  0.00000000E+00  0.00000000E+00
  0.00000000E+00  0.00000000E+00  0.00000000E+00
  0.00000000E+00  0.00000000E+00  0.00000000E+00
  0.00000000E+00  0.00000000E+00  0.00000000E+00
  0.00000000E+00  0.00000000E+00  0.00000000E+00
  0.00000000E+00  0.00000000E+00  0.00000000E+00
  0.00000000E+00  0.00000000E+00  0.00000000E+00
  0.00000000E+00  0.00000000E+00  0.00000000E+00
  0.00000000E+00  0.00000000E+00  0.00000000E+00
  0.00000000E+00  0.00000000E+00  0.00000000E+00
  0.00000000E+00  0.00000000E+00  0.00000000E+00
  0.00000000E+00  0.00000000E+00  0.00000000E+00
  0.00000000E+00  0.00000000E+00  0.00000000E+00
  0.00000000E+00  0.00000000E+00  0.00000000E+00
  0.00000000E+00  0.00000000E+00  0.00000000E+00
  0.00000000E+00  0.00000000E+00  0.00000000E+00
  0.00000000E+00  0.00000000E+00  0.00000000E+00
  0.00000000E+00  0.00000000E+00  0.00000000E+00
  0.00000000E+00  0.00000000E+00  0.00000000E+00
  0.00000000E+00  0.00000000E+00  0.00000000E+00
  0.00000000E+00  0.00000000E+00  0.00000000E+00
  0.00000000E+00  0.00000000E+00  0.00000000E+00
  0.00000000E+00  0.00000000E+00  0.00000000E+00
  0.00000000E+00  0.00000000E+00  0.00000000E+00
  0.00000000E+00  0.00000000E+00  0.00000000E+00
  0.00000000E+00  0.00000000E+00  0.00000000E+00
  0.00000000E+00  0.00000000E+00  0.00000000E+00
  0.00000000E+00  0.00000000E+00  0.00000000E+00
  0.00000000E+00  0.00000000E+00  0.00000000E+00
  0.00000000E+00  0.00000000E+00  0.00000000E+00
  0.00000000E+00  0.00000000E+00  0.00000000E+00
  0.00000000E+00  0.00000000E+00  0.00000000E+00
  0.00000000E+00  0.00000000E+00  0.00000000E+00
  0.00000000E+00  0.00000000E+00  0.00000000E+00
  0.00000000E+00  0.00000000E+00  0.00000000E+00
  0.00000000E+00  0.00000000E+00  0.00000000E+00
  0.00000000E+00  0.00000000E+00  0.00000000E+00
  0.00000000E+00  0.00000000E+00  0.00000000E+00
  0.00000000E+00  0.00000000E+00  0.00000000E+00
  0.00000000E+00  0.00000000E+00  0.00000000E+00
  0.00000000E+00  0.00000000E+00  0.00000000E+00
  0.00000000E+00  0.00000000E+00  0.00000000E+00
  0.00000000E+00  0.00000000E+00  0.00000000E+00
  0.00000000E+00  0.00000000E+00  0.00000000E+00
  0.00000000E+00  0.00000000E+00  0.00000000E+00
  0.00000000E+00  0.00000000E+00  0.00000000E+00
  0.00000000E+00  0.00000000E+00  0.00000000E+00
  0.00000000E+00  0.00000000E+00  0.00000000E+00
  0.00000000E+00  0.00000000E+00  0.00000000E+00
  0.00000000E+00  0.00000000E+00  0.00000000E+00
  0.00000000E+00  0.00000000E+00  0.00000000E+00
  0.00000000E+00  0.00000000E+00  0.00000000E+00
  0.00000000E+00  0.00000000E+00  0.00000000E+00
  0.00000000E+00  0.00000000E+00  0.00000000E+00
  0.00000000E+00  0.00000000E+00  0.00000000E+00
  0.00000000E+00  0.00000000E+00  0.00000000E+00
  0.00000000E+00  0.00000000E+00  0.00000000E+00
  0.00000000E+00  0.00000000E+00  0.00000000E+00
  0.00000000E+00  0.00000000E+00  0.00000000E+00
  0.00000000E+00  0.00000000E+00  0.00000000E+00
  0.00000000E+00  0.00000000E+00  0.00000000E+00
  0.00000000E+00  0.00000000E+00  0.00000000E+00
  0.00000000E+00  0.00000000E+00  0.00000000E+00
  0.00000000E+00  0.00000000E+00  0.00000000E+00
  0.00000000E+00  0.00000000E+00  0.00000000E+00
  0.00000000E+00  0.00000000E+00  0.00000000E+00
  0.00000000E+00  0.00000000E+00  0.00000000E+00
  0.00000000E+00  0.00000000E+00  0.00000000E+00
  0.00000000E+00  0.00000000E+00  0.00000000E+00
  0.00000000E+00  0.00000000E+00  0.00000000E+00
  0.00000000E+00  0.00000000E+00  0.00000000E+00
  0.00000000E+00  0.00000000E+00  0.00000000E+00
  0.00000000E+00  0.00000000E+00  0.00000000E+00
  0.00000000E+00  0.00000000E+00  0.00000000E+00
  0.00000000E+00  0.00000000E+00  0.00000000E+00
  0.00000000E+00  0.00000000E+00  0.00000000E+00
  0.00000000E+00  0.00000000E+00  0.00000000E+00
  0.00000000E+00  0.00000000E+00  0.00000000E+00
  0.00000000E+00  0.00000000E+00  0.00000000E+00
  0.00000000E+00  0.00000000E+00  0.00000000E+00
  0.00000000E+00  0.00000000E+00  0.00000000E+00
  0.00000000E+00  0.00000000E+00  0.00000000E+00
  0.00000000E+00  0.00000000E+00  0.00000000E+00
  0.00000000E+00  0.00000000E+00  0.00000000E+00
  0.00000000E+00  0.00000000E+00  0.00000000E+00
  0.00000000E+00  0.00000000E+00  0.00000000E+00
  0.00000000E+00  0.00000000E+00  0.00000000E+00
  0.00000000E+00  0.00000000E+00  0.00000000E+00
  0.00000000E+00  0.00000000E+00  0.00000000E+00
  0.00000000E+00  0.00000000E+00  0.00000000E+00
  0.00000000E+00  0.00000000E+00  0.00000000E+00
  0.00000000E+00  0.00000000E+00  0.00000000E+00
  0.00000000E+00  0.00000000E+00  0.00000000E+00
  0.00000000E+00  0.00000000E+00  0.00000000E+00
  0.00000000E+00  0.00000000E+00  0.00000000E+00
  0.00000000E+00  0.00000000E+00  0.00000000E+00
  0.00000000E+00  0.00000000E+00  0.00000000E+00
  0.00000000E+00  0.00000000E+00  0.00000000E+00
  0.00000000E+00  0.00000000E+00  0.00000000E+00
  0.00000000E+00  0.00000000E+00  0.00000000E+00
  0.00000000E+00  0.00000000E+00  0.00000000E+00
  0.00000000E+00  0.00000000E+00  0.00000000E+00
  0.00000000E+00  0.00000000E+00  0.00000000E+00
  0.00000000E+00  0.00000000E+00  0.00000000E+00
  0.00000000E+00  0.00000000E+00  0.00000000E+00
  0.00000000E+00  0.00000000E+00  0.00000000E+00
  0.00000000E+00  0.00000000E+00  0.00000000E+00
  0.00000000E+00  0.00000000E+00  0.00000000E+00
  0.00000000E+00  0.00000000E+00  0.00000000E+00
  0.00000000E+00  0.00000000E+00  0.00000000E+00
  0.00000000E+00  0.00000000E+00  0.00000000E+00
  0.00000000E+00  0.00000000E+00  0.00000000E+00
  0.00000000E+00  0.00000000E+00  0.00000000E+00
  0.00000000E+00  0.00000000E+00  0.00000000E+00
  0.00000000E+00  0.00000000E+00  0.00000000E+00
  0.00000000E+00  0.00000000E+00  0.00000000E+00
  0.00000000E+00  0.00000000E+00  0.00000000E+00
  0.00000000E+00  0.00000000E+00  0.00000000E+00
  0.00000000E+00  0.00000000E+00  0.00000000E+00
  0.00000000E+00  0.00000000E+00  0.00000000E+00
  0.00000000E+00  0.00000000E+00  0.00000000E+00
  0.00000000E+00  0.00000000E+00  0.00000000E+00
  0.00000000E+00  0.00000000E+00  0.00000000E+00
  0.00000000E+00  0.00000000E+00  0.00000000E+00
  0.00000000E+00  0.00000000E+00  0.00000000E+00
  0.00000000E+00  0.00000000E+00  0.00000000E+00
  0.00000000E+00  0.00000000E+00  0.00000000E+00
  0.00000000E+00  0.00000000E+00  0.00000000E+00
  0.00000000E+00  0.00000000E+00  0.00000000E+00
  0.00000000E+00  0.00000000E+00  0.00000000E+00
  0.00000000E+00  0.00000000E+00  0.00000000E+00
  0.00000000E+00  0.00000000E+00  0.00000000E+00
  0.00000000E+00  0.00000000E+00  0.00000000E+00
  0.00000000E+00  0.00000000E+00  0.00000000E+00
  0.00000000E+00  0.00000000E+00  0.00000000E+00
  0.00000000E+00  0.00000000E+00  0.00000000E+00
  0.00000000E+00  0.00000000E+00  0.00000000E+00
  0.00000000E+00  0.00000000E+00  0.00000000E+00
  0.00000000E+00  0.00000000E+00  0.00000000E+00
  0.00000000E+00  0.00000000E+00  0.00000000E+00
  0.00000000E+00  0.00000000E+00  0.00000000E+00
  0.00000000E+00  0.00000000E+00  0.00000000E+00
  0.00000000E+00  0.00000000E+00  0.00000000E+00
  0.00000000E+00  0.00000000E+00  0.00000000E+00
  0.00000000E+00  0.00000000E+00  0.00000000E+00
  0.00000000E+00  0.00000000E+00  0.00000000E+00
  0.00000000E+00  0.00000000E+00  0.00000000E+00
  0.00000000E+00  0.00000000E+00  0.00000000E+00
  0.00000000E+00  0.00000000E+00  0.00000000E+00
  0.00000000E+00  0.00000000E+00  0.00000000E+00
  0.00000000E+00  0.00000000E+00  0.00000000E+00
