Ge+Sn
    1.000000000
   11.315600395    0.000000000    0.000000000
    0.000000000   16.002676010    0.000000000
    0.000000000    0.000000000   25.800939560
Ge  Sn 
96     72
Direct
    0.970662773    0.455994159    0.000000018
    0.720662713    0.080994137    0.077529535
    0.470662773    0.705994129    0.155059069
    0.220662892    0.330994248    0.232588530
    0.970662713    0.955994129    0.310118079
    0.720662713    0.580994129    0.387647629
    0.470662773    0.455994159    0.000000018
    0.220662758    0.080994137    0.077529535
    0.970662773    0.705994129    0.155059069
    0.720662832    0.330994248    0.232588530
    0.470662832    0.955994129    0.310118079
    0.220662773    0.580994129    0.387647629
    0.970662773    0.955994129    0.000000016
    0.720662713    0.580994129    0.077529542
    0.470662773    0.205994129    0.155059054
    0.220662892    0.830994368    0.232588530
    0.970662713    0.455994129    0.310118109
    0.720662713    0.080994129    0.387647599
    0.470662773    0.955994129    0.000000016
    0.220662758    0.580994129    0.077529542
    0.970662773    0.205994129    0.155059054
    0.720662832    0.830994368    0.232588530
    0.470662832    0.455994129    0.310118109
    0.220662773    0.080994129    0.387647599
    0.970662773    0.705994129    0.000000021
    0.720662713    0.330994129    0.077529535
    0.470662773    0.955994129    0.155059054
    0.220662892    0.580994248    0.232588559
    0.970662713    0.205994189    0.310118109
    0.720662713    0.830994129    0.387647629
    0.470662773    0.705994129    0.000000021
    0.220662758    0.330994129    0.077529535
    0.970662773    0.955994129    0.155059054
    0.720662832    0.580994248    0.232588559
    0.470662832    0.205994189    0.310118109
    0.220662773    0.830994129    0.387647629
    0.970662773    0.205994144    0.000000017
    0.720662713    0.830994129    0.077529535
    0.470662773    0.455994129    0.155059054
    0.220662892    0.080994248    0.232588559
    0.970662713    0.705994248    0.310118079
    0.720662713    0.330994129    0.387647599
    0.470662773    0.205994144    0.000000017
    0.220662758    0.830994129    0.077529535
    0.970662773    0.455994129    0.155059054
    0.720662832    0.080994248    0.232588559
    0.470662832    0.705994248    0.310118079
    0.220662773    0.330994129    0.387647599
    0.345662743    0.580994189    0.000000026
    0.095662758    0.205994159    0.077529535
    0.845662773    0.830994129    0.155059054
    0.595662832    0.455994248    0.232588530
    0.345662773    0.080994189    0.310118109
    0.095662713    0.705994129    0.387647629
    0.845662832    0.580994189    0.000000026
    0.595662773    0.205994159    0.077529535
    0.345662802    0.830994129    0.155059054
    0.095662884    0.455994248    0.232588530
    0.845662832    0.080994189    0.310118109
    0.595662773    0.705994129    0.387647629
    0.345662743    0.080994137    0.000000013
    0.095662758    0.705994129    0.077529535
    0.845662773    0.330994129    0.155059054
    0.595662832    0.955994248    0.232588559
    0.345662773    0.580994248    0.310118079
    0.095662713    0.205994010    0.387647599
    0.845662832    0.080994137    0.000000013
    0.595662773    0.705994129    0.077529535
    0.345662802    0.330994129    0.155059054
    0.095662884    0.955994248    0.232588559
    0.845662832    0.580994248    0.310118079
    0.595662773    0.205994010    0.387647599
    0.345662743    0.830994189    0.000000000
    0.095662758    0.455994189    0.077529535
    0.845662773    0.080994174    0.155059054
    0.595662832    0.705994308    0.232588530
    0.345662773    0.330994248    0.310118079
    0.095662713    0.955994129    0.387647569
    0.845662832    0.830994189    0.000000000
    0.595662773    0.455994189    0.077529535
    0.345662802    0.080994174    0.155059054
    0.095662884    0.705994308    0.232588530
    0.845662832    0.330994248    0.310118079
    0.595662773    0.955994129    0.387647569
    0.345662743    0.330994129    0.000000018
    0.095662758    0.955994129    0.077529542
    0.845662773    0.580994129    0.155059054
    0.595662832    0.205994248    0.232588559
    0.345662773    0.830994129    0.310118079
    0.095662713    0.455994129    0.387647599
    0.845662832    0.330994129    0.000000018
    0.595662773    0.955994129    0.077529542
    0.345662802    0.580994129    0.155059054
    0.095662884    0.205994248    0.232588559
    0.845662832    0.830994129    0.310118079
    0.595662773    0.455994129    0.387647599
    0.223214284    0.730448246    0.471518010
    0.223214269    0.480448008    0.560440361
    0.223214149    0.230448008    0.649362683
    0.223214149    0.980447769    0.738284945
    0.223214030    0.730447769    0.827207208
    0.223214030    0.480447531    0.916129589
    0.889881015    0.063781500    0.471518010
    0.889880955    0.813781500    0.560440361
    0.889880896    0.563781261    0.649362683
    0.889880896    0.313781261    0.738284945
    0.889880836    0.063781142    0.827207267
    0.889880776    0.813780963    0.916129589
    0.556547701    0.397114873    0.471518010
    0.556547642    0.147114754    0.560440361
    0.556547582    0.897114694    0.649362683
    0.556547523    0.647114515    0.738284945
    0.556547463    0.397114515    0.827207267
    0.556547463    0.147114277    0.916129589
    0.556547642    0.897114873    0.471518010
    0.556547582    0.647114754    0.560440361
    0.556547523    0.397114754    0.649362683
    0.556547523    0.147114515    0.738284945
    0.556547523    0.897114396    0.827207208
    0.556547463    0.647114277    0.916129589
    0.223214284    0.230448246    0.471518010
    0.223214269    0.980448127    0.560440361
    0.223214149    0.730448008    0.649362683
    0.223214149    0.480447769    0.738284945
    0.223214030    0.230447769    0.827207208
    0.223214030    0.980447650    0.916129589
    0.889881074    0.563781619    0.471518010
    0.889881015    0.313781500    0.560440421
    0.889880896    0.063781381    0.649362683
    0.889880896    0.813781261    0.738284945
    0.889880776    0.563781261    0.827207267
    0.889880776    0.313781023    0.916129589
    0.806547642    0.897114873    0.471518040
    0.806547642    0.647114754    0.560440361
    0.806547582    0.397114515    0.649362683
    0.806547463    0.147114515    0.738284945
    0.806547523    0.897114456    0.827207208
    0.806547403    0.647114515    0.916129589
    0.473214269    0.230448127    0.471518040
    0.473214209    0.980448127    0.560440361
    0.473214209    0.730448008    0.649362683
    0.473214090    0.480447769    0.738284945
    0.473214030    0.230447769    0.827207267
    0.473214000    0.980447650    0.916129589
    0.139881015    0.563781500    0.471518010
    0.139880896    0.313781500    0.560440361
    0.139880776    0.063781261    0.649362683
    0.139880776    0.813781202    0.738284945
    0.139880776    0.563781142    0.827207208
    0.139880776    0.313781023    0.916129589
    0.473214328    0.730448246    0.471518010
    0.473214269    0.480448127    0.560440421
    0.473214269    0.230448008    0.649362683
    0.473214149    0.980447829    0.738284945
    0.473214090    0.730447769    0.827207267
    0.473213971    0.480447769    0.916129589
    0.139881134    0.063781500    0.471518040
    0.139881015    0.813781500    0.560440421
    0.139880896    0.563781261    0.649362683
    0.139880896    0.313781261    0.738284945
    0.139880896    0.063781142    0.827207208
    0.139880776    0.813781083    0.916129589
    0.806547701    0.397114873    0.471518040
    0.806547582    0.147114754    0.560440421
    0.806547523    0.897114694    0.649362683
    0.806547523    0.647114515    0.738284945
    0.806547463    0.397114515    0.827207208
    0.806547463    0.147114396    0.916129589
