Si+Ge
    1.000000000
   16.293001175    0.000000000    0.000000000
    0.000000000   16.293001175    0.000000000
    0.000000000    0.000000000   13.293916702
Si  Ge 
108     48
Direct
    0.000000000    0.994067729    0.000000000
    0.000000000    0.827401042    0.204266384
    0.000000000    0.660734296    0.408532798
    0.333333343    0.994067729    0.000000000
    0.333333343    0.827401042    0.204266384
    0.333333343    0.660734296    0.408532798
    0.666666687    0.994067729    0.000000000
    0.666666687    0.827401042    0.204266384
    0.666666687    0.660734296    0.408532798
    0.000000000    0.327401042    0.000000000
    0.000000000    0.160734370    0.204266384
    0.000000000    0.994067669    0.408532798
    0.333333343    0.327401042    0.000000000
    0.333333343    0.160734370    0.204266384
    0.333333343    0.994067669    0.408532798
    0.666666687    0.327401042    0.000000000
    0.666666687    0.160734370    0.204266384
    0.666666687    0.994067669    0.408532798
    0.000000000    0.660734415    0.000000000
    0.000000000    0.494067699    0.204266384
    0.000000000    0.327401042    0.408532798
    0.333333343    0.660734415    0.000000000
    0.333333343    0.494067699    0.204266384
    0.333333343    0.327401042    0.408532798
    0.666666687    0.660734415    0.000000000
    0.666666687    0.494067699    0.204266384
    0.666666687    0.327401042    0.408532798
    0.083333336    0.077401049    0.102133200
    0.083333336    0.910734355    0.306399524
    0.083333336    0.744067669    0.510666013
    0.416666687    0.077401049    0.102133200
    0.416666687    0.910734355    0.306399524
    0.416666687    0.744067669    0.510666013
    0.750000000    0.077401049    0.102133200
    0.750000000    0.910734355    0.306399524
    0.750000000    0.744067669    0.510666013
    0.083333336    0.410734355    0.102133200
    0.083333336    0.244067669    0.306399524
    0.083333336    0.077400982    0.510666013
    0.416666687    0.410734355    0.102133200
    0.416666687    0.244067669    0.306399524
    0.416666687    0.077400982    0.510666013
    0.750000000    0.410734355    0.102133200
    0.750000000    0.244067669    0.306399524
    0.750000000    0.077400982    0.510666013
    0.083333336    0.744067729    0.102133200
    0.083333336    0.577401042    0.306399524
    0.083333336    0.410734355    0.510666013
    0.416666687    0.744067729    0.102133200
    0.416666687    0.577401042    0.306399524
    0.416666687    0.410734355    0.510666013
    0.750000000    0.744067729    0.102133200
    0.750000000    0.577401042    0.306399524
    0.750000000    0.410734355    0.510666013
    0.166666672    0.160734385    0.000000000
    0.166666672    0.994067669    0.204266384
    0.166666672    0.827400982    0.408532798
    0.500000000    0.160734385    0.000000000
    0.500000000    0.994067669    0.204266384
    0.500000000    0.827400982    0.408532798
    0.833333373    0.160734385    0.000000000
    0.833333373    0.994067669    0.204266384
    0.833333373    0.827400982    0.408532798
    0.166666672    0.494067699    0.000000000
    0.166666672    0.327401042    0.204266384
    0.166666672    0.160734311    0.408532798
    0.500000000    0.494067699    0.000000000
    0.500000000    0.327401042    0.204266384
    0.500000000    0.160734311    0.408532798
    0.833333373    0.494067699    0.000000000
    0.833333373    0.327401042    0.204266384
    0.833333373    0.160734311    0.408532798
    0.166666672    0.827401042    0.000000000
    0.166666672    0.660734355    0.204266384
    0.166666672    0.494067639    0.408532798
    0.500000000    0.827401042    0.000000000
    0.500000000    0.660734355    0.204266384
    0.500000000    0.494067639    0.408532798
    0.833333373    0.827401042    0.000000000
    0.833333373    0.660734355    0.204266384
    0.833333373    0.494067639    0.408532798
    0.250000000    0.244067714    0.102133200
    0.250000000    0.077401027    0.306399524
    0.250000000    0.910734355    0.510666013
    0.583333373    0.244067714    0.102133200
    0.583333373    0.077401027    0.306399524
    0.583333373    0.910734355    0.510666013
    0.916666687    0.244067714    0.102133200
    0.916666687    0.077401027    0.306399524
    0.916666687    0.910734355    0.510666013
    0.250000000    0.577401161    0.102133200
    0.250000000    0.410734445    0.306399524
    0.250000000    0.244067743    0.510666013
    0.583333373    0.577401161    0.102133200
    0.583333373    0.410734445    0.306399524
    0.583333373    0.244067743    0.510666013
    0.916666687    0.577401161    0.102133200
    0.916666687    0.410734445    0.306399524
    0.916666687    0.244067743    0.510666013
    0.250000000    0.910734355    0.102133200
    0.250000000    0.744067669    0.306399524
    0.250000000    0.577401042    0.510666013
    0.583333373    0.910734355    0.102133200
    0.583333373    0.744067669    0.306399524
    0.583333373    0.577401042    0.510666013
    0.916666687    0.910734355    0.102133200
    0.916666687    0.744067669    0.306399524
    0.916666687    0.577401042    0.510666013
    0.255703330    0.203361273    0.629941165
    0.866814375    0.828361154    0.680097997
    0.477925390    0.453361213    0.730254650
    0.089036345    0.078361273    0.780411422
    0.700147510    0.703361273    0.830568075
    0.311258554    0.328361154    0.880724847
    0.255703330    0.703361154    0.629941165
    0.866814375    0.328361124    0.680097997
    0.477925390    0.953361154    0.730254710
    0.089036345    0.578361154    0.780411422
    0.700147510    0.203361273    0.830568075
    0.311258554    0.828361154    0.880724788
    0.005703211    0.328361154    0.629941165
    0.616814256    0.953361154    0.680097997
    0.227925301    0.578361213    0.730254650
    0.839036345    0.203361273    0.780411363
    0.450147420    0.828361273    0.830568135
    0.061258316    0.453361273    0.880724788
    0.005703211    0.828361094    0.629941165
    0.616814256    0.453361094    0.680097997
    0.227925301    0.078361034    0.730254650
    0.839036345    0.703361094    0.780411363
    0.450147420    0.328361213    0.830568135
    0.061258435    0.953361034    0.880724788
    0.005703211    0.578361154    0.629941225
    0.616814256    0.203361154    0.680097997
    0.227925301    0.828361213    0.730254650
    0.839036345    0.453361213    0.780411363
    0.450147480    0.078361273    0.830568135
    0.061258435    0.703361273    0.880724847
    0.005703211    0.078361034    0.629941165
    0.616814256    0.703361034    0.680097997
    0.227925301    0.328361124    0.730254650
    0.839036345    0.953361154    0.780411363
    0.450147480    0.578361213    0.830568135
    0.061258316    0.203361034    0.880724788
    0.255703330    0.453361154    0.629941165
    0.866814375    0.078361154    0.680097997
    0.477925390    0.703361273    0.730254710
    0.089036345    0.328361213    0.780411422
    0.700147748    0.953361392    0.830568135
    0.311258554    0.578361154    0.880724847
    0.255703330    0.953361094    0.629941165
    0.866814375    0.578361154    0.680097997
    0.477925390    0.203361273    0.730254710
    0.089036465    0.828361213    0.780411422
    0.700147629    0.453361273    0.830568075
    0.311258316    0.078361034    0.880724788
