Sn+Ge
    1.000000000
   12.978400230    0.000000000    0.000000000
    0.000000000   12.978400230    0.000000000
    0.000000000    0.000000000   19.583751678
Sn  Ge 
48     60
Direct
    0.992552638    0.499999970    0.000000000
    0.742552638    0.499999970    0.165678188
    0.492552757    0.499999970    0.331356287
    0.992552638    0.000000000    0.000000000
    0.742552638    0.000000000    0.165678188
    0.492552757    0.000000000    0.331356287
    0.492552608    0.499999970    0.000000000
    0.242552638    0.499999970    0.165678188
    0.992552698    0.499999970    0.331356287
    0.492552608    0.000000000    0.000000000
    0.242552638    0.000000000    0.165678188
    0.992552698    0.000000000    0.331356287
    0.117552646    0.874999940    0.082839087
    0.867552757    0.874999940    0.248517260
    0.617552698    0.874999940    0.414195418
    0.117552646    0.374999970    0.082839087
    0.867552757    0.374999970    0.248517260
    0.617552698    0.374999970    0.414195418
    0.617552578    0.874999940    0.082839087
    0.367552698    0.874999940    0.248517260
    0.117552668    0.874999940    0.414195418
    0.617552578    0.374999970    0.082839087
    0.367552698    0.374999970    0.248517260
    0.117552668    0.374999970    0.414195418
    0.242552638    0.749999940    0.000000000
    0.992552638    0.749999940    0.165678188
    0.742552757    0.749999940    0.331356287
    0.242552638    0.249999985    0.000000000
    0.992552638    0.249999985    0.165678188
    0.742552757    0.249999985    0.331356287
    0.742552578    0.749999940    0.000000000
    0.492552608    0.749999940    0.165678188
    0.242552698    0.749999940    0.331356287
    0.742552578    0.249999985    0.000000000
    0.492552608    0.249999985    0.165678188
    0.242552698    0.249999985    0.331356287
    0.367552638    0.624999940    0.082839087
    0.117552713    0.624999940    0.248517260
    0.867552698    0.624999940    0.414195418
    0.367552638    0.124999993    0.082839087
    0.117552713    0.124999993    0.248517260
    0.867552698    0.124999993    0.414195418
    0.867552638    0.624999940    0.082839087
    0.617552757    0.624999940    0.248517260
    0.367552698    0.624999940    0.414195418
    0.867552638    0.124999993    0.082839087
    0.617552757    0.124999993    0.248517260
    0.367552698    0.124999993    0.414195418
    0.217054263    0.429863691    0.526533484
    0.217054337    0.929863691    0.670984805
    0.217054352    0.429863751    0.815436304
    0.417054236    0.029863596    0.526533484
    0.417054266    0.529863656    0.670984805
    0.417054415    0.029863596    0.815436304
    0.617054224    0.629863679    0.526533484
    0.617054284    0.129863620    0.670984805
    0.617054343    0.629863679    0.815436304
    0.817054272    0.229863644    0.526533484
    0.817054272    0.729863703    0.670984805
    0.817054451    0.229863644    0.815436304
    0.017054200    0.829863667    0.526533484
    0.017054319    0.329863548    0.670984805
    0.017054319    0.829863727    0.815436304
    0.367054284    0.379863501    0.598759174
    0.367054313    0.879863679    0.743210614
    0.367054343    0.379863739    0.887661994
    0.567054272    0.979863703    0.598759174
    0.567054331    0.479863703    0.743210614
    0.567054391    0.979863703    0.887661994
    0.767054200    0.579863608    0.598759174
    0.767054200    0.079863787    0.743210614
    0.767054260    0.579863608    0.887661994
    0.967054307    0.179863691    0.598759174
    0.967054367    0.679863751    0.743210614
    0.967054367    0.179863691    0.887661994
    0.167054415    0.779863715    0.598759174
    0.167054415    0.279863596    0.743210614
    0.167054415    0.779863656    0.887661994
    0.317054272    0.729863644    0.526533484
    0.317054331    0.229863644    0.670984805
    0.317054391    0.729863584    0.815436304
    0.517054319    0.329863548    0.526533484
    0.517054379    0.829863608    0.670984805
    0.517054439    0.329863548    0.815436304
    0.717054248    0.929863691    0.526533484
    0.717054307    0.429863632    0.670984805
    0.717054367    0.929863751    0.815436304
    0.917054236    0.529863715    0.526533484
    0.917054296    0.029863596    0.670984805
    0.917054415    0.529863656    0.815436304
    0.117054224    0.129863620    0.526533484
    0.117054343    0.629863679    0.670984805
    0.117054462    0.129863501    0.815436304
    0.267054290    0.079863667    0.598759174
    0.267054349    0.579863727    0.743210614
    0.267054409    0.079863787    0.887661994
    0.467054248    0.679863691    0.598759174
    0.467054307    0.179863691    0.743210614
    0.467054367    0.679863751    0.887661994
    0.667054236    0.279863596    0.598759174
    0.667054236    0.779863656    0.743210614
    0.667054415    0.279863596    0.887661994
    0.867054224    0.879863739    0.598759174
    0.867054284    0.379863739    0.743210614
    0.867054343    0.879863799    0.887661994
    0.067054391    0.479863703    0.598759174
    0.067054391    0.979863703    0.743210614
    0.067054510    0.479863703    0.887661994
