Sn+Ge                                   
   1.00000000000000     
    15.8952283859999994    0.0000000000000000    0.0000000000000000
    -7.9476151469999996   13.7656726840000001    0.0000000000000000
     0.0000000000000000    0.0000000000000000   20.3040103909999985
   Sn   Ge
    72    96
Direct
  0.0000000000000000  0.0124091730000018  0.0000000200000017
  0.0000000000000000  0.3457425530000009  0.1845222860000035
  0.0000000000000000  0.6790759559999984  0.3690445720000000
  0.3333333730000021  0.6790758969999970  0.0000000000000000
  0.3333334029999975  0.0124093290000005  0.1845222709999987
  0.3333334029999975  0.3457427020000026  0.3690445129999986
  0.6666667459999971  0.3457425530000009  0.0000000160000013
  0.6666667459999971  0.6790759559999984  0.1845222709999987
  0.6666667459999971  0.0124093290000005  0.3690445129999986
  0.0000000000000000  0.3457425530000009  0.0461305859999968
  0.0000000000000000  0.6790758969999970  0.2306528689999965
  0.0000000000000000  0.0124092100000013  0.4151751400000023
  0.3333334029999975  0.0124092100000013  0.0461305640000020
  0.3333334029999975  0.3457425830000034  0.2306528390000011
  0.3333334029999975  0.6790760760000012  0.4151751400000023
  0.6666667459999971  0.6790759559999984  0.0461305979999977
  0.6666667459999971  0.0124093290000005  0.2306528689999965
  0.6666667459999971  0.3457425830000034  0.4151750799999974
  0.1666666870000029  0.3457425530000009  0.0000000160000013
  0.1666667009999969  0.6790759559999984  0.1845222860000035
  0.1666666870000029  0.0124093290000005  0.3690445720000000
  0.5000000000000000  0.0124091839999991  0.0000000229999984
  0.5000000000000000  0.3457425830000034  0.1845222860000035
  0.5000000000000000  0.6790760160000033  0.3690445720000000
  0.8333334330000000  0.6790758969999970  0.0000000000000000
  0.8333334330000000  0.0124093290000005  0.1845222560000011
  0.8333334330000000  0.3457427020000026  0.3690445720000000
  0.1666667009999969  0.6790759559999984  0.0461305529999976
  0.1666667009999969  0.0124093290000005  0.2306527940000009
  0.1666667160000017  0.3457428219999983  0.4151750799999974
  0.5000000599999979  0.3457425830000034  0.0461305529999976
  0.5000000599999979  0.6790759559999984  0.2306528390000011
  0.5000000599999979  0.0124093290000005  0.4151750799999974
  0.8333334330000000  0.0124092100000013  0.0461305159999981
  0.8333334330000000  0.3457425830000034  0.2306527940000009
  0.8333334330000000  0.6790759559999984  0.4151750799999974
  0.0000000000000000  0.5124092100000013  0.0000000149999977
  0.0000000000000000  0.8457425830000034  0.1845222560000011
  0.0000000000000000  0.1790759559999984  0.3690445720000000
  0.3333333730000021  0.1790758519999969  0.0000000160000013
  0.3333333730000021  0.5124092699999991  0.1845222860000035
  0.3333333730000021  0.8457426430000012  0.3690445720000000
  0.6666667459999971  0.8457425830000034  0.0000000000000000
  0.6666667459999971  0.1790759559999984  0.1845222560000011
  0.6666668060000021  0.5124094490000033  0.3690445720000000
  0.0000000000000000  0.8457425830000034  0.0461305529999976
  0.0000000000000000  0.1790759559999984  0.2306528089999986
  0.0000000000000000  0.5124094490000033  0.4151750799999974
  0.3333333730000021  0.5124092100000013  0.0461305529999976
  0.3333333730000021  0.8457425830000034  0.2306528089999986
  0.3333334029999975  0.1790760760000012  0.4151751400000023
  0.6666667459999971  0.1790758069999967  0.0461305489999972
  0.6666667459999971  0.5124092100000013  0.2306528240000034
  0.6666667459999971  0.8457426430000012  0.4151751400000023
  0.1666667009999969  0.8457425830000034  0.0000000300000025
  0.1666667009999969  0.1790758369999992  0.1845222560000011
  0.1666667009999969  0.5124093290000005  0.3690445129999986
  0.5000000000000000  0.5124092100000013  0.0000000140000012
  0.5000000000000000  0.8457426430000012  0.1845222860000035
  0.5000000599999979  0.1790759559999984  0.3690445129999986
  0.8333333730000021  0.1790758670000017  0.0000000300000025
  0.8333333730000021  0.5124092699999991  0.1845222860000035
  0.8333333730000021  0.8457427020000026  0.3690445129999986
  0.1666666870000029  0.1790757779999979  0.0461305899999971
  0.1666666870000029  0.5124091510000000  0.2306528840000013
  0.1666666870000029  0.8457425240000020  0.4151751400000023
  0.5000000000000000  0.8457425240000020  0.0461305939999974
  0.5000000000000000  0.1790759559999984  0.2306528840000013
  0.5000000000000000  0.5124092100000013  0.4151751400000023
  0.8333334330000000  0.5124092100000013  0.0461305640000020
  0.8333334330000000  0.8457425830000034  0.2306528390000011
  0.8333334330000000  0.1790759559999984  0.4151750799999974
  0.4984254840000020  0.6827569599999990  0.5265963080000020
  0.1650921109999999  0.5160902739999997  0.6874775289999988
  0.8317587379999978  0.3494235280000026  0.8483586309999964
  0.4984254840000020  0.1827571390000031  0.5265963080000020
  0.1650921109999999  0.0160903929999989  0.6874775289999988
  0.8317587379999978  0.8494235869999969  0.8483586910000014
  0.9984254840000020  0.6827570199999968  0.5265963080000020
  0.6650921109999999  0.5160902739999997  0.6874775289999988
  0.3317587379999978  0.3494235280000026  0.8483586910000014
  0.9984254840000020  0.1827571390000031  0.5265963080000020
  0.6650921109999999  0.0160903929999989  0.6874775289999988
  0.3317587379999978  0.8494235869999969  0.8483586910000014
  0.6650921700000012  0.0160902739999997  0.5668166279999980
  0.3317587379999978  0.8494235280000026  0.7276977300000027
  0.9984254239999970  0.6827568409999998  0.8885789509999995
  0.6650921700000012  0.5160903330000011  0.5668166279999980
  0.3317587379999978  0.3494236470000018  0.7276977300000027
  0.9984254239999970  0.1827569009999976  0.8885789509999995
  0.1650921109999999  0.0160902739999997  0.5668166279999980
  0.8317587379999978  0.8494235280000026  0.7276977300000027
  0.4984254840000020  0.6827568409999998  0.8885789509999995
  0.1650921109999999  0.5160903330000011  0.5668166279999980
  0.8317587379999978  0.3494236470000018  0.7276977300000027
  0.4984254840000020  0.1827569009999976  0.8885789509999995
  0.7484254840000020  0.9327570199999968  0.5265963080000020
  0.4150921109999999  0.7660903330000011  0.6874775289999988
  0.0817586180000021  0.5994235280000026  0.8483586910000014
  0.7484255430000033  0.4327570199999968  0.5265963080000020
  0.4150921109999999  0.2660903040000022  0.6874775289999988
  0.0817587379999978  0.0994236470000018  0.8483586910000014
  0.2484254840000020  0.9327569599999990  0.5265963080000020
  0.9150921109999999  0.7660902739999997  0.6874775289999988
  0.5817586180000021  0.5994235280000026  0.8483586910000014
  0.2484254840000020  0.4327570199999968  0.5265963080000020
  0.9150921109999999  0.2660903040000022  0.6874775289999988
  0.5817586779999999  0.0994236470000018  0.8483586910000014
  0.9150921700000012  0.7660903330000011  0.5668165680000001
  0.5817587379999978  0.5994235869999969  0.7276977300000027
  0.2484254840000020  0.4327569009999976  0.8885789509999995
  0.9150921700000012  0.2660903929999989  0.5668165680000001
  0.5817587379999978  0.0994236470000018  0.7276977300000027
  0.2484254840000020  0.9327569599999990  0.8885789509999995
  0.4150922299999991  0.7660902739999997  0.5668165680000001
  0.0817588569999970  0.5994235869999969  0.7276976699999977
  0.7484254840000020  0.4327568710000023  0.8885789509999995
  0.4150922299999991  0.2660903929999989  0.5668165680000001
  0.0817588569999970  0.0994236470000018  0.7276977300000027
  0.7484254840000020  0.9327569599999990  0.8885789509999995
  0.7484254840000020  0.6827570199999968  0.5265963080000020
  0.4150921109999999  0.5160902739999997  0.6874775289999988
  0.0817587379999978  0.3494235280000026  0.8483586910000014
  0.7484255430000033  0.1827571390000031  0.5265963080000020
  0.4150921109999999  0.0160903929999989  0.6874775289999988
  0.0817587379999978  0.8494235869999969  0.8483586910000014
  0.2484254840000020  0.6827570199999968  0.5265963080000020
  0.9150921109999999  0.5160902739999997  0.6874775289999988
  0.5817586180000021  0.3494235280000026  0.8483586910000014
  0.2484254840000020  0.1827571390000031  0.5265963080000020
  0.9150921109999999  0.0160903929999989  0.6874775289999988
  0.5817586779999999  0.8494235869999969  0.8483586910000014
  0.9150921700000012  0.0160903929999989  0.5668165680000001
  0.5817587379999978  0.8494235280000026  0.7276976699999977
  0.2484254840000020  0.6827569009999976  0.8885789509999995
  0.9150921700000012  0.5160903929999989  0.5668165680000001
  0.5817587379999978  0.3494236470000018  0.7276977300000027
  0.2484254840000020  0.1827570199999968  0.8885789509999995
  0.4150922299999991  0.0160902739999997  0.5668165680000001
  0.0817587379999978  0.8494235280000026  0.7276976699999977
  0.7484254840000020  0.6827569009999976  0.8885788320000003
  0.4150922299999991  0.5160903929999989  0.5668165680000001
  0.0817588569999970  0.3494236470000018  0.7276977300000027
  0.7484254840000020  0.1827570199999968  0.8885789509999995
  0.4984254840000020  0.9327570199999968  0.5265963080000020
  0.1650922299999991  0.7660902739999997  0.6874775289999988
  0.8317587379999978  0.5994235869999969  0.8483586309999964
  0.4984254840000020  0.4327570199999968  0.5265963080000020
  0.1650921109999999  0.2660903040000022  0.6874775289999988
  0.8317587379999978  0.0994236470000018  0.8483586910000014
  0.9984254840000020  0.9327570199999968  0.5265963080000020
  0.6650921109999999  0.7660903330000011  0.6874775289999988
  0.3317587379999978  0.5994235280000026  0.8483586910000014
  0.9984254840000020  0.4327570199999968  0.5265963080000020
  0.6650921109999999  0.2660903040000022  0.6874775289999988
  0.3317587379999978  0.0994236470000018  0.8483586910000014
  0.6650922299999991  0.7660903330000011  0.5668165680000001
  0.3317588569999970  0.5994236470000018  0.7276977300000027
  0.9984254840000020  0.4327569599999990  0.8885789509999995
  0.6650922299999991  0.2660903929999989  0.5668165680000001
  0.3317588569999970  0.0994237660000010  0.7276977300000027
  0.9984254840000020  0.9327569599999990  0.8885789509999995
  0.1650922299999991  0.7660903330000011  0.5668166279999980
  0.8317588569999970  0.5994236470000018  0.7276977300000027
  0.4984254840000020  0.4327569310000001  0.8885789509999995
  0.1650922299999991  0.2660903929999989  0.5668165680000001
  0.8317588569999970  0.0994237660000010  0.7276977300000027
  0.4984254840000020  0.9327569599999990  0.8885789509999995
 
  0.00000000E+00  0.00000000E+00  0.00000000E+00
  0.00000000E+00  0.00000000E+00  0.00000000E+00
  0.00000000E+00  0.00000000E+00  0.00000000E+00
  0.00000000E+00  0.00000000E+00  0.00000000E+00
  0.00000000E+00  0.00000000E+00  0.00000000E+00
  0.00000000E+00  0.00000000E+00  0.00000000E+00
  0.00000000E+00  0.00000000E+00  0.00000000E+00
  0.00000000E+00  0.00000000E+00  0.00000000E+00
  0.00000000E+00  0.00000000E+00  0.00000000E+00
  0.00000000E+00  0.00000000E+00  0.00000000E+00
  0.00000000E+00  0.00000000E+00  0.00000000E+00
  0.00000000E+00  0.00000000E+00  0.00000000E+00
  0.00000000E+00  0.00000000E+00  0.00000000E+00
  0.00000000E+00  0.00000000E+00  0.00000000E+00
  0.00000000E+00  0.00000000E+00  0.00000000E+00
  0.00000000E+00  0.00000000E+00  0.00000000E+00
  0.00000000E+00  0.00000000E+00  0.00000000E+00
  0.00000000E+00  0.00000000E+00  0.00000000E+00
  0.00000000E+00  0.00000000E+00  0.00000000E+00
  0.00000000E+00  0.00000000E+00  0.00000000E+00
  0.00000000E+00  0.00000000E+00  0.00000000E+00
  0.00000000E+00  0.00000000E+00  0.00000000E+00
  0.00000000E+00  0.00000000E+00  0.00000000E+00
  0.00000000E+00  0.00000000E+00  0.00000000E+00
  0.00000000E+00  0.00000000E+00  0.00000000E+00
  0.00000000E+00  0.00000000E+00  0.00000000E+00
  0.00000000E+00  0.00000000E+00  0.00000000E+00
  0.00000000E+00  0.00000000E+00  0.00000000E+00
  0.00000000E+00  0.00000000E+00  0.00000000E+00
  0.00000000E+00  0.00000000E+00  0.00000000E+00
  0.00000000E+00  0.00000000E+00  0.00000000E+00
  0.00000000E+00  0.00000000E+00  0.00000000E+00
  0.00000000E+00  0.00000000E+00  0.00000000E+00
  0.00000000E+00  0.00000000E+00  0.00000000E+00
  0.00000000E+00  0.00000000E+00  0.00000000E+00
  0.00000000E+00  0.00000000E+00  0.00000000E+00
  0.00000000E+00  0.00000000E+00  0.00000000E+00
  0.00000000E+00  0.00000000E+00  0.00000000E+00
  0.00000000E+00  0.00000000E+00  0.00000000E+00
  0.00000000E+00  0.00000000E+00  0.00000000E+00
  0.00000000E+00  0.00000000E+00  0.00000000E+00
  0.00000000E+00  0.00000000E+00  0.00000000E+00
  0.00000000E+00  0.00000000E+00  0.00000000E+00
  0.00000000E+00  0.00000000E+00  0.00000000E+00
  0.00000000E+00  0.00000000E+00  0.00000000E+00
  0.00000000E+00  0.00000000E+00  0.00000000E+00
  0.00000000E+00  0.00000000E+00  0.00000000E+00
  0.00000000E+00  0.00000000E+00  0.00000000E+00
  0.00000000E+00  0.00000000E+00  0.00000000E+00
  0.00000000E+00  0.00000000E+00  0.00000000E+00
  0.00000000E+00  0.00000000E+00  0.00000000E+00
  0.00000000E+00  0.00000000E+00  0.00000000E+00
  0.00000000E+00  0.00000000E+00  0.00000000E+00
  0.00000000E+00  0.00000000E+00  0.00000000E+00
  0.00000000E+00  0.00000000E+00  0.00000000E+00
  0.00000000E+00  0.00000000E+00  0.00000000E+00
  0.00000000E+00  0.00000000E+00  0.00000000E+00
  0.00000000E+00  0.00000000E+00  0.00000000E+00
  0.00000000E+00  0.00000000E+00  0.00000000E+00
  0.00000000E+00  0.00000000E+00  0.00000000E+00
  0.00000000E+00  0.00000000E+00  0.00000000E+00
  0.00000000E+00  0.00000000E+00  0.00000000E+00
  0.00000000E+00  0.00000000E+00  0.00000000E+00
  0.00000000E+00  0.00000000E+00  0.00000000E+00
  0.00000000E+00  0.00000000E+00  0.00000000E+00
  0.00000000E+00  0.00000000E+00  0.00000000E+00
  0.00000000E+00  0.00000000E+00  0.00000000E+00
  0.00000000E+00  0.00000000E+00  0.00000000E+00
  0.00000000E+00  0.00000000E+00  0.00000000E+00
  0.00000000E+00  0.00000000E+00  0.00000000E+00
  0.00000000E+00  0.00000000E+00  0.00000000E+00
  0.00000000E+00  0.00000000E+00  0.00000000E+00
  0.00000000E+00  0.00000000E+00  0.00000000E+00
  0.00000000E+00  0.00000000E+00  0.00000000E+00
  0.00000000E+00  0.00000000E+00  0.00000000E+00
  0.00000000E+00  0.00000000E+00  0.00000000E+00
  0.00000000E+00  0.00000000E+00  0.00000000E+00
  0.00000000E+00  0.00000000E+00  0.00000000E+00
  0.00000000E+00  0.00000000E+00  0.00000000E+00
  0.00000000E+00  0.00000000E+00  0.00000000E+00
  0.00000000E+00  0.00000000E+00  0.00000000E+00
  0.00000000E+00  0.00000000E+00  0.00000000E+00
  0.00000000E+00  0.00000000E+00  0.00000000E+00
  0.00000000E+00  0.00000000E+00  0.00000000E+00
  0.00000000E+00  0.00000000E+00  0.00000000E+00
  0.00000000E+00  0.00000000E+00  0.00000000E+00
  0.00000000E+00  0.00000000E+00  0.00000000E+00
  0.00000000E+00  0.00000000E+00  0.00000000E+00
  0.00000000E+00  0.00000000E+00  0.00000000E+00
  0.00000000E+00  0.00000000E+00  0.00000000E+00
  0.00000000E+00  0.00000000E+00  0.00000000E+00
  0.00000000E+00  0.00000000E+00  0.00000000E+00
  0.00000000E+00  0.00000000E+00  0.00000000E+00
  0.00000000E+00  0.00000000E+00  0.00000000E+00
  0.00000000E+00  0.00000000E+00  0.00000000E+00
  0.00000000E+00  0.00000000E+00  0.00000000E+00
  0.00000000E+00  0.00000000E+00  0.00000000E+00
  0.00000000E+00  0.00000000E+00  0.00000000E+00
  0.00000000E+00  0.00000000E+00  0.00000000E+00
  0.00000000E+00  0.00000000E+00  0.00000000E+00
  0.00000000E+00  0.00000000E+00  0.00000000E+00
  0.00000000E+00  0.00000000E+00  0.00000000E+00
  0.00000000E+00  0.00000000E+00  0.00000000E+00
  0.00000000E+00  0.00000000E+00  0.00000000E+00
  0.00000000E+00  0.00000000E+00  0.00000000E+00
  0.00000000E+00  0.00000000E+00  0.00000000E+00
  0.00000000E+00  0.00000000E+00  0.00000000E+00
  0.00000000E+00  0.00000000E+00  0.00000000E+00
  0.00000000E+00  0.00000000E+00  0.00000000E+00
  0.00000000E+00  0.00000000E+00  0.00000000E+00
  0.00000000E+00  0.00000000E+00  0.00000000E+00
  0.00000000E+00  0.00000000E+00  0.00000000E+00
  0.00000000E+00  0.00000000E+00  0.00000000E+00
  0.00000000E+00  0.00000000E+00  0.00000000E+00
  0.00000000E+00  0.00000000E+00  0.00000000E+00
  0.00000000E+00  0.00000000E+00  0.00000000E+00
  0.00000000E+00  0.00000000E+00  0.00000000E+00
  0.00000000E+00  0.00000000E+00  0.00000000E+00
  0.00000000E+00  0.00000000E+00  0.00000000E+00
  0.00000000E+00  0.00000000E+00  0.00000000E+00
  0.00000000E+00  0.00000000E+00  0.00000000E+00
  0.00000000E+00  0.00000000E+00  0.00000000E+00
  0.00000000E+00  0.00000000E+00  0.00000000E+00
  0.00000000E+00  0.00000000E+00  0.00000000E+00
  0.00000000E+00  0.00000000E+00  0.00000000E+00
  0.00000000E+00  0.00000000E+00  0.00000000E+00
  0.00000000E+00  0.00000000E+00  0.00000000E+00
  0.00000000E+00  0.00000000E+00  0.00000000E+00
  0.00000000E+00  0.00000000E+00  0.00000000E+00
  0.00000000E+00  0.00000000E+00  0.00000000E+00
  0.00000000E+00  0.00000000E+00  0.00000000E+00
  0.00000000E+00  0.00000000E+00  0.00000000E+00
  0.00000000E+00  0.00000000E+00  0.00000000E+00
  0.00000000E+00  0.00000000E+00  0.00000000E+00
  0.00000000E+00  0.00000000E+00  0.00000000E+00
  0.00000000E+00  0.00000000E+00  0.00000000E+00
  0.00000000E+00  0.00000000E+00  0.00000000E+00
  0.00000000E+00  0.00000000E+00  0.00000000E+00
  0.00000000E+00  0.00000000E+00  0.00000000E+00
  0.00000000E+00  0.00000000E+00  0.00000000E+00
  0.00000000E+00  0.00000000E+00  0.00000000E+00
  0.00000000E+00  0.00000000E+00  0.00000000E+00
  0.00000000E+00  0.00000000E+00  0.00000000E+00
  0.00000000E+00  0.00000000E+00  0.00000000E+00
  0.00000000E+00  0.00000000E+00  0.00000000E+00
  0.00000000E+00  0.00000000E+00  0.00000000E+00
  0.00000000E+00  0.00000000E+00  0.00000000E+00
  0.00000000E+00  0.00000000E+00  0.00000000E+00
  0.00000000E+00  0.00000000E+00  0.00000000E+00
  0.00000000E+00  0.00000000E+00  0.00000000E+00
  0.00000000E+00  0.00000000E+00  0.00000000E+00
  0.00000000E+00  0.00000000E+00  0.00000000E+00
  0.00000000E+00  0.00000000E+00  0.00000000E+00
  0.00000000E+00  0.00000000E+00  0.00000000E+00
  0.00000000E+00  0.00000000E+00  0.00000000E+00
  0.00000000E+00  0.00000000E+00  0.00000000E+00
  0.00000000E+00  0.00000000E+00  0.00000000E+00
  0.00000000E+00  0.00000000E+00  0.00000000E+00
  0.00000000E+00  0.00000000E+00  0.00000000E+00
  0.00000000E+00  0.00000000E+00  0.00000000E+00
  0.00000000E+00  0.00000000E+00  0.00000000E+00
  0.00000000E+00  0.00000000E+00  0.00000000E+00
  0.00000000E+00  0.00000000E+00  0.00000000E+00
  0.00000000E+00  0.00000000E+00  0.00000000E+00
  0.00000000E+00  0.00000000E+00  0.00000000E+00
  0.00000000E+00  0.00000000E+00  0.00000000E+00
  0.00000000E+00  0.00000000E+00  0.00000000E+00
  0.00000000E+00  0.00000000E+00  0.00000000E+00
