Ge+Ge                                   
   1.00000000000000     
     8.0013380049999991    0.0000000000000000    0.0000000000000000
     0.0000000000000000   16.9734020229999985    0.0000000000000000
     0.0000000000000000    0.0000000000000000    6.6677875520000001
   Ge
    48
Direct
  0.9435140490000009  0.9121329780000025  0.0000000559999975
  0.6935141089999988  0.5232440229999966  0.1000000240000034
  0.4435140490000009  0.1343550679999979  0.1999999279999969
  0.1935139890000031  0.7454661129999991  0.2999999230000014
  0.9435141089999988  0.3565771580000003  0.3999998569999974
  0.6935141089999988  0.9676880840000024  0.4999999699999975
  0.1935140189999984  0.6621329190000012  0.0000000770000028
  0.9435140490000009  0.2732439640000024  0.1000000539999988
  0.6935141089999988  0.8843550679999979  0.2000000029999995
  0.4435140490000009  0.4954661129999991  0.2999999820000028
  0.1935141680000001  0.1065771580000003  0.3999998569999974
  0.9435138699999968  0.7176880840000024  0.4999998810000008
  0.6935139300000017  0.6621328590000033  0.0000000000000000
  0.4435139599999971  0.2732439339999999  0.1000000240000034
  0.1935139890000031  0.8843550089999965  0.1999999579999994
  0.9435139890000031  0.4954660530000012  0.2999999230000014
  0.6935140490000009  0.1065770980000025  0.3999998569999974
  0.4435138699999968  0.7176880840000024  0.4999998810000008
  0.4435140189999984  0.9121329780000025  0.0000000610000015
  0.1935140189999984  0.5232440229999966  0.1000000240000034
  0.9435140490000009  0.1343550679999979  0.1999999279999969
  0.6935139300000017  0.7454661129999991  0.2999999230000014
  0.4435141089999988  0.3565772769999995  0.3999999759999966
  0.1935137509999976  0.9676880840000024  0.4999999699999975
  0.0564859320000011  0.9121329780000025  0.4999999699999975
  0.3064859209999966  0.5232440229999966  0.5999999049999971
  0.5564859509999991  0.1343550679999979  0.6999998089999977
  0.8064860109999969  0.7454661129999991  0.7999998330000011
  0.0564858910000012  0.3565771580000003  0.8999998569999974
  0.3064858910000012  0.9676880840000024  0.9999998810000008
  0.8064858319999999  0.6621329190000012  0.4999999699999975
  0.0564858910000012  0.2732439339999999  0.5999999049999971
  0.3064858910000012  0.8843550089999965  0.6999999279999969
  0.5564857720000020  0.4954660530000012  0.7999998330000011
  0.8064857720000020  0.1065771580000003  0.8999998569999974
  0.0564861300000032  0.7176880840000024  0.9999998810000008
  0.3064859209999966  0.6621329190000012  0.4999999699999975
  0.5564859509999991  0.2732439939999978  0.5999999049999971
  0.8064858910000012  0.8843550679999979  0.6999999279999969
  0.0564858910000012  0.4954661129999991  0.7999999520000003
  0.3064860109999969  0.1065770980000025  0.8999998569999974
  0.5564861300000032  0.7176880840000024  0.9999998810000008
  0.5564858910000012  0.9121329780000025  0.4999999699999975
  0.8064858910000012  0.5232440229999966  0.5999999049999971
  0.0564858910000012  0.1343550679999979  0.6999999279999969
  0.3064858910000012  0.7454661129999991  0.7999999520000003
  0.5564858910000012  0.3565772769999995  0.8999998569999974
  0.8064858910000012  0.9676880840000024  0.9999998810000008
 
  0.00000000E+00  0.00000000E+00  0.00000000E+00
  0.00000000E+00  0.00000000E+00  0.00000000E+00
  0.00000000E+00  0.00000000E+00  0.00000000E+00
  0.00000000E+00  0.00000000E+00  0.00000000E+00
  0.00000000E+00  0.00000000E+00  0.00000000E+00
  0.00000000E+00  0.00000000E+00  0.00000000E+00
  0.00000000E+00  0.00000000E+00  0.00000000E+00
  0.00000000E+00  0.00000000E+00  0.00000000E+00
  0.00000000E+00  0.00000000E+00  0.00000000E+00
  0.00000000E+00  0.00000000E+00  0.00000000E+00
  0.00000000E+00  0.00000000E+00  0.00000000E+00
  0.00000000E+00  0.00000000E+00  0.00000000E+00
  0.00000000E+00  0.00000000E+00  0.00000000E+00
  0.00000000E+00  0.00000000E+00  0.00000000E+00
  0.00000000E+00  0.00000000E+00  0.00000000E+00
  0.00000000E+00  0.00000000E+00  0.00000000E+00
  0.00000000E+00  0.00000000E+00  0.00000000E+00
  0.00000000E+00  0.00000000E+00  0.00000000E+00
  0.00000000E+00  0.00000000E+00  0.00000000E+00
  0.00000000E+00  0.00000000E+00  0.00000000E+00
  0.00000000E+00  0.00000000E+00  0.00000000E+00
  0.00000000E+00  0.00000000E+00  0.00000000E+00
  0.00000000E+00  0.00000000E+00  0.00000000E+00
  0.00000000E+00  0.00000000E+00  0.00000000E+00
  0.00000000E+00  0.00000000E+00  0.00000000E+00
  0.00000000E+00  0.00000000E+00  0.00000000E+00
  0.00000000E+00  0.00000000E+00  0.00000000E+00
  0.00000000E+00  0.00000000E+00  0.00000000E+00
  0.00000000E+00  0.00000000E+00  0.00000000E+00
  0.00000000E+00  0.00000000E+00  0.00000000E+00
  0.00000000E+00  0.00000000E+00  0.00000000E+00
  0.00000000E+00  0.00000000E+00  0.00000000E+00
  0.00000000E+00  0.00000000E+00  0.00000000E+00
  0.00000000E+00  0.00000000E+00  0.00000000E+00
  0.00000000E+00  0.00000000E+00  0.00000000E+00
  0.00000000E+00  0.00000000E+00  0.00000000E+00
  0.00000000E+00  0.00000000E+00  0.00000000E+00
  0.00000000E+00  0.00000000E+00  0.00000000E+00
  0.00000000E+00  0.00000000E+00  0.00000000E+00
  0.00000000E+00  0.00000000E+00  0.00000000E+00
  0.00000000E+00  0.00000000E+00  0.00000000E+00
  0.00000000E+00  0.00000000E+00  0.00000000E+00
  0.00000000E+00  0.00000000E+00  0.00000000E+00
  0.00000000E+00  0.00000000E+00  0.00000000E+00
  0.00000000E+00  0.00000000E+00  0.00000000E+00
  0.00000000E+00  0.00000000E+00  0.00000000E+00
  0.00000000E+00  0.00000000E+00  0.00000000E+00
  0.00000000E+00  0.00000000E+00  0.00000000E+00
