Ge+Ge
    1.000000000
    8.001338005    0.000000000    0.000000000
    0.000000000   16.973402023    0.000000000
    0.000000000    0.000000000    6.667787552
Ge 
48
Direct
    0.943514049    0.912132978    0.000000056
    0.693514109    0.523244023    0.100000024
    0.443514049    0.134355068    0.199999928
    0.193513989    0.745466113    0.299999923
    0.943514109    0.356577158    0.399999857
    0.693514109    0.967688084    0.499999970
    0.193514019    0.662132919    0.000000077
    0.943514049    0.273243964    0.100000054
    0.693514109    0.884355068    0.200000003
    0.443514049    0.495466113    0.299999982
    0.193514168    0.106577158    0.399999857
    0.943513870    0.717688084    0.499999881
    0.693513930    0.662132859    0.000000000
    0.443513960    0.273243934    0.100000024
    0.193513989    0.884355009    0.199999958
    0.943513989    0.495466053    0.299999923
    0.693514049    0.106577098    0.399999857
    0.443513870    0.717688084    0.499999881
    0.443514019    0.912132978    0.000000061
    0.193514019    0.523244023    0.100000024
    0.943514049    0.134355068    0.199999928
    0.693513930    0.745466113    0.299999923
    0.443514109    0.356577277    0.399999976
    0.193513751    0.967688084    0.499999970
    0.056485932    0.912132978    0.499999970
    0.306485921    0.523244023    0.599999905
    0.556485951    0.134355068    0.699999809
    0.806486011    0.745466113    0.799999833
    0.056485891    0.356577158    0.899999857
    0.306485891    0.967688084    0.999999881
    0.806485832    0.662132919    0.499999970
    0.056485891    0.273243934    0.599999905
    0.306485891    0.884355009    0.699999928
    0.556485772    0.495466053    0.799999833
    0.806485772    0.106577158    0.899999857
    0.056486130    0.717688084    0.999999881
    0.306485921    0.662132919    0.499999970
    0.556485951    0.273243994    0.599999905
    0.806485891    0.884355068    0.699999928
    0.056485891    0.495466113    0.799999952
    0.306486011    0.106577098    0.899999857
    0.556486130    0.717688084    0.999999881
    0.556485891    0.912132978    0.499999970
    0.806485891    0.523244023    0.599999905
    0.056485891    0.134355068    0.699999928
    0.306485891    0.745466113    0.799999952
    0.556485891    0.356577277    0.899999857
    0.806485891    0.967688084    0.999999881
