Si+C
    1.000000000
   16.293001175    0.000000000    0.000000000
  -10.862000465   12.144085884    0.000000000
    0.000000000    0.000000000    7.006474018
Si  C  
36     84
Direct
    0.974358499    0.982905626    0.000000002
    0.674358428    0.782905579    0.173326701
    0.374358416    0.582905531    0.346653402
    0.307691783    0.982905626    0.000000002
    0.007691726    0.782905579    0.173326701
    0.707691669    0.582905531    0.346653402
    0.641025066    0.982905626    0.000000002
    0.341025025    0.782905579    0.173326701
    0.041024987    0.582905531    0.346653402
    0.157691970    0.632905602    0.086663172
    0.857691944    0.432905525    0.259989887
    0.557691932    0.232905507    0.433316529
    0.491025209    0.632905602    0.086663172
    0.191025153    0.432905525    0.259989887
    0.891025186    0.232905507    0.433316529
    0.824358463    0.632905602    0.086663172
    0.524358392    0.432905525    0.259989887
    0.224358499    0.232905507    0.433316529
    0.141025156    0.482905596    0.000000000
    0.841025114    0.282905489    0.173326701
    0.541025102    0.082905434    0.346653402
    0.474358439    0.482905596    0.000000000
    0.174358383    0.282905489    0.173326701
    0.874358356    0.082905434    0.346653402
    0.807691693    0.482905596    0.000000000
    0.507691681    0.282905489    0.173326701
    0.207691625    0.082905434    0.346653402
    0.991025209    0.132905662    0.086663179
    0.691025138    0.932905614    0.259989887
    0.391025186    0.732905567    0.433316529
    0.324358463    0.132905662    0.086663179
    0.024358414    0.932905614    0.259989887
    0.724358439    0.732905567    0.433316529
    0.657691658    0.132905662    0.086663179
    0.357691616    0.932905614    0.259989887
    0.057691652    0.732905567    0.433316529
    0.135925889    0.206957102    0.574368298
    0.378783107    0.178385735    0.688200295
    0.621640325    0.149814129    0.802032351
    0.421640158    0.349814296    0.574368298
    0.664497375    0.321242809    0.688200295
    0.907354593    0.292671323    0.802032351
    0.707354367    0.492671400    0.574368298
    0.950211644    0.464099914    0.688200295
    0.193068922    0.435528457    0.802032351
    0.993068755    0.635528564    0.574368298
    0.235925972    0.606957078    0.688200295
    0.478783309    0.578385651    0.802032351
    0.278783023    0.778385699    0.574368298
    0.521640241    0.749814272    0.688200295
    0.764497459    0.721242785    0.802032351
    0.564497352    0.921242893    0.574368298
    0.807354569    0.892671406    0.688200295
    0.050211787    0.864099920    0.802032351
    0.850211561    0.064100027    0.574368298
    0.093068838    0.035528421    0.688200295
    0.335925996    0.006957054    0.802032351
    0.971640050    0.299814284    0.631284237
    0.214497387    0.271242827    0.745116174
    0.457354605    0.242671311    0.858948231
    0.257354259    0.442671418    0.631284177
    0.500211537    0.414099962    0.745116293
    0.743068755    0.385528445    0.858948231
    0.543068647    0.585528612    0.631284177
    0.785925865    0.556957126    0.745116293
    0.028783202    0.528385639    0.858948231
    0.828782976    0.728385746    0.631284177
    0.071640253    0.699814200    0.745116293
    0.314497530    0.671242833    0.858948231
    0.114497133    0.871242881    0.631284177
    0.357354462    0.842671394    0.745116293
    0.600211561    0.814099908    0.858948231
    0.400211573    0.014100075    0.631284237
    0.643068850    0.985528469    0.745116293
    0.885926068    0.956957042    0.858948231
    0.685925722    0.156957150    0.631284237
    0.928782940    0.128385663    0.745116293
    0.171640217    0.099814177    0.858948231
    0.778783143    0.278385758    0.574368298
    0.021640301    0.249814242    0.688200295
    0.264497578    0.221242815    0.802032351
    0.064497471    0.421242893    0.574368298
    0.307354629    0.392671376    0.688200295
    0.550211728    0.364099890    0.802032351
    0.350211620    0.564100027    0.574368298
    0.593068838    0.535528541    0.688200295
    0.835926056    0.506957054    0.802032351
    0.635925829    0.706957161    0.574368298
    0.878783107    0.678385675    0.688200295
    0.121640392    0.649814248    0.802032351
    0.921640158    0.849814296    0.574368298
    0.164497435    0.821242869    0.688200295
    0.407354534    0.792671323    0.802032351
    0.207354456    0.992671490    0.574368298
    0.450211674    0.964100063    0.688200355
    0.693068981    0.935528576    0.802032351
    0.493068725    0.135528564    0.574368298
    0.735925913    0.106957197    0.688200355
    0.978783250    0.078385711    0.802032351
    0.328783035    0.228385732    0.631284177
    0.571640313    0.199814200    0.745116293
    0.814497590    0.171242714    0.858948231
    0.614497185    0.371242881    0.631284177
    0.857354462    0.342671394    0.745116293
    0.100211740    0.314099938    0.858948231
    0.900211453    0.514099956    0.631284177
    0.143068850    0.485528558    0.745116293
    0.385926068    0.456957102    0.858948231
    0.185925663    0.656957150    0.631284177
    0.428783000    0.628385663    0.745116174
    0.671640217    0.599814177    0.858948231
    0.471640110    0.799814224    0.631284177
    0.714497447    0.771242738    0.745116293
    0.957354665    0.742671311    0.858948231
    0.757354438    0.942671418    0.631284177
    0.000211716    0.914099932    0.745116293
    0.243068993    0.885528564    0.858948231
    0.043068647    0.085528612    0.631284177
    0.285925925    0.056957126    0.745116293
    0.528783143    0.028385639    0.858948231
