Si+Si
    1.000000000
    7.680594444    0.000000000    0.000000000
   -3.840296984   11.520891190    0.000000000
    0.000000000    0.000000000    9.051668167
Si 
48
Direct
    0.005932290    0.994067729    0.000000000
    0.172599003    0.827401042    0.299999923
    0.339265734    0.660734296    0.599999905
    0.672598958    0.327401042    0.000000000
    0.839265704    0.160734341    0.299999923
    0.005932450    0.994067669    0.599999905
    0.339265645    0.660734415    0.000000000
    0.505932331    0.494067699    0.299999923
    0.672599077    0.327401012    0.599999905
    0.089265659    0.160734370    0.149999976
    0.255932391    0.994067669    0.449999928
    0.422599137    0.827400982    0.749999881
    0.755932271    0.494067729    0.149999976
    0.922599018    0.327401042    0.449999928
    0.089265704    0.160734326    0.749999881
    0.422598928    0.827401102    0.149999976
    0.589265704    0.660734475    0.449999928
    0.755932450    0.494067729    0.749999881
    0.505932331    0.994067729    0.000000000
    0.672599018    0.827401042    0.299999923
    0.839265764    0.660734296    0.599999905
    0.172598973    0.327401042    0.000000000
    0.339265674    0.160734370    0.299999923
    0.505932391    0.994067669    0.599999905
    0.839265585    0.660734415    0.000000000
    0.005932331    0.494067699    0.299999923
    0.172598958    0.327400982    0.599999905
    0.589265645    0.160734355    0.149999976
    0.755932391    0.994067669    0.449999928
    0.922599137    0.827400923    0.749999881
    0.255932271    0.494067729    0.149999976
    0.422599047    0.327401042    0.449999928
    0.589265764    0.160734326    0.749999881
    0.922598958    0.827401161    0.149999976
    0.089265704    0.660734415    0.449999928
    0.255932450    0.494067699    0.749999881
    0.962846637    0.973461866    0.749999881
    0.573957622    0.695684075    0.849999964
    0.185068607    0.417906225    0.949999988
    0.462846607    0.973461866    0.749999881
    0.073957592    0.695684075    0.849999845
    0.685068607    0.417906225    0.949999988
    0.768402100    0.084572941    0.799999893
    0.379513085    0.806795120    0.900000036
    0.990624070    0.529017210    0.999999940
    0.268402100    0.084572941    0.799999893
    0.879513085    0.806795120    0.900000036
    0.490624011    0.529017210    0.999999940
