Ge+Ge
    1.000000000
   12.651226044    0.000000000    0.000000000
    2.530245304   12.395620346    0.000000000
    0.000000000    0.000000000   13.933910370
Ge 
96
Direct
    0.460037202    0.119574547    0.582883716
    0.992590368    0.948132515    0.000000022
    0.950923562    0.656465769    0.082883760
    0.909256816    0.364798903    0.165767506
    0.867590070    0.073132217    0.248651221
    0.626703978    0.036241293    0.500000000
    0.501703978    0.411241174    0.500000000
    0.492590368    0.448132515    0.000000028
    0.450923622    0.156465769    0.082883760
    0.409256876    0.864798963    0.165767506
    0.367590129    0.573132277    0.248651221
    0.325923383    0.281465530    0.331534922
    0.126703978    0.536241174    0.500000000
    0.367590398    0.823132634    0.000000012
    0.325923622    0.531465828    0.082883760
    0.284256876    0.239799008    0.165767536
    0.242590174    0.948132396    0.248651192
    0.835037231    0.494574398    0.582883716
    0.918370485    0.327907681    0.665767550
    0.867590487    0.323132575    0.000000012
    0.825923681    0.031465776    0.082883760
    0.784256876    0.739798903    0.165767506
    0.742590129    0.448132336    0.248651192
    0.700923383    0.156465530    0.331534892
    0.034256559    0.239798784    0.414418638
    0.242590353    0.698132634    0.000000000
    0.200923592    0.406465799    0.082883753
    0.159256846    0.114798956    0.165767506
    0.376703978    0.286241174    0.500000000
    0.075923339    0.531465530    0.331534892
    0.751703978    0.161241293    0.500000000
    0.742590427    0.198132515    0.000000021
    0.700923622    0.906465709    0.082883768
    0.659256876    0.614798903    0.165767506
    0.617590249    0.323132336    0.248651221
    0.251704097    0.661241174    0.500000000
    0.751703978    0.161241293    0.500000000
    0.117590360    0.073132515    0.000000021
    0.075923599    0.781465769    0.082883760
    0.034256846    0.489798963    0.165767506
    0.992590070    0.198132217    0.248651221
    0.950923383    0.906465530    0.331534922
    0.210037112    0.369574428    0.582883716
    0.617590487    0.573132575    0.000000012
    0.575923622    0.281465828    0.082883753
    0.534256935    0.989799023    0.165767536
    0.492590189    0.698132277    0.248651251
    0.450923443    0.406465530    0.331534952
    0.918370128    0.077907324    0.914418697
    0.117590085    0.823132396    0.248651177
    0.085037112    0.244574308    0.582883716
    0.793370366    0.202907562    0.665767550
    0.501703620    0.161240816    0.748651266
    0.210036993    0.119574070    0.831534982
    0.418370128    0.577907443    0.914418697
    0.909256577    0.614798784    0.414418697
    0.585037172    0.744574428    0.582883716
    0.293370485    0.702907681    0.665767550
    0.001703739    0.661240935    0.748651266
    0.710036874    0.619574189    0.831534982
    0.793370247    0.452907443    0.914418697
    0.575923443    0.031465471    0.331534892
    0.960037231    0.619574428    0.582883716
    0.668370485    0.577907681    0.665767550
    0.376703858    0.536240995    0.748651266
    0.085037112    0.494574189    0.831534982
    0.293370128    0.952907443    0.914418578
    0.534256697    0.739798665    0.414418697
    0.784256577    0.489798665    0.414418638
    0.168370485    0.077907681    0.665767550
    0.876703739    0.036241055    0.748651266
    0.585036993    0.994574189    0.831534982
    0.668370128    0.327907383    0.914418697
    0.284256607    0.989798784    0.414418697
    0.200923383    0.656465650    0.331534922
    0.543370485    0.452907652    0.665767550
    0.251703739    0.411240906    0.748651147
    0.960036993    0.369574159    0.831534863
    0.168370128    0.827907503    0.914418697
    0.825923324    0.781465530    0.331534892
    0.335037112    0.994574487    0.582883716
    0.043370366    0.952907681    0.665767550
    0.751703739    0.911241055    0.748651266
    0.460036904    0.869574249    0.831534982
    0.043370128    0.202907324    0.914418697
    0.284256607    0.989798784    0.414418697
    0.409256607    0.114798844    0.414418697
    0.659256577    0.864798665    0.414418638
    0.626703620    0.286240935    0.748651147
    0.335036993    0.244574189    0.831534982
    0.543370247    0.702907503    0.914418697
    0.001703978    0.911241293    0.500000000
    0.710037231    0.869574428    0.582883716
    0.418370485    0.827907741    0.665767550
    0.126703739    0.786240995    0.748651266
    0.835036993    0.744574249    0.831534982
