Sn+Ge
    1.000000000
   11.239624023    0.000000000    0.000000000
    0.000000000   18.354230881    0.000000000
    0.000000000    0.000000000   13.867381096
Sn  Ge 
48     48
Direct
    0.940928936    0.477848351    0.000000001
    0.607595503    0.352848351    0.095519364
    0.274262190    0.227848351    0.191038668
    0.940928817    0.102848344    0.286558032
    0.607595325    0.977848291    0.382077426
    0.274261832    0.852848232    0.477596760
    0.940928936    0.977848351    0.000000006
    0.607595503    0.852848291    0.095519379
    0.274262190    0.727848291    0.191038668
    0.940928817    0.602848291    0.286558002
    0.607595325    0.477848291    0.382077426
    0.274261832    0.352848172    0.477596760
    0.190928906    0.727848351    0.000000006
    0.857595563    0.602848351    0.095519379
    0.524262190    0.477848351    0.191038713
    0.190928817    0.352848351    0.286558032
    0.857595444    0.227848321    0.382077426
    0.524261832    0.102848224    0.477596849
    0.190928906    0.227848351    0.000000000
    0.857595503    0.102848329    0.095519364
    0.524262190    0.977848351    0.191038683
    0.190928817    0.852848351    0.286558002
    0.857595444    0.727848291    0.382077366
    0.524261832    0.602848232    0.477596849
    0.940928876    0.727848351    0.000000000
    0.607595503    0.602848351    0.095519394
    0.274262190    0.477848351    0.191038668
    0.940928817    0.352848351    0.286558002
    0.607595325    0.227848306    0.382077426
    0.274261951    0.102848209    0.477596760
    0.940928936    0.227848351    0.000000004
    0.607595503    0.102848329    0.095519364
    0.274262190    0.977848351    0.191038668
    0.940928817    0.852848351    0.286558002
    0.607595444    0.727848291    0.382077426
    0.274261832    0.602848172    0.477596760
    0.190928966    0.477848381    0.000000019
    0.857595563    0.352848381    0.095519379
    0.524262190    0.227848381    0.191038683
    0.190928817    0.102848351    0.286558032
    0.857595444    0.977848351    0.382077426
    0.524261951    0.852848291    0.477596790
    0.190928951    0.977848351    0.000000008
    0.857595563    0.852848291    0.095519364
    0.524262190    0.727848291    0.191038683
    0.190928817    0.602848291    0.286558032
    0.857595444    0.477848291    0.382077426
    0.524261951    0.352848232    0.477596790
    0.269893050    0.486039847    0.577524602
    0.019892931    0.836039960    0.642034113
    0.769892991    0.186040044    0.706543565
    0.519892931    0.536040187    0.771053255
    0.269892931    0.886040211    0.835562706
    0.019892931    0.236040354    0.900072157
    0.769893050    0.486039847    0.577524602
    0.519893050    0.836039960    0.642034113
    0.269892931    0.186040044    0.706543565
    0.019892931    0.536040187    0.771053255
    0.769892991    0.886040211    0.835562706
    0.519892931    0.236040354    0.900072157
    0.394893050    0.236039996    0.577524602
    0.144892931    0.586040139    0.642034113
    0.894892991    0.936040163    0.706543565
    0.644892931    0.286040187    0.771053255
    0.394892931    0.636040211    0.835562766
    0.144892931    0.986040354    0.900072217
    0.894893050    0.236039996    0.577524602
    0.644893050    0.586040139    0.642034113
    0.394893020    0.936040163    0.706543565
    0.144892931    0.286040187    0.771053255
    0.894892991    0.636040211    0.835562766
    0.644892931    0.986040354    0.900072217
    0.269893050    0.986039877    0.577524602
    0.019892931    0.336040020    0.642034054
    0.769892991    0.686040044    0.706543624
    0.519892931    0.036040187    0.771053195
    0.269892931    0.386040211    0.835562706
    0.019892931    0.736040354    0.900072217
    0.769893050    0.986039877    0.577524602
    0.519893050    0.336040020    0.642034054
    0.269892931    0.686040044    0.706543624
    0.019892931    0.036040187    0.771053195
    0.769892991    0.386040211    0.835562706
    0.519892931    0.736040354    0.900072217
    0.394893050    0.736039877    0.577524602
    0.144892931    0.086040020    0.642034113
    0.894892991    0.436040044    0.706543565
    0.644892931    0.786040187    0.771053195
    0.394892931    0.136040211    0.835562706
    0.144892931    0.486040354    0.900072157
    0.894893050    0.736039877    0.577524602
    0.644893050    0.086040020    0.642034113
    0.394893020    0.436040044    0.706543565
    0.144892931    0.786040187    0.771053195
    0.894892991    0.136040211    0.835562706
    0.644892931    0.486040354    0.900072157
