fcc Si+fcc Ge                           
   1.00000000000000     
     7.7498903219999997    0.0000000000000000    0.0000000000000000
     3.8749451609999999   11.6248354830000000    0.0000000000000000
     0.0000000000000000    0.0000000000000000   18.4333333330000002
   Si   Ge
    12    66
Direct
  0.0000000000000000  0.0000000000000000  0.0000000000000000
  0.1111111109999996  0.2777777780000008  0.0495479200000020
  0.2222222219999992  0.5555555560000016  0.0990958410000005
  0.5000000000000000  0.0000000000000000  0.0000000000000000
  0.6111111109999996  0.2777777780000008  0.0495479200000020
  0.7222222219999992  0.5555555560000016  0.0990958410000005
  0.8055555560000016  0.8888888890000004  0.0247739599999974
  0.9166666670000012  0.1666666670000012  0.0743218810000030
  0.0277777780000008  0.4444444439999984  0.1238698009999979
  0.3055555560000016  0.8888888890000004  0.0247739599999974
  0.4166666670000012  0.1666666670000012  0.0743218810000030
  0.5277777780000008  0.4444444439999984  0.1238698009999979
  0.4298245609999967  0.7199453550000001  0.2548824590000009
  0.7631578949999991  0.5532786890000025  0.4084086800000009
  0.0964912279999979  0.3866120220000013  0.5619349010000008
  0.4298245609999967  0.2199453550000001  0.7154611209999970
  0.7631578949999991  0.0532786890000025  0.8689873419999969
  0.7631578949999991  0.0532786890000025  0.2548824590000009
  0.0964912279999979  0.8866120220000013  0.4084086800000009
  0.4298245609999967  0.7199453550000001  0.5619349010000008
  0.7631578949999991  0.5532786890000025  0.7154611209999970
  0.0964912279999979  0.3866120220000013  0.8689873419999969
  0.0964912279999979  0.3866120220000013  0.2548824590000009
  0.4298245609999967  0.2199453550000001  0.4084086800000009
  0.7631578949999991  0.0532786890000025  0.5619349010000008
  0.0964912279999979  0.8866120220000013  0.7154611209999970
  0.4298245609999967  0.7199453550000001  0.8689873419999969
  0.9298245609999967  0.7199453550000001  0.2548824590000009
  0.2631578949999991  0.5532786890000025  0.4084086800000009
  0.5964912279999979  0.3866120220000013  0.5619349010000008
  0.9298245609999967  0.2199453550000001  0.7154611209999970
  0.2631578949999991  0.0532786890000025  0.8689873419999969
  0.2631578949999991  0.0532786890000025  0.2548824590000009
  0.5964912279999979  0.8866120220000013  0.4084086800000009
  0.9298245609999967  0.7199453550000001  0.5619349010000008
  0.2631578949999991  0.5532786890000025  0.7154611209999970
  0.5964912279999979  0.3866120220000013  0.8689873419999969
  0.5964912279999979  0.3866120220000013  0.2548824590000009
  0.9298245609999967  0.2199453550000001  0.4084086800000009
  0.2631578949999991  0.0532786890000025  0.5619349010000008
  0.5964912279999979  0.8866120220000013  0.7154611209999970
  0.9298245609999967  0.7199453550000001  0.8689873419999969
  0.0131578949999991  0.0532786890000025  0.1781193489999993
  0.3464912279999979  0.8866120220000013  0.3316455699999992
  0.6798245609999967  0.7199453550000001  0.4851717900000025
  0.0131578949999991  0.5532786890000025  0.6386980110000025
  0.3464912279999979  0.3866120220000013  0.7922242309999987
  0.6798245609999967  0.2199453550000001  0.9457504519999986
  0.3464912279999979  0.3866120220000013  0.1781193489999993
  0.6798245609999967  0.2199453550000001  0.3316455699999992
  0.0131578949999991  0.0532786890000025  0.4851717900000025
  0.3464912279999979  0.8866120220000013  0.6386980110000025
  0.6798245609999967  0.7199453550000001  0.7922242309999987
  0.0131578949999991  0.5532786890000025  0.9457504519999986
  0.6798245609999967  0.7199453550000001  0.1781193489999993
  0.0131578949999991  0.5532786890000025  0.3316455699999992
  0.3464912279999979  0.3866120220000013  0.4851717900000025
  0.6798245609999967  0.2199453550000001  0.6386980110000025
  0.0131578949999991  0.0532786890000025  0.7922242309999987
  0.3464912279999979  0.8866120220000013  0.9457504519999986
  0.5131578949999991  0.0532786890000025  0.1781193489999993
  0.8464912279999979  0.8866120220000013  0.3316455699999992
  0.1798245609999967  0.7199453550000001  0.4851717900000025
  0.5131578949999991  0.5532786890000025  0.6386980110000025
  0.8464912279999979  0.3866120220000013  0.7922242309999987
  0.1798245609999967  0.2199453550000001  0.9457504519999986
  0.8464912279999979  0.3866120220000013  0.1781193489999993
  0.1798245609999967  0.2199453550000001  0.3316455699999992
  0.5131578949999991  0.0532786890000025  0.4851717900000025
  0.8464912279999979  0.8866120220000013  0.6386980110000025
  0.1798245609999967  0.7199453550000001  0.7922242309999987
  0.5131578949999991  0.5532786890000025  0.9457504519999986
  0.1798245609999967  0.7199453550000001  0.1781193489999993
  0.5131578949999991  0.5532786890000025  0.3316455699999992
  0.8464912279999979  0.3866120220000013  0.4851717900000025
  0.1798245609999967  0.2199453550000001  0.6386980110000025
  0.5131578949999991  0.0532786890000025  0.7922242309999987
  0.8464912279999979  0.8866120220000013  0.9457504519999986
 
  0.00000000E+00  0.00000000E+00  0.00000000E+00
  0.00000000E+00  0.00000000E+00  0.00000000E+00
  0.00000000E+00  0.00000000E+00  0.00000000E+00
  0.00000000E+00  0.00000000E+00  0.00000000E+00
  0.00000000E+00  0.00000000E+00  0.00000000E+00
  0.00000000E+00  0.00000000E+00  0.00000000E+00
  0.00000000E+00  0.00000000E+00  0.00000000E+00
  0.00000000E+00  0.00000000E+00  0.00000000E+00
  0.00000000E+00  0.00000000E+00  0.00000000E+00
  0.00000000E+00  0.00000000E+00  0.00000000E+00
  0.00000000E+00  0.00000000E+00  0.00000000E+00
  0.00000000E+00  0.00000000E+00  0.00000000E+00
  0.00000000E+00  0.00000000E+00  0.00000000E+00
  0.00000000E+00  0.00000000E+00  0.00000000E+00
  0.00000000E+00  0.00000000E+00  0.00000000E+00
  0.00000000E+00  0.00000000E+00  0.00000000E+00
  0.00000000E+00  0.00000000E+00  0.00000000E+00
  0.00000000E+00  0.00000000E+00  0.00000000E+00
  0.00000000E+00  0.00000000E+00  0.00000000E+00
  0.00000000E+00  0.00000000E+00  0.00000000E+00
  0.00000000E+00  0.00000000E+00  0.00000000E+00
  0.00000000E+00  0.00000000E+00  0.00000000E+00
  0.00000000E+00  0.00000000E+00  0.00000000E+00
  0.00000000E+00  0.00000000E+00  0.00000000E+00
  0.00000000E+00  0.00000000E+00  0.00000000E+00
  0.00000000E+00  0.00000000E+00  0.00000000E+00
  0.00000000E+00  0.00000000E+00  0.00000000E+00
  0.00000000E+00  0.00000000E+00  0.00000000E+00
  0.00000000E+00  0.00000000E+00  0.00000000E+00
  0.00000000E+00  0.00000000E+00  0.00000000E+00
  0.00000000E+00  0.00000000E+00  0.00000000E+00
  0.00000000E+00  0.00000000E+00  0.00000000E+00
  0.00000000E+00  0.00000000E+00  0.00000000E+00
  0.00000000E+00  0.00000000E+00  0.00000000E+00
  0.00000000E+00  0.00000000E+00  0.00000000E+00
  0.00000000E+00  0.00000000E+00  0.00000000E+00
  0.00000000E+00  0.00000000E+00  0.00000000E+00
  0.00000000E+00  0.00000000E+00  0.00000000E+00
  0.00000000E+00  0.00000000E+00  0.00000000E+00
  0.00000000E+00  0.00000000E+00  0.00000000E+00
  0.00000000E+00  0.00000000E+00  0.00000000E+00
  0.00000000E+00  0.00000000E+00  0.00000000E+00
  0.00000000E+00  0.00000000E+00  0.00000000E+00
  0.00000000E+00  0.00000000E+00  0.00000000E+00
  0.00000000E+00  0.00000000E+00  0.00000000E+00
  0.00000000E+00  0.00000000E+00  0.00000000E+00
  0.00000000E+00  0.00000000E+00  0.00000000E+00
  0.00000000E+00  0.00000000E+00  0.00000000E+00
  0.00000000E+00  0.00000000E+00  0.00000000E+00
  0.00000000E+00  0.00000000E+00  0.00000000E+00
  0.00000000E+00  0.00000000E+00  0.00000000E+00
  0.00000000E+00  0.00000000E+00  0.00000000E+00
  0.00000000E+00  0.00000000E+00  0.00000000E+00
  0.00000000E+00  0.00000000E+00  0.00000000E+00
  0.00000000E+00  0.00000000E+00  0.00000000E+00
  0.00000000E+00  0.00000000E+00  0.00000000E+00
  0.00000000E+00  0.00000000E+00  0.00000000E+00
  0.00000000E+00  0.00000000E+00  0.00000000E+00
  0.00000000E+00  0.00000000E+00  0.00000000E+00
  0.00000000E+00  0.00000000E+00  0.00000000E+00
  0.00000000E+00  0.00000000E+00  0.00000000E+00
  0.00000000E+00  0.00000000E+00  0.00000000E+00
  0.00000000E+00  0.00000000E+00  0.00000000E+00
  0.00000000E+00  0.00000000E+00  0.00000000E+00
  0.00000000E+00  0.00000000E+00  0.00000000E+00
  0.00000000E+00  0.00000000E+00  0.00000000E+00
  0.00000000E+00  0.00000000E+00  0.00000000E+00
  0.00000000E+00  0.00000000E+00  0.00000000E+00
  0.00000000E+00  0.00000000E+00  0.00000000E+00
  0.00000000E+00  0.00000000E+00  0.00000000E+00
  0.00000000E+00  0.00000000E+00  0.00000000E+00
  0.00000000E+00  0.00000000E+00  0.00000000E+00
  0.00000000E+00  0.00000000E+00  0.00000000E+00
  0.00000000E+00  0.00000000E+00  0.00000000E+00
  0.00000000E+00  0.00000000E+00  0.00000000E+00
  0.00000000E+00  0.00000000E+00  0.00000000E+00
  0.00000000E+00  0.00000000E+00  0.00000000E+00
  0.00000000E+00  0.00000000E+00  0.00000000E+00
