Si+C
    1.000000000
   13.303179741    0.000000000    0.000000000
    6.651589394   11.520891190    0.000000000
    0.000000000    0.000000000   21.679418564
Si  C  
72     308
Direct
    0.000000000    0.318506181    0.289268762
    0.000000000    0.985172927    0.000000014
    0.000000000    0.651839554    0.144634396
    0.333333343    0.651839614    0.289268732
    0.333333343    0.318506300    0.000000009
    0.333333343    0.985172868    0.144634381
    0.666666687    0.985172927    0.289268732
    0.666666687    0.651839614    0.000000006
    0.666666687    0.318506241    0.144634381
    0.333333343    0.318506062    0.325427443
    0.333333343    0.985172868    0.036158618
    0.333333343    0.651839495    0.180793002
    1.000000000    0.985172808    0.325427443
    1.000000000    0.651839614    0.036158614
    1.000000000    0.318506271    0.180793002
    0.666666746    0.651839375    0.325427443
    0.666666746    0.318506211    0.036158625
    0.666666746    0.985172868    0.180793002
    0.500000000    0.318506241    0.289268732
    0.500000000    0.985172927    0.000000010
    0.500000000    0.651839554    0.144634381
    0.166666672    0.985172927    0.289268732
    0.166666672    0.651839674    0.000000001
    0.166666672    0.318506241    0.144634381
    0.833333373    0.651839614    0.289268732
    0.833333373    0.318506300    0.000000001
    0.833333373    0.985172927    0.144634381
    0.166666657    0.651839554    0.325427353
    0.166666657    0.318506300    0.036158573
    0.166666657    0.985172868    0.180792958
    0.833333433    0.318506181    0.325427383
    0.833333433    0.985172927    0.036158588
    0.833333433    0.651839495    0.180792972
    0.500000060    0.985172868    0.325427383
    0.500000060    0.651839614    0.036158592
    0.500000060    0.318506211    0.180793002
    0.166666672    0.485172927    0.289268732
    0.166666672    0.151839614    0.000000010
    0.166666672    0.818506241    0.144634381
    0.500000000    0.818506241    0.289268762
    0.500000000    0.485172987    0.000000016
    0.500000000    0.151839584    0.144634396
    0.833333373    0.151839629    0.289268732
    0.833333373    0.818506360    0.000000000
    0.833333373    0.485173017    0.144634351
    0.500000000    0.485172868    0.325427383
    0.500000000    0.151839614    0.036158588
    0.500000000    0.818506241    0.180792972
    0.166666672    0.151839569    0.325427353
    0.166666672    0.818506360    0.036158565
    0.166666672    0.485172927    0.180792958
    0.833333373    0.818506181    0.325427353
    0.833333373    0.485172927    0.036158565
    0.833333373    0.151839525    0.180792958
    0.000000000    0.818506241    0.289268732
    0.000000000    0.485172957    0.000000009
    0.000000000    0.151839554    0.144634381
    0.666666687    0.485172868    0.289268732
    0.666666687    0.151839599    0.000000009
    0.666666687    0.818506181    0.144634381
    0.333333313    0.151839495    0.289268732
    0.333333313    0.818506241    0.000000002
    0.333333313    0.485172868    0.144634351
    0.000000000    0.485172808    0.325427443
    0.000000000    0.151839659    0.036158610
    0.000000000    0.818506300    0.180793002
    0.333333343    0.818506122    0.325427443
    0.333333343    0.485172957    0.036158614
    0.333333343    0.151839599    0.180793002
    0.666666687    0.151839525    0.325427413
    0.666666687    0.818506300    0.036158610
    0.666666687    0.485172957    0.180792972
    0.401211947    0.439091086    0.900184691
    0.067879081    0.105757952    0.425242662
    0.734545648    0.772424519    0.520231068
    0.401212245    0.439091146    0.615219474
    0.067878723    0.105757594    0.710207939
    0.734545290    0.772424221    0.805196404
    0.686926186    0.581948161    0.900184751
    0.353593439    0.248615041    0.425242662
    0.020259976    0.915281653    0.520231068
    0.686926544    0.581948280    0.615219533
    0.353592962    0.248614728    0.710207939
    0.020259619    0.915281415    0.805196345
    0.544069111    0.010519505    0.900184751
    0.210736275    0.677186430    0.425242662
    0.877402842    0.343853056    0.520231068
    0.544069409    0.010519743    0.615219474
    0.210735768    0.677186131    0.710207939
    0.877402484    0.343852818    0.805196404
    0.972640574    0.724805236    0.900184751
    0.639307678    0.391472191    0.425242662
    0.305974275    0.058138847    0.520231068
    0.972640812    0.724805415    0.615219533
    0.639307201    0.391471863    0.710207939
    0.305973917    0.058138490    0.805196464
    0.829783261    0.153376639    0.900184751
    0.496450573    0.820043623    0.425242633
    0.163117111    0.486710250    0.520231009
    0.829783618    0.153376818    0.615219474
    0.496450275    0.820043445    0.710207880
    0.163116723    0.486709893    0.805196404
    0.258354753    0.867662311    0.900184751
    0.925021887    0.534329295    0.425242633
    0.591688514    0.200995937    0.520231009
    0.258355081    0.867662549    0.615219474
    0.925021708    0.534329176    0.710207880
    0.591688097    0.200995624    0.805196404
    0.115497611    0.296233773    0.900184751
    0.782164752    0.962900698    0.425242662
    0.448831379    0.629567325    0.520231068
    0.115497947    0.296233952    0.615219474
    0.782164335    0.962900400    0.710207939
    0.448830992    0.629567087    0.805196345
    0.163117170    0.486710221    0.448989749
    0.829783738    0.153376818    0.543978214
    0.496450335    0.820043445    0.638966620
    0.163116783    0.486710012    0.733955026
    0.829783261    0.153376520    0.828943491
    0.591688573    0.200995952    0.448989749
    0.258355170    0.867662549    0.543978214
    0.925021708    0.534329236    0.638966560
    0.591688216    0.200995743    0.733955026
    0.258354694    0.867662191    0.828943491
    0.448831439    0.629567325    0.448989749
    0.115498006    0.296233952    0.543978214
    0.782164514    0.962900579    0.638966560
    0.448831052    0.629567146    0.733955026
    0.115497552    0.296233714    0.828943431
    0.877402782    0.343853056    0.448989749
    0.544069409    0.010519743    0.543978214
    0.210735977    0.677186310    0.638966620
    0.877402425    0.343852818    0.733955026
    0.544068933    0.010519385    0.828943431
    0.305974305    0.058138847    0.448989749
    0.972640812    0.724805415    0.543978214
    0.639307439    0.391472042    0.638966620
    0.305973917    0.058138490    0.733955026
    0.972640455    0.724805117    0.828943431
    0.734545767    0.772424519    0.448989749
    0.401212364    0.439091116    0.543978214
    0.067878962    0.105757713    0.638966620
    0.734545410    0.772424221    0.733955026
    0.401211888    0.439090788    0.828943491
    0.020260096    0.915281653    0.448989719
    0.686926544    0.581948280    0.543978155
    0.353593200    0.248614877    0.638966560
    0.020259738    0.915281475    0.733955026
    0.686926186    0.581947982    0.828943431
    0.615497649    0.796233773    0.900184691
    0.282164812    0.462900758    0.425242662
    0.948831379    0.129567355    0.520231068
    0.615497947    0.796233952    0.615219474
    0.282164365    0.462900400    0.710207939
    0.948831022    0.129567146    0.805196345
    0.044069171    0.510519505    0.900184691
    0.710736275    0.177186474    0.425242633
    0.377402812    0.843853116    0.520231009
    0.044069409    0.510519743    0.615219474
    0.710735738    0.177186131    0.710207939
    0.377402455    0.843852878    0.805196345
    0.472640485    0.224805176    0.900184751
    0.139307708    0.891472161    0.425242633
    0.805974305    0.558138788    0.520231068
    0.472640842    0.224805355    0.615219474
    0.139307469    0.891472042    0.710207939
    0.805973947    0.558138490    0.805196404
    0.901211917    0.939090967    0.900184751
    0.567879140    0.605757892    0.425242633
    0.234545678    0.272424519    0.520231068
    0.901212156    0.939091086    0.615219474
    0.567878842    0.605757713    0.710207939
    0.234545320    0.272424221    0.805196345
    0.329783350    0.653376579    0.900184751
    0.996450484    0.320043623    0.425242603
    0.663117111    0.986710250    0.520231009
    0.329783678    0.653376818    0.615219474
    0.996450245    0.320043504    0.710207880
    0.663116634    0.986709952    0.805196404
    0.758354723    0.367662430    0.900184751
    0.425022006    0.034329414    0.425242662
    0.091688514    0.700995922    0.520231068
    0.758355081    0.367662549    0.615219474
    0.425021499    0.034328938    0.710207939
    0.091688178    0.700995684    0.805196345
    0.186926275    0.081948161    0.900184751
    0.853593409    0.748615026    0.425242692
    0.520259976    0.415281624    0.520231068
    0.186926574    0.081948280    0.615219533
    0.853592932    0.748614669    0.710207939
    0.520259559    0.415281415    0.805196404
    0.234545738    0.272424519    0.448989719
    0.901212275    0.939091086    0.543978214
    0.567878842    0.605757773    0.638966560
    0.234545380    0.272424340    0.733955026
    0.901211917    0.939090848    0.828943491
    0.091688603    0.700995922    0.448989719
    0.758355081    0.367662519    0.543978214
    0.425021797    0.034329176    0.638966560
    0.091688238    0.700995743    0.733955026
    0.758354843    0.367662251    0.828943372
    0.520260036    0.415281653    0.448989719
    0.186926544    0.081948280    0.543978155
    0.853593111    0.748614907    0.638966560
    0.520259619    0.415281475    0.733955026
    0.186926097    0.081948042    0.828943372
    0.948831320    0.129567340    0.448989719
    0.615497947    0.796233952    0.543978155
    0.282164574    0.462900579    0.638966560
    0.948831081    0.129567146    0.733955026
    0.615497589    0.796233654    0.828943372
    0.377402902    0.843853116    0.448989719
    0.044069409    0.510519624    0.543978155
    0.710735977    0.177186251    0.638966560
    0.377402574    0.843852878    0.733955026
    0.044069052    0.510519385    0.828943431
    0.805974364    0.558138847    0.448989719
    0.472640902    0.224805355    0.543978214
    0.139307484    0.891471982    0.638966620
    0.805974007    0.558138549    0.733955026
    0.472640544    0.224805057    0.828943491
    0.663117111    0.986710191    0.448989719
    0.329783678    0.653376758    0.543978214
    0.996450245    0.320043325    0.638966560
    0.663116753    0.986709952    0.733955026
    0.329783350    0.653376520    0.828943431
    0.544069111    0.510519505    0.900184810
    0.210736245    0.177186474    0.425242662
    0.877402782    0.843853116    0.520231068
    0.544069409    0.510519743    0.615219474
    0.210735828    0.177186191    0.710207939
    0.877402365    0.843852758    0.805196404
    0.401212066    0.939090967    0.900184751
    0.067879200    0.605757892    0.425242662
    0.734545648    0.272424489    0.520231068
    0.401212305    0.939091086    0.615219533
    0.067878723    0.605757535    0.710207939
    0.734545290    0.272424281    0.805196404
    0.829783380    0.653376698    0.900184751
    0.496450573    0.320043623    0.425242633
    0.163117141    0.986710250    0.520231068
    0.829783678    0.653376818    0.615219474
    0.496450096    0.320043266    0.710207939
    0.163116783    0.986709952    0.805196404
    0.686926186    0.081948042    0.900184810
    0.353593409    0.748615086    0.425242633
    0.020259976    0.415281713    0.520231009
    0.686926484    0.081948280    0.615219474
    0.353593141    0.748614967    0.710207880
    0.020259619    0.415281355    0.805196404
    0.115497671    0.796233773    0.900184751
    0.782164812    0.462900788    0.425242633
    0.448831439    0.129567400    0.520231009
    0.115497977    0.796233952    0.615219474
    0.782164574    0.462900639    0.710207880
    0.448831052    0.129567087    0.805196404
    0.972640455    0.224805236    0.900184691
    0.639307678    0.891472161    0.425242662
    0.305974245    0.558138788    0.520231068
    0.972640812    0.224805415    0.615219474
    0.639307201    0.891471863    0.710207939
    0.305973917    0.558138549    0.805196345
    0.258354813    0.367662311    0.900184751
    0.925021946    0.034329295    0.425242662
    0.591688514    0.700995922    0.520231068
    0.258355111    0.367662549    0.615219474
    0.925021470    0.034328938    0.710207939
    0.591688156    0.700995684    0.805196345
    0.448831439    0.129567370    0.448989749
    0.115497947    0.796233952    0.543978214
    0.782164514    0.462900579    0.638966620
    0.448831052    0.129567206    0.733955026
    0.115497552    0.796233654    0.828943491
    0.305974364    0.558138728    0.448989749
    0.972640872    0.224805355    0.543978214
    0.639307439    0.891471982    0.638966560
    0.305973977    0.558138549    0.733955026
    0.972640455    0.224805176    0.828943372
    0.734545708    0.272424519    0.448989749
    0.401212305    0.939091086    0.543978214
    0.067878842    0.605757773    0.638966560
    0.734545350    0.272424281    0.733955026
    0.401211947    0.939090848    0.828943431
    0.163117200    0.986710250    0.448989749
    0.829783678    0.653376818    0.543978214
    0.496450335    0.320043445    0.638966620
    0.163116843    0.986710072    0.733955026
    0.829783261    0.653376579    0.828943491
    0.591688573    0.700995922    0.448989719
    0.258355111    0.367662489    0.543978155
    0.925021648    0.034329176    0.638966560
    0.591688216    0.700995684    0.733954966
    0.258354753    0.367662251    0.828943431
    0.020260096    0.415281653    0.448989719
    0.686926663    0.081948280    0.543978214
    0.353593260    0.748614848    0.638966560
    0.020259738    0.415281415    0.733955026
    0.686926186    0.081948042    0.828943372
    0.877402902    0.843853116    0.448989749
    0.544069409    0.510519624    0.543978214
    0.210736036    0.177186280    0.638966620
    0.877402484    0.843852878    0.733955026
    0.544069052    0.510519445    0.828943431
    0.472640723    0.724805236    0.900184751
    0.139307693    0.391472191    0.425242633
    0.805974185    0.058138847    0.520231068
    0.472640842    0.724805415    0.615219474
    0.139307231    0.391471863    0.710207939
    0.805973828    0.058138609    0.805196345
    0.901211917    0.439090967    0.900184691
    0.567879081    0.105757952    0.425242633
    0.234545648    0.772424519    0.520231068
    0.901212215    0.439091146    0.615219474
    0.567878604    0.105757594    0.710207939
    0.234545261    0.772424340    0.805196345
    0.758354723    0.867662430    0.900184751
    0.425021976    0.534329295    0.425242662
    0.091688536    0.200995982    0.520231009
    0.758355081    0.867662549    0.615219474
    0.425021678    0.534329236    0.710207880
    0.091688119    0.200995684    0.805196404
    0.186926156    0.581948042    0.900184810
    0.853593290    0.248615012    0.425242633
    0.520259917    0.915281653    0.520231009
    0.186926454    0.581948221    0.615219474
    0.853593051    0.248614907    0.710207880
    0.520259500    0.915281415    0.805196345
    0.615497530    0.296233773    0.900184751
    0.282164842    0.962900698    0.425242662
    0.948831379    0.629567325    0.520231068
    0.615498006    0.296233952    0.615219474
    0.282164365    0.962900400    0.710207939
    0.948830903    0.629567027    0.805196404
    0.044069171    0.010519505    0.900184691
    0.710736275    0.677186489    0.425242633
    0.377402842    0.343853056    0.520231009
    0.044069409    0.010519743    0.615219474
    0.710735798    0.677186131    0.710207939
    0.377402455    0.343852818    0.805196345
    0.329783350    0.153376639    0.900184751
    0.996450484    0.820043564    0.425242662
    0.663117111    0.486710161    0.520231068
    0.329783678    0.153376788    0.615219474
    0.996450067    0.820043206    0.710207939
    0.663116753    0.486709952    0.805196404
    0.091688618    0.200996026    0.448989749
    0.758355200    0.867662668    0.543978214
    0.425021738    0.534329236    0.638966620
    0.091688238    0.200995803    0.733955026
    0.758354723    0.867662311    0.828943491
    0.377402931    0.343853146    0.448989749
    0.044069529    0.010519743    0.543978214
    0.710735977    0.677186370    0.638966620
    0.377402514    0.343852878    0.733955026
    0.044069052    0.010519505    0.828943491
    0.234545797    0.772424519    0.448989749
    0.901212335    0.439091176    0.543978214
    0.567878902    0.105757713    0.638966560
    0.234545380    0.772424340    0.733955026
    0.901211917    0.439090848    0.828943491
    0.663117170    0.486710280    0.448989749
    0.329783738    0.153376892    0.543978214
    0.996450305    0.820043504    0.638966620
    0.663116753    0.486710012    0.733955026
    0.329783291    0.153376579    0.828943491
    0.520259976    0.915281653    0.448989749
    0.186926544    0.581948280    0.543978155
    0.853593111    0.248614892    0.638966560
    0.520259559    0.915281415    0.733955026
    0.186926097    0.581947923    0.828943431
    0.948831379    0.629567325    0.448989719
    0.615497947    0.296233952    0.543978214
    0.282164544    0.962900579    0.638966620
    0.948830962    0.629567087    0.733955026
    0.615497470    0.296233654    0.828943431
    0.805974305    0.058138847    0.448989779
    0.472640902    0.724805534    0.543978214
    0.139307484    0.391472161    0.638966620
    0.805973947    0.058138609    0.733955026
    0.472640485    0.724805236    0.828943491
