Ge+Sn                                   
   1.00000000000000     
    11.3156003950000006    0.0000000000000000    0.0000000000000000
     0.0000000000000000   17.8915348049999992    0.0000000000000000
     0.0000000000000000   -0.0000002560000000   11.0959062579999994
   Ge   Sn
    48    48
Direct
  0.9455687399999988  0.0762038009999984  0.0000000160000013
  0.6955686809999975  0.4262039070000014  0.0806223680000002
  0.4455686809999975  0.7762039899999991  0.1612447199999991
  0.1955686209999996  0.1262041330000017  0.2418671699999990
  0.9455686809999975  0.4762041569999980  0.3224894700000007
  0.6955686809999975  0.8262043000000006  0.4031117560000013
  0.4455687399999988  0.0762038009999984  0.0000000160000013
  0.1955687110000000  0.4262039070000014  0.0806223680000002
  0.9455686809999975  0.7762039899999991  0.1612447199999991
  0.6955686809999975  0.1262041330000017  0.2418671699999990
  0.4455686809999975  0.4762041569999980  0.3224894700000007
  0.1955686209999996  0.8262043000000006  0.4031117560000013
  0.0705687250000011  0.8262039419999994  0.0000000369999995
  0.8205686809999975  0.1762040850000020  0.0806223379999977
  0.5705686809999975  0.5262041089999983  0.1612446609999978
  0.3205686209999996  0.8762041330000017  0.2418671100000012
  0.0705686209999996  0.2262041569999980  0.3224895000000032
  0.8205685619999983  0.5762043000000006  0.4031118449999980
  0.5705687399999988  0.8262039419999994  0.0000000369999995
  0.3205687399999988  0.1762040850000020  0.0806223379999977
  0.0705687110000000  0.5262041089999983  0.1612446609999978
  0.8205686809999975  0.8762041330000017  0.2418671100000012
  0.5705686809999975  0.2262041569999980  0.3224895000000032
  0.3205686209999996  0.5762043000000006  0.4031118449999980
  0.9455687399999988  0.5762038230000002  0.0000000200000017
  0.6955686809999975  0.9262039070000014  0.0806223299999971
  0.4455686809999975  0.2762039899999991  0.1612447349999968
  0.1955686209999996  0.6262041330000017  0.2418670650000010
  0.9455686809999975  0.9762041569999980  0.3224894700000007
  0.6955686809999975  0.3262043000000006  0.4031118449999980
  0.4455687399999988  0.5762038230000002  0.0000000200000017
  0.1955687110000000  0.9262039070000014  0.0806223299999971
  0.9455686809999975  0.2762039899999991  0.1612447349999968
  0.6955686809999975  0.6262041330000017  0.2418670650000010
  0.4455686809999975  0.9762041569999980  0.3224894700000007
  0.1955686209999996  0.3262043000000006  0.4031118449999980
  0.0705687250000011  0.3262038230000002  0.0000000000000000
  0.8205686809999975  0.6762039660000028  0.0806223749999972
  0.5705686809999975  0.0262039899999991  0.1612447199999991
  0.3205686209999996  0.3762041330000017  0.2418670650000010
  0.0705686209999996  0.7262041569999980  0.3224894399999982
  0.8205685619999983  0.0762043000000006  0.4031117259999988
  0.5705687399999988  0.3262038230000002  0.0000000000000000
  0.3205687399999988  0.6762039660000028  0.0806223749999972
  0.0705687110000000  0.0262039899999991  0.1612447199999991
  0.8205686809999975  0.3762041330000017  0.2418670650000010
  0.5705686809999975  0.7262041569999980  0.3224894399999982
  0.3205686209999996  0.0762043000000006  0.4031117259999988
  0.9307968620000011  0.9221464990000001  0.4031118750000005
  0.5974633690000033  0.5471464399999988  0.5224894879999979
  0.2641299369999999  0.1721463800000009  0.6418670420000012
  0.9307965039999999  0.7971463200000031  0.7612447140000000
  0.5974630119999986  0.4221462009999968  0.8806223870000025
  0.2641296389999965  0.0471462009999968  0.9999998810000008
  0.9307968620000011  0.4221464990000001  0.4031118750000005
  0.5974633690000033  0.0471464359999985  0.5224894879999979
  0.2641299369999999  0.6721463800000009  0.6418670420000012
  0.9307966229999991  0.2971463800000009  0.7612447140000000
  0.5974630119999986  0.9221462009999968  0.8806223870000025
  0.2641295190000008  0.5471462009999968  0.0000000000000000
  0.1807968470000034  0.1721464840000024  0.4031118750000005
  0.8474633690000033  0.7971464399999988  0.5224894879999979
  0.5141299960000012  0.4221463800000009  0.6418670420000012
  0.1807965639999978  0.0471463800000009  0.7612446549999987
  0.8474630119999986  0.6721462009999968  0.8806223870000025
  0.5141296389999965  0.2971462009999968  0.9999998810000008
  0.1807968470000034  0.6721464990000001  0.4031118750000005
  0.8474633690000033  0.2971464399999988  0.5224894879999979
  0.5141299960000012  0.9221463800000009  0.6418670420000012
  0.1807965639999978  0.5471463800000009  0.7612446549999987
  0.8474630119999986  0.1721462009999968  0.8806223870000025
  0.5141296389999965  0.7971462009999968  0.9999998810000008
  0.9307968620000011  0.1721464990000001  0.4031118750000005
  0.5974633690000033  0.7971464399999988  0.5224894879999979
  0.2641299369999999  0.4221463800000009  0.6418670420000012
  0.9307966229999991  0.0471463800000009  0.7612447140000000
  0.5974630119999986  0.6721462009999968  0.8806223870000025
  0.2641295190000008  0.2971462009999968  0.9999998810000008
  0.9307968620000011  0.6721464990000001  0.4031118750000005
  0.5974633690000033  0.2971464399999988  0.5224894879999979
  0.2641299369999999  0.9221463800000009  0.6418670420000012
  0.9307965039999999  0.5471463200000031  0.7612447140000000
  0.5974630119999986  0.1721462009999968  0.8806223870000025
  0.2641295190000008  0.7971462009999968  0.0000000000000000
  0.1807968910000000  0.9221464399999988  0.4031118750000005
  0.8474634290000012  0.5471464399999988  0.5224894879999979
  0.5141299960000012  0.1721463200000031  0.6418670420000012
  0.1807965639999978  0.7971463200000031  0.7612446549999987
  0.8474630119999986  0.4221462009999968  0.8806223870000025
  0.5141296389999965  0.0471462009999968  0.9999998810000008
  0.1807968910000000  0.4221464990000001  0.4031118750000005
  0.8474634290000012  0.0471464580000003  0.5224894879999979
  0.5141299960000012  0.6721464399999988  0.6418670420000012
  0.1807965639999978  0.2971463800000009  0.7612446549999987
  0.8474630119999986  0.9221462009999968  0.8806223870000025
  0.5141296389999965  0.5471462009999968  0.9999998810000008
 
  0.00000000E+00  0.00000000E+00  0.00000000E+00
  0.00000000E+00  0.00000000E+00  0.00000000E+00
  0.00000000E+00  0.00000000E+00  0.00000000E+00
  0.00000000E+00  0.00000000E+00  0.00000000E+00
  0.00000000E+00  0.00000000E+00  0.00000000E+00
  0.00000000E+00  0.00000000E+00  0.00000000E+00
  0.00000000E+00  0.00000000E+00  0.00000000E+00
  0.00000000E+00  0.00000000E+00  0.00000000E+00
  0.00000000E+00  0.00000000E+00  0.00000000E+00
  0.00000000E+00  0.00000000E+00  0.00000000E+00
  0.00000000E+00  0.00000000E+00  0.00000000E+00
  0.00000000E+00  0.00000000E+00  0.00000000E+00
  0.00000000E+00  0.00000000E+00  0.00000000E+00
  0.00000000E+00  0.00000000E+00  0.00000000E+00
  0.00000000E+00  0.00000000E+00  0.00000000E+00
  0.00000000E+00  0.00000000E+00  0.00000000E+00
  0.00000000E+00  0.00000000E+00  0.00000000E+00
  0.00000000E+00  0.00000000E+00  0.00000000E+00
  0.00000000E+00  0.00000000E+00  0.00000000E+00
  0.00000000E+00  0.00000000E+00  0.00000000E+00
  0.00000000E+00  0.00000000E+00  0.00000000E+00
  0.00000000E+00  0.00000000E+00  0.00000000E+00
  0.00000000E+00  0.00000000E+00  0.00000000E+00
  0.00000000E+00  0.00000000E+00  0.00000000E+00
  0.00000000E+00  0.00000000E+00  0.00000000E+00
  0.00000000E+00  0.00000000E+00  0.00000000E+00
  0.00000000E+00  0.00000000E+00  0.00000000E+00
  0.00000000E+00  0.00000000E+00  0.00000000E+00
  0.00000000E+00  0.00000000E+00  0.00000000E+00
  0.00000000E+00  0.00000000E+00  0.00000000E+00
  0.00000000E+00  0.00000000E+00  0.00000000E+00
  0.00000000E+00  0.00000000E+00  0.00000000E+00
  0.00000000E+00  0.00000000E+00  0.00000000E+00
  0.00000000E+00  0.00000000E+00  0.00000000E+00
  0.00000000E+00  0.00000000E+00  0.00000000E+00
  0.00000000E+00  0.00000000E+00  0.00000000E+00
  0.00000000E+00  0.00000000E+00  0.00000000E+00
  0.00000000E+00  0.00000000E+00  0.00000000E+00
  0.00000000E+00  0.00000000E+00  0.00000000E+00
  0.00000000E+00  0.00000000E+00  0.00000000E+00
  0.00000000E+00  0.00000000E+00  0.00000000E+00
  0.00000000E+00  0.00000000E+00  0.00000000E+00
  0.00000000E+00  0.00000000E+00  0.00000000E+00
  0.00000000E+00  0.00000000E+00  0.00000000E+00
  0.00000000E+00  0.00000000E+00  0.00000000E+00
  0.00000000E+00  0.00000000E+00  0.00000000E+00
  0.00000000E+00  0.00000000E+00  0.00000000E+00
  0.00000000E+00  0.00000000E+00  0.00000000E+00
  0.00000000E+00  0.00000000E+00  0.00000000E+00
  0.00000000E+00  0.00000000E+00  0.00000000E+00
  0.00000000E+00  0.00000000E+00  0.00000000E+00
  0.00000000E+00  0.00000000E+00  0.00000000E+00
  0.00000000E+00  0.00000000E+00  0.00000000E+00
  0.00000000E+00  0.00000000E+00  0.00000000E+00
  0.00000000E+00  0.00000000E+00  0.00000000E+00
  0.00000000E+00  0.00000000E+00  0.00000000E+00
  0.00000000E+00  0.00000000E+00  0.00000000E+00
  0.00000000E+00  0.00000000E+00  0.00000000E+00
  0.00000000E+00  0.00000000E+00  0.00000000E+00
  0.00000000E+00  0.00000000E+00  0.00000000E+00
  0.00000000E+00  0.00000000E+00  0.00000000E+00
  0.00000000E+00  0.00000000E+00  0.00000000E+00
  0.00000000E+00  0.00000000E+00  0.00000000E+00
  0.00000000E+00  0.00000000E+00  0.00000000E+00
  0.00000000E+00  0.00000000E+00  0.00000000E+00
  0.00000000E+00  0.00000000E+00  0.00000000E+00
  0.00000000E+00  0.00000000E+00  0.00000000E+00
  0.00000000E+00  0.00000000E+00  0.00000000E+00
  0.00000000E+00  0.00000000E+00  0.00000000E+00
  0.00000000E+00  0.00000000E+00  0.00000000E+00
  0.00000000E+00  0.00000000E+00  0.00000000E+00
  0.00000000E+00  0.00000000E+00  0.00000000E+00
  0.00000000E+00  0.00000000E+00  0.00000000E+00
  0.00000000E+00  0.00000000E+00  0.00000000E+00
  0.00000000E+00  0.00000000E+00  0.00000000E+00
  0.00000000E+00  0.00000000E+00  0.00000000E+00
  0.00000000E+00  0.00000000E+00  0.00000000E+00
  0.00000000E+00  0.00000000E+00  0.00000000E+00
  0.00000000E+00  0.00000000E+00  0.00000000E+00
  0.00000000E+00  0.00000000E+00  0.00000000E+00
  0.00000000E+00  0.00000000E+00  0.00000000E+00
  0.00000000E+00  0.00000000E+00  0.00000000E+00
  0.00000000E+00  0.00000000E+00  0.00000000E+00
  0.00000000E+00  0.00000000E+00  0.00000000E+00
  0.00000000E+00  0.00000000E+00  0.00000000E+00
  0.00000000E+00  0.00000000E+00  0.00000000E+00
  0.00000000E+00  0.00000000E+00  0.00000000E+00
  0.00000000E+00  0.00000000E+00  0.00000000E+00
  0.00000000E+00  0.00000000E+00  0.00000000E+00
  0.00000000E+00  0.00000000E+00  0.00000000E+00
  0.00000000E+00  0.00000000E+00  0.00000000E+00
  0.00000000E+00  0.00000000E+00  0.00000000E+00
  0.00000000E+00  0.00000000E+00  0.00000000E+00
  0.00000000E+00  0.00000000E+00  0.00000000E+00
  0.00000000E+00  0.00000000E+00  0.00000000E+00
  0.00000000E+00  0.00000000E+00  0.00000000E+00
