Ge+Sn
    1.000000000
   11.315600395    0.000000000    0.000000000
    0.000000000   17.891534805    0.000000000
    0.000000000   -0.000000256   11.095906258
Ge  Sn 
48     48
Direct
    0.945568740    0.076203801    0.000000016
    0.695568681    0.426203907    0.080622368
    0.445568681    0.776203990    0.161244720
    0.195568621    0.126204133    0.241867170
    0.945568681    0.476204157    0.322489470
    0.695568681    0.826204300    0.403111756
    0.445568740    0.076203801    0.000000016
    0.195568711    0.426203907    0.080622368
    0.945568681    0.776203990    0.161244720
    0.695568681    0.126204133    0.241867170
    0.445568681    0.476204157    0.322489470
    0.195568621    0.826204300    0.403111756
    0.070568725    0.826203942    0.000000037
    0.820568681    0.176204085    0.080622338
    0.570568681    0.526204109    0.161244661
    0.320568621    0.876204133    0.241867110
    0.070568621    0.226204157    0.322489500
    0.820568562    0.576204300    0.403111845
    0.570568740    0.826203942    0.000000037
    0.320568740    0.176204085    0.080622338
    0.070568711    0.526204109    0.161244661
    0.820568681    0.876204133    0.241867110
    0.570568681    0.226204157    0.322489500
    0.320568621    0.576204300    0.403111845
    0.945568740    0.576203823    0.000000020
    0.695568681    0.926203907    0.080622330
    0.445568681    0.276203990    0.161244735
    0.195568621    0.626204133    0.241867065
    0.945568681    0.976204157    0.322489470
    0.695568681    0.326204300    0.403111845
    0.445568740    0.576203823    0.000000020
    0.195568711    0.926203907    0.080622330
    0.945568681    0.276203990    0.161244735
    0.695568681    0.626204133    0.241867065
    0.445568681    0.976204157    0.322489470
    0.195568621    0.326204300    0.403111845
    0.070568725    0.326203823    0.000000000
    0.820568681    0.676203966    0.080622375
    0.570568681    0.026203990    0.161244720
    0.320568621    0.376204133    0.241867065
    0.070568621    0.726204157    0.322489440
    0.820568562    0.076204300    0.403111726
    0.570568740    0.326203823    0.000000000
    0.320568740    0.676203966    0.080622375
    0.070568711    0.026203990    0.161244720
    0.820568681    0.376204133    0.241867065
    0.570568681    0.726204157    0.322489440
    0.320568621    0.076204300    0.403111726
    0.930796862    0.922146499    0.403111875
    0.597463369    0.547146440    0.522489488
    0.264129937    0.172146380    0.641867042
    0.930796504    0.797146320    0.761244714
    0.597463012    0.422146201    0.880622387
    0.264129639    0.047146201    0.999999881
    0.930796862    0.422146499    0.403111875
    0.597463369    0.047146436    0.522489488
    0.264129937    0.672146380    0.641867042
    0.930796623    0.297146380    0.761244714
    0.597463012    0.922146201    0.880622387
    0.264129519    0.547146201    1.000000000
    0.180796847    0.172146484    0.403111875
    0.847463369    0.797146440    0.522489488
    0.514129996    0.422146380    0.641867042
    0.180796564    0.047146380    0.761244655
    0.847463012    0.672146201    0.880622387
    0.514129639    0.297146201    0.999999881
    0.180796847    0.672146499    0.403111875
    0.847463369    0.297146440    0.522489488
    0.514129996    0.922146380    0.641867042
    0.180796564    0.547146380    0.761244655
    0.847463012    0.172146201    0.880622387
    0.514129639    0.797146201    0.999999881
    0.930796862    0.172146499    0.403111875
    0.597463369    0.797146440    0.522489488
    0.264129937    0.422146380    0.641867042
    0.930796623    0.047146380    0.761244714
    0.597463012    0.672146201    0.880622387
    0.264129519    0.297146201    0.999999881
    0.930796862    0.672146499    0.403111875
    0.597463369    0.297146440    0.522489488
    0.264129937    0.922146380    0.641867042
    0.930796504    0.547146320    0.761244714
    0.597463012    0.172146201    0.880622387
    0.264129519    0.797146201    1.000000000
    0.180796891    0.922146440    0.403111875
    0.847463429    0.547146440    0.522489488
    0.514129996    0.172146320    0.641867042
    0.180796564    0.797146320    0.761244655
    0.847463012    0.422146201    0.880622387
    0.514129639    0.047146201    0.999999881
    0.180796891    0.422146499    0.403111875
    0.847463429    0.047146458    0.522489488
    0.514129996    0.672146440    0.641867042
    0.180796564    0.297146380    0.761244655
    0.847463012    0.922146201    0.880622387
    0.514129639    0.547146201    0.999999881
