Ge+Sn
    1.000000000
   16.002676010    0.000000000    0.000000000
   -8.001338005   13.858724594    0.000000000
    0.000000000    0.000000000   15.779418945
Ge  Sn 
96     72
Direct
    0.985767305    0.492883563    0.000000006
    0.652433872    0.326216847    0.207012251
    0.319100499    0.159550115    0.414024472
    0.985767305    0.992883682    0.000000015
    0.652433872    0.826216936    0.207012251
    0.319100499    0.659550190    0.414024502
    0.485767245    0.492883593    0.000000000
    0.152433842    0.326216847    0.207012251
    0.819100440    0.159550130    0.414024502
    0.485767245    0.992883682    0.000000020
    0.152433842    0.826216936    0.207012251
    0.819100440    0.659550190    0.414024502
    0.152433947    0.826216877    0.051753093
    0.819100559    0.659550130    0.258765280
    0.485767186    0.492883444    0.465777576
    0.152433947    0.326216936    0.051753093
    0.819100559    0.159550220    0.258765310
    0.485767186    0.992883503    0.465777576
    0.652433872    0.826216817    0.051753093
    0.319100529    0.659550130    0.258765280
    0.985767186    0.492883444    0.465777576
    0.652433872    0.326216936    0.051753093
    0.319100529    0.159550235    0.258765310
    0.985767186    0.992883503    0.465777576
    0.235767260    0.742883623    0.000000004
    0.902433872    0.576216936    0.207012251
    0.569100380    0.409550130    0.414024502
    0.235767290    0.242883623    0.000000014
    0.902433872    0.076216899    0.207012251
    0.569100440    0.909550190    0.414024502
    0.735767245    0.742883563    0.000000014
    0.402433842    0.576216877    0.207012251
    0.069100402    0.409550101    0.414024502
    0.735767245    0.242883608    0.000000014
    0.402433842    0.076216891    0.207012236
    0.069100417    0.909550190    0.414024502
    0.402433932    0.576216936    0.051753018
    0.069100514    0.409550160    0.258765280
    0.735767186    0.242883489    0.465777516
    0.402433932    0.076216973    0.051753018
    0.069100514    0.909550250    0.258765280
    0.735767186    0.742883563    0.465777516
    0.902433991    0.576216877    0.051753022
    0.569100618    0.409550190    0.258765280
    0.235767245    0.242883459    0.465777516
    0.902433991    0.076216973    0.051753029
    0.569100618    0.909550250    0.258765280
    0.235767245    0.742883563    0.465777516
    0.235767275    0.492883593    0.000000014
    0.902433872    0.326216847    0.207012236
    0.569100440    0.159550115    0.414024502
    0.235767290    0.992883682    0.000000024
    0.902433872    0.826216936    0.207012251
    0.569100440    0.659550190    0.414024502
    0.735767245    0.492883593    0.000000014
    0.402433842    0.326216877    0.207012236
    0.069100402    0.159550115    0.414024502
    0.735767245    0.992883682    0.000000035
    0.402433842    0.826216936    0.207012251
    0.069100417    0.659550190    0.414024502
    0.402433932    0.826216936    0.051753044
    0.069100499    0.659550130    0.258765280
    0.735767186    0.492883474    0.465777516
    0.402433932    0.326216996    0.051753044
    0.069100529    0.159550250    0.258765280
    0.735767186    0.992883563    0.465777516
    0.902433991    0.826216877    0.051753011
    0.569100559    0.659550130    0.258765250
    0.235767245    0.492883474    0.465777457
    0.902433991    0.326216966    0.051753048
    0.569100618    0.159550250    0.258765280
    0.235767245    0.992883563    0.465777516
    0.985767305    0.742883623    0.000000009
    0.652433932    0.576216877    0.207012311
    0.319100499    0.409550160    0.414024472
    0.985767305    0.242883623    0.000000011
    0.652433872    0.076216884    0.207012251
    0.319100499    0.909550190    0.414024502
    0.485767245    0.742883623    0.000000000
    0.152433842    0.576216936    0.207012251
    0.819100440    0.409550101    0.414024502
    0.485767245    0.242883623    0.000000020
    0.152433842    0.076216899    0.207012251
    0.819100440    0.909550190    0.414024502
    0.152433977    0.576216936    0.051753085
    0.819100618    0.409550220    0.258765280
    0.485767245    0.242883548    0.465777576
    0.152433977    0.076216981    0.051753085
    0.819100618    0.909550309    0.258765310
    0.485767245    0.742883563    0.465777576
    0.652433991    0.576216936    0.051753096
    0.319100618    0.409550220    0.258765310
    0.985767245    0.242883518    0.465777576
    0.652433991    0.076216988    0.051753081
    0.319100618    0.909550309    0.258765310
    0.985767245    0.742883563    0.465777576
    0.000000000    0.012409173    0.465777516
    0.000000000    0.345742553    0.703209698
    0.000000000    0.679075956    0.940642059
    0.333333373    0.679075897    0.465777516
    0.333333403    0.012409329    0.703209698
    0.333333403    0.345742702    0.940641820
    0.666666746    0.345742553    0.465777516
    0.666666746    0.679075956    0.703209698
    0.666666746    0.012409329    0.940641820
    0.000000000    0.345742553    0.525135636
    0.000000000    0.679075897    0.762567818
    0.000000000    0.012409210    0.999999940
    0.333333403    0.012409210    0.525135636
    0.333333403    0.345742583    0.762567818
    0.333333403    0.679076076    0.999999940
    0.666666746    0.679075956    0.525135636
    0.666666746    0.012409329    0.762567818
    0.666666746    0.345742583    0.999999940
    0.166666687    0.345742553    0.465777516
    0.166666701    0.679075956    0.703209698
    0.166666687    0.012409329    0.940642059
    0.500000000    0.012409184    0.465777516
    0.500000000    0.345742583    0.703209698
    0.500000000    0.679076016    0.940642059
    0.833333433    0.679075897    0.465777516
    0.833333433    0.012409329    0.703209639
    0.833333433    0.345742702    0.940642059
    0.166666701    0.679075956    0.525135577
    0.166666701    0.012409329    0.762567759
    0.166666716    0.345742822    0.999999940
    0.500000060    0.345742583    0.525135577
    0.500000060    0.679075956    0.762567818
    0.500000060    0.012409329    0.999999940
    0.833333433    0.012409210    0.525135577
    0.833333433    0.345742583    0.762567759
    0.833333433    0.679075956    0.999999940
    0.000000000    0.512409210    0.465777516
    0.000000000    0.845742583    0.703209639
    0.000000000    0.179075956    0.940642059
    0.333333373    0.179075852    0.465777516
    0.333333373    0.512409270    0.703209698
    0.333333373    0.845742643    0.940642059
    0.666666746    0.845742583    0.465777516
    0.666666746    0.179075956    0.703209639
    0.666666806    0.512409449    0.940642059
    0.000000000    0.845742583    0.525135577
    0.000000000    0.179075956    0.762567759
    0.000000000    0.512409449    0.999999940
    0.333333373    0.512409210    0.525135577
    0.333333373    0.845742583    0.762567759
    0.333333403    0.179076076    0.999999940
    0.666666746    0.179075807    0.525135577
    0.666666746    0.512409210    0.762567818
    0.666666746    0.845742643    0.999999940
    0.166666701    0.845742583    0.465777516
    0.166666701    0.179075837    0.703209639
    0.166666701    0.512409329    0.940641820
    0.500000000    0.512409210    0.465777516
    0.500000000    0.845742643    0.703209698
    0.500000060    0.179075956    0.940641820
    0.833333373    0.179075867    0.465777516
    0.833333373    0.512409270    0.703209698
    0.833333373    0.845742702    0.940641820
    0.166666687    0.179075778    0.525135636
    0.166666687    0.512409151    0.762567818
    0.166666687    0.845742524    0.999999940
    0.500000000    0.845742524    0.525135636
    0.500000000    0.179075956    0.762567818
    0.500000000    0.512409210    0.999999940
    0.833333433    0.512409210    0.525135636
    0.833333433    0.845742583    0.762567818
    0.833333433    0.179075956    0.999999940
