Ge
 1.0000000000000000
     8.0013374931944963    0.0000000000000000    0.0000000000000000
    -8.0013374931944981    9.7995970590631938    0.0000000000000000
     0.0000000000000000   -0.0000000000000000   61.9429781889712245
 Ge 
  80
Direct
  0.0000000000000000  0.0000000000000000  0.3228775978285291
  0.2500000000000001  0.7499999999999999  0.3228775978285291
  0.9166666666666666  0.6666666666666666  0.3415220612149997
  0.1666666666666667  0.4166666666666667  0.3415220612149997
  0.4166666666666665  0.6666666666666666  0.3415220612149997
  0.6666666666666667  0.4166666666666667  0.3415220612149997
  0.5000000000000000  0.0000000000000000  0.3228775978285291
  0.7499999999999999  0.7499999999999999  0.3228775978285291
  0.8333333333333333  0.3333333333333333  0.3601665246014703
  0.0833333333333332  0.0833333333333332  0.3601665246014703
  0.7499999999999998  0.9999999999999998  0.3788109879879409
  0.0000000000000000  0.7499999999999999  0.3788109879879409
  0.2499999999999996  0.9999999999999998  0.3788109879879409
  0.4999999999999999  0.7499999999999999  0.3788109879879409
  0.3333333333333330  0.3333333333333332  0.3601665246014703
  0.5833333333333329  0.0833333333333332  0.3601665246014703
  0.6666666666666665  0.6666666666666666  0.3974554513744115
  0.9166666666666669  0.4166666666666665  0.3974554513744115
  0.5833333333333330  0.3333333333333328  0.4160999147608822
  0.8333333333333335  0.0833333333333335  0.4160999147608822
  0.0833333333333330  0.3333333333333332  0.4160999147608822
  0.3333333333333335  0.0833333333333332  0.4160999147608821
  0.1666666666666670  0.6666666666666667  0.3974554513744115
  0.4166666666666665  0.4166666666666665  0.3974554513744115
  0.4999999999999996  0.9999999999999998  0.4347443781473527
  0.7499999999999996  0.7499999999999998  0.4347443781473527
  0.4166666666666664  0.6666666666666664  0.4533888415338233
  0.6666666666666665  0.4166666666666665  0.4533888415338233
  0.9166666666666664  0.6666666666666664  0.4533888415338233
  0.1666666666666661  0.4166666666666665  0.4533888415338233
  0.0000000000000000  0.0000000000000000  0.4347443781473528
  0.2499999999999996  0.7499999999999998  0.4347443781473527
  0.3333333333333330  0.3333333333333332  0.4720333049202939
  0.5833333333333330  0.0833333333333330  0.4720333049202939
  0.2500000000000000  0.0000000000000000  0.4906777683067646
  0.4999999999999991  0.7499999999999998  0.4906777683067645
  0.7499999999999996  0.9999999999999996  0.4906777683067646
  0.9999999999999991  0.7499999999999998  0.4906777683067646
  0.8333333333333329  0.3333333333333332  0.4720333049202939
  0.0833333333333330  0.0833333333333330  0.4720333049202939
  0.1666666666666670  0.6666666666666667  0.5093222316932352
  0.4166666666666661  0.4166666666666661  0.5093222316932352
  0.0833333333333330  0.3333333333333330  0.5279666950797058
  0.3333333333333330  0.0833333333333330  0.5279666950797057
  0.5833333333333329  0.3333333333333330  0.5279666950797058
  0.8333333333333330  0.0833333333333330  0.5279666950797057
  0.6666666666666670  0.6666666666666667  0.5093222316932352
  0.9166666666666671  0.4166666666666665  0.5093222316932352
  0.9999999999999991  0.9999999999999996  0.5466111584661764
  0.2500000000000001  0.7499999999999996  0.5466111584661764
  0.9166666666666651  0.6666666666666660  0.5652556218526470
  0.1666666666666652  0.4166666666666661  0.5652556218526469
  0.4166666666666642  0.6666666666666656  0.5652556218526470
  0.6666666666666652  0.4166666666666661  0.5652556218526469
  0.4999999999999982  0.9999999999999996  0.5466111584661764
  0.7499999999999991  0.7499999999999991  0.5466111584661764
  0.8333333333333329  0.3333333333333330  0.5839000852391175
  0.0833333333333339  0.0833333333333326  0.5839000852391175
  0.7499999999999991  0.9999999999999996  0.6025445486255883
  0.0000000000000000  0.7499999999999996  0.6025445486255881
  0.2499999999999992  0.9999999999999996  0.6025445486255883
  0.4999999999999991  0.7499999999999996  0.6025445486255883
  0.3333333333333321  0.3333333333333330  0.5839000852391175
  0.5833333333333330  0.0833333333333326  0.5839000852391175
  0.6666666666666660  0.6666666666666664  0.6211890120120589
  0.9166666666666662  0.4166666666666661  0.6211890120120589
  0.5833333333333329  0.3333333333333330  0.6398334753985296
  0.8333333333333339  0.0833333333333330  0.6398334753985295
  0.0833333333333321  0.3333333333333330  0.6398334753985295
  0.3333333333333330  0.0833333333333330  0.6398334753985295
  0.1666666666666642  0.6666666666666660  0.6211890120120589
  0.4166666666666661  0.4166666666666661  0.6211890120120589
  0.4999999999999991  0.9999999999999996  0.6584779387850002
  0.7499999999999990  0.7499999999999999  0.6584779387850002
  0.4166666666666659  0.6666666666666664  0.6771224021714709
  0.6666666666666679  0.4166666666666661  0.6771224021714707
  0.9166666666666660  0.6666666666666660  0.6771224021714708
  0.1666666666666661  0.4166666666666670  0.6771224021714708
  0.9999999999999982  0.9999999999999996  0.6584779387850002
  0.2499999999999999  0.7499999999999999  0.6584779387850002
