Sn+Ge                                   
   1.00000000000000     
    12.9784002300000001    0.0000000000000000    0.0000000000000000
   -12.9784002300000001   14.5102930069999996    0.0000000000000000
     0.0000000000000000    0.0000000000000000    9.1904115680000000
   Sn   Ge
    24    24
Direct
  0.9795643089999970  0.0306535329999988  0.0000000089999972
  0.7795642609999973  0.3306535780000033  0.1578851490000019
  0.5795641540000034  0.6306536199999968  0.3157702979999968
  0.4795642500000028  0.0306535329999988  0.0000000089999972
  0.2795642020000031  0.3306535780000033  0.1578851490000019
  0.0795641320000016  0.6306536199999968  0.3157702979999968
  0.2545643150000032  0.6806535119999992  0.0789424179999969
  0.0545641590000017  0.9806534650000032  0.2368275819999965
  0.8545641300000000  0.2806535960000005  0.3947126870000019
  0.7545644039999999  0.6806535119999992  0.0789424179999969
  0.5545642379999975  0.9806534650000032  0.2368275819999965
  0.3545641600000025  0.2806535960000005  0.3947126870000019
  0.2295642790000016  0.5306534770000013  0.0000000000000000
  0.0295641909999986  0.8306534889999995  0.1578851490000019
  0.8295640349999971  0.1306536199999968  0.3157702979999968
  0.7295641899999978  0.5306534770000013  0.0000000000000000
  0.5295641419999981  0.8306534889999995  0.1578851490000019
  0.3295640349999971  0.1306536199999968  0.3157702979999968
  0.0045643300000009  0.1806535119999992  0.0789424259999976
  0.8045641779999997  0.4806535840000024  0.2368275819999965
  0.6045642500000028  0.7806536559999984  0.3947126870000019
  0.5045642850000007  0.1806535119999992  0.0789424259999976
  0.3045641779999997  0.4806535840000024  0.2368275819999965
  0.1045641680000031  0.7806536559999984  0.3947126870000019
  0.3373483419999985  0.4087520839999996  0.5568605659999974
  0.2206816670000009  0.9920853380000025  0.6130588050000014
  0.1040148740000006  0.5754185910000018  0.6692572239999990
  0.9873480199999989  0.1587518449999976  0.7254555820000022
  0.8706813450000013  0.7420852179999997  0.7816537619999977
  0.7540144920000031  0.3254182339999971  0.8378521200000009
  0.8373483419999985  0.6587520839999996  0.5568605659999974
  0.7206815480000017  0.2420852179999997  0.6130588050000014
  0.6040148140000028  0.8254185910000018  0.6692572239999990
  0.4873480199999989  0.4087518449999976  0.7254554029999980
  0.3706812859999999  0.9920850990000005  0.7816537019999998
  0.2540146110000023  0.5754182339999971  0.8378520010000017
  0.8373483419999985  0.9087520839999996  0.5568606260000024
  0.7206815480000017  0.4920853380000025  0.6130589249999971
  0.6040147539999978  0.0754185910000018  0.6692572239999990
  0.4873480500000014  0.6587517860000034  0.7254555230000008
  0.3706813450000013  0.2420850990000005  0.7816537619999977
  0.2540144920000031  0.8254181149999980  0.8378521200000009
  0.3373482229999993  0.1587520839999996  0.5568606260000024
  0.2206815480000017  0.7420852779999976  0.6130589249999971
  0.1040148740000006  0.3254184720000026  0.6692572239999990
  0.9873480199999989  0.9087517860000034  0.7254555230000008
  0.8706812859999999  0.4920850990000005  0.7816538209999990
  0.7540144920000031  0.0754181149999980  0.8378521200000009
 
  0.00000000E+00  0.00000000E+00  0.00000000E+00
  0.00000000E+00  0.00000000E+00  0.00000000E+00
  0.00000000E+00  0.00000000E+00  0.00000000E+00
  0.00000000E+00  0.00000000E+00  0.00000000E+00
  0.00000000E+00  0.00000000E+00  0.00000000E+00
  0.00000000E+00  0.00000000E+00  0.00000000E+00
  0.00000000E+00  0.00000000E+00  0.00000000E+00
  0.00000000E+00  0.00000000E+00  0.00000000E+00
  0.00000000E+00  0.00000000E+00  0.00000000E+00
  0.00000000E+00  0.00000000E+00  0.00000000E+00
  0.00000000E+00  0.00000000E+00  0.00000000E+00
  0.00000000E+00  0.00000000E+00  0.00000000E+00
  0.00000000E+00  0.00000000E+00  0.00000000E+00
  0.00000000E+00  0.00000000E+00  0.00000000E+00
  0.00000000E+00  0.00000000E+00  0.00000000E+00
  0.00000000E+00  0.00000000E+00  0.00000000E+00
  0.00000000E+00  0.00000000E+00  0.00000000E+00
  0.00000000E+00  0.00000000E+00  0.00000000E+00
  0.00000000E+00  0.00000000E+00  0.00000000E+00
  0.00000000E+00  0.00000000E+00  0.00000000E+00
  0.00000000E+00  0.00000000E+00  0.00000000E+00
  0.00000000E+00  0.00000000E+00  0.00000000E+00
  0.00000000E+00  0.00000000E+00  0.00000000E+00
  0.00000000E+00  0.00000000E+00  0.00000000E+00
  0.00000000E+00  0.00000000E+00  0.00000000E+00
  0.00000000E+00  0.00000000E+00  0.00000000E+00
  0.00000000E+00  0.00000000E+00  0.00000000E+00
  0.00000000E+00  0.00000000E+00  0.00000000E+00
  0.00000000E+00  0.00000000E+00  0.00000000E+00
  0.00000000E+00  0.00000000E+00  0.00000000E+00
  0.00000000E+00  0.00000000E+00  0.00000000E+00
  0.00000000E+00  0.00000000E+00  0.00000000E+00
  0.00000000E+00  0.00000000E+00  0.00000000E+00
  0.00000000E+00  0.00000000E+00  0.00000000E+00
  0.00000000E+00  0.00000000E+00  0.00000000E+00
  0.00000000E+00  0.00000000E+00  0.00000000E+00
  0.00000000E+00  0.00000000E+00  0.00000000E+00
  0.00000000E+00  0.00000000E+00  0.00000000E+00
  0.00000000E+00  0.00000000E+00  0.00000000E+00
  0.00000000E+00  0.00000000E+00  0.00000000E+00
  0.00000000E+00  0.00000000E+00  0.00000000E+00
  0.00000000E+00  0.00000000E+00  0.00000000E+00
  0.00000000E+00  0.00000000E+00  0.00000000E+00
  0.00000000E+00  0.00000000E+00  0.00000000E+00
  0.00000000E+00  0.00000000E+00  0.00000000E+00
  0.00000000E+00  0.00000000E+00  0.00000000E+00
  0.00000000E+00  0.00000000E+00  0.00000000E+00
  0.00000000E+00  0.00000000E+00  0.00000000E+00
