Si+C
    1.000000000
   13.303179741    0.000000000    0.000000000
    6.651589394   11.520891190    0.000000000
    0.000000000    0.000000000   21.679416656
Si  C  
72     308
Direct
    0.000000000    0.318506181    0.289268821
    0.000000000    0.985172927    0.000000014
    0.000000000    0.651839554    0.144634426
    0.333333343    0.651839614    0.289268792
    0.333333343    0.318506300    0.000000009
    0.333333343    0.985172868    0.144634411
    0.666666687    0.985172927    0.289268792
    0.666666687    0.651839614    0.000000006
    0.666666687    0.318506241    0.144634411
    0.333333343    0.318506062    0.325427473
    0.333333343    0.985172868    0.036158625
    0.333333343    0.651839495    0.180793017
    1.000000000    0.985172808    0.325427473
    1.000000000    0.651839614    0.036158621
    1.000000000    0.318506271    0.180793017
    0.666666746    0.651839375    0.325427473
    0.666666746    0.318506211    0.036158632
    0.666666746    0.985172868    0.180793017
    0.500000000    0.318506241    0.289268792
    0.500000000    0.985172927    0.000000010
    0.500000000    0.651839554    0.144634411
    0.166666672    0.985172927    0.289268792
    0.166666672    0.651839674    0.000000001
    0.166666672    0.318506241    0.144634411
    0.833333373    0.651839614    0.289268792
    0.833333373    0.318506300    0.000000001
    0.833333373    0.985172927    0.144634411
    0.166666657    0.651839554    0.325427383
    0.166666657    0.318506300    0.036158580
    0.166666657    0.985172868    0.180792972
    0.833333433    0.318506181    0.325427413
    0.833333433    0.985172927    0.036158595
    0.833333433    0.651839495    0.180792987
    0.500000060    0.985172868    0.325427413
    0.500000060    0.651839614    0.036158599
    0.500000060    0.318506211    0.180793017
    0.166666672    0.485172927    0.289268792
    0.166666672    0.151839614    0.000000010
    0.166666672    0.818506241    0.144634411
    0.500000000    0.818506241    0.289268821
    0.500000000    0.485172987    0.000000016
    0.500000000    0.151839584    0.144634426
    0.833333373    0.151839629    0.289268792
    0.833333373    0.818506360    0.000000000
    0.833333373    0.485173017    0.144634381
    0.500000000    0.485172868    0.325427413
    0.500000000    0.151839614    0.036158595
    0.500000000    0.818506241    0.180792987
    0.166666672    0.151839569    0.325427383
    0.166666672    0.818506360    0.036158573
    0.166666672    0.485172927    0.180792972
    0.833333373    0.818506181    0.325427383
    0.833333373    0.485172927    0.036158573
    0.833333373    0.151839525    0.180792972
    0.000000000    0.818506241    0.289268792
    0.000000000    0.485172957    0.000000009
    0.000000000    0.151839554    0.144634411
    0.666666687    0.485172868    0.289268792
    0.666666687    0.151839599    0.000000009
    0.666666687    0.818506181    0.144634411
    0.333333313    0.151839495    0.289268792
    0.333333313    0.818506241    0.000000002
    0.333333313    0.485172868    0.144634381
    0.000000000    0.485172808    0.325427473
    0.000000000    0.151839659    0.036158618
    0.000000000    0.818506300    0.180793017
    0.333333343    0.818506122    0.325427473
    0.333333343    0.485172957    0.036158621
    0.333333343    0.151839599    0.180793017
    0.666666687    0.151839525    0.325427443
    0.666666687    0.818506300    0.036158618
    0.666666687    0.485172957    0.180792987
    0.598181665    0.537575960    0.876437724
    0.931515276    0.870909333    0.496484071
    0.598182023    0.537576020    0.591472447
    0.264848411    0.204242542    0.686460912
    0.931515157    0.870909214    0.781449258
    0.883896053    0.680433035    0.876437724
    0.217229635    0.013766408    0.496484071
    0.883896291    0.680433154    0.591472447
    0.550562739    0.347099662    0.686460912
    0.217229381    0.013766289    0.781449258
    0.741038859    0.109004378    0.876437783
    0.074372530    0.442337871    0.496484041
    0.741039097    0.109004617    0.591472447
    0.407705545    0.775671065    0.686460912
    0.074372292    0.442337692    0.781449258
    0.169610262    0.823290110    0.876437783
    0.502943873    0.156623572    0.496484071
    0.169610620    0.823290229    0.591472447
    0.836277068    0.489956796    0.686460912
    0.502943635    0.156623438    0.781449258
    0.026753068    0.251861513    0.876437724
    0.360086799    0.585195065    0.496484011
    0.026753426    0.251861691    0.591472447
    0.693419993    0.918528318    0.686460853
    0.360086441    0.585194886    0.781449258
    0.455324531    0.966147184    0.876437724
    0.788658202    0.299480736    0.496484011
    0.455324829    0.966147363    0.591472447
    0.121991515    0.632814050    0.686460793
    0.788657904    0.299480617    0.781449258
    0.312467396    0.394718707    0.876437724
    0.645801008    0.728052080    0.496484071
    0.312467694    0.394718826    0.591472447
    0.979134142    0.061385393    0.686460912
    0.645800769    0.728051960    0.781449258
    0.693419874    0.918528318    0.900184751
    0.360086799    0.585195005    0.425242722
    0.026753426    0.251861691    0.520231128
    0.693419933    0.918528259    0.615219593
    0.360086501    0.585194767    0.710207999
    0.026753187    0.251861453    0.805196404
    0.121991396    0.632814050    0.900184751
    0.788658202    0.299480766    0.425242722
    0.455324888    0.966147423    0.520231128
    0.121991396    0.632814050    0.615219533
    0.788657844    0.299480498    0.710207999
    0.455324531    0.966147184    0.805196404
    0.979134142    0.061385393    0.900184751
    0.645801067    0.728052139    0.425242722
    0.312467694    0.394718826    0.520231128
    0.979134262    0.061385393    0.615219533
    0.645800710    0.728051901    0.710207999
    0.312467337    0.394718587    0.805196404
    0.407705486    0.775671124    0.900184751
    0.074372530    0.442337871    0.425242722
    0.741039097    0.109004498    0.520231128
    0.407705665    0.775671124    0.615219533
    0.074372172    0.442337632    0.710207999
    0.741038740    0.109004378    0.805196404
    0.836276948    0.489956975    0.900184751
    0.502943933    0.156623602    0.425242722
    0.169610620    0.823290229    0.520231128
    0.836277068    0.489956856    0.615219593
    0.502943575    0.156623378    0.710207999
    0.169610262    0.823289990    0.805196404
    0.264848471    0.204242542    0.900184751
    0.931515396    0.870909274    0.425242752
    0.598182023    0.537575960    0.520231128
    0.264848590    0.204242527    0.615219593
    0.931515038    0.870909035    0.710207999
    0.598181725    0.537575722    0.805196404
    0.550562561    0.347099721    0.900184751
    0.217229709    0.013766408    0.425242692
    0.883896291    0.680433095    0.520231068
    0.550562978    0.347099811    0.615219533
    0.217229381    0.013766289    0.710207939
    0.883895934    0.680432916    0.805196404
    0.812467396    0.894718766    0.876437724
    0.145801067    0.228052139    0.496484041
    0.812467635    0.894718826    0.591472447
    0.479134142    0.561385334    0.686460912
    0.145800829    0.228052035    0.781449258
    0.241038874    0.609004378    0.876437724
    0.574372470    0.942337871    0.496484011
    0.241039127    0.609004557    0.591472447
    0.907705605    0.275671065    0.686460912
    0.574372232    0.942337751    0.781449258
    0.669610322    0.323290050    0.876437724
    0.002943993    0.656623542    0.496484011
    0.669610500    0.323290229    0.591472447
    0.336277127    0.989956856    0.686460853
    0.002943635    0.656623363    0.781449258
    0.098181725    0.037575841    0.876437724
    0.431515336    0.370909333    0.496484041
    0.098181963    0.037575960    0.591472447
    0.764848530    0.704242587    0.686460853
    0.431514978    0.370909095    0.781449258
    0.526753068    0.751861453    0.876437724
    0.860086799    0.085195065    0.496484011
    0.526753426    0.751861691    0.591472447
    0.193420053    0.418528378    0.686460793
    0.860086501    0.085194945    0.781449199
    0.955324590    0.466147244    0.876437724
    0.288658202    0.799480677    0.496484041
    0.955324829    0.466147423    0.591472447
    0.621991277    0.132813931    0.686460912
    0.288657963    0.799480557    0.781449258
    0.383896053    0.180432990    0.876437783
    0.717229605    0.513766408    0.496484071
    0.383896321    0.180433124    0.591472447
    0.050562739    0.847099662    0.686460912
    0.717229366    0.513766289    0.781449258
    0.764848292    0.704242468    0.900184751
    0.431515396    0.370909303    0.425242692
    0.098181963    0.037575960    0.520231068
    0.764848650    0.704242647    0.615219533
    0.431515038    0.370909095    0.710207939
    0.098181725    0.037575841    0.805196404
    0.621991217    0.132813931    0.900184751
    0.288658261    0.799480677    0.425242692
    0.955324829    0.466147363    0.520231068
    0.621991515    0.132814050    0.615219533
    0.288657904    0.799480557    0.710207939
    0.955324590    0.466147184    0.805196404
    0.050562739    0.847099543    0.900184751
    0.717229664    0.513766468    0.425242692
    0.383896261    0.180433080    0.520231068
    0.050562978    0.847099781    0.615219533
    0.717229307    0.513766229    0.710207939
    0.383895934    0.180432931    0.805196404
    0.479134023    0.561385274    0.900184751
    0.145801067    0.228052154    0.425242692
    0.812467635    0.894718766    0.520231068
    0.479134381    0.561385512    0.615219533
    0.145800829    0.228051975    0.710207939
    0.812467396    0.894718647    0.805196404
    0.907705486    0.275671065    0.900184751
    0.574372530    0.942337871    0.425242692
    0.241039112    0.609004498    0.520231068
    0.907705784    0.275671214    0.615219533
    0.574372172    0.942337692    0.710207939
    0.241038814    0.609004378    0.805196345
    0.336276948    0.989956737    0.900184751
    0.002943993    0.656623542    0.425242722
    0.669610620    0.323290199    0.520231128
    0.336277276    0.989956915    0.615219533
    0.002943754    0.656623363    0.710207939
    0.669610322    0.323290050    0.805196404
    0.193419814    0.418528140    0.900184751
    0.860086799    0.085194945    0.425242722
    0.526753366    0.751861572    0.520231128
    0.193420053    0.418528318    0.615219533
    0.860086501    0.085194826    0.710207999
    0.526753068    0.751861393    0.805196404
    0.741038859    0.609004378    0.876437783
    0.074372530    0.942337871    0.496484071
    0.741039097    0.609004557    0.591472447
    0.407705545    0.275671065    0.686460912
    0.074372292    0.942337751    0.781449258
    0.598181784    0.037575841    0.876437783
    0.931515336    0.370909274    0.496484071
    0.598181963    0.037575960    0.591472447
    0.264848411    0.704242468    0.686460912
    0.931515038    0.370909154    0.781449258
    0.026753187    0.751861572    0.876437783
    0.360086769    0.085195065    0.496484041
    0.026753426    0.751861691    0.591472447
    0.693419874    0.418528199    0.686460912
    0.360086501    0.085194826    0.781449258
    0.883895934    0.180432990    0.876437783
    0.217229635    0.513766527    0.496484011
    0.883896172    0.180433154    0.591472447
    0.550562859    0.847099781    0.686460793
    0.217229322    0.513766408    0.781449258
    0.312467337    0.894718647    0.876437724
    0.645801127    0.228052214    0.496484011
    0.312467694    0.894718826    0.591472447
    0.979134321    0.561385512    0.686460853
    0.645800829    0.228052095    0.781449258
    0.169610262    0.323290169    0.876437724
    0.502943873    0.656623542    0.496484071
    0.169610620    0.323290288    0.591472447
    0.836277008    0.989956796    0.686460912
    0.502943635    0.656623483    0.781449258
    0.455324590    0.466147244    0.876437783
    0.788658142    0.799480677    0.496484071
    0.455324829    0.466147423    0.591472447
    0.121991277    0.132813931    0.686460912
    0.788657963    0.799480557    0.781449258
    0.979133904    0.561385274    0.900184751
    0.645801067    0.228052154    0.425242722
    0.312467635    0.894718766    0.520231128
    0.979134321    0.561385512    0.615219533
    0.645800710    0.228051975    0.710207939
    0.312467337    0.894718528    0.805196404
    0.836276948    0.989956737    0.900184751
    0.502943993    0.656623542    0.425242692
    0.169610620    0.323290199    0.520231068
    0.836277246    0.989956915    0.615219533
    0.502943635    0.656623363    0.710207939
    0.169610381    0.323289990    0.805196404
    0.264848351    0.704242468    0.900184751
    0.931515396    0.370909303    0.425242722
    0.598182023    0.037575960    0.520231128
    0.264848650    0.704242647    0.615219533
    0.931515038    0.370909095    0.710207939
    0.598181665    0.037575722    0.805196404
    0.693419755    0.418528199    0.900184751
    0.360086828    0.085195065    0.425242722
    0.026753426    0.751861691    0.520231128
    0.693420053    0.418528378    0.615219533
    0.360086441    0.085194826    0.710207999
    0.026753187    0.751861572    0.805196404
    0.121991277    0.132813931    0.900184751
    0.788658202    0.799480736    0.425242662
    0.455324829    0.466147363    0.520231068
    0.121991515    0.132814050    0.615219533
    0.788657844    0.799480557    0.710207880
    0.455324471    0.466147244    0.805196345
    0.550562680    0.847099543    0.900184751
    0.217229769    0.513766468    0.425242692
    0.883896351    0.180433065    0.520231068
    0.550563037    0.847099781    0.615219533
    0.217229441    0.513766229    0.710207939
    0.883896053    0.180432931    0.805196404
    0.407705486    0.275671005    0.900184751
    0.074372530    0.942337871    0.425242722
    0.741039097    0.609004498    0.520231128
    0.407705814    0.275671214    0.615219533
    0.074372172    0.942337632    0.710207999
    0.741038859    0.609004319    0.805196404
    0.669610441    0.823290229    0.876437724
    0.002943873    0.156623587    0.496484041
    0.669610560    0.823290229    0.591472447
    0.336276948    0.489956796    0.686460912
    0.002943754    0.156623498    0.781449258
    0.098181725    0.537575841    0.876437724
    0.431515306    0.870909333    0.496484041
    0.098181963    0.537575960    0.591472447
    0.764848411    0.204242542    0.686460912
    0.431515038    0.870909214    0.781449258
    0.955324471    0.966147304    0.876437724
    0.288658202    0.299480796    0.496484011
    0.955324769    0.966147423    0.591472447
    0.621991396    0.632814050    0.686460853
    0.288657844    0.299480617    0.781449258
    0.383895874    0.680433035    0.876437724
    0.717229545    0.013766527    0.496484011
    0.383896172    0.680433035    0.591472447
    0.050562859    0.347099781    0.686460853
    0.717229307    0.013766289    0.781449258
    0.812467396    0.394718587    0.876437724
    0.145801067    0.728052020    0.496484041
    0.812467694    0.394718826    0.591472447
    0.479134142    0.061385274    0.686460912
    0.145800829    0.728052020    0.781449258
    0.241038814    0.109004498    0.876437724
    0.574372470    0.442337871    0.496484041
    0.241039157    0.109004617    0.591472447
    0.907705605    0.775671005    0.686460912
    0.574372232    0.442337751    0.781449258
    0.526753187    0.251861513    0.876437724
    0.860086739    0.585194945    0.496484071
    0.526753426    0.251861662    0.591472447
    0.193419933    0.918528199    0.686460912
    0.860086501    0.585194826    0.781449258
    0.621991456    0.632814050    0.900184751
    0.288658261    0.299480796    0.425242722
    0.955324888    0.966147482    0.520231128
    0.621991456    0.632814050    0.615219593
    0.288657904    0.299480617    0.710207939
    0.955324471    0.966147184    0.805196404
    0.907705605    0.775671124    0.900184751
    0.574372590    0.442337930    0.425242722
    0.241039172    0.109004617    0.520231128
    0.907705724    0.775671184    0.615219593
    0.574372172    0.442337692    0.710207999
    0.241038874    0.109004378    0.805196404
    0.764848530    0.204242662    0.900184751
    0.431515455    0.870909333    0.425242692
    0.098182082    0.537576020    0.520231068
    0.764848590    0.204242602    0.615219533
    0.431515038    0.870909095    0.710207999
    0.098181725    0.537575722    0.805196404
    0.193419933    0.918528318    0.900184751
    0.860086799    0.585195065    0.425242722
    0.526753426    0.251861751    0.520231068
    0.193419933    0.918528318    0.615219533
    0.860086441    0.585194826    0.710207999
    0.526753068    0.251861453    0.805196404
    0.050562739    0.347099721    0.900184751
    0.717229605    0.013766408    0.425242692
    0.383896232    0.680433095    0.520231068
    0.050562859    0.347099692    0.615219533
    0.717229247    0.013766289    0.710207999
    0.383895934    0.680432916    0.805196404
    0.479134023    0.061385393    0.900184751
    0.145801067    0.728052080    0.425242722
    0.812467694    0.394718766    0.520231128
    0.479134202    0.061385393    0.615219593
    0.145800710    0.728051901    0.710207999
    0.812467277    0.394718587    0.805196404
    0.336277008    0.489956975    0.900184751
    0.002943993    0.156623721    0.425242752
    0.669610620    0.823290348    0.520231128
    0.336277157    0.489956975    0.615219593
    0.002943635    0.156623438    0.710207999
    0.669610202    0.823290110    0.805196404
