Si+C
    1.000000000
   13.303179741    0.000000000    0.000000000
    6.651589394   14.873406410    0.000000000
    0.000000000    0.000000000    8.192405701
Si  C  
36     84
Direct
    0.283249497    0.641624749    0.000000046
    0.816582799    0.408291280    0.148236006
    0.349915981    0.174957767    0.296472013
    0.616582751    0.308291376    0.000000055
    0.149916053    0.074957930    0.148236006
    0.683249235    0.841624439    0.296471983
    0.949916124    0.974958062    0.000000039
    0.483249485    0.741624594    0.148236006
    0.016582668    0.508291125    0.296471983
    0.799916267    0.774958014    0.074117877
    0.333249509    0.541624546    0.222353876
    0.866582751    0.308291078    0.370589882
    0.133249685    0.441624761    0.074117899
    0.666582942    0.208291277    0.222353876
    0.199916244    0.974957764    0.370589882
    0.466582894    0.108291537    0.074117899
    0.999916136    0.874958038    0.222353876
    0.533249378    0.641624570    0.370589882
    0.783249557    0.641624749    0.000000000
    0.316582829    0.408291280    0.148235992
    0.849916041    0.174957782    0.296472013
    0.116582796    0.308291405    0.000000055
    0.649916053    0.074957952    0.148236036
    0.183249295    0.841624498    0.296472013
    0.449916124    0.974958062    0.000000055
    0.983249426    0.741624594    0.148236036
    0.516582668    0.508291125    0.296472013
    0.299916178    0.774958134    0.074117899
    0.833249450    0.541624665    0.222353905
    0.366582692    0.308291197    0.370589852
    0.633249402    0.441624731    0.074117914
    0.166582644    0.208291262    0.222353905
    0.699915946    0.974957824    0.370589823
    0.966582716    0.108291551    0.074117899
    0.499915957    0.874958038    0.222353905
    0.033249259    0.641624629    0.370589882
    0.027383685    0.145018101    0.563602805
    0.998812079    0.416446716    0.660956621
    0.970240474    0.687875330    0.758310258
    0.170240775    0.287875235    0.563602805
    0.141669214    0.559303880    0.660956621
    0.113097690    0.830732524    0.758310258
    0.313097924    0.430732399    0.563602805
    0.284526348    0.702161014    0.660956621
    0.255954832    0.973589718    0.758310318
    0.455955058    0.573589563    0.563602805
    0.427383512    0.845018208    0.660956621
    0.398811966    0.116446853    0.758310318
    0.598812222    0.716446698    0.563602805
    0.570240617    0.987875283    0.660956621
    0.541669011    0.259303927    0.758310318
    0.741669297    0.859303772    0.563602805
    0.713097811    0.130732417    0.660956621
    0.684526205    0.402161002    0.758310258
    0.884526491    0.002161026    0.563602805
    0.855955005    0.273589611    0.660956621
    0.827383280    0.545018196    0.758310318
    0.120240815    0.887875080    0.612279654
    0.091669276    0.159303665    0.709633350
    0.063097775    0.430732369    0.806987107
    0.263097912    0.030732393    0.612279654
    0.234526366    0.302160978    0.709633291
    0.205954805    0.573589683    0.806987107
    0.405955076    0.173589468    0.612279654
    0.377383500    0.445018172    0.709633291
    0.348811895    0.716446757    0.806987107
    0.548812151    0.316446543    0.612279654
    0.520240664    0.587875187    0.709633350
    0.491669029    0.859303713    0.806987107
    0.691669345    0.459303826    0.612279654
    0.663097739    0.730732441    0.709633350
    0.634526253    0.002161145    0.806987107
    0.834526420    0.602160931    0.612279654
    0.805954933    0.873589575    0.709633350
    0.777383447    0.145018220    0.806987107
    0.977383614    0.745018065    0.612279654
    0.948812127    0.016446710    0.709633350
    0.920240521    0.287875175    0.806987107
    0.098812170    0.716446638    0.563602805
    0.070240647    0.987875283    0.660956621
    0.041669067    0.259303927    0.758310258
    0.241669312    0.859303772    0.563602805
    0.213097781    0.130732417    0.660956621
    0.184526294    0.402161121    0.758310318
    0.384526521    0.002160907    0.563602805
    0.355955005    0.273589611    0.660956621
    0.327383369    0.545018196    0.758310258
    0.527383685    0.145018101    0.563602805
    0.498812050    0.416446716    0.660956621
    0.470240533    0.687875330    0.758310318
    0.670240760    0.287875175    0.563602805
    0.641669273    0.559303820    0.660956621
    0.613097668    0.830732465    0.758310318
    0.813097954    0.430732399    0.563602805
    0.784526348    0.702161014    0.660956621
    0.755954862    0.973589659    0.758310318
    0.955955148    0.573589504    0.563602805
    0.927383542    0.845018148    0.660956621
    0.898811936    0.116446733    0.758310318
    0.048812203    0.316446573    0.612279654
    0.020240664    0.587875187    0.709633291
    0.991669059    0.859303832    0.806987107
    0.191669360    0.459303617    0.612279654
    0.163097814    0.730732262    0.709633350
    0.134526283    0.002160907    0.806987107
    0.334526479    0.602160931    0.612279654
    0.305954933    0.873589516    0.709633350
    0.277383357    0.145018101    0.806987107
    0.477383643    0.745018005    0.612279654
    0.448812068    0.016446590    0.709633291
    0.420240551    0.287875175    0.806987107
    0.620240688    0.887875021    0.612279654
    0.591669202    0.159303665    0.709633291
    0.563097715    0.430732369    0.806987107
    0.763097882    0.030732274    0.612279654
    0.734526277    0.302160978    0.709633350
    0.705954790    0.573589444    0.806987107
    0.905955076    0.173589349    0.612279654
    0.877383471    0.445017934    0.709633291
    0.848811865    0.716446519    0.806987107
