Sn+Ge
    1.000000000
   14.510292053    0.000000000    0.000000000
    0.000000000   19.467601776    0.000000000
    0.000000000    0.000000000   17.404436111
Sn  Ge 
36     144
Direct
    0.982905626    0.652421296    0.000000007
    0.782905579    0.485754609    0.083371289
    0.582905412    0.319087893    0.166742548
    0.982905626    0.319088012    0.000000007
    0.782905579    0.152421325    0.083371289
    0.582905412    0.985754609    0.166742548
    0.982905626    0.985754728    0.000000007
    0.782905579    0.819088042    0.083371289
    0.582905412    0.652421296    0.166742548
    0.632905602    0.902421415    0.041685570
    0.432905525    0.735754728    0.125056848
    0.232905433    0.569088042    0.208428085
    0.632905602    0.569087982    0.041685570
    0.432905525    0.402421296    0.125056848
    0.232905433    0.235754609    0.208428085
    0.632905602    0.235754758    0.041685570
    0.432905525    0.069088064    0.125056848
    0.232905433    0.902421355    0.208428085
    0.482905596    0.819087923    0.000000000
    0.282905459    0.652421236    0.083371274
    0.082905352    0.485754579    0.166742578
    0.482905596    0.485754669    0.000000000
    0.282905459    0.319087982    0.083371274
    0.082905352    0.152421281    0.166742578
    0.482905596    0.152421355    0.000000000
    0.282905459    0.985754669    0.083371274
    0.082905352    0.819087982    0.166742578
    0.132905647    0.735754669    0.041685563
    0.932905555    0.569087982    0.125056818
    0.732905507    0.402421296    0.208428085
    0.132905647    0.402421385    0.041685563
    0.932905555    0.235754713    0.125056818
    0.732905507    0.069088012    0.208428085
    0.132905647    0.069088012    0.041685563
    0.932905555    0.902421355    0.125056818
    0.732905507    0.735754609    0.208428085
    0.826600671    0.634020567    0.316882908
    0.576600552    0.634020567    0.431815356
    0.326600432    0.634020507    0.546747804
    0.076600432    0.634020448    0.661680281
    0.826600432    0.634020329    0.776612699
    0.576600194    0.634020329    0.891545236
    0.159934044    0.800687313    0.316882879
    0.909933865    0.800687253    0.431815356
    0.659933805    0.800687194    0.546747804
    0.409933805    0.800687134    0.661680222
    0.159933686    0.800687075    0.776612639
    0.909933567    0.800687015    0.891545236
    0.493267298    0.967353940    0.316882879
    0.243267179    0.967353880    0.431815356
    0.993267059    0.967353821    0.546747804
    0.743267059    0.967353821    0.661680222
    0.493266940    0.967353702    0.776612639
    0.243266821    0.967353642    0.891545236
    0.826600671    0.134020612    0.316882908
    0.576600552    0.134020567    0.431815326
    0.326600552    0.134020448    0.546747804
    0.076600552    0.134020448    0.661680222
    0.826600432    0.134020329    0.776612639
    0.576600313    0.134020329    0.891545236
    0.159934044    0.300687253    0.316882908
    0.909933925    0.300687224    0.431815326
    0.659933805    0.300687134    0.546747744
    0.409933805    0.300687075    0.661680222
    0.159933686    0.300687045    0.776612699
    0.909933567    0.300686955    0.891545236
    0.493267298    0.467353940    0.316882908
    0.243267179    0.467353880    0.431815356
    0.993267119    0.467353821    0.546747744
    0.743267059    0.467353761    0.661680222
    0.493267059    0.467353702    0.776612699
    0.243266940    0.467353642    0.891545236
    0.993267298    0.967354000    0.316882879
    0.743267179    0.967353940    0.431815326
    0.493267059    0.967353880    0.546747804
    0.243267059    0.967353821    0.661680281
    0.993267059    0.967353761    0.776612759
    0.743266940    0.967353642    0.891545177
    0.993267298    0.467353940    0.316882908
    0.743267298    0.467353880    0.431815356
    0.493267059    0.467353821    0.546747804
    0.243267059    0.467353761    0.661680281
    0.993267059    0.467353702    0.776612639
    0.743266940    0.467353642    0.891545177
    0.326600671    0.634020627    0.316882908
    0.076600552    0.634020567    0.431815356
    0.826600432    0.634020507    0.546747804
    0.576600432    0.634020388    0.661680281
    0.326600313    0.634020388    0.776612639
    0.076600313    0.634020269    0.891545177
    0.659933805    0.800687313    0.316882908
    0.409933805    0.800687253    0.431815356
    0.159933805    0.800687134    0.546747744
    0.909933686    0.800687134    0.661680281
    0.659933567    0.800687075    0.776612699
    0.409933567    0.800686955    0.891545177
    0.326600671    0.134020612    0.316882908
    0.076600552    0.134020567    0.431815356
    0.826600432    0.134020448    0.546747744
    0.576600432    0.134020448    0.661680281
    0.326600313    0.134020329    0.776612699
    0.076600313    0.134020329    0.891545236
    0.659934044    0.300687283    0.316882908
    0.409933925    0.300687194    0.431815356
    0.159933805    0.300687194    0.546747744
    0.909933805    0.300687134    0.661680281
    0.659933805    0.300687045    0.776612639
    0.409933686    0.300687015    0.891545236
    0.993267357    0.842354000    0.316882879
    0.743267179    0.842353940    0.431815356
    0.493267059    0.842353880    0.546747804
    0.243267059    0.842353821    0.661680281
    0.993267059    0.842353761    0.776612639
    0.743266940    0.842353702    0.891545177
    0.326600671    0.009020686    0.316882879
    0.076600552    0.009020567    0.431815356
    0.826600432    0.009020567    0.546747804
    0.576600432    0.009020448    0.661680281
    0.326600432    0.009020329    0.776612639
    0.076600313    0.009020329    0.891545177
    0.993267298    0.342353940    0.316882908
    0.743267298    0.342353880    0.431815326
    0.493267059    0.342353821    0.546747744
    0.243267059    0.342353761    0.661680281
    0.993267059    0.342353702    0.776612699
    0.743266940    0.342353642    0.891545177
    0.326600671    0.509020627    0.316882908
    0.076600552    0.509020567    0.431815356
    0.826600552    0.509020507    0.546747804
    0.576600432    0.509020448    0.661680281
    0.326600432    0.509020388    0.776612699
    0.076600313    0.509020329    0.891545177
    0.659934044    0.675687313    0.316882908
    0.409934044    0.675687253    0.431815356
    0.159933805    0.675687194    0.546747804
    0.909933805    0.675687134    0.661680281
    0.659933805    0.675687075    0.776612699
    0.409933686    0.675687015    0.891545177
    0.659934044    0.175687268    0.316882879
    0.409933925    0.175687194    0.431815356
    0.159933805    0.175687134    0.546747804
    0.909933805    0.175687104    0.661680281
    0.659933805    0.175687030    0.776612699
    0.409933686    0.175686955    0.891545236
    0.826600790    0.009020686    0.316882879
    0.576600552    0.009020567    0.431815326
    0.326600552    0.009020448    0.546747804
    0.076600432    0.009020448    0.661680281
    0.826600432    0.009020329    0.776612759
    0.576600313    0.009020329    0.891545177
    0.826600671    0.509020567    0.316882879
    0.576600552    0.509020507    0.431815356
    0.326600552    0.509020448    0.546747804
    0.076600432    0.509020388    0.661680222
    0.826600432    0.509020329    0.776612639
    0.576600313    0.509020269    0.891545177
    0.159934044    0.675687313    0.316882879
    0.909933925    0.675687253    0.431815356
    0.659933805    0.675687194    0.546747804
    0.409933805    0.675687134    0.661680281
    0.159933805    0.675687075    0.776612699
    0.909933627    0.675687015    0.891545236
    0.493267298    0.842353940    0.316882879
    0.243267179    0.842353880    0.431815356
    0.993267119    0.842353821    0.546747804
    0.743267059    0.842353761    0.661680222
    0.493267059    0.842353702    0.776612639
    0.243266940    0.842353642    0.891545177
    0.159933925    0.175687253    0.316882908
    0.909933925    0.175687209    0.431815326
    0.659933805    0.175687149    0.546747744
    0.409933805    0.175687090    0.661680281
    0.159933805    0.175687045    0.776612699
    0.909933627    0.175686985    0.891545177
    0.493267417    0.342353970    0.316882908
    0.243267298    0.342353880    0.431815326
    0.993267179    0.342353821    0.546747744
    0.743267059    0.342353761    0.661680281
    0.493267059    0.342353702    0.776612699
    0.243266940    0.342353642    0.891545177
