Ge+Ge                                   
   1.00000000000000     
    17.8915348049999992    0.0000000000000000    0.0000000000000000
   -16.1023807529999985    7.7987394329999997    0.0000000000000000
     0.0000003160000000   -0.0000000730000000   15.4283962250000002
   Ge
    96
Direct
  0.8122874499999995  0.1877125500000005  0.4206494089999993
  0.0228133239999977  0.9771866800000026  0.0000000089999972
  0.1807081549999978  0.8192918299999974  0.0841298850000030
  0.3386029899999983  0.6613969799999992  0.1682597699999988
  0.2031800150000009  0.9485052819999993  0.5841298100000003
  0.6543926000000013  0.3456073999999987  0.3365195390000011
  0.0452852989999997  0.6064001319999974  0.4999999110000033
  0.3122870620000029  0.6877129080000017  0.0210324970000002
  0.4701818819999986  0.5298180580000036  0.1051623600000013
  0.6280767319999967  0.3719232680000033  0.1892922669999990
  0.2031800600000011  0.4485052819999993  0.5841298100000003
  0.6505485180000008  0.5011366609999968  0.6892921920000035
  0.1505488159999970  0.5011366609999968  0.6892923119999992
  0.5228132610000031  0.4771866500000002  0.0000000000000000
  0.6807081099999976  0.3192918299999974  0.0841298770000023
  0.8386029600000029  0.1613970100000017  0.1682597400000034
  0.9964978100000010  0.0035021540000031  0.2523896100000016
  0.1543926000000013  0.8456073999999987  0.3365195390000011
  0.9926539659999989  0.6590315099999984  0.6051625010000024
  0.8122870919999983  0.1877129080000017  0.0210326480000020
  0.9701818229999972  0.0298181269999986  0.1051624790000005
  0.1280766730000025  0.8719232680000033  0.1892924160000007
  0.2859715219999970  0.7140283580000002  0.2734222710000012
  0.8347592349999999  0.8169263599999965  0.5210326910000020
  0.7031799550000031  0.4485053120000018  0.5841298100000003
  0.5228132610000031  0.9771866800000026  0.0000000100000008
  0.6807081099999976  0.8192918900000024  0.0841298770000023
  0.8386029600000029  0.6613970399999971  0.1682597400000034
  0.8347589369999966  0.3169264200000015  0.5210326910000020
  0.5452851650000028  0.6064001319999974  0.4999999110000033
  0.6017614599999987  0.8982387189999983  0.4416819810000021
  0.8122872710000024  0.6877128479999968  0.0210326219999999
  0.9701821210000006  0.5298180580000036  0.1051625010000024
  0.1280769110000008  0.3719232380000008  0.1892923409999980
  0.2859717609999990  0.2140283880000027  0.2734222710000012
  0.4438667300000034  0.0561335200000030  0.3575521109999968
  0.8122875090000008  0.6877124909999992  0.4206494089999993
  0.0228133869999994  0.4771866500000002  0.0000000129999975
  0.1807081999999980  0.3192918299999974  0.0841298699999982
  0.3386030500000032  0.1613969799999992  0.1682597699999988
  0.4964978400000035  0.0035021899999990  0.2523896100000016
  0.6543926599999992  0.8456073400000008  0.3365195390000011
  0.9926539659999989  0.6590315099999984  0.6051625010000024
  0.3122870620000029  0.1877128779999993  0.0210326349999974
  0.4701818819999986  0.0298180859999988  0.1051625010000024
  0.6280767319999967  0.8719232680000033  0.1892924010000030
  0.7859715219999970  0.7140284179999981  0.2734222710000012
  0.3610748050000012  0.7906104329999977  0.6682597400000034
  0.8347591160000007  0.3169260319999978  0.9206494089999993
  0.1017612220000004  0.3982387779999996  0.4416820109999975
  0.4964978100000010  0.5035021899999990  0.2523896399999970
  0.9438663720000022  0.5561335089999986  0.3575521409999993
  0.5189695950000015  0.6327155829999995  0.7523895499999966
  0.6768643859999983  0.4748207629999968  0.8365194799999998
  0.1242328960000023  0.0274522300000015  0.9416818620000029
  0.3347589669999991  0.8169263599999965  0.5210324529999966
  0.4926537280000005  0.6590316300000012  0.6051622629999969
  0.9438664320000001  0.0561335499999984  0.3575520220000001
  0.8084433670000024  0.3432418699999999  0.7734221219999995
  0.9663381579999992  0.1853469759999982  0.8575520520000026
  0.3347589970000016  0.8169260029999990  0.9206494089999993
  0.1543926000000013  0.3456073999999987  0.3365195390000011
  0.3122874499999995  0.1877124909999992  0.4206494390000017
  0.8610747459999999  0.2906104329999977  0.6682597400000034
  0.0189695360000002  0.1327156130000020  0.7523895499999966
  0.1768642660000026  0.9748207330000014  0.8365194799999998
  0.6242328880000017  0.5274522300000015  0.9416819810000021
  0.9964977500000032  0.5035022499999968  0.2523896100000016
  0.9926536680000027  0.1590315549999985  0.6051625010000024
  0.1505485770000021  0.0011367800000031  0.6892923119999992
  0.3084433080000011  0.8432419299999978  0.7734223599999979
  0.4663381579999992  0.6853469610000005  0.8575520520000026
  0.8347591759999986  0.8169258830000032  0.9206492900000001
  0.1543926000000013  0.3456073999999987  0.3365195390000011
  0.7859715820000019  0.2140284030000004  0.2734221520000020
  0.3610748649999991  0.2906104329999977  0.6682597400000034
  0.5189696549999994  0.1327156130000020  0.7523895499999966
  0.6768644449999996  0.9748207330000014  0.8365194799999998
  0.1242328960000023  0.5274521110000023  0.9416819810000021
  0.3347589669999991  0.3169263599999965  0.5210326910000020
  0.4926537569999994  0.1590315549999985  0.6051625010000024
  0.6505485180000008  0.0011366609999968  0.6892924309999984
  0.8084433080000011  0.8432419299999978  0.7734221219999995
  0.9663380980000014  0.6853469610000005  0.8575520520000026
  0.3347591160000007  0.3169259729999965  0.9206492900000001
  0.5452851650000028  0.1064001319999974  0.4999999110000033
  0.7031799550000031  0.9485052819999993  0.5841298100000003
  0.8610747459999999  0.7906104329999977  0.6682597400000034
  0.0189695360000002  0.6327157019999987  0.7523895499999966
  0.1768642660000026  0.4748208219999981  0.8365194799999998
  0.6242331269999966  0.0274521110000023  0.9416819810000021
  0.4438663720000022  0.5561336279999978  0.3575521409999993
  0.6017612220000004  0.3982388379999975  0.4416820109999975
  0.3122873310000003  0.6877126099999984  0.4206493789999968
  0.3084435459999995  0.3432418410000011  0.7734221219999995
  0.4663383959999976  0.1853469460000028  0.8575520520000026
 
  0.00000000E+00  0.00000000E+00  0.00000000E+00
  0.00000000E+00  0.00000000E+00  0.00000000E+00
  0.00000000E+00  0.00000000E+00  0.00000000E+00
  0.00000000E+00  0.00000000E+00  0.00000000E+00
  0.00000000E+00  0.00000000E+00  0.00000000E+00
  0.00000000E+00  0.00000000E+00  0.00000000E+00
  0.00000000E+00  0.00000000E+00  0.00000000E+00
  0.00000000E+00  0.00000000E+00  0.00000000E+00
  0.00000000E+00  0.00000000E+00  0.00000000E+00
  0.00000000E+00  0.00000000E+00  0.00000000E+00
  0.00000000E+00  0.00000000E+00  0.00000000E+00
  0.00000000E+00  0.00000000E+00  0.00000000E+00
  0.00000000E+00  0.00000000E+00  0.00000000E+00
  0.00000000E+00  0.00000000E+00  0.00000000E+00
  0.00000000E+00  0.00000000E+00  0.00000000E+00
  0.00000000E+00  0.00000000E+00  0.00000000E+00
  0.00000000E+00  0.00000000E+00  0.00000000E+00
  0.00000000E+00  0.00000000E+00  0.00000000E+00
  0.00000000E+00  0.00000000E+00  0.00000000E+00
  0.00000000E+00  0.00000000E+00  0.00000000E+00
  0.00000000E+00  0.00000000E+00  0.00000000E+00
  0.00000000E+00  0.00000000E+00  0.00000000E+00
  0.00000000E+00  0.00000000E+00  0.00000000E+00
  0.00000000E+00  0.00000000E+00  0.00000000E+00
  0.00000000E+00  0.00000000E+00  0.00000000E+00
  0.00000000E+00  0.00000000E+00  0.00000000E+00
  0.00000000E+00  0.00000000E+00  0.00000000E+00
  0.00000000E+00  0.00000000E+00  0.00000000E+00
  0.00000000E+00  0.00000000E+00  0.00000000E+00
  0.00000000E+00  0.00000000E+00  0.00000000E+00
  0.00000000E+00  0.00000000E+00  0.00000000E+00
  0.00000000E+00  0.00000000E+00  0.00000000E+00
  0.00000000E+00  0.00000000E+00  0.00000000E+00
  0.00000000E+00  0.00000000E+00  0.00000000E+00
  0.00000000E+00  0.00000000E+00  0.00000000E+00
  0.00000000E+00  0.00000000E+00  0.00000000E+00
  0.00000000E+00  0.00000000E+00  0.00000000E+00
  0.00000000E+00  0.00000000E+00  0.00000000E+00
  0.00000000E+00  0.00000000E+00  0.00000000E+00
  0.00000000E+00  0.00000000E+00  0.00000000E+00
  0.00000000E+00  0.00000000E+00  0.00000000E+00
  0.00000000E+00  0.00000000E+00  0.00000000E+00
  0.00000000E+00  0.00000000E+00  0.00000000E+00
  0.00000000E+00  0.00000000E+00  0.00000000E+00
  0.00000000E+00  0.00000000E+00  0.00000000E+00
  0.00000000E+00  0.00000000E+00  0.00000000E+00
  0.00000000E+00  0.00000000E+00  0.00000000E+00
  0.00000000E+00  0.00000000E+00  0.00000000E+00
  0.00000000E+00  0.00000000E+00  0.00000000E+00
  0.00000000E+00  0.00000000E+00  0.00000000E+00
  0.00000000E+00  0.00000000E+00  0.00000000E+00
  0.00000000E+00  0.00000000E+00  0.00000000E+00
  0.00000000E+00  0.00000000E+00  0.00000000E+00
  0.00000000E+00  0.00000000E+00  0.00000000E+00
  0.00000000E+00  0.00000000E+00  0.00000000E+00
  0.00000000E+00  0.00000000E+00  0.00000000E+00
  0.00000000E+00  0.00000000E+00  0.00000000E+00
  0.00000000E+00  0.00000000E+00  0.00000000E+00
  0.00000000E+00  0.00000000E+00  0.00000000E+00
  0.00000000E+00  0.00000000E+00  0.00000000E+00
  0.00000000E+00  0.00000000E+00  0.00000000E+00
  0.00000000E+00  0.00000000E+00  0.00000000E+00
  0.00000000E+00  0.00000000E+00  0.00000000E+00
  0.00000000E+00  0.00000000E+00  0.00000000E+00
  0.00000000E+00  0.00000000E+00  0.00000000E+00
  0.00000000E+00  0.00000000E+00  0.00000000E+00
  0.00000000E+00  0.00000000E+00  0.00000000E+00
  0.00000000E+00  0.00000000E+00  0.00000000E+00
  0.00000000E+00  0.00000000E+00  0.00000000E+00
  0.00000000E+00  0.00000000E+00  0.00000000E+00
  0.00000000E+00  0.00000000E+00  0.00000000E+00
  0.00000000E+00  0.00000000E+00  0.00000000E+00
  0.00000000E+00  0.00000000E+00  0.00000000E+00
  0.00000000E+00  0.00000000E+00  0.00000000E+00
  0.00000000E+00  0.00000000E+00  0.00000000E+00
  0.00000000E+00  0.00000000E+00  0.00000000E+00
  0.00000000E+00  0.00000000E+00  0.00000000E+00
  0.00000000E+00  0.00000000E+00  0.00000000E+00
  0.00000000E+00  0.00000000E+00  0.00000000E+00
  0.00000000E+00  0.00000000E+00  0.00000000E+00
  0.00000000E+00  0.00000000E+00  0.00000000E+00
  0.00000000E+00  0.00000000E+00  0.00000000E+00
  0.00000000E+00  0.00000000E+00  0.00000000E+00
  0.00000000E+00  0.00000000E+00  0.00000000E+00
  0.00000000E+00  0.00000000E+00  0.00000000E+00
  0.00000000E+00  0.00000000E+00  0.00000000E+00
  0.00000000E+00  0.00000000E+00  0.00000000E+00
  0.00000000E+00  0.00000000E+00  0.00000000E+00
  0.00000000E+00  0.00000000E+00  0.00000000E+00
  0.00000000E+00  0.00000000E+00  0.00000000E+00
  0.00000000E+00  0.00000000E+00  0.00000000E+00
  0.00000000E+00  0.00000000E+00  0.00000000E+00
  0.00000000E+00  0.00000000E+00  0.00000000E+00
  0.00000000E+00  0.00000000E+00  0.00000000E+00
  0.00000000E+00  0.00000000E+00  0.00000000E+00
  0.00000000E+00  0.00000000E+00  0.00000000E+00
