fcc Si+fcc Ge                           
   1.00000000000000     
    12.2536525170000008    0.0000000000000000    0.0000000000000000
    -9.8029220129999999    7.3521915099999999    0.0000000000000000
     0.0000000000000000    0.0000000000000000   19.4583333329999988
   Si   Ge
    66    12
Direct
  0.5000000000000000  0.7500000000000000  0.0704068519999979
  0.8333333329999988  0.9166666670000012  0.2112205569999972
  0.1666666670000012  0.0833333329999988  0.3520342610000000
  0.5000000000000000  0.2500000000000000  0.4928479659999994
  0.8333333329999988  0.4166666670000012  0.6336616700000022
  0.1666666670000012  0.0833333329999988  0.0704068519999979
  0.5000000000000000  0.2500000000000000  0.2112205569999972
  0.8333333329999988  0.4166666670000012  0.3520342610000000
  0.1666666670000012  0.5833333329999988  0.4928479659999994
  0.5000000000000000  0.7500000000000000  0.6336616700000022
  0.8333333329999988  0.4166666670000012  0.0704068519999979
  0.1666666670000012  0.5833333329999988  0.2112205569999972
  0.5000000000000000  0.7500000000000000  0.3520342610000000
  0.8333333329999988  0.9166666670000012  0.4928479659999994
  0.1666666670000012  0.0833333329999988  0.6336616700000022
  0.3333333329999988  0.9166666670000012  0.0704068519999979
  0.6666666670000012  0.0833333329999988  0.2112205569999972
  0.0000000000000000  0.2500000000000000  0.3520342610000000
  0.3333333329999988  0.4166666670000012  0.4928479659999994
  0.6666666670000012  0.5833333329999988  0.6336616700000022
  0.6666666670000012  0.5833333329999988  0.0704068519999979
  0.0000000000000000  0.7500000000000000  0.2112205569999972
  0.3333333329999988  0.9166666670000012  0.3520342610000000
  0.6666666670000012  0.0833333329999988  0.4928479659999994
  0.0000000000000000  0.2500000000000000  0.6336616700000022
  0.0000000000000000  0.2500000000000000  0.0704068519999979
  0.3333333329999988  0.4166666670000012  0.2112205569999972
  0.6666666670000012  0.5833333329999988  0.3520342610000000
  0.0000000000000000  0.7500000000000000  0.4928479659999994
  0.3333333329999988  0.9166666670000012  0.6336616700000022
  0.9166666670000012  0.8333333329999988  0.0000000000000000
  0.2500000000000000  0.0000000000000000  0.1408137040000028
  0.5833333329999988  0.1666666670000012  0.2816274090000022
  0.9166666670000012  0.3333333329999988  0.4224411129999979
  0.2500000000000000  0.5000000000000000  0.5632548179999972
  0.5833333329999988  0.6666666670000012  0.7040685220000000
  0.2500000000000000  0.5000000000000000  0.0000000000000000
  0.5833333329999988  0.6666666670000012  0.1408137040000028
  0.9166666670000012  0.8333333329999988  0.2816274090000022
  0.2500000000000000  0.0000000000000000  0.4224411129999979
  0.5833333329999988  0.1666666670000012  0.5632548179999972
  0.9166666670000012  0.3333333329999988  0.7040685220000000
  0.5833333329999988  0.1666666670000012  0.0000000000000000
  0.9166666670000012  0.3333333329999988  0.1408137040000028
  0.2500000000000000  0.5000000000000000  0.2816274090000022
  0.5833333329999988  0.6666666670000012  0.4224411129999979
  0.9166666670000012  0.8333333329999988  0.5632548179999972
  0.2500000000000000  0.0000000000000000  0.7040685220000000
  0.0833333329999988  0.6666666670000012  0.0000000000000000
  0.4166666670000012  0.8333333329999988  0.1408137040000028
  0.7500000000000000  0.0000000000000000  0.2816274090000022
  0.0833333329999988  0.1666666670000012  0.4224411129999979
  0.4166666670000012  0.3333333329999988  0.5632548179999972
  0.7500000000000000  0.5000000000000000  0.7040685220000000
  0.4166666670000012  0.3333333329999988  0.0000000000000000
  0.7500000000000000  0.5000000000000000  0.1408137040000028
  0.0833333329999988  0.6666666670000012  0.2816274090000022
  0.4166666670000012  0.8333333329999988  0.4224411129999979
  0.7500000000000000  0.0000000000000000  0.5632548179999972
  0.0833333329999988  0.1666666670000012  0.7040685220000000
  0.7500000000000000  0.0000000000000000  0.0000000000000000
  0.0833333329999988  0.1666666670000012  0.1408137040000028
  0.4166666670000012  0.3333333329999988  0.2816274090000022
  0.7500000000000000  0.5000000000000000  0.4224411129999979
  0.0833333329999988  0.6666666670000012  0.5632548179999972
  0.4166666670000012  0.8333333329999988  0.7040685220000000
  0.3032786890000025  0.3278688520000017  0.7914346900000027
  0.1921675769999993  0.9389799639999978  0.8399143469999970
  0.0810564659999997  0.5500910749999974  0.8883940039999985
  0.8032786890000025  0.8278688520000017  0.7914346900000027
  0.6921675769999993  0.4389799639999978  0.8399143469999970
  0.5810564659999997  0.0500910749999974  0.8883940039999985
  0.4977231330000009  0.6334244080000033  0.8156745180000016
  0.3866120220000013  0.2445355190000029  0.8641541759999996
  0.2755009110000017  0.8556466300000025  0.9126338330000010
  0.9977231330000009  0.1334244080000033  0.8156745180000016
  0.8866120220000013  0.7445355190000029  0.8641541759999996
  0.7755009110000017  0.3556466300000025  0.9126338330000010
 
  0.00000000E+00  0.00000000E+00  0.00000000E+00
  0.00000000E+00  0.00000000E+00  0.00000000E+00
  0.00000000E+00  0.00000000E+00  0.00000000E+00
  0.00000000E+00  0.00000000E+00  0.00000000E+00
  0.00000000E+00  0.00000000E+00  0.00000000E+00
  0.00000000E+00  0.00000000E+00  0.00000000E+00
  0.00000000E+00  0.00000000E+00  0.00000000E+00
  0.00000000E+00  0.00000000E+00  0.00000000E+00
  0.00000000E+00  0.00000000E+00  0.00000000E+00
  0.00000000E+00  0.00000000E+00  0.00000000E+00
  0.00000000E+00  0.00000000E+00  0.00000000E+00
  0.00000000E+00  0.00000000E+00  0.00000000E+00
  0.00000000E+00  0.00000000E+00  0.00000000E+00
  0.00000000E+00  0.00000000E+00  0.00000000E+00
  0.00000000E+00  0.00000000E+00  0.00000000E+00
  0.00000000E+00  0.00000000E+00  0.00000000E+00
  0.00000000E+00  0.00000000E+00  0.00000000E+00
  0.00000000E+00  0.00000000E+00  0.00000000E+00
  0.00000000E+00  0.00000000E+00  0.00000000E+00
  0.00000000E+00  0.00000000E+00  0.00000000E+00
  0.00000000E+00  0.00000000E+00  0.00000000E+00
  0.00000000E+00  0.00000000E+00  0.00000000E+00
  0.00000000E+00  0.00000000E+00  0.00000000E+00
  0.00000000E+00  0.00000000E+00  0.00000000E+00
  0.00000000E+00  0.00000000E+00  0.00000000E+00
  0.00000000E+00  0.00000000E+00  0.00000000E+00
  0.00000000E+00  0.00000000E+00  0.00000000E+00
  0.00000000E+00  0.00000000E+00  0.00000000E+00
  0.00000000E+00  0.00000000E+00  0.00000000E+00
  0.00000000E+00  0.00000000E+00  0.00000000E+00
  0.00000000E+00  0.00000000E+00  0.00000000E+00
  0.00000000E+00  0.00000000E+00  0.00000000E+00
  0.00000000E+00  0.00000000E+00  0.00000000E+00
  0.00000000E+00  0.00000000E+00  0.00000000E+00
  0.00000000E+00  0.00000000E+00  0.00000000E+00
  0.00000000E+00  0.00000000E+00  0.00000000E+00
  0.00000000E+00  0.00000000E+00  0.00000000E+00
  0.00000000E+00  0.00000000E+00  0.00000000E+00
  0.00000000E+00  0.00000000E+00  0.00000000E+00
  0.00000000E+00  0.00000000E+00  0.00000000E+00
  0.00000000E+00  0.00000000E+00  0.00000000E+00
  0.00000000E+00  0.00000000E+00  0.00000000E+00
  0.00000000E+00  0.00000000E+00  0.00000000E+00
  0.00000000E+00  0.00000000E+00  0.00000000E+00
  0.00000000E+00  0.00000000E+00  0.00000000E+00
  0.00000000E+00  0.00000000E+00  0.00000000E+00
  0.00000000E+00  0.00000000E+00  0.00000000E+00
  0.00000000E+00  0.00000000E+00  0.00000000E+00
  0.00000000E+00  0.00000000E+00  0.00000000E+00
  0.00000000E+00  0.00000000E+00  0.00000000E+00
  0.00000000E+00  0.00000000E+00  0.00000000E+00
  0.00000000E+00  0.00000000E+00  0.00000000E+00
  0.00000000E+00  0.00000000E+00  0.00000000E+00
  0.00000000E+00  0.00000000E+00  0.00000000E+00
  0.00000000E+00  0.00000000E+00  0.00000000E+00
  0.00000000E+00  0.00000000E+00  0.00000000E+00
  0.00000000E+00  0.00000000E+00  0.00000000E+00
  0.00000000E+00  0.00000000E+00  0.00000000E+00
  0.00000000E+00  0.00000000E+00  0.00000000E+00
  0.00000000E+00  0.00000000E+00  0.00000000E+00
  0.00000000E+00  0.00000000E+00  0.00000000E+00
  0.00000000E+00  0.00000000E+00  0.00000000E+00
  0.00000000E+00  0.00000000E+00  0.00000000E+00
  0.00000000E+00  0.00000000E+00  0.00000000E+00
  0.00000000E+00  0.00000000E+00  0.00000000E+00
  0.00000000E+00  0.00000000E+00  0.00000000E+00
  0.00000000E+00  0.00000000E+00  0.00000000E+00
  0.00000000E+00  0.00000000E+00  0.00000000E+00
  0.00000000E+00  0.00000000E+00  0.00000000E+00
  0.00000000E+00  0.00000000E+00  0.00000000E+00
  0.00000000E+00  0.00000000E+00  0.00000000E+00
  0.00000000E+00  0.00000000E+00  0.00000000E+00
  0.00000000E+00  0.00000000E+00  0.00000000E+00
  0.00000000E+00  0.00000000E+00  0.00000000E+00
  0.00000000E+00  0.00000000E+00  0.00000000E+00
  0.00000000E+00  0.00000000E+00  0.00000000E+00
  0.00000000E+00  0.00000000E+00  0.00000000E+00
  0.00000000E+00  0.00000000E+00  0.00000000E+00
