Si
 1.0000000000000000
     5.4310000000000000    0.0000000000000000    0.0000000000000000
     0.0000000000000000   12.1440851858013588    0.0000000000000000
     0.0000000000000000    0.0000000000000000   61.2521490751523743
 Si 
  72
Direct
  0.0000000000000000  0.0000000000000000  0.3265191556864611
  0.2499999999999999  0.0499999999999996  0.3562587289973534
  0.0000000000000000  0.7000000000000000  0.3463455378937226
  0.2499999999999999  0.3499999999999999  0.3364323467900919
  0.4999999999999997  0.4999999999999998  0.3265191556864611
  0.7499999999999996  0.5499999999999999  0.3562587289973534
  0.4999999999999997  0.1999999999999999  0.3463455378937226
  0.7499999999999996  0.8499999999999996  0.3364323467900919
  0.0000000000000000  0.3999999999999999  0.3661719201009843
  0.2499999999999999  0.4499999999999997  0.3959114934118766
  0.0000000000000000  0.0999999999999999  0.3859983023082458
  0.2499999999999999  0.7499999999999999  0.3760851112046150
  0.4999999999999997  0.8999999999999998  0.3661719201009843
  0.7499999999999996  0.9499999999999998  0.3959114934118766
  0.4999999999999997  0.5999999999999999  0.3859983023082458
  0.7499999999999996  0.2499999999999996  0.3760851112046150
  0.0000000000000000  0.7999999999999998  0.4058246845155075
  0.2499999999999999  0.8499999999999996  0.4355642578263998
  0.0000000000000000  0.4999999999999998  0.4256510667227690
  0.2499999999999999  0.1499999999999999  0.4157378756191382
  0.4999999999999997  0.2999999999999998  0.4058246845155075
  0.7499999999999996  0.3499999999999996  0.4355642578263998
  0.4999999999999997  0.9999999999999997  0.4256510667227690
  0.7499999999999996  0.6499999999999997  0.4157378756191382
  0.0000000000000000  0.1999999999999997  0.4454774489300307
  0.2499999999999999  0.2499999999999996  0.4752170222409230
  0.0000000000000000  0.8999999999999997  0.4653038311372922
  0.2499999999999999  0.5499999999999996  0.4553906400336614
  0.4999999999999997  0.6999999999999997  0.4454774489300307
  0.7499999999999996  0.7499999999999996  0.4752170222409230
  0.4999999999999997  0.3999999999999997  0.4653038311372922
  0.7499999999999996  0.0499999999999998  0.4553906400336614
  0.0000000000000000  0.5999999999999996  0.4851302133445538
  0.2499999999999999  0.6499999999999990  0.5148697866554461
  0.0000000000000000  0.2999999999999998  0.5049565955518154
  0.2499999999999999  0.9499999999999997  0.4950434044481846
  0.4999999999999997  0.1000000000000001  0.4851302133445538
  0.7499999999999996  0.1499999999999995  0.5148697866554461
  0.4999999999999997  0.7999999999999995  0.5049565955518154
  0.7499999999999996  0.4499999999999992  0.4950434044481846
  0.0000000000000000  0.0000000000000000  0.5247829777590770
  0.2499999999999999  0.0499999999999989  0.5545225510699694
  0.0000000000000000  0.6999999999999997  0.5446093599663386
  0.2499999999999999  0.3499999999999996  0.5346961688627078
  0.4999999999999997  0.4999999999999996  0.5247829777590770
  0.7499999999999996  0.5499999999999998  0.5545225510699694
  0.4999999999999997  0.1999999999999997  0.5446093599663386
  0.7499999999999996  0.8499999999999996  0.5346961688627079
  0.0000000000000000  0.3999999999999995  0.5644357421736003
  0.2499999999999999  0.4499999999999988  0.5941753154844925
  0.0000000000000000  0.1000000000000001  0.5842621243808618
  0.2499999999999999  0.7500000000000000  0.5743489332772310
  0.4999999999999997  0.8999999999999994  0.5644357421736003
  0.7499999999999996  0.9499999999999997  0.5941753154844925
  0.4999999999999997  0.5999999999999992  0.5842621243808617
  0.7499999999999996  0.2499999999999991  0.5743489332772309
  0.0000000000000000  0.7999999999999998  0.6040885065881234
  0.2499999999999999  0.8499999999999992  0.6338280798990158
  0.0000000000000000  0.4999999999999991  0.6239148887953849
  0.2499999999999999  0.1500000000000004  0.6140016976917543
  0.4999999999999997  0.2999999999999994  0.6040885065881234
  0.7499999999999996  0.3500000000000001  0.6338280798990158
  0.4999999999999997  0.0000000000000000  0.6239148887953850
  0.7499999999999996  0.6499999999999995  0.6140016976917543
  0.0000000000000000  0.1999999999999993  0.6437412710026466
  0.2499999999999999  0.2499999999999991  0.6734808443135389
  0.0000000000000000  0.8999999999999994  0.6635676532099081
  0.2499999999999999  0.5500000000000003  0.6536544621062774
  0.4999999999999997  0.6999999999999993  0.6437412710026466
  0.7499999999999996  0.7499999999999996  0.6734808443135389
  0.4999999999999997  0.3999999999999995  0.6635676532099081
  0.7499999999999996  0.0499999999999989  0.6536544621062773
