Si+Si                                   
   1.00000000000000     
     7.6805944439999996    0.0000000000000000    0.0000000000000000
     3.8402969840000001   11.5208911900000004    0.0000000000000000
     0.0000000000000000    0.0000000000000000    9.0516691209999998
   Si
    48
Direct
  0.9940677290000011  0.9940677290000011  0.0000000000000000
  0.8274010419999982  0.8274010419999982  0.2999998929999990
  0.6607342960000011  0.6607342960000011  0.5999998449999993
  0.3274010419999982  0.3274010419999982  0.0000000000000000
  0.1607343700000001  0.1607343550000024  0.2999998929999990
  0.9940676690000032  0.9940676690000032  0.5999998449999993
  0.6607344150000003  0.6607344150000003  0.0000000000000000
  0.4940676690000032  0.4940676690000032  0.2999998929999990
  0.3274009820000003  0.3274009820000003  0.5999998449999993
  0.2440677140000034  0.9940677290000011  0.1499999609999989
  0.0774010049999987  0.8274009820000003  0.4499998690000027
  0.9107342960000011  0.6607342960000011  0.7499998810000008
  0.5774011020000032  0.3274010120000028  0.1499999609999989
  0.4107343849999978  0.1607343259999965  0.4499998690000027
  0.2440676539999984  0.9940676089999982  0.7499998810000008
  0.9107343550000024  0.6607343550000024  0.1499999609999989
  0.7440676690000032  0.4940676690000032  0.4499998690000027
  0.5774009229999990  0.3274009530000015  0.7499998810000008
  0.4940677290000011  0.9940677290000011  0.0000000000000000
  0.3274010419999982  0.8274010419999982  0.2999998929999990
  0.1607343109999988  0.6607342960000011  0.5999998449999993
  0.1607343550000024  0.6607344150000003  0.0000000000000000
  0.9940676690000032  0.4940677290000011  0.2999998929999990
  0.8274009229999990  0.3274010120000028  0.5999998449999993
  0.8274011020000032  0.3274010720000007  0.0000000000000000
  0.6607344150000003  0.1607343700000001  0.2999998929999990
  0.4940676690000032  0.9940676690000032  0.5999998449999993
  0.0774010049999987  0.3274010419999982  0.1499999609999989
  0.9107342960000011  0.1607343410000013  0.4499998690000027
  0.7440675499999969  0.9940676089999982  0.7499998810000008
  0.7440677290000011  0.9940677290000011  0.1499999609999989
  0.5774010419999982  0.8274010419999982  0.4499998690000027
  0.4107342960000011  0.6607342960000011  0.7499998810000008
  0.4107343849999978  0.6607344150000003  0.1499999609999989
  0.2440676690000032  0.4940676690000032  0.4499998690000027
  0.0774009300000031  0.3274009229999990  0.7499998810000008
  0.9893847700000009  0.9734618660000010  0.7499998810000008
  0.8782736060000005  0.6956840750000026  0.8499998449999993
  0.7671624420000001  0.4179062250000030  0.9499998690000027
  0.4893847410000021  0.9734618660000010  0.7499998810000008
  0.3782735469999992  0.6956840750000026  0.8499998449999993
  0.2671623829999987  0.4179062250000030  0.9499998690000027
  0.6838291290000029  0.0845729259999999  0.7999998929999990
  0.5727179650000025  0.8067951199999968  0.8999999170000024
  0.4616068010000021  0.5290172099999992  0.9999999400000021
  0.1838291440000006  0.0845729340000005  0.7999998929999990
  0.0727179940000013  0.8067951199999968  0.8999999170000024
  0.9616068010000021  0.5290172099999992  0.9999998210000030
 
  0.00000000E+00  0.00000000E+00  0.00000000E+00
  0.00000000E+00  0.00000000E+00  0.00000000E+00
  0.00000000E+00  0.00000000E+00  0.00000000E+00
  0.00000000E+00  0.00000000E+00  0.00000000E+00
  0.00000000E+00  0.00000000E+00  0.00000000E+00
  0.00000000E+00  0.00000000E+00  0.00000000E+00
  0.00000000E+00  0.00000000E+00  0.00000000E+00
  0.00000000E+00  0.00000000E+00  0.00000000E+00
  0.00000000E+00  0.00000000E+00  0.00000000E+00
  0.00000000E+00  0.00000000E+00  0.00000000E+00
  0.00000000E+00  0.00000000E+00  0.00000000E+00
  0.00000000E+00  0.00000000E+00  0.00000000E+00
  0.00000000E+00  0.00000000E+00  0.00000000E+00
  0.00000000E+00  0.00000000E+00  0.00000000E+00
  0.00000000E+00  0.00000000E+00  0.00000000E+00
  0.00000000E+00  0.00000000E+00  0.00000000E+00
  0.00000000E+00  0.00000000E+00  0.00000000E+00
  0.00000000E+00  0.00000000E+00  0.00000000E+00
  0.00000000E+00  0.00000000E+00  0.00000000E+00
  0.00000000E+00  0.00000000E+00  0.00000000E+00
  0.00000000E+00  0.00000000E+00  0.00000000E+00
  0.00000000E+00  0.00000000E+00  0.00000000E+00
  0.00000000E+00  0.00000000E+00  0.00000000E+00
  0.00000000E+00  0.00000000E+00  0.00000000E+00
  0.00000000E+00  0.00000000E+00  0.00000000E+00
  0.00000000E+00  0.00000000E+00  0.00000000E+00
  0.00000000E+00  0.00000000E+00  0.00000000E+00
  0.00000000E+00  0.00000000E+00  0.00000000E+00
  0.00000000E+00  0.00000000E+00  0.00000000E+00
  0.00000000E+00  0.00000000E+00  0.00000000E+00
  0.00000000E+00  0.00000000E+00  0.00000000E+00
  0.00000000E+00  0.00000000E+00  0.00000000E+00
  0.00000000E+00  0.00000000E+00  0.00000000E+00
  0.00000000E+00  0.00000000E+00  0.00000000E+00
  0.00000000E+00  0.00000000E+00  0.00000000E+00
  0.00000000E+00  0.00000000E+00  0.00000000E+00
  0.00000000E+00  0.00000000E+00  0.00000000E+00
  0.00000000E+00  0.00000000E+00  0.00000000E+00
  0.00000000E+00  0.00000000E+00  0.00000000E+00
  0.00000000E+00  0.00000000E+00  0.00000000E+00
  0.00000000E+00  0.00000000E+00  0.00000000E+00
  0.00000000E+00  0.00000000E+00  0.00000000E+00
  0.00000000E+00  0.00000000E+00  0.00000000E+00
  0.00000000E+00  0.00000000E+00  0.00000000E+00
  0.00000000E+00  0.00000000E+00  0.00000000E+00
  0.00000000E+00  0.00000000E+00  0.00000000E+00
  0.00000000E+00  0.00000000E+00  0.00000000E+00
  0.00000000E+00  0.00000000E+00  0.00000000E+00
