Si Ge                                   
   1.00000000000000     
     3.9863933894764614   -0.0023888497524789   -0.0042796854594463
     1.9915653057822045    3.3380355636923564    0.0135675172350332
    -0.0268711845860826    0.0559439743545359   32.5791449840598446
   Si   Ge
    10    10
Direct
  0.0951272451699325  0.1909687569541189  0.0318708765764928
  0.4287082382376748  0.5143837334103585  0.0603013495500783
  0.3295068214422909  0.5025229540231809  0.1324790351488390
  0.6622795128521121  0.8282624365862596  0.1560643793114495
  0.6624235241724352  0.8363473865852041  0.2285862020270097
  0.9994832739593723  0.1630401716670425  0.2513784304431241
  0.9934198486083653  0.1686783843987197  0.3238301195297900
  0.3360043101493790  0.4939157683237010  0.3473084366085002
  0.4481031548939867  0.4814723258379582  0.4193342994820332
  0.7933987170816724  0.8045656504403356  0.4477799578414019
  0.0279966180797291  0.1894539941525344  0.5052658547517086
  0.3994885977279972  0.5049410834006353  0.5497221244488012
  0.5103861691628270  0.5059194059561430  0.6258644930063406
  0.8542290551056444  0.8248240504025649  0.6532031213611009
  0.8358160782836864  0.8386186003741516  0.7270042328647539
  0.1764168523706175  0.1578322544678445  0.7521338182832390
  0.1762418717672193  0.1733780840432985  0.8259810242891065
  0.5150354321093169  0.4918145072527173  0.8534835084788097
  0.4006807358932911  0.4891393042790247  0.9293919750037671
  0.7222475210139981  0.8050952443595120  0.9737222056132347
 
  0.00000000E+00  0.00000000E+00  0.00000000E+00
  0.00000000E+00  0.00000000E+00  0.00000000E+00
  0.00000000E+00  0.00000000E+00  0.00000000E+00
  0.00000000E+00  0.00000000E+00  0.00000000E+00
  0.00000000E+00  0.00000000E+00  0.00000000E+00
  0.00000000E+00  0.00000000E+00  0.00000000E+00
  0.00000000E+00  0.00000000E+00  0.00000000E+00
  0.00000000E+00  0.00000000E+00  0.00000000E+00
  0.00000000E+00  0.00000000E+00  0.00000000E+00
  0.00000000E+00  0.00000000E+00  0.00000000E+00
  0.00000000E+00  0.00000000E+00  0.00000000E+00
  0.00000000E+00  0.00000000E+00  0.00000000E+00
  0.00000000E+00  0.00000000E+00  0.00000000E+00
  0.00000000E+00  0.00000000E+00  0.00000000E+00
  0.00000000E+00  0.00000000E+00  0.00000000E+00
  0.00000000E+00  0.00000000E+00  0.00000000E+00
  0.00000000E+00  0.00000000E+00  0.00000000E+00
  0.00000000E+00  0.00000000E+00  0.00000000E+00
  0.00000000E+00  0.00000000E+00  0.00000000E+00
  0.00000000E+00  0.00000000E+00  0.00000000E+00
