Si Ge
 1.0000000000000000
     3.9201999948982196    0.0000000000000000    0.0000000000000000
     1.9600999974491096    3.3949927834974849    0.0000000000000000
     0.0000000000000000    0.0000000000000000   27.7678561410665061
 Si  Ge 
  10  10
Cartesian
  0.3167810391952653  0.5559574307048853 -0.0048405401973404
  2.2768810366443755  1.6876216918707134  0.7789124502275760
  2.2768810366443750  1.6876216918707136  3.1301714215023266
  4.2369810340934855  2.8192859530365415  3.9139244119272432
  4.2369810340934855  2.8192859530365419  6.2651833832019932
  4.2369810340934846  0.5559574307048853  7.0489363736269102
  4.2369810340934846  0.5559574307048853  9.4001953449016593
  2.2768810366443755  1.6876216918707132 10.1839483353265781
  2.2768810366443750  1.6876216918707141 12.5352073066013272
  4.2369810340934837  2.8192859530365406 13.3189602970262460
  0.9963215563117518  0.5638834614958108 13.5991106705831388
  2.9564215537608614  1.6955477226616393 14.4157726263518651
  2.9564215537608614  1.6955477226616391 16.8657584936580420
  4.9165215512099705  2.8272119838274667 17.6824204494267683
  4.9165215512099705  2.8272119838274672 20.1324063167329435
  0.9963215563117527  0.5638834614958108 20.9490682725016697
  0.9963215563117527  0.5638834614958108 23.3990541398078449
  2.9564215537608614  1.6955477226616396 24.2157160955765747
  2.9564215537608614  1.6955477226616396 26.6657019628827499
  4.9165215512099714  2.8272119838274672 27.4823639186514761
