fcc Si+fcc Ge
    1.000000000
    9.491638425    0.000000000    0.000000000
   -9.491638425   13.423203790    0.000000000
    0.000000000    0.000000000   24.092923856
Si    Ge   
72     72
Direct
    0.333333333    0.666666667    0.000000000
    0.083333333    0.416666667    0.080416665
    0.833333333    0.166666667    0.160833329
    0.583333333    0.916666667    0.241249994
    0.569148936    0.851738241    0.493396442
    0.083333333    0.416666667    0.402083324
    0.569148936    0.935071575    0.908686882
    0.750000000    0.750000000    0.080416665
    0.500000000    0.500000000    0.160833329
    0.250000000    0.250000000    0.241249994
    0.000000000    0.000000000    0.321666659
    0.319148936    0.685071575    0.493396442
    0.819148936    0.768404908    0.908686882
    0.416666667    0.083333333    0.080416665
    0.166666667    0.833333333    0.160833329
    0.916666667    0.583333333    0.241249994
    0.666666667    0.333333333    0.321666659
    0.569148936    0.518404908    0.493396442
    0.069148936    0.435071575    0.908686882
    0.916666667    0.583333333    0.080416665
    0.666666667    0.333333333    0.160833329
    0.416666667    0.083333333    0.241249994
    0.166666667    0.833333333    0.321666659
    0.819148936    0.185071575    0.493396442
    0.069148936    0.018404908    0.825628794
    0.250000000    0.250000000    0.080416665
    0.000000000    0.000000000    0.160833329
    0.750000000    0.750000000    0.241249994
    0.500000000    0.500000000    0.321666659
    0.819148936    0.768404908    0.576454530
    0.069148936    0.101738241    0.908686882
    0.819148936    0.101738241    0.908686882
    0.333333333    0.666666667    0.160833329
    0.083333333    0.416666667    0.241249994
    0.833333333    0.166666667    0.321666659
    0.819148936    0.851738241    0.493396442
    0.083333333    0.666666667    0.000000000
    0.833333333    0.416666667    0.080416665
    0.583333333    0.166666667    0.160833329
    0.333333333    0.916666667    0.241249994
    0.083333333    0.666666667    0.321666659
    0.833333333    0.416666667    0.402083324
    0.416666667    0.333333333    0.000000000
    0.166666667    0.083333333    0.080416665
    0.916666667    0.833333333    0.160833329
    0.666666667    0.583333333    0.241249994
    0.416666667    0.333333333    0.321666659
    0.166666667    0.083333333    0.402083324
    0.750000000    0.000000000    0.000000000
    0.500000000    0.750000000    0.080416665
    0.250000000    0.500000000    0.160833329
    0.000000000    0.250000000    0.241249994
    0.750000000    0.000000000    0.321666659
    0.500000000    0.750000000    0.402083324
    0.250000000    0.500000000    0.000000000
    0.000000000    0.250000000    0.080416665
    0.750000000    0.000000000    0.160833329
    0.500000000    0.750000000    0.241249994
    0.250000000    0.500000000    0.321666659
    0.000000000    0.250000000    0.402083324
    0.916666667    0.833333333    0.000000000
    0.666666667    0.583333333    0.080416665
    0.416666667    0.333333333    0.160833329
    0.166666667    0.083333333    0.241249994
    0.916666667    0.833333333    0.321666659
    0.666666667    0.583333333    0.402083324
    0.583333333    0.166666667    0.000000000
    0.333333333    0.916666667    0.080416665
    0.083333333    0.666666667    0.160833329
    0.833333333    0.416666667    0.241249994
    0.583333333    0.166666667    0.321666659
    0.333333333    0.916666667    0.402083324
    0.750000000    0.750000000    0.402083324
    0.569148936    0.601738241    0.576454530
    0.819148936    0.518404908    0.659512618
    0.069148936    0.435071575    0.742570706
    0.319148936    0.351738241    0.825628794
    0.569148936    0.268404908    0.908686882
    0.319148936    0.351738241    0.493396442
    0.569148936    0.268404908    0.576454530
    0.819148936    0.185071575    0.659512618
    0.069148936    0.101738241    0.742570706
    0.319148936    0.018404908    0.825628794
    0.000000000    0.000000000    0.000000000
    0.319148936    0.018404908    0.493396442
    0.569148936    0.935071575    0.576454530
    0.819148936    0.851738241    0.659512618
    0.069148936    0.768404908    0.742570706
    0.319148936    0.685071575    0.825628794
    0.569148936    0.601738241    0.908686882
    0.583333333    0.916666667    0.402083324
    0.069148936    0.768404908    0.576454530
    0.319148936    0.685071575    0.659512618
    0.569148936    0.601738241    0.742570706
    0.819148936    0.518404908    0.825628794
    0.166666667    0.833333333    0.000000000
    0.819148936    0.518404908    0.493396442
    0.069148936    0.435071575    0.576454530
    0.319148936    0.351738241    0.659512618
    0.569148936    0.268404908    0.742570706
    0.819148936    0.185071575    0.825628794
    0.833333333    0.166666667    0.000000000
    0.916666667    0.583333333    0.402083324
    0.069148936    0.101738241    0.576454530
    0.319148936    0.018404908    0.659512618
    0.569148936    0.935071575    0.742570706
    0.819148936    0.851738241    0.825628794
    0.069148936    0.768404908    0.908686882
    0.069148936    0.685071575    0.493396442
    0.319148936    0.601738241    0.576454530
    0.569148936    0.518404908    0.659512618
    0.819148936    0.435071575    0.742570706
    0.069148936    0.351738241    0.825628794
    0.319148936    0.268404908    0.908686882
    0.069148936    0.351738241    0.493396442
    0.319148936    0.268404908    0.576454530
    0.569148936    0.185071575    0.659512618
    0.819148936    0.101738241    0.742570706
    0.500000000    0.500000000    0.000000000
    0.319148936    0.935071575    0.908686882
    0.069148936    0.018404908    0.493396442
    0.319148936    0.935071575    0.576454530
    0.569148936    0.851738241    0.659512618
    0.819148936    0.768404908    0.742570706
    0.069148936    0.685071575    0.825628794
    0.319148936    0.601738241    0.908686882
    0.333333333    0.666666667    0.321666659
    0.250000000    0.250000000    0.402083324
    0.069148936    0.685071575    0.659512618
    0.319148936    0.601738241    0.742570706
    0.569148936    0.518404908    0.825628794
    0.819148936    0.435071575    0.908686882
    0.416666667    0.083333333    0.402083324
    0.819148936    0.435071575    0.576454530
    0.069148936    0.351738241    0.659512618
    0.319148936    0.268404908    0.742570706
    0.569148936    0.185071575    0.825628794
    0.583333333    0.916666667    0.080416665
    0.569148936    0.185071575    0.493396442
    0.819148936    0.101738241    0.576454530
    0.069148936    0.018404908    0.659512618
    0.319148936    0.935071575    0.742570706
    0.569148936    0.851738241    0.825628794
    0.666666667    0.333333333    0.000000000
