Si+Ge                                   
   1.00000000000000     
    16.2930011750000006    0.0000000000000000    0.0000000000000000
     0.0000000000000000   16.2930011750000006    0.0000000000000000
     0.0000000000000000    0.0000000000000000   13.8885297780000005
   Si   Ge
   108    48
Direct
  0.0000000000000000  0.9940677290000011  0.0000000000000000
  0.0000000000000000  0.8274010419999982  0.1955210719999982
  0.0000000000000000  0.6607342960000011  0.3910421730000024
  0.3333333429999996  0.9940677290000011  0.0000000000000000
  0.3333333429999996  0.8274010419999982  0.1955210719999982
  0.3333333429999996  0.6607342960000011  0.3910421730000024
  0.6666666870000029  0.9940677290000011  0.0000000000000000
  0.6666666870000029  0.8274010419999982  0.1955210719999982
  0.6666666870000029  0.6607342960000011  0.3910421730000024
  0.0000000000000000  0.3274010419999982  0.0000000000000000
  0.0000000000000000  0.1607343700000001  0.1955210719999982
  0.0000000000000000  0.9940676690000032  0.3910421730000024
  0.3333333429999996  0.3274010419999982  0.0000000000000000
  0.3333333429999996  0.1607343700000001  0.1955210719999982
  0.3333333429999996  0.9940676690000032  0.3910421730000024
  0.6666666870000029  0.3274010419999982  0.0000000000000000
  0.6666666870000029  0.1607343700000001  0.1955210719999982
  0.6666666870000029  0.9940676690000032  0.3910421730000024
  0.0000000000000000  0.6607344150000003  0.0000000000000000
  0.0000000000000000  0.4940676989999986  0.1955210719999982
  0.0000000000000000  0.3274010419999982  0.3910421730000024
  0.3333333429999996  0.6607344150000003  0.0000000000000000
  0.3333333429999996  0.4940676989999986  0.1955210719999982
  0.3333333429999996  0.3274010419999982  0.3910421730000024
  0.6666666870000029  0.6607344150000003  0.0000000000000000
  0.6666666870000029  0.4940676989999986  0.1955210719999982
  0.6666666870000029  0.3274010419999982  0.3910421730000024
  0.0833333360000026  0.0774010490000023  0.0977605429999997
  0.0833333360000026  0.9107343550000024  0.2932815550000001
  0.0833333360000026  0.7440676690000032  0.4888027009999973
  0.4166666870000029  0.0774010490000023  0.0977605429999997
  0.4166666870000029  0.9107343550000024  0.2932815550000001
  0.4166666870000029  0.7440676690000032  0.4888027009999973
  0.7500000000000000  0.0774010490000023  0.0977605429999997
  0.7500000000000000  0.9107343550000024  0.2932815550000001
  0.7500000000000000  0.7440676690000032  0.4888027009999973
  0.0833333360000026  0.4107343550000024  0.0977605429999997
  0.0833333360000026  0.2440676690000032  0.2932815550000001
  0.0833333360000026  0.0774009820000003  0.4888027009999973
  0.4166666870000029  0.4107343550000024  0.0977605429999997
  0.4166666870000029  0.2440676690000032  0.2932815550000001
  0.4166666870000029  0.0774009820000003  0.4888027009999973
  0.7500000000000000  0.4107343550000024  0.0977605429999997
  0.7500000000000000  0.2440676690000032  0.2932815550000001
  0.7500000000000000  0.0774009820000003  0.4888027009999973
  0.0833333360000026  0.7440677290000011  0.0977605429999997
  0.0833333360000026  0.5774010419999982  0.2932815550000001
  0.0833333360000026  0.4107343550000024  0.4888027009999973
  0.4166666870000029  0.7440677290000011  0.0977605429999997
  0.4166666870000029  0.5774010419999982  0.2932815550000001
  0.4166666870000029  0.4107343550000024  0.4888027009999973
  0.7500000000000000  0.7440677290000011  0.0977605429999997
  0.7500000000000000  0.5774010419999982  0.2932815550000001
  0.7500000000000000  0.4107343550000024  0.4888027009999973
  0.1666666719999981  0.1607343849999978  0.0000000000000000
  0.1666666719999981  0.9940676690000032  0.1955210719999982
  0.1666666719999981  0.8274009820000003  0.3910421730000024
  0.5000000000000000  0.1607343849999978  0.0000000000000000
  0.5000000000000000  0.9940676690000032  0.1955210719999982
  0.5000000000000000  0.8274009820000003  0.3910421730000024
  0.8333333730000021  0.1607343849999978  0.0000000000000000
  0.8333333730000021  0.9940676690000032  0.1955210719999982
  0.8333333730000021  0.8274009820000003  0.3910421730000024
  0.1666666719999981  0.4940676989999986  0.0000000000000000
  0.1666666719999981  0.3274010419999982  0.1955210719999982
  0.1666666719999981  0.1607343109999988  0.3910421730000024
  0.5000000000000000  0.4940676989999986  0.0000000000000000
  0.5000000000000000  0.3274010419999982  0.1955210719999982
  0.5000000000000000  0.1607343109999988  0.3910421730000024
  0.8333333730000021  0.4940676989999986  0.0000000000000000
  0.8333333730000021  0.3274010419999982  0.1955210719999982
  0.8333333730000021  0.1607343109999988  0.3910421730000024
  0.1666666719999981  0.8274010419999982  0.0000000000000000
  0.1666666719999981  0.6607343550000024  0.1955210719999982
  0.1666666719999981  0.4940676390000007  0.3910421730000024
  0.5000000000000000  0.8274010419999982  0.0000000000000000
  0.5000000000000000  0.6607343550000024  0.1955210719999982
  0.5000000000000000  0.4940676390000007  0.3910421730000024
  0.8333333730000021  0.8274010419999982  0.0000000000000000
  0.8333333730000021  0.6607343550000024  0.1955210719999982
  0.8333333730000021  0.4940676390000007  0.3910421730000024
  0.2500000000000000  0.2440677140000034  0.0977605429999997
  0.2500000000000000  0.0774010270000005  0.2932815550000001
  0.2500000000000000  0.9107343550000024  0.4888027009999973
  0.5833333730000021  0.2440677140000034  0.0977605429999997
  0.5833333730000021  0.0774010270000005  0.2932815550000001
  0.5833333730000021  0.9107343550000024  0.4888027009999973
  0.9166666870000029  0.2440677140000034  0.0977605429999997
  0.9166666870000029  0.0774010270000005  0.2932815550000001
  0.9166666870000029  0.9107343550000024  0.4888027009999973
  0.2500000000000000  0.5774011609999974  0.0977605429999997
  0.2500000000000000  0.4107344450000028  0.2932815550000001
  0.2500000000000000  0.2440677430000022  0.4888027009999973
  0.5833333730000021  0.5774011609999974  0.0977605429999997
  0.5833333730000021  0.4107344450000028  0.2932815550000001
  0.5833333730000021  0.2440677430000022  0.4888027009999973
  0.9166666870000029  0.5774011609999974  0.0977605429999997
  0.9166666870000029  0.4107344450000028  0.2932815550000001
  0.9166666870000029  0.2440677430000022  0.4888027009999973
  0.2500000000000000  0.9107343550000024  0.0977605429999997
  0.2500000000000000  0.7440676690000032  0.2932815550000001
  0.2500000000000000  0.5774010419999982  0.4888027009999973
  0.5833333730000021  0.9107343550000024  0.0977605429999997
  0.5833333730000021  0.7440676690000032  0.2932815550000001
  0.5833333730000021  0.5774010419999982  0.4888027009999973
  0.9166666870000029  0.9107343550000024  0.0977605429999997
  0.9166666870000029  0.7440676690000032  0.2932815550000001
  0.9166666870000029  0.5774010419999982  0.4888027009999973
  0.7495304349999969  0.4996575119999989  0.6243779659999973
  0.3606414790000017  0.1246573929999997  0.6723873620000020
  0.9717525240000029  0.7496575119999989  0.7203966980000018
  0.5828634499999978  0.3746576309999980  0.7684060930000030
  0.1939746139999983  0.9996575710000002  0.8164153700000014
  0.8050856589999995  0.6246574520000010  0.8644247650000025
  0.7495304349999969  0.9996573929999997  0.6243779659999973
  0.3606414790000017  0.6246573929999997  0.6723873620000020
  0.9717525240000029  0.2496573929999997  0.7203967570000032
  0.5828634499999978  0.8746574520000010  0.7684060930000030
  0.1939746139999983  0.4996576309999980  0.8164153700000014
  0.8050856589999995  0.1246573929999997  0.8644247060000012
  0.4995303150000012  0.6246574520000010  0.6243779659999973
  0.1106413600000025  0.2496573929999997  0.6723873620000020
  0.7217524049999966  0.8746575119999989  0.7203966980000018
  0.3328635689999970  0.4996576309999980  0.7684060340000016
  0.9439745549999969  0.1246576309999980  0.8164154290000027
  0.5550854210000011  0.7496575710000002  0.8644247060000012
  0.4995303150000012  0.1246573929999997  0.6243779659999973
  0.1106413600000025  0.7496573929999997  0.6723873620000020
  0.7217524049999966  0.3746573929999997  0.7203966980000018
  0.3328635689999970  0.9996573929999997  0.7684060340000016
  0.9439745549999969  0.6246575119999989  0.8164154290000027
  0.5550855400000003  0.2496573929999997  0.8644247060000012
  0.4995303150000012  0.8746575119999989  0.6243780260000023
  0.1106413600000025  0.4996573929999997  0.6723873620000020
  0.7217524049999966  0.1246575119999989  0.7203966980000018
  0.3328634499999978  0.7496575119999989  0.7684060340000016
  0.9439746139999983  0.3746576309999980  0.8164154290000027
  0.5550855400000003  0.9996575710000002  0.8644247650000025
  0.4995303150000012  0.3746573929999997  0.6243779659999973
  0.1106413600000025  0.9996573929999997  0.6723873620000020
  0.7217524049999966  0.6246573929999997  0.7203966980000018
  0.3328635689999970  0.2496573929999997  0.7684060340000016
  0.9439746139999983  0.8746575119999989  0.8164154290000027
  0.5550854210000011  0.4996573929999997  0.8644247060000012
  0.7495304349999969  0.7496574520000010  0.6243779659999973
  0.3606414790000017  0.3746573929999997  0.6723873620000020
  0.9717525240000029  0.9996575710000002  0.7203967570000032
  0.5828634499999978  0.6246575119999989  0.7684060930000030
  0.1939748530000003  0.2496576309999980  0.8164154290000027
  0.8050856589999995  0.8746574520000010  0.8644247650000025
  0.7495304349999969  0.2496573929999997  0.6243779659999973
  0.3606414790000017  0.8746573929999997  0.6723873620000020
  0.9717525240000029  0.4996575119999989  0.7203967570000032
  0.5828635689999970  0.1246575119999989  0.7684060930000030
  0.1939747329999975  0.7496575710000002  0.8164153700000014
  0.8050854210000011  0.3746573929999997  0.8644247060000012
 
  0.00000000E+00  0.00000000E+00  0.00000000E+00
  0.00000000E+00  0.00000000E+00  0.00000000E+00
  0.00000000E+00  0.00000000E+00  0.00000000E+00
  0.00000000E+00  0.00000000E+00  0.00000000E+00
  0.00000000E+00  0.00000000E+00  0.00000000E+00
  0.00000000E+00  0.00000000E+00  0.00000000E+00
  0.00000000E+00  0.00000000E+00  0.00000000E+00
  0.00000000E+00  0.00000000E+00  0.00000000E+00
  0.00000000E+00  0.00000000E+00  0.00000000E+00
  0.00000000E+00  0.00000000E+00  0.00000000E+00
  0.00000000E+00  0.00000000E+00  0.00000000E+00
  0.00000000E+00  0.00000000E+00  0.00000000E+00
  0.00000000E+00  0.00000000E+00  0.00000000E+00
  0.00000000E+00  0.00000000E+00  0.00000000E+00
  0.00000000E+00  0.00000000E+00  0.00000000E+00
  0.00000000E+00  0.00000000E+00  0.00000000E+00
  0.00000000E+00  0.00000000E+00  0.00000000E+00
  0.00000000E+00  0.00000000E+00  0.00000000E+00
  0.00000000E+00  0.00000000E+00  0.00000000E+00
  0.00000000E+00  0.00000000E+00  0.00000000E+00
  0.00000000E+00  0.00000000E+00  0.00000000E+00
  0.00000000E+00  0.00000000E+00  0.00000000E+00
  0.00000000E+00  0.00000000E+00  0.00000000E+00
  0.00000000E+00  0.00000000E+00  0.00000000E+00
  0.00000000E+00  0.00000000E+00  0.00000000E+00
  0.00000000E+00  0.00000000E+00  0.00000000E+00
  0.00000000E+00  0.00000000E+00  0.00000000E+00
  0.00000000E+00  0.00000000E+00  0.00000000E+00
  0.00000000E+00  0.00000000E+00  0.00000000E+00
  0.00000000E+00  0.00000000E+00  0.00000000E+00
  0.00000000E+00  0.00000000E+00  0.00000000E+00
  0.00000000E+00  0.00000000E+00  0.00000000E+00
  0.00000000E+00  0.00000000E+00  0.00000000E+00
  0.00000000E+00  0.00000000E+00  0.00000000E+00
  0.00000000E+00  0.00000000E+00  0.00000000E+00
  0.00000000E+00  0.00000000E+00  0.00000000E+00
  0.00000000E+00  0.00000000E+00  0.00000000E+00
  0.00000000E+00  0.00000000E+00  0.00000000E+00
  0.00000000E+00  0.00000000E+00  0.00000000E+00
  0.00000000E+00  0.00000000E+00  0.00000000E+00
  0.00000000E+00  0.00000000E+00  0.00000000E+00
  0.00000000E+00  0.00000000E+00  0.00000000E+00
  0.00000000E+00  0.00000000E+00  0.00000000E+00
  0.00000000E+00  0.00000000E+00  0.00000000E+00
  0.00000000E+00  0.00000000E+00  0.00000000E+00
  0.00000000E+00  0.00000000E+00  0.00000000E+00
  0.00000000E+00  0.00000000E+00  0.00000000E+00
  0.00000000E+00  0.00000000E+00  0.00000000E+00
  0.00000000E+00  0.00000000E+00  0.00000000E+00
  0.00000000E+00  0.00000000E+00  0.00000000E+00
  0.00000000E+00  0.00000000E+00  0.00000000E+00
  0.00000000E+00  0.00000000E+00  0.00000000E+00
  0.00000000E+00  0.00000000E+00  0.00000000E+00
  0.00000000E+00  0.00000000E+00  0.00000000E+00
  0.00000000E+00  0.00000000E+00  0.00000000E+00
  0.00000000E+00  0.00000000E+00  0.00000000E+00
  0.00000000E+00  0.00000000E+00  0.00000000E+00
  0.00000000E+00  0.00000000E+00  0.00000000E+00
  0.00000000E+00  0.00000000E+00  0.00000000E+00
  0.00000000E+00  0.00000000E+00  0.00000000E+00
  0.00000000E+00  0.00000000E+00  0.00000000E+00
  0.00000000E+00  0.00000000E+00  0.00000000E+00
  0.00000000E+00  0.00000000E+00  0.00000000E+00
  0.00000000E+00  0.00000000E+00  0.00000000E+00
  0.00000000E+00  0.00000000E+00  0.00000000E+00
  0.00000000E+00  0.00000000E+00  0.00000000E+00
  0.00000000E+00  0.00000000E+00  0.00000000E+00
  0.00000000E+00  0.00000000E+00  0.00000000E+00
  0.00000000E+00  0.00000000E+00  0.00000000E+00
  0.00000000E+00  0.00000000E+00  0.00000000E+00
  0.00000000E+00  0.00000000E+00  0.00000000E+00
  0.00000000E+00  0.00000000E+00  0.00000000E+00
  0.00000000E+00  0.00000000E+00  0.00000000E+00
  0.00000000E+00  0.00000000E+00  0.00000000E+00
  0.00000000E+00  0.00000000E+00  0.00000000E+00
  0.00000000E+00  0.00000000E+00  0.00000000E+00
  0.00000000E+00  0.00000000E+00  0.00000000E+00
  0.00000000E+00  0.00000000E+00  0.00000000E+00
  0.00000000E+00  0.00000000E+00  0.00000000E+00
  0.00000000E+00  0.00000000E+00  0.00000000E+00
  0.00000000E+00  0.00000000E+00  0.00000000E+00
  0.00000000E+00  0.00000000E+00  0.00000000E+00
  0.00000000E+00  0.00000000E+00  0.00000000E+00
  0.00000000E+00  0.00000000E+00  0.00000000E+00
  0.00000000E+00  0.00000000E+00  0.00000000E+00
  0.00000000E+00  0.00000000E+00  0.00000000E+00
  0.00000000E+00  0.00000000E+00  0.00000000E+00
  0.00000000E+00  0.00000000E+00  0.00000000E+00
  0.00000000E+00  0.00000000E+00  0.00000000E+00
  0.00000000E+00  0.00000000E+00  0.00000000E+00
  0.00000000E+00  0.00000000E+00  0.00000000E+00
  0.00000000E+00  0.00000000E+00  0.00000000E+00
  0.00000000E+00  0.00000000E+00  0.00000000E+00
  0.00000000E+00  0.00000000E+00  0.00000000E+00
  0.00000000E+00  0.00000000E+00  0.00000000E+00
  0.00000000E+00  0.00000000E+00  0.00000000E+00
  0.00000000E+00  0.00000000E+00  0.00000000E+00
  0.00000000E+00  0.00000000E+00  0.00000000E+00
  0.00000000E+00  0.00000000E+00  0.00000000E+00
  0.00000000E+00  0.00000000E+00  0.00000000E+00
  0.00000000E+00  0.00000000E+00  0.00000000E+00
  0.00000000E+00  0.00000000E+00  0.00000000E+00
  0.00000000E+00  0.00000000E+00  0.00000000E+00
  0.00000000E+00  0.00000000E+00  0.00000000E+00
  0.00000000E+00  0.00000000E+00  0.00000000E+00
  0.00000000E+00  0.00000000E+00  0.00000000E+00
  0.00000000E+00  0.00000000E+00  0.00000000E+00
  0.00000000E+00  0.00000000E+00  0.00000000E+00
  0.00000000E+00  0.00000000E+00  0.00000000E+00
  0.00000000E+00  0.00000000E+00  0.00000000E+00
  0.00000000E+00  0.00000000E+00  0.00000000E+00
  0.00000000E+00  0.00000000E+00  0.00000000E+00
  0.00000000E+00  0.00000000E+00  0.00000000E+00
  0.00000000E+00  0.00000000E+00  0.00000000E+00
  0.00000000E+00  0.00000000E+00  0.00000000E+00
  0.00000000E+00  0.00000000E+00  0.00000000E+00
  0.00000000E+00  0.00000000E+00  0.00000000E+00
  0.00000000E+00  0.00000000E+00  0.00000000E+00
  0.00000000E+00  0.00000000E+00  0.00000000E+00
  0.00000000E+00  0.00000000E+00  0.00000000E+00
  0.00000000E+00  0.00000000E+00  0.00000000E+00
  0.00000000E+00  0.00000000E+00  0.00000000E+00
  0.00000000E+00  0.00000000E+00  0.00000000E+00
  0.00000000E+00  0.00000000E+00  0.00000000E+00
  0.00000000E+00  0.00000000E+00  0.00000000E+00
  0.00000000E+00  0.00000000E+00  0.00000000E+00
  0.00000000E+00  0.00000000E+00  0.00000000E+00
  0.00000000E+00  0.00000000E+00  0.00000000E+00
  0.00000000E+00  0.00000000E+00  0.00000000E+00
  0.00000000E+00  0.00000000E+00  0.00000000E+00
  0.00000000E+00  0.00000000E+00  0.00000000E+00
  0.00000000E+00  0.00000000E+00  0.00000000E+00
  0.00000000E+00  0.00000000E+00  0.00000000E+00
  0.00000000E+00  0.00000000E+00  0.00000000E+00
  0.00000000E+00  0.00000000E+00  0.00000000E+00
  0.00000000E+00  0.00000000E+00  0.00000000E+00
  0.00000000E+00  0.00000000E+00  0.00000000E+00
  0.00000000E+00  0.00000000E+00  0.00000000E+00
  0.00000000E+00  0.00000000E+00  0.00000000E+00
  0.00000000E+00  0.00000000E+00  0.00000000E+00
  0.00000000E+00  0.00000000E+00  0.00000000E+00
  0.00000000E+00  0.00000000E+00  0.00000000E+00
  0.00000000E+00  0.00000000E+00  0.00000000E+00
  0.00000000E+00  0.00000000E+00  0.00000000E+00
  0.00000000E+00  0.00000000E+00  0.00000000E+00
  0.00000000E+00  0.00000000E+00  0.00000000E+00
  0.00000000E+00  0.00000000E+00  0.00000000E+00
  0.00000000E+00  0.00000000E+00  0.00000000E+00
  0.00000000E+00  0.00000000E+00  0.00000000E+00
  0.00000000E+00  0.00000000E+00  0.00000000E+00
  0.00000000E+00  0.00000000E+00  0.00000000E+00
  0.00000000E+00  0.00000000E+00  0.00000000E+00
  0.00000000E+00  0.00000000E+00  0.00000000E+00
  0.00000000E+00  0.00000000E+00  0.00000000E+00
  0.00000000E+00  0.00000000E+00  0.00000000E+00
  0.00000000E+00  0.00000000E+00  0.00000000E+00
