Si+Ge
    1.000000000
   16.293001175    0.000000000    0.000000000
    0.000000000   16.293001175    0.000000000
    0.000000000    0.000000000   13.888529778
Si  Ge 
108     48
Direct
    0.000000000    0.994067729    0.000000000
    0.000000000    0.827401042    0.195521072
    0.000000000    0.660734296    0.391042173
    0.333333343    0.994067729    0.000000000
    0.333333343    0.827401042    0.195521072
    0.333333343    0.660734296    0.391042173
    0.666666687    0.994067729    0.000000000
    0.666666687    0.827401042    0.195521072
    0.666666687    0.660734296    0.391042173
    0.000000000    0.327401042    0.000000000
    0.000000000    0.160734370    0.195521072
    0.000000000    0.994067669    0.391042173
    0.333333343    0.327401042    0.000000000
    0.333333343    0.160734370    0.195521072
    0.333333343    0.994067669    0.391042173
    0.666666687    0.327401042    0.000000000
    0.666666687    0.160734370    0.195521072
    0.666666687    0.994067669    0.391042173
    0.000000000    0.660734415    0.000000000
    0.000000000    0.494067699    0.195521072
    0.000000000    0.327401042    0.391042173
    0.333333343    0.660734415    0.000000000
    0.333333343    0.494067699    0.195521072
    0.333333343    0.327401042    0.391042173
    0.666666687    0.660734415    0.000000000
    0.666666687    0.494067699    0.195521072
    0.666666687    0.327401042    0.391042173
    0.083333336    0.077401049    0.097760543
    0.083333336    0.910734355    0.293281555
    0.083333336    0.744067669    0.488802701
    0.416666687    0.077401049    0.097760543
    0.416666687    0.910734355    0.293281555
    0.416666687    0.744067669    0.488802701
    0.750000000    0.077401049    0.097760543
    0.750000000    0.910734355    0.293281555
    0.750000000    0.744067669    0.488802701
    0.083333336    0.410734355    0.097760543
    0.083333336    0.244067669    0.293281555
    0.083333336    0.077400982    0.488802701
    0.416666687    0.410734355    0.097760543
    0.416666687    0.244067669    0.293281555
    0.416666687    0.077400982    0.488802701
    0.750000000    0.410734355    0.097760543
    0.750000000    0.244067669    0.293281555
    0.750000000    0.077400982    0.488802701
    0.083333336    0.744067729    0.097760543
    0.083333336    0.577401042    0.293281555
    0.083333336    0.410734355    0.488802701
    0.416666687    0.744067729    0.097760543
    0.416666687    0.577401042    0.293281555
    0.416666687    0.410734355    0.488802701
    0.750000000    0.744067729    0.097760543
    0.750000000    0.577401042    0.293281555
    0.750000000    0.410734355    0.488802701
    0.166666672    0.160734385    0.000000000
    0.166666672    0.994067669    0.195521072
    0.166666672    0.827400982    0.391042173
    0.500000000    0.160734385    0.000000000
    0.500000000    0.994067669    0.195521072
    0.500000000    0.827400982    0.391042173
    0.833333373    0.160734385    0.000000000
    0.833333373    0.994067669    0.195521072
    0.833333373    0.827400982    0.391042173
    0.166666672    0.494067699    0.000000000
    0.166666672    0.327401042    0.195521072
    0.166666672    0.160734311    0.391042173
    0.500000000    0.494067699    0.000000000
    0.500000000    0.327401042    0.195521072
    0.500000000    0.160734311    0.391042173
    0.833333373    0.494067699    0.000000000
    0.833333373    0.327401042    0.195521072
    0.833333373    0.160734311    0.391042173
    0.166666672    0.827401042    0.000000000
    0.166666672    0.660734355    0.195521072
    0.166666672    0.494067639    0.391042173
    0.500000000    0.827401042    0.000000000
    0.500000000    0.660734355    0.195521072
    0.500000000    0.494067639    0.391042173
    0.833333373    0.827401042    0.000000000
    0.833333373    0.660734355    0.195521072
    0.833333373    0.494067639    0.391042173
    0.250000000    0.244067714    0.097760543
    0.250000000    0.077401027    0.293281555
    0.250000000    0.910734355    0.488802701
    0.583333373    0.244067714    0.097760543
    0.583333373    0.077401027    0.293281555
    0.583333373    0.910734355    0.488802701
    0.916666687    0.244067714    0.097760543
    0.916666687    0.077401027    0.293281555
    0.916666687    0.910734355    0.488802701
    0.250000000    0.577401161    0.097760543
    0.250000000    0.410734445    0.293281555
    0.250000000    0.244067743    0.488802701
    0.583333373    0.577401161    0.097760543
    0.583333373    0.410734445    0.293281555
    0.583333373    0.244067743    0.488802701
    0.916666687    0.577401161    0.097760543
    0.916666687    0.410734445    0.293281555
    0.916666687    0.244067743    0.488802701
    0.250000000    0.910734355    0.097760543
    0.250000000    0.744067669    0.293281555
    0.250000000    0.577401042    0.488802701
    0.583333373    0.910734355    0.097760543
    0.583333373    0.744067669    0.293281555
    0.583333373    0.577401042    0.488802701
    0.916666687    0.910734355    0.097760543
    0.916666687    0.744067669    0.293281555
    0.916666687    0.577401042    0.488802701
    0.749530435    0.499657512    0.624377966
    0.360641479    0.124657393    0.672387362
    0.971752524    0.749657512    0.720396698
    0.582863450    0.374657631    0.768406093
    0.193974614    0.999657571    0.816415370
    0.805085659    0.624657452    0.864424765
    0.749530435    0.999657393    0.624377966
    0.360641479    0.624657393    0.672387362
    0.971752524    0.249657393    0.720396757
    0.582863450    0.874657452    0.768406093
    0.193974614    0.499657631    0.816415370
    0.805085659    0.124657393    0.864424706
    0.499530315    0.624657452    0.624377966
    0.110641360    0.249657393    0.672387362
    0.721752405    0.874657512    0.720396698
    0.332863569    0.499657631    0.768406034
    0.943974555    0.124657631    0.816415429
    0.555085421    0.749657571    0.864424706
    0.499530315    0.124657393    0.624377966
    0.110641360    0.749657393    0.672387362
    0.721752405    0.374657393    0.720396698
    0.332863569    0.999657393    0.768406034
    0.943974555    0.624657512    0.816415429
    0.555085540    0.249657393    0.864424706
    0.499530315    0.874657512    0.624378026
    0.110641360    0.499657393    0.672387362
    0.721752405    0.124657512    0.720396698
    0.332863450    0.749657512    0.768406034
    0.943974614    0.374657631    0.816415429
    0.555085540    0.999657571    0.864424765
    0.499530315    0.374657393    0.624377966
    0.110641360    0.999657393    0.672387362
    0.721752405    0.624657393    0.720396698
    0.332863569    0.249657393    0.768406034
    0.943974614    0.874657512    0.816415429
    0.555085421    0.499657393    0.864424706
    0.749530435    0.749657452    0.624377966
    0.360641479    0.374657393    0.672387362
    0.971752524    0.999657571    0.720396757
    0.582863450    0.624657512    0.768406093
    0.193974853    0.249657631    0.816415429
    0.805085659    0.874657452    0.864424765
    0.749530435    0.249657393    0.624377966
    0.360641479    0.874657393    0.672387362
    0.971752524    0.499657512    0.720396757
    0.582863569    0.124657512    0.768406093
    0.193974733    0.749657571    0.816415370
    0.805085421    0.374657393    0.864424706
