fcc Si+fcc Ge
    1.000000000
    5.480000000    0.000000000    0.000000000
   -5.480000000    7.749890322    0.000000000
    0.000000000    0.000000000   24.492923856
Si    Ge   
24     24
Direct
    0.898148148    0.250000000    0.902012515
    0.250000000    0.750000000    0.079103360
    0.500000000    0.500000000    0.158206721
    0.750000000    0.250000000    0.237310081
    0.000000000    0.000000000    0.316413441
    0.648148148    0.500000000    0.493504286
    0.398148148    0.750000000    0.902012515
    0.750000000    0.250000000    0.079103360
    0.000000000    0.000000000    0.158206721
    0.250000000    0.750000000    0.237310081
    0.500000000    0.500000000    0.316413441
    0.148148148    0.000000000    0.493504286
    0.000000000    0.250000000    0.000000000
    0.250000000    0.000000000    0.079103360
    0.500000000    0.750000000    0.158206721
    0.750000000    0.500000000    0.237310081
    0.000000000    0.250000000    0.316413441
    0.250000000    0.000000000    0.395516801
    0.500000000    0.750000000    0.000000000
    0.750000000    0.500000000    0.079103360
    0.000000000    0.250000000    0.158206721
    0.250000000    0.000000000    0.237310081
    0.500000000    0.750000000    0.316413441
    0.750000000    0.500000000    0.395516801
    0.750000000    0.250000000    0.395516801
    0.898148148    0.250000000    0.575205932
    0.648148148    0.500000000    0.656907578
    0.398148148    0.750000000    0.738609224
    0.148148148    0.000000000    0.820310870
    0.000000000    0.000000000    0.000000000
    0.250000000    0.750000000    0.395516801
    0.398148148    0.750000000    0.575205932
    0.148148148    0.000000000    0.656907578
    0.898148148    0.250000000    0.738609224
    0.648148148    0.500000000    0.820310870
    0.500000000    0.500000000    0.000000000
    0.148148148    0.750000000    0.493504286
    0.898148148    0.000000000    0.575205932
    0.648148148    0.250000000    0.656907578
    0.398148148    0.500000000    0.738609224
    0.148148148    0.750000000    0.820310870
    0.898148148    0.000000000    0.902012515
    0.648148148    0.250000000    0.493504286
    0.398148148    0.500000000    0.575205932
    0.148148148    0.750000000    0.656907578
    0.898148148    0.000000000    0.738609224
    0.648148148    0.250000000    0.820310870
    0.398148148    0.500000000    0.902012515
