Si+C
    1.000000000
   13.303179741    0.000000000    0.000000000
    6.651589394   11.520891190    0.000000000
    0.000000000    0.000000000   21.679416656
Si  C  
72     308
Direct
    0.000000000    0.318506181    0.289268821
    0.000000000    0.985172927    0.000000014
    0.000000000    0.651839554    0.144634426
    0.333333343    0.651839614    0.289268792
    0.333333343    0.318506300    0.000000009
    0.333333343    0.985172868    0.144634411
    0.666666687    0.985172927    0.289268792
    0.666666687    0.651839614    0.000000006
    0.666666687    0.318506241    0.144634411
    0.333333343    0.318506062    0.325427473
    0.333333343    0.985172868    0.036158625
    0.333333343    0.651839495    0.180793017
    1.000000000    0.985172808    0.325427473
    1.000000000    0.651839614    0.036158621
    1.000000000    0.318506271    0.180793017
    0.666666746    0.651839375    0.325427473
    0.666666746    0.318506211    0.036158632
    0.666666746    0.985172868    0.180793017
    0.500000000    0.318506241    0.289268792
    0.500000000    0.985172927    0.000000010
    0.500000000    0.651839554    0.144634411
    0.166666672    0.985172927    0.289268792
    0.166666672    0.651839674    0.000000001
    0.166666672    0.318506241    0.144634411
    0.833333373    0.651839614    0.289268792
    0.833333373    0.318506300    0.000000001
    0.833333373    0.985172927    0.144634411
    0.166666657    0.651839554    0.325427383
    0.166666657    0.318506300    0.036158580
    0.166666657    0.985172868    0.180792972
    0.833333433    0.318506181    0.325427413
    0.833333433    0.985172927    0.036158595
    0.833333433    0.651839495    0.180792987
    0.500000060    0.985172868    0.325427413
    0.500000060    0.651839614    0.036158599
    0.500000060    0.318506211    0.180793017
    0.166666672    0.485172927    0.289268792
    0.166666672    0.151839614    0.000000010
    0.166666672    0.818506241    0.144634411
    0.500000000    0.818506241    0.289268821
    0.500000000    0.485172987    0.000000016
    0.500000000    0.151839584    0.144634426
    0.833333373    0.151839629    0.289268792
    0.833333373    0.818506360    0.000000000
    0.833333373    0.485173017    0.144634381
    0.500000000    0.485172868    0.325427413
    0.500000000    0.151839614    0.036158595
    0.500000000    0.818506241    0.180792987
    0.166666672    0.151839569    0.325427383
    0.166666672    0.818506360    0.036158573
    0.166666672    0.485172927    0.180792972
    0.833333373    0.818506181    0.325427383
    0.833333373    0.485172927    0.036158573
    0.833333373    0.151839525    0.180792972
    0.000000000    0.818506241    0.289268792
    0.000000000    0.485172957    0.000000009
    0.000000000    0.151839554    0.144634411
    0.666666687    0.485172868    0.289268792
    0.666666687    0.151839599    0.000000009
    0.666666687    0.818506181    0.144634411
    0.333333313    0.151839495    0.289268792
    0.333333313    0.818506241    0.000000002
    0.333333313    0.485172868    0.144634381
    0.000000000    0.485172808    0.325427473
    0.000000000    0.151839659    0.036158618
    0.000000000    0.818506300    0.180793017
    0.333333343    0.818506122    0.325427473
    0.333333343    0.485172957    0.036158621
    0.333333343    0.151839599    0.180793017
    0.666666687    0.151839525    0.325427443
    0.666666687    0.818506300    0.036158618
    0.666666687    0.485172957    0.180792987
    0.529999852    0.416363835    0.876437724
    0.863333464    0.749697208    0.496484071
    0.530000210    0.416363895    0.591472447
    0.196666598    0.083030418    0.686460912
    0.863333344    0.749697089    0.781449258
    0.815714240    0.559220910    0.876437724
    0.149047807    0.892554283    0.496484071
    0.815714478    0.559221029    0.591472447
    0.482380927    0.225887552    0.686460912
    0.149047554    0.892554164    0.781449258
    0.672857046    0.987792253    0.876437783
    0.006190658    0.321125746    0.496484041
    0.672857285    0.987792432    0.591472447
    0.339523733    0.654458940    0.686460912
    0.006190419    0.321125567    0.781449258
    0.101428390    0.702077985    0.876437783
    0.434762061    0.035411447    0.496484071
    0.101428747    0.702078104    0.591472447
    0.768095255    0.368744671    0.686460912
    0.434761822    0.035411313    0.781449258
    0.958571196    0.130649403    0.876437724
    0.291904986    0.463982940    0.496484011
    0.958571553    0.130649582    0.591472447
    0.625238180    0.797316194    0.686460853
    0.291904628    0.463982761    0.781449258
    0.387142718    0.844935060    0.876437724
    0.720476389    0.178268626    0.496484011
    0.387143016    0.844935238    0.591472447
    0.053809643    0.511601925    0.686460793
    0.720476091    0.178268507    0.781449258
    0.244285583    0.273506582    0.876437724
    0.577619195    0.606839955    0.496484071
    0.244285882    0.273506701    0.591472447
    0.910952330    0.940173209    0.686460912
    0.577618957    0.606839836    0.781449258
    0.625238061    0.797316194    0.900184751
    0.291904986    0.463982880    0.425242722
    0.958571613    0.130649552    0.520231128
    0.625238121    0.797316134    0.615219593
    0.291904688    0.463982642    0.710207999
    0.958571315    0.130649343    0.805196404
    0.053809524    0.511601925    0.900184751
    0.720476389    0.178268641    0.425242722
    0.387143046    0.844935298    0.520231128
    0.053809643    0.511601925    0.615219533
    0.720476031    0.178268388    0.710207999
    0.387142718    0.844935060    0.805196404
    0.910952330    0.940173268    0.900184751
    0.577619195    0.606840014    0.425242722
    0.244285882    0.273506701    0.520231128
    0.910952449    0.940173268    0.615219533
    0.577618897    0.606839776    0.710207999
    0.244285524    0.273506463    0.805196404
    0.339523673    0.654459000    0.900184751
    0.006190658    0.321125746    0.425242722
    0.672857285    0.987792373    0.520231128
    0.339523852    0.654459000    0.615219533
    0.006190300    0.321125507    0.710207999
    0.672856927    0.987792253    0.805196404
    0.768095136    0.368744850    0.900184751
    0.434762120    0.035411477    0.425242722
    0.101428747    0.702078104    0.520231128
    0.768095255    0.368744731    0.615219593
    0.434761763    0.035411254    0.710207999
    0.101428390    0.702077866    0.805196404
    0.196666658    0.083030418    0.900184751
    0.863333583    0.749697149    0.425242752
    0.530000210    0.416363835    0.520231128
    0.196666777    0.083030410    0.615219593
    0.863333225    0.749696910    0.710207999
    0.529999912    0.416363597    0.805196404
    0.482380748    0.225887612    0.900184751
    0.149047881    0.892554283    0.425242692
    0.815714478    0.559220970    0.520231068
    0.482381165    0.225887686    0.615219533
    0.149047554    0.892554164    0.710207939
    0.815714121    0.559220791    0.805196404
    0.744285583    0.773506641    0.876437724
    0.077619195    0.106840014    0.496484041
    0.744285822    0.773506701    0.591472447
    0.410952330    0.440173209    0.686460912
    0.077618957    0.106839910    0.781449258
    0.172857046    0.487792253    0.876437724
    0.506190658    0.821125746    0.496484011
    0.172857299    0.487792432    0.591472447
    0.839523792    0.154458955    0.686460912
    0.506190419    0.821125627    0.781449258
    0.601428509    0.202077940    0.876437724
    0.934762120    0.535411417    0.496484011
    0.601428688    0.202078089    0.591472447
    0.268095315    0.868744731    0.686460853
    0.934761763    0.535411239    0.781449258
    0.029999852    0.916363716    0.876437724
    0.363333523    0.249697194    0.496484041
    0.030000091    0.916363835    0.591472447
    0.696666718    0.583030462    0.686460853
    0.363333166    0.249696985    0.781449258
    0.458571255    0.630649328    0.876437724
    0.791904986    0.963982940    0.496484011
    0.458571583    0.630649567    0.591472447
    0.125238180    0.297316253    0.686460793
    0.791904688    0.963982821    0.781449199
    0.887142777    0.344935119    0.876437724
    0.220476359    0.678268552    0.496484041
    0.887143016    0.344935298    0.591472447
    0.553809464    0.011601806    0.686460912
    0.220476151    0.678268433    0.781449258
    0.315714240    0.059220865    0.876437783
    0.649047792    0.392554283    0.496484071
    0.315714478    0.059221003    0.591472447
    0.982380927    0.725887537    0.686460912
    0.649047554    0.392554164    0.781449258
    0.696666479    0.583030343    0.900184751
    0.363333553    0.249697179    0.425242692
    0.030000210    0.916363835    0.520231068
    0.696666837    0.583030522    0.615219533
    0.363333225    0.249696985    0.710207939
    0.029999852    0.916363716    0.805196404
    0.553809404    0.011601806    0.900184751
    0.220476434    0.678268552    0.425242692
    0.887143016    0.344935238    0.520231068
    0.553809702    0.011601925    0.615219533
    0.220476091    0.678268433    0.710207939
    0.887142777    0.344935060    0.805196404
    0.982380867    0.725887418    0.900184751
    0.649047852    0.392554343    0.425242692
    0.315714419    0.059220959    0.520231068
    0.982381105    0.725887656    0.615219533
    0.649047494    0.392554104    0.710207939
    0.315714121    0.059220806    0.805196404
    0.410952210    0.440173149    0.900184751
    0.077619314    0.106840029    0.425242692
    0.744285822    0.773506641    0.520231068
    0.410952538    0.440173388    0.615219533
    0.077618957    0.106839851    0.710207939
    0.744285583    0.773506522    0.805196404
    0.839523673    0.154458955    0.900184751
    0.506190717    0.821125746    0.425242692
    0.172857285    0.487792373    0.520231068
    0.839523971    0.154459089    0.615219533
    0.506190360    0.821125567    0.710207939
    0.172856987    0.487792253    0.805196345
    0.268095136    0.868744612    0.900184751
    0.934762180    0.535411417    0.425242722
    0.601428747    0.202078074    0.520231128
    0.268095434    0.868744791    0.615219533
    0.934761882    0.535411239    0.710207939
    0.601428509    0.202077940    0.805196404
    0.125237942    0.297316015    0.900184751
    0.791904986    0.963982821    0.425242722
    0.458571553    0.630649447    0.520231128
    0.125238180    0.297316194    0.615219533
    0.791904688    0.963982642    0.710207999
    0.458571255    0.630649269    0.805196404
    0.672857046    0.487792253    0.876437783
    0.006190658    0.821125746    0.496484071
    0.672857285    0.487792432    0.591472447
    0.339523733    0.154458955    0.686460912
    0.006190419    0.821125627    0.781449258
    0.529999971    0.916363716    0.876437783
    0.863333523    0.249697164    0.496484071
    0.530000150    0.916363835    0.591472447
    0.196666598    0.583030343    0.686460912
    0.863333225    0.249697044    0.781449258
    0.958571315    0.630649447    0.876437783
    0.291904926    0.963982880    0.496484041
    0.958571613    0.630649567    0.591472447
    0.625238061    0.297316074    0.686460912
    0.291904688    0.963982701    0.781449258
    0.815714121    0.059220865    0.876437783
    0.149047807    0.392554402    0.496484011
    0.815714359    0.059221037    0.591472447
    0.482381046    0.725887656    0.686460793
    0.149047494    0.392554283    0.781449258
    0.244285524    0.773506522    0.876437724
    0.577619314    0.106840089    0.496484011
    0.244285882    0.773506701    0.591472447
    0.910952508    0.440173388    0.686460853
    0.577619016    0.106839970    0.781449258
    0.101428390    0.202078059    0.876437724
    0.434762061    0.535411417    0.496484071
    0.101428747    0.202078149    0.591472447
    0.768095195    0.868744671    0.686460912
    0.434761822    0.535411358    0.781449258
    0.387142777    0.344935119    0.876437783
    0.720476329    0.678268552    0.496484071
    0.387143016    0.344935298    0.591472447
    0.053809404    0.011601806    0.686460912
    0.720476151    0.678268433    0.781449258
    0.910952091    0.440173149    0.900184751
    0.577619195    0.106840029    0.425242722
    0.244285822    0.773506641    0.520231128
    0.910952508    0.440173388    0.615219533
    0.577618897    0.106839851    0.710207939
    0.244285524    0.773506403    0.805196404
    0.768095136    0.868744612    0.900184751
    0.434762150    0.535411417    0.425242692
    0.101428747    0.202078074    0.520231068
    0.768095434    0.868744791    0.615219533
    0.434761822    0.535411239    0.710207939
    0.101428509    0.202077881    0.805196404
    0.196666539    0.583030343    0.900184751
    0.863333583    0.249697179    0.425242722
    0.530000210    0.916363776    0.520231128
    0.196666837    0.583030522    0.615219533
    0.863333225    0.249696985    0.710207939
    0.529999852    0.916363597    0.805196404
    0.625237942    0.297316074    0.900184751
    0.291904986    0.963982940    0.425242722
    0.958571613    0.630649567    0.520231128
    0.625238240    0.297316253    0.615219533
    0.291904628    0.963982701    0.710207999
    0.958571315    0.630649447    0.805196404
    0.053809404    0.011601806    0.900184751
    0.720476389    0.678268611    0.425242662
    0.387142986    0.344935238    0.520231068
    0.053809643    0.011601925    0.615219533
    0.720476031    0.678268433    0.710207880
    0.387142658    0.344935119    0.805196345
    0.482380867    0.725887418    0.900184751
    0.149047941    0.392554343    0.425242692
    0.815714538    0.059220944    0.520231068
    0.482381225    0.725887656    0.615219533
    0.149047613    0.392554104    0.710207939
    0.815714240    0.059220806    0.805196404
    0.339523673    0.154458895    0.900184751
    0.006190777    0.821125746    0.425242722
    0.672857285    0.487792373    0.520231128
    0.339523971    0.154459089    0.615219533
    0.006190300    0.821125507    0.710207999
    0.672857046    0.487792194    0.805196404
    0.601428628    0.702078104    0.876437724
    0.934762061    0.035411455    0.496484041
    0.601428747    0.702078104    0.591472447
    0.268095136    0.368744671    0.686460912
    0.934761882    0.035411373    0.781449258
    0.029999852    0.416363716    0.876437724
    0.363333464    0.749697208    0.496484041
    0.030000210    0.416363835    0.591472447
    0.696666598    0.083030418    0.686460912
    0.363333225    0.749697089    0.781449258
    0.887142658    0.844935179    0.876437724
    0.220476389    0.178268671    0.496484011
    0.887142956    0.844935298    0.591472447
    0.553809583    0.511601925    0.686460853
    0.220476031    0.178268507    0.781449258
    0.315714061    0.559220910    0.876437724
    0.649047732    0.892554343    0.496484011
    0.315714359    0.559220910    0.591472447
    0.982380986    0.225887671    0.686460853
    0.649047494    0.892554164    0.781449258
    0.744285583    0.273506463    0.876437724
    0.077619314    0.606839895    0.496484041
    0.744285882    0.273506701    0.591472447
    0.410952330    0.940173149    0.686460912
    0.077618957    0.606839895    0.781449258
    0.172856987    0.987792373    0.876437724
    0.506190658    0.321125746    0.496484041
    0.172857329    0.987792432    0.591472447
    0.839523792    0.654458880    0.686460912
    0.506190419    0.321125627    0.781449258
    0.458571374    0.130649403    0.876437724
    0.791904926    0.463982821    0.496484071
    0.458571583    0.130649537    0.591472447
    0.125238061    0.797316074    0.686460912
    0.791904688    0.463982701    0.781449258
    0.553809643    0.511601925    0.900184751
    0.220476449    0.178268686    0.425242722
    0.887143075    0.844935358    0.520231128
    0.553809643    0.511601925    0.615219593
    0.220476091    0.178268507    0.710207939
    0.887142658    0.844935060    0.805196404
    0.839523792    0.654459000    0.900184751
    0.506190777    0.321125805    0.425242722
    0.172857344    0.987792492    0.520231128
    0.839523911    0.654459059    0.615219593
    0.506190360    0.321125567    0.710207999
    0.172857046    0.987792253    0.805196404
    0.696666718    0.083030537    0.900184751
    0.363333613    0.749697208    0.425242692
    0.030000210    0.416363895    0.520231068
    0.696666777    0.083030477    0.615219533
    0.363333225    0.749696970    0.710207999
    0.029999852    0.416363597    0.805196404
    0.125238061    0.797316194    0.900184751
    0.791904986    0.463982940    0.425242722
    0.458571583    0.130649611    0.520231068
    0.125238180    0.797316194    0.615219533
    0.791904628    0.463982701    0.710207999
    0.458571255    0.130649343    0.805196404
    0.982380867    0.225887612    0.900184751
    0.649047792    0.892554283    0.425242692
    0.315714419    0.559220970    0.520231068
    0.982380986    0.225887567    0.615219533
    0.649047434    0.892554104    0.710207999
    0.315714121    0.559220791    0.805196404
    0.410952210    0.940173268    0.900184751
    0.077619195    0.606839955    0.425242722
    0.744285882    0.273506641    0.520231128
    0.410952389    0.940173268    0.615219593
    0.077618837    0.606839776    0.710207999
    0.744285464    0.273506463    0.805196404
    0.268095195    0.368744850    0.900184751
    0.934762120    0.035411596    0.425242752
    0.601428747    0.702078223    0.520231128
    0.268095315    0.368744850    0.615219593
    0.934761763    0.035411313    0.710207999
    0.601428390    0.702077985    0.805196404
