Sn+Sn
    1.000000000
    9.177114487    0.000000000    0.000000000
    4.588557720   13.765672684    0.000000000
    0.000000000    0.000000000   10.815335274
Sn 
48
Direct
    0.661701798    0.661701798    0.000000000
    0.495035052    0.495035082    0.299999952
    0.328368336    0.328368455    0.599999785
    0.328368455    0.328368425    0.000000000
    0.161701694    0.161701754    0.299999952
    0.995034993    0.995035112    0.599999785
    0.995035112    0.995035112    0.000000000
    0.828368306    0.828368425    0.299999952
    0.661701620    0.661701798    0.599999785
    0.411701828    0.661701798    0.149999946
    0.245035112    0.495035112    0.449999869
    0.078368299    0.328368396    0.749999762
    0.745035052    0.995035052    0.149999946
    0.578368366    0.828368425    0.449999869
    0.411701620    0.661701679    0.749999762
    0.078368425    0.328368396    0.149999946
    0.911701739    0.161701769    0.449999869
    0.745034933    0.995035052    0.749999762
    0.828368485    0.328368455    0.000000000
    0.661701679    0.161701739    0.299999952
    0.495034993    0.995035112    0.599999785
    0.161701798    0.661701798    0.000000000
    0.995034993    0.495035082    0.299999952
    0.828368306    0.328368455    0.599999785
    0.495035052    0.995035112    0.000000000
    0.328368336    0.828368425    0.299999952
    0.161701590    0.661701739    0.599999785
    0.911701858    0.661701739    0.149999946
    0.745035172    0.495035082    0.449999869
    0.578368306    0.328368336    0.749999762
    0.578368425    0.328368455    0.149999946
    0.411701739    0.161701784    0.449999869
    0.245034933    0.995035052    0.749999762
    0.245035067    0.995035112    0.149999946
    0.078368351    0.828368425    0.449999869
    0.911701560    0.661701679    0.749999762
    0.989384770    0.973461866    0.749999762
    0.878273547    0.695683956    0.849999785
    0.767162383    0.417906106    0.949999809
    0.489384770    0.973461866    0.749999762
    0.378273576    0.695683956    0.849999785
    0.267162412    0.417906106    0.949999809
    0.683829188    0.084572956    0.799999833
    0.572718024    0.806795061    0.899999857
    0.461606771    0.529017150    0.999999881
    0.183829173    0.084572956    0.799999833
    0.072717980    0.806795120    0.899999857
    0.961606741    0.529017091    0.999999881
