Sn+Si                                   
   1.00000000000000     
     9.1771144870000008    0.0000000000000000    0.0000000000000000
    -9.1771154399999997   12.9784011840000009    0.0000000000000000
     0.0000000000000000    0.0000000000000000   21.0721416469999987
   Sn   Si
    48    72
Direct
  0.5000000000000000  0.4820204970000006  0.0000000140000012
  0.4999999699999975  0.2320204820000029  0.1088773310000022
  0.5000000000000000  0.9820204379999993  0.2177547069999974
  0.4999999400000021  0.7320203780000014  0.3266320230000019
  0.4999999699999975  0.4820203780000014  0.4355093839999995
  0.5000000000000000  0.2320203190000001  0.5443867440000005
  0.0000000000000000  0.9820204970000006  0.0000000140000012
  0.0000000000000000  0.7320204970000006  0.1088773310000022
  0.0000000169999979  0.4820204379999993  0.2177547069999974
  0.0000000249999985  0.2320204379999993  0.3266320230000019
  0.0000000000000000  0.9820203780000014  0.4355093839999995
  0.0000000539999974  0.7320203780000014  0.5443867440000005
  0.4999999699999975  0.9820204970000006  0.0000000160000013
  0.5000000000000000  0.7320204970000006  0.1088773459999999
  0.5000000000000000  0.4820204379999993  0.2177547069999974
  0.5000000599999979  0.2320204379999993  0.3266320230000019
  0.4999999110000033  0.9820203780000014  0.4355093839999995
  0.5000000599999979  0.7320203780000014  0.5443867440000005
  0.0000000320000026  0.4820204970000006  0.0000000129999975
  0.0000000000000000  0.2320204820000029  0.1088773310000022
  0.0000000000000000  0.9820204379999993  0.2177546919999997
  0.0000000000000000  0.7320203780000014  0.3266320230000019
  0.9999999400000021  0.4820203780000014  0.4355093839999995
  0.0000000470000003  0.2320203190000001  0.5443867440000005
  0.8749999400000021  0.6070204379999993  0.0000000149999977
  0.8749999400000021  0.3570204379999993  0.1088773459999999
  0.8749999400000021  0.1070203860000021  0.2177547069999974
  0.8749998810000008  0.8570203190000001  0.3266320230000019
  0.8749999400000021  0.6070203780000014  0.4355094129999983
  0.8749998810000008  0.3570202590000022  0.5443867440000005
  0.3749999699999975  0.1070204820000029  0.0000000149999977
  0.3749999699999975  0.8570204970000006  0.1088773459999999
  0.3750000300000025  0.6070204379999993  0.2177547069999974
  0.3749999110000033  0.3570203190000001  0.3266320230000019
  0.3750000300000025  0.1070204379999993  0.4355094129999983
  0.3749999699999975  0.8570203780000014  0.5443867440000005
  0.8749999400000021  0.1070204820000029  0.0000000000000000
  0.8749999400000021  0.8570204970000006  0.1088773459999999
  0.8749999400000021  0.6070204379999993  0.2177546919999997
  0.8749998810000008  0.3570203190000001  0.3266320230000019
  0.8750000599999979  0.1070204379999993  0.4355094129999983
  0.8750000000000000  0.8570203780000014  0.5443867440000005
  0.3749999400000021  0.6070204379999993  0.0000000140000012
  0.3749999400000021  0.3570204379999993  0.1088773459999999
  0.3749999699999975  0.1070203860000021  0.2177547069999974
  0.3749999110000033  0.8570203190000001  0.3266320230000019
  0.3749999110000033  0.6070203780000014  0.4355093839999995
  0.3749999400000021  0.3570202590000022  0.5443867440000005
  0.3548160790000026  0.6881494519999976  0.5443867440000005
  0.6048160790000026  0.9381495120000025  0.6355093720000013
  0.8548161980000017  0.1881495709999967  0.7266319989999985
  0.1048160790000026  0.4381495709999967  0.8177546260000028
  0.3548160790000026  0.6881496909999996  0.9088771939999987
  0.6048164369999967  0.9381499289999979  0.9999998210000030
  0.0214827189999980  0.0214827189999980  0.5443867440000005
  0.2714827659999983  0.2714827949999972  0.6355093720000013
  0.5214828849999975  0.5214828849999975  0.7266319989999985
  0.7714828849999975  0.7714828849999975  0.8177546260000028
  0.0214830640000017  0.0214830640000017  0.9088771939999987
  0.2714830640000017  0.2714830640000017  0.9999998210000030
  0.6881494519999976  0.3548160790000026  0.5443867440000005
  0.9381494519999976  0.6048161390000004  0.6355093720000013
  0.1881495709999967  0.8548161980000017  0.7266319989999985
  0.4381494519999976  0.1048161980000017  0.8177546260000028
  0.6881495709999967  0.3548161980000017  0.9088771939999987
  0.9381499289999979  0.6048164369999967  0.9999998210000030
  0.1881494369999999  0.8548160790000026  0.5443867440000005
  0.4381494519999976  0.1048160790000026  0.6355093720000013
  0.6881495709999967  0.3548163179999975  0.7266319390000007
  0.9381495120000025  0.6048163179999975  0.8177546260000028
  0.1881494519999976  0.8548163179999975  0.9088771939999987
  0.4381499289999979  0.1048164369999967  0.9999998210000030
  0.5214828249999997  0.5214827659999983  0.5443867440000005
  0.7714828249999997  0.7714827659999983  0.6355093720000013
  0.0214829439999988  0.0214829439999988  0.7266319989999985
  0.2714828249999997  0.2714829439999988  0.8177546260000028
  0.5214828249999997  0.5214829439999988  0.9088771939999987
  0.7714833020000000  0.7714831830000008  0.9999998210000030
  0.8548160790000026  0.1881494080000010  0.5443867440000005
  0.1048161980000017  0.4381494820000000  0.6355093720000013
  0.3548163179999975  0.6881495709999967  0.7266319989999985
  0.6048161980000017  0.9381495709999967  0.8177546260000028
  0.8548160790000026  0.1881495709999967  0.9088771939999987
  0.1048164369999967  0.4381499289999979  0.9999998210000030
  0.1048161240000027  0.6881493930000033  0.5443867440000005
  0.3548161980000017  0.9381494519999976  0.6355093720000013
  0.6048163179999975  0.1881495709999967  0.7266319989999985
  0.8548161980000017  0.4381495709999967  0.8177546260000028
  0.1048164369999967  0.6881496909999996  0.9088771939999987
  0.3548164369999967  0.9381498099999988  0.9999998210000030
  0.4381494519999976  0.3548160490000001  0.5443867440000005
  0.6881495120000025  0.6048161390000004  0.6355093720000013
  0.9381496909999996  0.8548162579999996  0.7266319989999985
  0.1881495709999967  0.1048161980000017  0.8177546260000028
  0.4381496909999996  0.3548164369999967  0.9088771939999987
  0.6881496909999996  0.6048165560000029  0.9999998210000030
  0.7714827659999983  0.0214827320000026  0.5443867440000005
  0.0214828249999997  0.2714827949999972  0.6355093720000013
  0.2714829439999988  0.5214828849999975  0.7266319989999985
  0.5214828249999997  0.7714828849999975  0.8177546260000028
  0.7714831830000008  0.0214830640000017  0.9088771939999987
  0.0214831830000008  0.2714831830000008  0.9999998210000030
  0.2714826759999980  0.5214827060000005  0.5443867440000005
  0.5214827659999983  0.7714828249999997  0.6355093720000013
  0.7714828249999997  0.0214828249999997  0.7266319989999985
  0.0214828249999997  0.2714829439999988  0.8177546260000028
  0.2714829439999988  0.5214830640000017  0.9088771939999987
  0.5214831830000008  0.7714830640000017  0.9999998210000030
  0.9381493930000033  0.8548161980000017  0.5443867440000005
  0.1881494519999976  0.1048161980000017  0.6355093720000013
  0.4381495709999967  0.3548163179999975  0.7266319989999985
  0.6881495709999967  0.6048164369999967  0.8177546260000028
  0.9381496909999996  0.8548165560000029  0.9088771939999987
  0.1881496909999996  0.1048164369999967  0.9999998210000030
  0.6048161390000004  0.1881494220000022  0.5443867440000005
  0.8548161980000017  0.4381494820000000  0.6355093720000013
  0.1048163179999975  0.6881496310000017  0.7266319989999985
  0.3548161980000017  0.9381496310000017  0.8177546260000028
  0.6048164369999967  0.1881498099999988  0.9088771939999987
  0.8548165560000029  0.4381498099999988  0.9999998210000030
 
  0.00000000E+00  0.00000000E+00  0.00000000E+00
  0.00000000E+00  0.00000000E+00  0.00000000E+00
  0.00000000E+00  0.00000000E+00  0.00000000E+00
  0.00000000E+00  0.00000000E+00  0.00000000E+00
  0.00000000E+00  0.00000000E+00  0.00000000E+00
  0.00000000E+00  0.00000000E+00  0.00000000E+00
  0.00000000E+00  0.00000000E+00  0.00000000E+00
  0.00000000E+00  0.00000000E+00  0.00000000E+00
  0.00000000E+00  0.00000000E+00  0.00000000E+00
  0.00000000E+00  0.00000000E+00  0.00000000E+00
  0.00000000E+00  0.00000000E+00  0.00000000E+00
  0.00000000E+00  0.00000000E+00  0.00000000E+00
  0.00000000E+00  0.00000000E+00  0.00000000E+00
  0.00000000E+00  0.00000000E+00  0.00000000E+00
  0.00000000E+00  0.00000000E+00  0.00000000E+00
  0.00000000E+00  0.00000000E+00  0.00000000E+00
  0.00000000E+00  0.00000000E+00  0.00000000E+00
  0.00000000E+00  0.00000000E+00  0.00000000E+00
  0.00000000E+00  0.00000000E+00  0.00000000E+00
  0.00000000E+00  0.00000000E+00  0.00000000E+00
  0.00000000E+00  0.00000000E+00  0.00000000E+00
  0.00000000E+00  0.00000000E+00  0.00000000E+00
  0.00000000E+00  0.00000000E+00  0.00000000E+00
  0.00000000E+00  0.00000000E+00  0.00000000E+00
  0.00000000E+00  0.00000000E+00  0.00000000E+00
  0.00000000E+00  0.00000000E+00  0.00000000E+00
  0.00000000E+00  0.00000000E+00  0.00000000E+00
  0.00000000E+00  0.00000000E+00  0.00000000E+00
  0.00000000E+00  0.00000000E+00  0.00000000E+00
  0.00000000E+00  0.00000000E+00  0.00000000E+00
  0.00000000E+00  0.00000000E+00  0.00000000E+00
  0.00000000E+00  0.00000000E+00  0.00000000E+00
  0.00000000E+00  0.00000000E+00  0.00000000E+00
  0.00000000E+00  0.00000000E+00  0.00000000E+00
  0.00000000E+00  0.00000000E+00  0.00000000E+00
  0.00000000E+00  0.00000000E+00  0.00000000E+00
  0.00000000E+00  0.00000000E+00  0.00000000E+00
  0.00000000E+00  0.00000000E+00  0.00000000E+00
  0.00000000E+00  0.00000000E+00  0.00000000E+00
  0.00000000E+00  0.00000000E+00  0.00000000E+00
  0.00000000E+00  0.00000000E+00  0.00000000E+00
  0.00000000E+00  0.00000000E+00  0.00000000E+00
  0.00000000E+00  0.00000000E+00  0.00000000E+00
  0.00000000E+00  0.00000000E+00  0.00000000E+00
  0.00000000E+00  0.00000000E+00  0.00000000E+00
  0.00000000E+00  0.00000000E+00  0.00000000E+00
  0.00000000E+00  0.00000000E+00  0.00000000E+00
  0.00000000E+00  0.00000000E+00  0.00000000E+00
  0.00000000E+00  0.00000000E+00  0.00000000E+00
  0.00000000E+00  0.00000000E+00  0.00000000E+00
  0.00000000E+00  0.00000000E+00  0.00000000E+00
  0.00000000E+00  0.00000000E+00  0.00000000E+00
  0.00000000E+00  0.00000000E+00  0.00000000E+00
  0.00000000E+00  0.00000000E+00  0.00000000E+00
  0.00000000E+00  0.00000000E+00  0.00000000E+00
  0.00000000E+00  0.00000000E+00  0.00000000E+00
  0.00000000E+00  0.00000000E+00  0.00000000E+00
  0.00000000E+00  0.00000000E+00  0.00000000E+00
  0.00000000E+00  0.00000000E+00  0.00000000E+00
  0.00000000E+00  0.00000000E+00  0.00000000E+00
  0.00000000E+00  0.00000000E+00  0.00000000E+00
  0.00000000E+00  0.00000000E+00  0.00000000E+00
  0.00000000E+00  0.00000000E+00  0.00000000E+00
  0.00000000E+00  0.00000000E+00  0.00000000E+00
  0.00000000E+00  0.00000000E+00  0.00000000E+00
  0.00000000E+00  0.00000000E+00  0.00000000E+00
  0.00000000E+00  0.00000000E+00  0.00000000E+00
  0.00000000E+00  0.00000000E+00  0.00000000E+00
  0.00000000E+00  0.00000000E+00  0.00000000E+00
  0.00000000E+00  0.00000000E+00  0.00000000E+00
  0.00000000E+00  0.00000000E+00  0.00000000E+00
  0.00000000E+00  0.00000000E+00  0.00000000E+00
  0.00000000E+00  0.00000000E+00  0.00000000E+00
  0.00000000E+00  0.00000000E+00  0.00000000E+00
  0.00000000E+00  0.00000000E+00  0.00000000E+00
  0.00000000E+00  0.00000000E+00  0.00000000E+00
  0.00000000E+00  0.00000000E+00  0.00000000E+00
  0.00000000E+00  0.00000000E+00  0.00000000E+00
  0.00000000E+00  0.00000000E+00  0.00000000E+00
  0.00000000E+00  0.00000000E+00  0.00000000E+00
  0.00000000E+00  0.00000000E+00  0.00000000E+00
  0.00000000E+00  0.00000000E+00  0.00000000E+00
  0.00000000E+00  0.00000000E+00  0.00000000E+00
  0.00000000E+00  0.00000000E+00  0.00000000E+00
  0.00000000E+00  0.00000000E+00  0.00000000E+00
  0.00000000E+00  0.00000000E+00  0.00000000E+00
  0.00000000E+00  0.00000000E+00  0.00000000E+00
  0.00000000E+00  0.00000000E+00  0.00000000E+00
  0.00000000E+00  0.00000000E+00  0.00000000E+00
  0.00000000E+00  0.00000000E+00  0.00000000E+00
  0.00000000E+00  0.00000000E+00  0.00000000E+00
  0.00000000E+00  0.00000000E+00  0.00000000E+00
  0.00000000E+00  0.00000000E+00  0.00000000E+00
  0.00000000E+00  0.00000000E+00  0.00000000E+00
  0.00000000E+00  0.00000000E+00  0.00000000E+00
  0.00000000E+00  0.00000000E+00  0.00000000E+00
  0.00000000E+00  0.00000000E+00  0.00000000E+00
  0.00000000E+00  0.00000000E+00  0.00000000E+00
  0.00000000E+00  0.00000000E+00  0.00000000E+00
  0.00000000E+00  0.00000000E+00  0.00000000E+00
  0.00000000E+00  0.00000000E+00  0.00000000E+00
  0.00000000E+00  0.00000000E+00  0.00000000E+00
  0.00000000E+00  0.00000000E+00  0.00000000E+00
  0.00000000E+00  0.00000000E+00  0.00000000E+00
  0.00000000E+00  0.00000000E+00  0.00000000E+00
  0.00000000E+00  0.00000000E+00  0.00000000E+00
  0.00000000E+00  0.00000000E+00  0.00000000E+00
  0.00000000E+00  0.00000000E+00  0.00000000E+00
  0.00000000E+00  0.00000000E+00  0.00000000E+00
  0.00000000E+00  0.00000000E+00  0.00000000E+00
  0.00000000E+00  0.00000000E+00  0.00000000E+00
  0.00000000E+00  0.00000000E+00  0.00000000E+00
  0.00000000E+00  0.00000000E+00  0.00000000E+00
  0.00000000E+00  0.00000000E+00  0.00000000E+00
  0.00000000E+00  0.00000000E+00  0.00000000E+00
  0.00000000E+00  0.00000000E+00  0.00000000E+00
  0.00000000E+00  0.00000000E+00  0.00000000E+00
  0.00000000E+00  0.00000000E+00  0.00000000E+00
  0.00000000E+00  0.00000000E+00  0.00000000E+00
  0.00000000E+00  0.00000000E+00  0.00000000E+00
