Sn+Si
    1.000000000
    9.177114487    0.000000000    0.000000000
   -9.177115440   12.978401184    0.000000000
    0.000000000    0.000000000   21.072141647
Sn  Si 
48     72
Direct
    0.500000000    0.482020497    0.000000014
    0.499999970    0.232020482    0.108877331
    0.500000000    0.982020438    0.217754707
    0.499999940    0.732020378    0.326632023
    0.499999970    0.482020378    0.435509384
    0.500000000    0.232020319    0.544386744
    0.000000000    0.982020497    0.000000014
    0.000000000    0.732020497    0.108877331
    0.000000017    0.482020438    0.217754707
    0.000000025    0.232020438    0.326632023
    1.000000000    0.982020378    0.435509384
    0.000000054    0.732020378    0.544386744
    0.499999970    0.982020497    0.000000016
    0.500000000    0.732020497    0.108877346
    0.500000000    0.482020438    0.217754707
    0.500000060    0.232020438    0.326632023
    0.499999911    0.982020378    0.435509384
    0.500000060    0.732020378    0.544386744
    0.000000032    0.482020497    0.000000013
    0.000000000    0.232020482    0.108877331
    0.000000000    0.982020438    0.217754692
    0.000000000    0.732020378    0.326632023
    0.999999940    0.482020378    0.435509384
    0.000000047    0.232020319    0.544386744
    0.874999940    0.607020438    0.000000015
    0.874999940    0.357020438    0.108877346
    0.874999940    0.107020386    0.217754707
    0.874999881    0.857020319    0.326632023
    0.874999940    0.607020378    0.435509413
    0.874999881    0.357020259    0.544386744
    0.374999970    0.107020482    0.000000015
    0.374999970    0.857020497    0.108877346
    0.375000030    0.607020438    0.217754707
    0.374999911    0.357020319    0.326632023
    0.375000030    0.107020438    0.435509413
    0.374999970    0.857020378    0.544386744
    0.874999940    0.107020482    0.000000000
    0.874999940    0.857020497    0.108877346
    0.874999940    0.607020438    0.217754692
    0.874999881    0.357020319    0.326632023
    0.875000060    0.107020438    0.435509413
    0.875000000    0.857020378    0.544386744
    0.374999940    0.607020438    0.000000014
    0.374999940    0.357020438    0.108877346
    0.374999970    0.107020386    0.217754707
    0.374999911    0.857020319    0.326632023
    0.374999911    0.607020378    0.435509384
    0.374999940    0.357020259    0.544386744
    0.354816079    0.688149452    0.544386744
    0.604816079    0.938149512    0.635509372
    0.854816198    0.188149571    0.726631999
    0.104816079    0.438149571    0.817754626
    0.354816079    0.688149691    0.908877194
    0.604816437    0.938149929    0.999999821
    0.021482719    0.021482719    0.544386744
    0.271482766    0.271482795    0.635509372
    0.521482885    0.521482885    0.726631999
    0.771482885    0.771482885    0.817754626
    0.021483064    0.021483064    0.908877194
    0.271483064    0.271483064    0.999999821
    0.688149452    0.354816079    0.544386744
    0.938149452    0.604816139    0.635509372
    0.188149571    0.854816198    0.726631999
    0.438149452    0.104816198    0.817754626
    0.688149571    0.354816198    0.908877194
    0.938149929    0.604816437    0.999999821
    0.188149437    0.854816079    0.544386744
    0.438149452    0.104816079    0.635509372
    0.688149571    0.354816318    0.726631939
    0.938149512    0.604816318    0.817754626
    0.188149452    0.854816318    0.908877194
    0.438149929    0.104816437    0.999999821
    0.521482825    0.521482766    0.544386744
    0.771482825    0.771482766    0.635509372
    0.021482944    0.021482944    0.726631999
    0.271482825    0.271482944    0.817754626
    0.521482825    0.521482944    0.908877194
    0.771483302    0.771483183    0.999999821
    0.854816079    0.188149408    0.544386744
    0.104816198    0.438149482    0.635509372
    0.354816318    0.688149571    0.726631999
    0.604816198    0.938149571    0.817754626
    0.854816079    0.188149571    0.908877194
    0.104816437    0.438149929    0.999999821
    0.104816124    0.688149393    0.544386744
    0.354816198    0.938149452    0.635509372
    0.604816318    0.188149571    0.726631999
    0.854816198    0.438149571    0.817754626
    0.104816437    0.688149691    0.908877194
    0.354816437    0.938149810    0.999999821
    0.438149452    0.354816049    0.544386744
    0.688149512    0.604816139    0.635509372
    0.938149691    0.854816258    0.726631999
    0.188149571    0.104816198    0.817754626
    0.438149691    0.354816437    0.908877194
    0.688149691    0.604816556    0.999999821
    0.771482766    0.021482732    0.544386744
    0.021482825    0.271482795    0.635509372
    0.271482944    0.521482885    0.726631999
    0.521482825    0.771482885    0.817754626
    0.771483183    0.021483064    0.908877194
    0.021483183    0.271483183    0.999999821
    0.271482676    0.521482706    0.544386744
    0.521482766    0.771482825    0.635509372
    0.771482825    0.021482825    0.726631999
    0.021482825    0.271482944    0.817754626
    0.271482944    0.521483064    0.908877194
    0.521483183    0.771483064    0.999999821
    0.938149393    0.854816198    0.544386744
    0.188149452    0.104816198    0.635509372
    0.438149571    0.354816318    0.726631999
    0.688149571    0.604816437    0.817754626
    0.938149691    0.854816556    0.908877194
    0.188149691    0.104816437    0.999999821
    0.604816139    0.188149422    0.544386744
    0.854816198    0.438149482    0.635509372
    0.104816318    0.688149631    0.726631999
    0.354816198    0.938149631    0.817754626
    0.604816437    0.188149810    0.908877194
    0.854816556    0.438149810    0.999999821
