Automatic KPOINTS generated
0
Gamma
1 1 6
0 0 0
