Si+Ge
    1.000000000
   17.174331665    0.000000000    0.000000000
    0.000000000   17.174329758    0.000000000
    0.000000000    0.000000000   17.861000061
Si  Ge 
120     108
Direct
    0.996404350    0.974830687    0.000000000
    0.946404338    0.624830604    0.152035162
    0.896404266    0.274830461    0.304070383
    0.096404403    0.674830735    0.000000000
    0.046404336    0.324830651    0.152035162
    0.996404231    0.974830508    0.304070383
    0.196404412    0.374830663    0.000000000
    0.146404341    0.024830597    0.152035162
    0.096404262    0.674830437    0.304070383
    0.296404392    0.074830659    0.000000000
    0.246404305    0.724830627    0.152035162
    0.196404234    0.374830425    0.304070383
    0.396404445    0.774830699    0.000000000
    0.346404374    0.424830586    0.152035162
    0.296404302    0.074830458    0.304070383
    0.496404380    0.474830687    0.000000000
    0.446404308    0.124830604    0.152035162
    0.396404237    0.774830461    0.304070383
    0.596404374    0.174830645    0.000000000
    0.546404302    0.824830592    0.152035162
    0.496404260    0.474830449    0.304070383
    0.696404517    0.874830782    0.000000000
    0.646404445    0.524830639    0.152035162
    0.596404374    0.174830541    0.304070383
    0.796404421    0.574830711    0.000000000
    0.746404350    0.224830613    0.152035162
    0.696404278    0.874830484    0.304070383
    0.896404505    0.274830699    0.000000000
    0.846404433    0.924830616    0.152035162
    0.796404362    0.574830472    0.304070383
    0.996404409    0.224830672    0.076017611
    0.946404278    0.874830544    0.228052765
    0.896404266    0.524830461    0.380087912
    0.096404366    0.924830616    0.076017611
    0.046404287    0.574830532    0.228052765
    0.996404231    0.224830389    0.380087912
    0.196404412    0.624830663    0.076017611
    0.146404341    0.274830550    0.228052765
    0.096404262    0.924830496    0.380087912
    0.296404421    0.324830621    0.076017611
    0.246404335    0.974830508    0.228052765
    0.196404263    0.624830484    0.380087912
    0.396404415    0.024830639    0.076017611
    0.346404314    0.674830556    0.228052765
    0.296404243    0.324830472    0.380087912
    0.496404499    0.724830687    0.076017611
    0.446404427    0.374830574    0.228052765
    0.396404356    0.024830524    0.380087912
    0.596404374    0.424830586    0.076017611
    0.546404302    0.074830495    0.228052765
    0.496404260    0.724830449    0.380087912
    0.696404517    0.124830663    0.076017611
    0.646404386    0.774830580    0.228052765
    0.596404374    0.424830496    0.380087912
    0.796404481    0.824830711    0.076017611
    0.746404409    0.474830568    0.228052765
    0.696404338    0.124830484    0.380087912
    0.896404445    0.524830639    0.076017611
    0.846404374    0.174830541    0.228052765
    0.796404302    0.824830472    0.380087912
    0.996404409    0.474830687    0.000000000
    0.946404338    0.124830604    0.152035162
    0.896404266    0.774830461    0.304070383
    0.096404381    0.174830660    0.000000000
    0.046404313    0.824830592    0.152035162
    0.996404231    0.474830449    0.304070383
    0.196404412    0.874830663    0.000000000
    0.146404326    0.524830580    0.152035162
    0.096404262    0.174830437    0.304070383
    0.296404421    0.574830651    0.000000000
    0.246404320    0.224830598    0.152035162
    0.196404248    0.874830484    0.304070383
    0.396404445    0.274830669    0.000000000
    0.346404374    0.924830616    0.152035162
    0.296404302    0.574830472    0.304070383
    0.496404409    0.974830627    0.000000000
    0.446404338    0.624830544    0.152035162
    0.396404237    0.274830401    0.304070383
    0.596404374    0.674830675    0.000000000
    0.546404302    0.324830592    0.152035162
    0.496404231    0.974830449    0.304070383
    0.696404397    0.374830633    0.000000000
    0.646404326    0.024830561    0.152035162
    0.596404254    0.674830437    0.304070383
    0.796404421    0.074830636    0.000000000
    0.746404350    0.724830508    0.152035162
    0.696404278    0.374830425    0.304070383
    0.896404505    0.774830699    0.000000000
    0.846404433    0.424830616    0.152035162
    0.796404362    0.074830480    0.304070383
    0.996404350    0.724830747    0.076017611
    0.946404278    0.374830604    0.228052765
    0.896404266    0.024830539    0.380087912
    0.096404389    0.424830675    0.076017611
    0.046404306    0.074830569    0.228052765
    0.996404231    0.724830508    0.380087912
    0.196404412    0.124830656    0.076017611
    0.146404341    0.774830580    0.228052765
    0.096404269    0.424830496    0.380087912
    0.296404392    0.824830711    0.076017611
    0.246404320    0.474830568    0.228052765
    0.196404248    0.124830484    0.380087912
    0.396404415    0.524830759    0.076017611
    0.346404344    0.174830645    0.228052765
    0.296404272    0.824830592    0.380087912
    0.496404409    0.224830642    0.076017611
    0.446404338    0.874830544    0.228052765
    0.396404237    0.524830461    0.380087912
    0.596404433    0.924830675    0.076017611
    0.546404362    0.574830592    0.228052765
    0.496404290    0.224830508    0.380087912
    0.696404457    0.624830723    0.076017611
    0.646404386    0.274830580    0.228052765
    0.596404314    0.924830556    0.380087912
    0.796404362    0.324830621    0.076017611
    0.746404290    0.974830508    0.228052765
    0.696404219    0.624830484    0.380087912
    0.896404386    0.024830626    0.076017611
    0.846404314    0.674830556    0.228052765
    0.796404243    0.324830413    0.380087912
    0.087872744    0.760233819    0.492063731
    0.921206117    0.760233819    0.650447905
    0.754539371    0.760233819    0.808832109
    0.087872744    0.426900536    0.492063731
    0.921206117    0.426900536    0.650447905
    0.754539371    0.426900536    0.808832109
    0.087872744    0.093567252    0.492063731
    0.921206117    0.093567252    0.650447905
    0.754539371    0.093567252    0.808832109
    0.421206057    0.760233819    0.492063731
    0.254539400    0.760233819    0.650447905
    0.087872744    0.760233819    0.808832109
    0.421206057    0.426900536    0.492063731
    0.254539400    0.426900536    0.650447905
    0.087872744    0.426900536    0.808832109
    0.421206057    0.093567252    0.492063731
    0.254539400    0.093567252    0.650447905
    0.087872744    0.093567252    0.808832109
    0.754539371    0.760233819    0.492063731
    0.587872684    0.760233819    0.650447905
    0.421205997    0.760233819    0.808832109
    0.754539371    0.426900536    0.492063731
    0.587872684    0.426900536    0.650447905
    0.421205997    0.426900536    0.808832109
    0.754539371    0.093567252    0.492063731
    0.587872684    0.093567252    0.650447905
    0.421205997    0.093567252    0.808832109
    0.171206087    0.010233879    0.571255803
    0.004539371    0.010233879    0.729640007
    0.837872744    0.010233879    0.888024151
    0.171206087    0.676900566    0.571255803
    0.004539371    0.676900566    0.729640007
    0.837872744    0.676900566    0.888024151
    0.171206087    0.343567193    0.571255803
    0.004539371    0.343567193    0.729640007
    0.837872744    0.343567193    0.888024151
    0.504539371    0.010233879    0.571255803
    0.337872684    0.010233879    0.729640007
    0.171205968    0.010233879    0.888024151
    0.504539371    0.676900566    0.571255803
    0.337872684    0.676900566    0.729640007
    0.171205968    0.676900566    0.888024151
    0.504539371    0.343567193    0.571255803
    0.337872684    0.343567193    0.729640007
    0.171205968    0.343567193    0.888024151
    0.837872744    0.010233879    0.571255803
    0.671205997    0.010233879    0.729640007
    0.504539311    0.010233879    0.888024151
    0.837872744    0.676900566    0.571255803
    0.671205997    0.676900566    0.729640007
    0.504539311    0.676900566    0.888024151
    0.837872744    0.343567193    0.571255803
    0.671205997    0.343567193    0.729640007
    0.504539311    0.343567193    0.888024151
    0.254539430    0.926900446    0.492063731
    0.087872744    0.926900446    0.650447905
    0.921206057    0.926900446    0.808832109
    0.254539430    0.593567133    0.492063731
    0.087872744    0.593567133    0.650447905
    0.921206057    0.593567133    0.808832109
    0.254539430    0.260233879    0.492063731
    0.087872744    0.260233879    0.650447905
    0.921206057    0.260233879    0.808832109
    0.587872684    0.926900446    0.492063731
    0.421205997    0.926900446    0.650447905
    0.254539311    0.926900446    0.808832109
    0.587872684    0.593567133    0.492063731
    0.421205997    0.593567133    0.650447905
    0.254539311    0.593567133    0.808832109
    0.587872684    0.260233879    0.492063731
    0.421205997    0.260233879    0.650447905
    0.254539311    0.260233879    0.808832109
    0.921206057    0.926900446    0.492063731
    0.754539371    0.926900446    0.650447905
    0.587872684    0.926900446    0.808832109
    0.921206057    0.593567133    0.492063731
    0.754539371    0.593567133    0.650447905
    0.587872684    0.593567133    0.808832109
    0.921206057    0.260233879    0.492063731
    0.754539371    0.260233879    0.650447905
    0.587872684    0.260233879    0.808832109
    0.337872714    0.843567133    0.571255803
    0.171206027    0.843567133    0.729640007
    0.004539371    0.843567133    0.888024151
    0.337872714    0.510233879    0.571255803
    0.171206027    0.510233879    0.729640007
    0.004539371    0.510233879    0.888024151
    0.337872714    0.176900581    0.571255803
    0.171206027    0.176900581    0.729640007
    0.004539371    0.176900581    0.888024151
    0.671206117    0.843567133    0.571255803
    0.504539371    0.843567133    0.729640007
    0.337872684    0.843567133    0.888024151
    0.671206117    0.510233879    0.571255803
    0.504539371    0.510233879    0.729640007
    0.337872684    0.510233879    0.888024151
    0.671206117    0.176900581    0.571255803
    0.504539371    0.176900581    0.729640007
    0.337872684    0.176900581    0.888024151
    0.004539490    0.843567133    0.571255803
    0.837872744    0.843567133    0.729640007
    0.671205997    0.843567133    0.888024151
    0.004539490    0.510233879    0.571255803
    0.837872744    0.510233879    0.729640007
    0.671205997    0.510233879    0.888024151
    0.004539490    0.176900581    0.571255803
    0.837872744    0.176900581    0.729640007
    0.671205997    0.176900581    0.888024151
