Ge+Ge
    1.000000000
   12.651226044    0.000000000    0.000000000
    2.530245304   12.395620346    0.000000000
    0.000000000    0.000000000   13.735162735
Ge 
96
Direct
    0.900513470    0.794177651    0.500000060
    0.992590368    0.948132515    0.000000023
    0.950923562    0.656465769    0.084083088
    0.909256816    0.364798903    0.168166161
    0.867590070    0.073132217    0.252249181
    0.775513530    0.169177771    0.500000060
    0.400513411    0.294177651    0.500000060
    0.492590368    0.448132515    0.000000028
    0.450923622    0.156465769    0.084083088
    0.409256876    0.864798963    0.168166161
    0.367590129    0.573132277    0.252249181
    0.325923383    0.281465530    0.336332232
    0.275513649    0.669177711    0.500000060
    0.367590398    0.823132634    0.000000012
    0.325923622    0.531465828    0.084083088
    0.284256876    0.239799008    0.168166190
    0.242590174    0.948132396    0.252249181
    0.150513530    0.544177651    0.500000060
    0.775513530    0.169177771    0.500000060
    0.867590487    0.323132575    0.000000012
    0.825923681    0.031465776    0.084083088
    0.784256876    0.739798903    0.168166161
    0.742590129    0.448132336    0.252249181
    0.700923383    0.156465530    0.336332172
    0.034256559    0.239798784    0.420415282
    0.242590353    0.698132634    0.000000000
    0.200923592    0.406465799    0.084083080
    0.159256846    0.114798956    0.168166161
    0.117590085    0.823132396    0.252249151
    0.075923339    0.531465530    0.336332172
    0.650513470    0.044177771    0.500000060
    0.742590427    0.198132515    0.000000021
    0.700923622    0.906465709    0.084083095
    0.659256876    0.614798903    0.168166161
    0.617590249    0.323132336    0.252249181
    0.575923443    0.031465471    0.336332172
    0.858846784    0.502510905    0.584083080
    0.117590360    0.073132515    0.000000021
    0.075923599    0.781465769    0.084083088
    0.034256846    0.489798963    0.168166161
    0.608846664    0.752510905    0.584083080
    0.950923383    0.906465530    0.336332232
    0.525513470    0.419177681    0.500000060
    0.617590487    0.573132575    0.000000012
    0.575923622    0.281465828    0.084083080
    0.534256935    0.989799023    0.168166190
    0.492590189    0.698132277    0.252249241
    0.067179918    0.960844159    0.668166161
    0.942179620    0.085843921    0.920415342
    0.284256607    0.989798784    0.420415312
    0.108846664    0.252510905    0.584083080
    0.817179918    0.210844159    0.668166161
    0.525513172    0.169177413    0.752249241
    0.233846426    0.127510667    0.836332321
    0.442179680    0.585843921    0.920415342
    0.784256577    0.489798665    0.420415282
    0.992590070    0.198132217    0.252249181
    0.317179918    0.710844219    0.668166161
    0.025513172    0.669177413    0.752249241
    0.733846426    0.627510667    0.836332321
    0.817179739    0.460843980    0.920415342
    0.159256637    0.364798784    0.420415312
    0.983846784    0.627510905    0.584083080
    0.692180037    0.585844219    0.668166161
    0.400513411    0.544177473    0.752249241
    0.108846664    0.502510726    0.836332321
    0.317179680    0.960843921    0.920415282
    0.659256577    0.864798665    0.420415282
    0.483846724    0.127511024    0.584083080
    0.192179918    0.085844159    0.668166161
    0.900513291    0.044177532    0.752249241
    0.608846486    0.002510667    0.836332321
    0.692179680    0.335843891    0.920415342
    0.200923383    0.656465650    0.336332232
    0.909256577    0.614798784    0.420415312
    0.567179978    0.460844159    0.668166161
    0.275513291    0.419177413    0.752249181
    0.983846486    0.377510667    0.836332262
    0.192179680    0.835844040    0.920415342
    0.534256697    0.739798665    0.420415312
    0.358846664    0.002511024    0.584083080
    0.450923443    0.406465530    0.336332262
    0.775513232    0.919177532    0.752249241
    0.483846426    0.877510786    0.836332321
    0.067179680    0.210843921    0.920415342
    0.409256607    0.114798844    0.420415312
    0.284256607    0.989798784    0.420415312
    0.942179978    0.335844189    0.668166161
    0.650513172    0.294177413    0.752249181
    0.358846426    0.252510667    0.836332321
    0.567179739    0.710844040    0.920415342
    0.025513530    0.919177771    0.500000060
    0.733846724    0.877510905    0.584083080
    0.442180037    0.835844278    0.668166161
    0.150513172    0.794177532    0.752249241
    0.858846486    0.752510786    0.836332321
