Automatic KPOINTS generated
0
Gamma
6 3 1
0 0 0
