Si+C                                    
   1.00000000000000     
    13.3031797409999992    0.0000000000000000    0.0000000000000000
    -6.6515893940000002   14.8734064099999994    0.0000000000000000
     0.0000000000000000    0.0000000000000000    7.0064749720000004
   Si   C 
    36    84
Direct
  0.9971509579999989  0.9800565840000033  0.0000000000000000
  0.9638175369999971  0.7467231749999996  0.1733267310000031
  0.9304841160000024  0.5133898260000009  0.3466534610000025
  0.3304842109999981  0.3133898680000016  0.0000000000000000
  0.2971507910000000  0.0800564740000027  0.1733267310000031
  0.2638173699999982  0.8467230799999967  0.3466534610000025
  0.6638174650000011  0.6467231510000033  0.0000000000000000
  0.6304840450000029  0.4133897130000008  0.1733267310000031
  0.5971506240000011  0.1800563339999997  0.3466534610000025
  0.3138175309999980  0.9467233419999985  0.0866631869999992
  0.2804841100000033  0.7133899929999998  0.2599899169999986
  0.2471506890000015  0.4800565840000033  0.4333165290000025
  0.6471508150000034  0.2800565659999990  0.0866631869999992
  0.6138173940000016  0.0467231940000019  0.2599898870000033
  0.5804839729999998  0.8133897780000012  0.4333165589999979
  0.9804844259999967  0.6133898499999972  0.0866632090000010
  0.9471510050000020  0.3800564710000032  0.2599898870000033
  0.9138175849999968  0.1467230920000020  0.4333165290000025
  0.1638175699999991  0.6467230920000020  0.0000000020000002
  0.1304841640000021  0.4133897130000008  0.1733267310000031
  0.0971507499999973  0.1800563190000020  0.3466534610000025
  0.4971508980000010  0.9800566429999975  0.0000000060000005
  0.4638174179999979  0.7467231749999996  0.1733266560000004
  0.4304840559999974  0.5133898260000009  0.3466533719999987
  0.8304841519999968  0.3133898680000016  0.0000000060000005
  0.7971507310000021  0.0800565259999999  0.1733266560000004
  0.7638173100000003  0.8467230799999967  0.3466533719999987
  0.1471509040000001  0.2800565659999990  0.0866631940000033
  0.1138174829999983  0.0467231650000031  0.2599899169999986
  0.0804840699999971  0.8133897780000012  0.4333165589999979
  0.4804842169999972  0.6133899089999986  0.0866631940000033
  0.4471508259999979  0.3800565299999974  0.2599898870000033
  0.4138174059999997  0.1467231660000010  0.4333165589999979
  0.8138175010000026  0.9467232820000007  0.0866631869999992
  0.7804841399999987  0.7133898740000006  0.2599898870000033
  0.7471507189999969  0.4800564649999970  0.4333165589999979
  0.9399055840000017  0.9629140500000020  0.8020322320000020
  0.3113340439999988  0.9914855959999969  0.5743682379999981
  0.6256198290000015  0.9771999120000032  0.6882002349999965
  0.0827627179999979  0.8200568560000008  0.8020323510000011
  0.4541911479999996  0.8486284609999970  0.5743682379999981
  0.7684769029999998  0.8343426590000007  0.6882002349999965
  0.2256198079999976  0.6771997809999988  0.8020322320000020
  0.5970483420000008  0.7057713270000008  0.5743682379999981
  0.9113340970000010  0.6914855839999987  0.6882002349999965
  0.3684769870000011  0.5343426470000026  0.8020322320000020
  0.7399054770000006  0.5629141929999975  0.5743682379999981
  0.0541913510000001  0.5486283899999975  0.6882002349999965
  0.5113340620000031  0.3914855120000027  0.8020322320000020
  0.8827626109999969  0.4200570579999976  0.5743682379999981
  0.1970484409999997  0.4057713150000026  0.6882002349999965
  0.6541912559999972  0.2486283479999969  0.8020322320000020
  0.0256197450000002  0.2771999240000014  0.5743682379999981
  0.3399055000000004  0.2629141509999968  0.6882002349999965
  0.7970484499999984  0.1057711839999982  0.8020322919999998
  0.1684768940000012  0.1343427899999980  0.5743682379999981
  0.4827626940000016  0.1200569869999981  0.6882002349999965
  0.4899054770000006  0.0629141329999996  0.8589481120000002
  0.8613338469999974  0.0914856200000003  0.6312841179999964
  0.1756197360000016  0.0771999359999995  0.7451161740000032
  0.6327625509999990  0.9200568799999971  0.8589481120000002
  0.0041909219999994  0.9486284259999991  0.6312841179999964
  0.3184766769999996  0.9343426229999992  0.7451161740000032
  0.7756198639999994  0.7771998050000022  0.8589481120000002
  0.1470482499999974  0.8057712909999992  0.6312841179999964
  0.4613341089999992  0.7914856080000021  0.7451161740000032
  0.9184769390000014  0.6343427300000002  0.8589481120000002
  0.2899053100000017  0.6629142170000009  0.6312841179999964
  0.6041911840000012  0.6486284730000023  0.7451161740000032
  0.0613338949999971  0.4914855359999990  0.8589481120000002
  0.4327624439999980  0.5200570820000010  0.6312841769999977
  0.7470481989999982  0.5057713389999989  0.7451161740000032
  0.2041912230000023  0.3486283419999978  0.8589481120000002
  0.5756196979999970  0.3771999479999977  0.6312841179999964
  0.8899054529999972  0.3629141449999977  0.7451161740000032
  0.3470484019999986  0.2057712670000029  0.8589481120000002
  0.7184767720000025  0.2343427989999967  0.6312841179999964
  0.0327625270000027  0.2200570400000004  0.7451161740000032
  0.4399056430000030  0.9629140500000020  0.8020323510000011
  0.8113340740000012  0.9914857150000032  0.5743682379999981
  0.1256198880000028  0.9771998519999983  0.6882002349999965
  0.5827628369999971  0.8200568560000008  0.8020323510000011
  0.9541913269999966  0.8486285210000020  0.5743682379999981
  0.2684769629999977  0.8343426590000007  0.6882002349999965
  0.7256200309999983  0.6771997210000009  0.8020323510000011
  0.0970484019999986  0.7057713869999986  0.5743682379999981
  0.4113341569999989  0.6914855839999987  0.6882002349999965
  0.8684770460000024  0.5343427059999968  0.8020323510000011
  0.2399054770000006  0.5629142519999988  0.5743682379999981
  0.5541912910000022  0.5486284489999989  0.6882002349999965
  0.0113341810000023  0.3914854530000014  0.8020322320000020
  0.3827626109999969  0.4200570579999976  0.5743682379999981
  0.6970484260000021  0.4057712549999977  0.6882002349999965
  0.1541912699999983  0.2486283479999969  0.8020322320000020
  0.5256197450000002  0.2771999240000014  0.5743682379999981
  0.8399055599999983  0.2629141210000014  0.6882002349999965
  0.2970484499999984  0.1057711839999982  0.8020322320000020
  0.6684768800000001  0.1343427899999980  0.5743682379999981
  0.9827626940000016  0.1200569869999981  0.6882002349999965
  0.9899054170000028  0.0629141329999996  0.8589481120000002
  0.3613339360000012  0.0914856200000003  0.6312841769999977
  0.6756196620000026  0.0771998170000003  0.7451161740000032
  0.1327625509999990  0.9200569990000034  0.8589481120000002
  0.5041910409999986  0.9486285449999983  0.6312841769999977
  0.8184767369999975  0.9343427419999983  0.7451161740000032
  0.2756197450000002  0.7771998050000022  0.8589481120000002
  0.6470482349999997  0.8057712909999992  0.6312841769999977
  0.9613340499999978  0.7914855479999972  0.7451161740000032
  0.4184769390000014  0.6343426110000010  0.8589481120000002
  0.7899053690000031  0.6629141570000030  0.6312841769999977
  0.1041911840000012  0.6486283540000031  0.7451161740000032
  0.5613340140000034  0.4914855359999990  0.8589481120000002
  0.9327623840000001  0.5200570229999997  0.6312841769999977
  0.2470482740000008  0.5057712790000011  0.7451161740000032
  0.7041913269999966  0.3486283720000003  0.8589482309999994
  0.0756196979999970  0.3771999479999977  0.6312841179999964
  0.3899054529999972  0.3629141750000002  0.7451161740000032
  0.8470484019999986  0.2057712820000006  0.8589481120000002
  0.2184767870000002  0.2343427839999990  0.6312841769999977
  0.5327626469999984  0.2200570700000029  0.7451161740000032
 
  0.00000000E+00  0.00000000E+00  0.00000000E+00
  0.00000000E+00  0.00000000E+00  0.00000000E+00
  0.00000000E+00  0.00000000E+00  0.00000000E+00
  0.00000000E+00  0.00000000E+00  0.00000000E+00
  0.00000000E+00  0.00000000E+00  0.00000000E+00
  0.00000000E+00  0.00000000E+00  0.00000000E+00
  0.00000000E+00  0.00000000E+00  0.00000000E+00
  0.00000000E+00  0.00000000E+00  0.00000000E+00
  0.00000000E+00  0.00000000E+00  0.00000000E+00
  0.00000000E+00  0.00000000E+00  0.00000000E+00
  0.00000000E+00  0.00000000E+00  0.00000000E+00
  0.00000000E+00  0.00000000E+00  0.00000000E+00
  0.00000000E+00  0.00000000E+00  0.00000000E+00
  0.00000000E+00  0.00000000E+00  0.00000000E+00
  0.00000000E+00  0.00000000E+00  0.00000000E+00
  0.00000000E+00  0.00000000E+00  0.00000000E+00
  0.00000000E+00  0.00000000E+00  0.00000000E+00
  0.00000000E+00  0.00000000E+00  0.00000000E+00
  0.00000000E+00  0.00000000E+00  0.00000000E+00
  0.00000000E+00  0.00000000E+00  0.00000000E+00
  0.00000000E+00  0.00000000E+00  0.00000000E+00
  0.00000000E+00  0.00000000E+00  0.00000000E+00
  0.00000000E+00  0.00000000E+00  0.00000000E+00
  0.00000000E+00  0.00000000E+00  0.00000000E+00
  0.00000000E+00  0.00000000E+00  0.00000000E+00
  0.00000000E+00  0.00000000E+00  0.00000000E+00
  0.00000000E+00  0.00000000E+00  0.00000000E+00
  0.00000000E+00  0.00000000E+00  0.00000000E+00
  0.00000000E+00  0.00000000E+00  0.00000000E+00
  0.00000000E+00  0.00000000E+00  0.00000000E+00
  0.00000000E+00  0.00000000E+00  0.00000000E+00
  0.00000000E+00  0.00000000E+00  0.00000000E+00
  0.00000000E+00  0.00000000E+00  0.00000000E+00
  0.00000000E+00  0.00000000E+00  0.00000000E+00
  0.00000000E+00  0.00000000E+00  0.00000000E+00
  0.00000000E+00  0.00000000E+00  0.00000000E+00
  0.00000000E+00  0.00000000E+00  0.00000000E+00
  0.00000000E+00  0.00000000E+00  0.00000000E+00
  0.00000000E+00  0.00000000E+00  0.00000000E+00
  0.00000000E+00  0.00000000E+00  0.00000000E+00
  0.00000000E+00  0.00000000E+00  0.00000000E+00
  0.00000000E+00  0.00000000E+00  0.00000000E+00
  0.00000000E+00  0.00000000E+00  0.00000000E+00
  0.00000000E+00  0.00000000E+00  0.00000000E+00
  0.00000000E+00  0.00000000E+00  0.00000000E+00
  0.00000000E+00  0.00000000E+00  0.00000000E+00
  0.00000000E+00  0.00000000E+00  0.00000000E+00
  0.00000000E+00  0.00000000E+00  0.00000000E+00
  0.00000000E+00  0.00000000E+00  0.00000000E+00
  0.00000000E+00  0.00000000E+00  0.00000000E+00
  0.00000000E+00  0.00000000E+00  0.00000000E+00
  0.00000000E+00  0.00000000E+00  0.00000000E+00
  0.00000000E+00  0.00000000E+00  0.00000000E+00
  0.00000000E+00  0.00000000E+00  0.00000000E+00
  0.00000000E+00  0.00000000E+00  0.00000000E+00
  0.00000000E+00  0.00000000E+00  0.00000000E+00
  0.00000000E+00  0.00000000E+00  0.00000000E+00
  0.00000000E+00  0.00000000E+00  0.00000000E+00
  0.00000000E+00  0.00000000E+00  0.00000000E+00
  0.00000000E+00  0.00000000E+00  0.00000000E+00
  0.00000000E+00  0.00000000E+00  0.00000000E+00
  0.00000000E+00  0.00000000E+00  0.00000000E+00
  0.00000000E+00  0.00000000E+00  0.00000000E+00
  0.00000000E+00  0.00000000E+00  0.00000000E+00
  0.00000000E+00  0.00000000E+00  0.00000000E+00
  0.00000000E+00  0.00000000E+00  0.00000000E+00
  0.00000000E+00  0.00000000E+00  0.00000000E+00
  0.00000000E+00  0.00000000E+00  0.00000000E+00
  0.00000000E+00  0.00000000E+00  0.00000000E+00
  0.00000000E+00  0.00000000E+00  0.00000000E+00
  0.00000000E+00  0.00000000E+00  0.00000000E+00
  0.00000000E+00  0.00000000E+00  0.00000000E+00
  0.00000000E+00  0.00000000E+00  0.00000000E+00
  0.00000000E+00  0.00000000E+00  0.00000000E+00
  0.00000000E+00  0.00000000E+00  0.00000000E+00
  0.00000000E+00  0.00000000E+00  0.00000000E+00
  0.00000000E+00  0.00000000E+00  0.00000000E+00
  0.00000000E+00  0.00000000E+00  0.00000000E+00
  0.00000000E+00  0.00000000E+00  0.00000000E+00
  0.00000000E+00  0.00000000E+00  0.00000000E+00
  0.00000000E+00  0.00000000E+00  0.00000000E+00
  0.00000000E+00  0.00000000E+00  0.00000000E+00
  0.00000000E+00  0.00000000E+00  0.00000000E+00
  0.00000000E+00  0.00000000E+00  0.00000000E+00
  0.00000000E+00  0.00000000E+00  0.00000000E+00
  0.00000000E+00  0.00000000E+00  0.00000000E+00
  0.00000000E+00  0.00000000E+00  0.00000000E+00
  0.00000000E+00  0.00000000E+00  0.00000000E+00
  0.00000000E+00  0.00000000E+00  0.00000000E+00
  0.00000000E+00  0.00000000E+00  0.00000000E+00
  0.00000000E+00  0.00000000E+00  0.00000000E+00
  0.00000000E+00  0.00000000E+00  0.00000000E+00
  0.00000000E+00  0.00000000E+00  0.00000000E+00
  0.00000000E+00  0.00000000E+00  0.00000000E+00
  0.00000000E+00  0.00000000E+00  0.00000000E+00
  0.00000000E+00  0.00000000E+00  0.00000000E+00
  0.00000000E+00  0.00000000E+00  0.00000000E+00
  0.00000000E+00  0.00000000E+00  0.00000000E+00
  0.00000000E+00  0.00000000E+00  0.00000000E+00
  0.00000000E+00  0.00000000E+00  0.00000000E+00
  0.00000000E+00  0.00000000E+00  0.00000000E+00
  0.00000000E+00  0.00000000E+00  0.00000000E+00
  0.00000000E+00  0.00000000E+00  0.00000000E+00
  0.00000000E+00  0.00000000E+00  0.00000000E+00
  0.00000000E+00  0.00000000E+00  0.00000000E+00
  0.00000000E+00  0.00000000E+00  0.00000000E+00
  0.00000000E+00  0.00000000E+00  0.00000000E+00
  0.00000000E+00  0.00000000E+00  0.00000000E+00
  0.00000000E+00  0.00000000E+00  0.00000000E+00
  0.00000000E+00  0.00000000E+00  0.00000000E+00
  0.00000000E+00  0.00000000E+00  0.00000000E+00
  0.00000000E+00  0.00000000E+00  0.00000000E+00
  0.00000000E+00  0.00000000E+00  0.00000000E+00
  0.00000000E+00  0.00000000E+00  0.00000000E+00
  0.00000000E+00  0.00000000E+00  0.00000000E+00
  0.00000000E+00  0.00000000E+00  0.00000000E+00
  0.00000000E+00  0.00000000E+00  0.00000000E+00
  0.00000000E+00  0.00000000E+00  0.00000000E+00
  0.00000000E+00  0.00000000E+00  0.00000000E+00
  0.00000000E+00  0.00000000E+00  0.00000000E+00
