fcc Si+fcc Ge                           
   1.00000000000000     
     7.7498903219999997    0.0000000000000000    0.0000000000000000
     0.0000000000000000   16.4400000000000013    0.0000000000000000
     0.0000000000000000    0.0000000000000000   16.2346819210000000
   Si   Ge
    24    72
Direct
  0.0000000000000000  0.0000000000000000  0.0000000000000000
  0.7500000000000000  0.6111111109999996  0.0397805260000013
  0.5000000000000000  0.2222222219999992  0.0795610529999990
  0.2500000000000000  0.8333333329999988  0.1193415790000003
  0.0000000000000000  0.4444444439999984  0.1591221059999981
  0.7500000000000000  0.0555555560000016  0.1989026319999994
  0.5000000000000000  0.0000000000000000  0.0000000000000000
  0.2500000000000000  0.6111111109999996  0.0397805260000013
  0.0000000000000000  0.2222222219999992  0.0795610529999990
  0.7500000000000000  0.8333333329999988  0.1193415790000003
  0.5000000000000000  0.4444444439999984  0.1591221059999981
  0.2500000000000000  0.0555555560000016  0.1989026319999994
  0.7500000000000000  0.7500000000000000  0.0000000000000000
  0.5000000000000000  0.3611111109999996  0.0397805260000013
  0.2500000000000000  0.9722222219999992  0.0795610529999990
  0.0000000000000000  0.5833333329999988  0.1193415790000003
  0.7500000000000000  0.1944444439999984  0.1591221059999981
  0.5000000000000000  0.8055555560000016  0.1989026319999994
  0.2500000000000000  0.7500000000000000  0.0000000000000000
  0.0000000000000000  0.3611111109999996  0.0397805260000013
  0.7500000000000000  0.9722222219999992  0.0795610529999990
  0.5000000000000000  0.5833333329999988  0.1193415790000003
  0.2500000000000000  0.1944444439999984  0.1591221059999981
  0.0000000000000000  0.8055555560000016  0.1989026319999994
  0.0394736840000007  0.6932515339999981  0.2912974210000030
  0.2894736840000007  0.5265848669999968  0.4145589789999988
  0.5394736840000007  0.3599182000000027  0.5378205370000018
  0.7894736840000007  0.1932515339999981  0.6610820949999976
  0.0394736840000007  0.0265848669999968  0.7843436530000005
  0.2894736840000007  0.8599182000000027  0.9076052120000000
  0.0394736840000007  0.0265848669999968  0.2912974210000030
  0.2894736840000007  0.8599182000000027  0.4145589789999988
  0.5394736840000007  0.6932515339999981  0.5378205370000018
  0.7894736840000007  0.5265848669999968  0.6610820949999976
  0.0394736840000007  0.3599182000000027  0.7843436530000005
  0.2894736840000007  0.1932515339999981  0.9076052120000000
  0.0394736840000007  0.3599182000000027  0.2912974210000030
  0.2894736840000007  0.1932515339999981  0.4145589789999988
  0.5394736840000007  0.0265848669999968  0.5378205370000018
  0.7894736840000007  0.8599182000000027  0.6610820949999976
  0.0394736840000007  0.6932515339999981  0.7843436530000005
  0.2894736840000007  0.5265848669999968  0.9076052120000000
  0.5394736840000007  0.6932515339999981  0.2912974210000030
  0.7894736840000007  0.5265848669999968  0.4145589789999988
  0.0394736840000007  0.3599182000000027  0.5378205370000018
  0.2894736840000007  0.1932515339999981  0.6610820949999976
  0.5394736840000007  0.0265848669999968  0.7843436530000005
  0.7894736840000007  0.8599182000000027  0.9076052120000000
  0.5394736840000007  0.0265848669999968  0.2912974210000030
  0.7894736840000007  0.8599182000000027  0.4145589789999988
  0.0394736840000007  0.6932515339999981  0.5378205370000018
  0.2894736840000007  0.5265848669999968  0.6610820949999976
  0.5394736840000007  0.3599182000000027  0.7843436530000005
  0.7894736840000007  0.1932515339999981  0.9076052120000000
  0.5394736840000007  0.3599182000000027  0.2912974210000030
  0.7894736840000007  0.1932515339999981  0.4145589789999988
  0.0394736840000007  0.0265848669999968  0.5378205370000018
  0.2894736840000007  0.8599182000000027  0.6610820949999976
  0.5394736840000007  0.6932515339999981  0.7843436530000005
  0.7894736840000007  0.5265848669999968  0.9076052120000000
  0.7894736840000007  0.9432515339999981  0.2912974210000030
  0.0394736840000007  0.7765848669999968  0.4145589789999988
  0.2894736840000007  0.6099182000000027  0.5378205370000018
  0.5394736840000007  0.4432515339999981  0.6610820949999976
  0.7894736840000007  0.2765848669999968  0.7843436530000005
  0.0394736840000007  0.1099182000000027  0.9076052120000000
  0.7894736840000007  0.2765848669999968  0.2912974210000030
  0.0394736840000007  0.1099182000000027  0.4145589789999988
  0.2894736840000007  0.9432515339999981  0.5378205370000018
  0.5394736840000007  0.7765848669999968  0.6610820949999976
  0.7894736840000007  0.6099182000000027  0.7843436530000005
  0.0394736840000007  0.4432515339999981  0.9076052120000000
  0.7894736840000007  0.6099182000000027  0.2912974210000030
  0.0394736840000007  0.4432515339999981  0.4145589789999988
  0.2894736840000007  0.2765848669999968  0.5378205370000018
  0.5394736840000007  0.1099182000000027  0.6610820949999976
  0.7894736840000007  0.9432515339999981  0.7843436530000005
  0.0394736840000007  0.7765848669999968  0.9076052120000000
  0.2894736840000007  0.9432515339999981  0.2912974210000030
  0.5394736840000007  0.7765848669999968  0.4145589789999988
  0.7894736840000007  0.6099182000000027  0.5378205370000018
  0.0394736840000007  0.4432515339999981  0.6610820949999976
  0.2894736840000007  0.2765848669999968  0.7843436530000005
  0.5394736840000007  0.1099182000000027  0.9076052120000000
  0.2894736840000007  0.2765848669999968  0.2912974210000030
  0.5394736840000007  0.1099182000000027  0.4145589789999988
  0.7894736840000007  0.9432515339999981  0.5378205370000018
  0.0394736840000007  0.7765848669999968  0.6610820949999976
  0.2894736840000007  0.6099182000000027  0.7843436530000005
  0.5394736840000007  0.4432515339999981  0.9076052120000000
  0.2894736840000007  0.6099182000000027  0.2912974210000030
  0.5394736840000007  0.4432515339999981  0.4145589789999988
  0.7894736840000007  0.2765848669999968  0.5378205370000018
  0.0394736840000007  0.1099182000000027  0.6610820949999976
  0.2894736840000007  0.9432515339999981  0.7843436530000005
  0.5394736840000007  0.7765848669999968  0.9076052120000000
 
  0.00000000E+00  0.00000000E+00  0.00000000E+00
  0.00000000E+00  0.00000000E+00  0.00000000E+00
  0.00000000E+00  0.00000000E+00  0.00000000E+00
  0.00000000E+00  0.00000000E+00  0.00000000E+00
  0.00000000E+00  0.00000000E+00  0.00000000E+00
  0.00000000E+00  0.00000000E+00  0.00000000E+00
  0.00000000E+00  0.00000000E+00  0.00000000E+00
  0.00000000E+00  0.00000000E+00  0.00000000E+00
  0.00000000E+00  0.00000000E+00  0.00000000E+00
  0.00000000E+00  0.00000000E+00  0.00000000E+00
  0.00000000E+00  0.00000000E+00  0.00000000E+00
  0.00000000E+00  0.00000000E+00  0.00000000E+00
  0.00000000E+00  0.00000000E+00  0.00000000E+00
  0.00000000E+00  0.00000000E+00  0.00000000E+00
  0.00000000E+00  0.00000000E+00  0.00000000E+00
  0.00000000E+00  0.00000000E+00  0.00000000E+00
  0.00000000E+00  0.00000000E+00  0.00000000E+00
  0.00000000E+00  0.00000000E+00  0.00000000E+00
  0.00000000E+00  0.00000000E+00  0.00000000E+00
  0.00000000E+00  0.00000000E+00  0.00000000E+00
  0.00000000E+00  0.00000000E+00  0.00000000E+00
  0.00000000E+00  0.00000000E+00  0.00000000E+00
  0.00000000E+00  0.00000000E+00  0.00000000E+00
  0.00000000E+00  0.00000000E+00  0.00000000E+00
  0.00000000E+00  0.00000000E+00  0.00000000E+00
  0.00000000E+00  0.00000000E+00  0.00000000E+00
  0.00000000E+00  0.00000000E+00  0.00000000E+00
  0.00000000E+00  0.00000000E+00  0.00000000E+00
  0.00000000E+00  0.00000000E+00  0.00000000E+00
  0.00000000E+00  0.00000000E+00  0.00000000E+00
  0.00000000E+00  0.00000000E+00  0.00000000E+00
  0.00000000E+00  0.00000000E+00  0.00000000E+00
  0.00000000E+00  0.00000000E+00  0.00000000E+00
  0.00000000E+00  0.00000000E+00  0.00000000E+00
  0.00000000E+00  0.00000000E+00  0.00000000E+00
  0.00000000E+00  0.00000000E+00  0.00000000E+00
  0.00000000E+00  0.00000000E+00  0.00000000E+00
  0.00000000E+00  0.00000000E+00  0.00000000E+00
  0.00000000E+00  0.00000000E+00  0.00000000E+00
  0.00000000E+00  0.00000000E+00  0.00000000E+00
  0.00000000E+00  0.00000000E+00  0.00000000E+00
  0.00000000E+00  0.00000000E+00  0.00000000E+00
  0.00000000E+00  0.00000000E+00  0.00000000E+00
  0.00000000E+00  0.00000000E+00  0.00000000E+00
  0.00000000E+00  0.00000000E+00  0.00000000E+00
  0.00000000E+00  0.00000000E+00  0.00000000E+00
  0.00000000E+00  0.00000000E+00  0.00000000E+00
  0.00000000E+00  0.00000000E+00  0.00000000E+00
  0.00000000E+00  0.00000000E+00  0.00000000E+00
  0.00000000E+00  0.00000000E+00  0.00000000E+00
  0.00000000E+00  0.00000000E+00  0.00000000E+00
  0.00000000E+00  0.00000000E+00  0.00000000E+00
  0.00000000E+00  0.00000000E+00  0.00000000E+00
  0.00000000E+00  0.00000000E+00  0.00000000E+00
  0.00000000E+00  0.00000000E+00  0.00000000E+00
  0.00000000E+00  0.00000000E+00  0.00000000E+00
  0.00000000E+00  0.00000000E+00  0.00000000E+00
  0.00000000E+00  0.00000000E+00  0.00000000E+00
  0.00000000E+00  0.00000000E+00  0.00000000E+00
  0.00000000E+00  0.00000000E+00  0.00000000E+00
  0.00000000E+00  0.00000000E+00  0.00000000E+00
  0.00000000E+00  0.00000000E+00  0.00000000E+00
  0.00000000E+00  0.00000000E+00  0.00000000E+00
  0.00000000E+00  0.00000000E+00  0.00000000E+00
  0.00000000E+00  0.00000000E+00  0.00000000E+00
  0.00000000E+00  0.00000000E+00  0.00000000E+00
  0.00000000E+00  0.00000000E+00  0.00000000E+00
  0.00000000E+00  0.00000000E+00  0.00000000E+00
  0.00000000E+00  0.00000000E+00  0.00000000E+00
  0.00000000E+00  0.00000000E+00  0.00000000E+00
  0.00000000E+00  0.00000000E+00  0.00000000E+00
  0.00000000E+00  0.00000000E+00  0.00000000E+00
  0.00000000E+00  0.00000000E+00  0.00000000E+00
  0.00000000E+00  0.00000000E+00  0.00000000E+00
  0.00000000E+00  0.00000000E+00  0.00000000E+00
  0.00000000E+00  0.00000000E+00  0.00000000E+00
  0.00000000E+00  0.00000000E+00  0.00000000E+00
  0.00000000E+00  0.00000000E+00  0.00000000E+00
  0.00000000E+00  0.00000000E+00  0.00000000E+00
  0.00000000E+00  0.00000000E+00  0.00000000E+00
  0.00000000E+00  0.00000000E+00  0.00000000E+00
  0.00000000E+00  0.00000000E+00  0.00000000E+00
  0.00000000E+00  0.00000000E+00  0.00000000E+00
  0.00000000E+00  0.00000000E+00  0.00000000E+00
  0.00000000E+00  0.00000000E+00  0.00000000E+00
  0.00000000E+00  0.00000000E+00  0.00000000E+00
  0.00000000E+00  0.00000000E+00  0.00000000E+00
  0.00000000E+00  0.00000000E+00  0.00000000E+00
  0.00000000E+00  0.00000000E+00  0.00000000E+00
  0.00000000E+00  0.00000000E+00  0.00000000E+00
  0.00000000E+00  0.00000000E+00  0.00000000E+00
  0.00000000E+00  0.00000000E+00  0.00000000E+00
  0.00000000E+00  0.00000000E+00  0.00000000E+00
  0.00000000E+00  0.00000000E+00  0.00000000E+00
  0.00000000E+00  0.00000000E+00  0.00000000E+00
  0.00000000E+00  0.00000000E+00  0.00000000E+00
