Ge+Sn                                   
   1.00000000000000     
    11.3156003950000006    0.0000000000000000    0.0000000000000000
     0.0000000000000000   17.8915348049999992    0.0000000000000000
     0.0000000000000000   -0.0000003200000000   13.8673772809999996
   Ge   Sn
    48    48
Direct
  0.9455687399999988  0.0762038009999984  0.0000000120000010
  0.6955686809999975  0.4262039070000014  0.0645095479999966
  0.4455686809999975  0.7762039899999991  0.1290190819999992
  0.1955686209999996  0.1262041330000017  0.1935286820000002
  0.9455686809999975  0.4762041569999980  0.2580381929999973
  0.6955686809999975  0.8262043000000006  0.3225476439999966
  0.4455687399999988  0.0762038009999984  0.0000000120000010
  0.1955687110000000  0.4262039070000014  0.0645095479999966
  0.9455686809999975  0.7762039899999991  0.1290190819999992
  0.6955686809999975  0.1262041330000017  0.1935286820000002
  0.4455686809999975  0.4762041569999980  0.2580381929999973
  0.1955686209999996  0.8262043000000006  0.3225476439999966
  0.0705687250000011  0.8262039419999994  0.0000000300000025
  0.8205686809999975  0.1762040850000020  0.0645095260000019
  0.5705686809999975  0.5262041089999983  0.1290190369999991
  0.3205686209999996  0.8762041330000017  0.1935286519999977
  0.0705686209999996  0.2262041569999980  0.2580382229999998
  0.8205685619999983  0.5762043000000006  0.3225477040000015
  0.5705687399999988  0.8262039419999994  0.0000000300000025
  0.3205687399999988  0.1762040850000020  0.0645095260000019
  0.0705687110000000  0.5262041089999983  0.1290190369999991
  0.8205686809999975  0.8762041330000017  0.1935286519999977
  0.5705686809999975  0.2262041569999980  0.2580382229999998
  0.3205686209999996  0.5762043000000006  0.3225477040000015
  0.9455687399999988  0.5762038230000002  0.0000000160000013
  0.6955686809999975  0.9262039070000014  0.0645095180000013
  0.4455686809999975  0.2762039899999991  0.1290190960000004
  0.1955686209999996  0.6262041330000017  0.1935286069999975
  0.9455686809999975  0.9762041569999980  0.2580381929999973
  0.6955686809999975  0.3262043000000006  0.3225477040000015
  0.4455687399999988  0.5762038230000002  0.0000000160000013
  0.1955687110000000  0.9262039070000014  0.0645095180000013
  0.9455686809999975  0.2762039899999991  0.1290190960000004
  0.6955686809999975  0.6262041330000017  0.1935286069999975
  0.4455686809999975  0.9762041569999980  0.2580381929999973
  0.1955686209999996  0.3262043000000006  0.3225477040000015
  0.0705687250000011  0.3262038230000002  0.0000000000000000
  0.8205686809999975  0.6762039660000028  0.0645095559999973
  0.5705686809999975  0.0262039899999991  0.1290190819999992
  0.3205686209999996  0.3762041330000017  0.1935286069999975
  0.0705686209999996  0.7262041569999980  0.2580381630000019
  0.8205685619999983  0.0762043000000006  0.3225476149999977
  0.5705687399999988  0.3262038230000002  0.0000000000000000
  0.3205687399999988  0.6762039660000028  0.0645095559999973
  0.0705687110000000  0.0262039899999991  0.1290190819999992
  0.8205686809999975  0.3762041330000017  0.1935286069999975
  0.5705686809999975  0.7262041569999980  0.2580381630000019
  0.3205686209999996  0.0762043000000006  0.3225476149999977
  0.0557968620000011  0.7142813210000014  0.4224754270000020
  0.7224633690000033  0.3392813210000014  0.5179947609999971
  0.3891299369999999  0.9642812009999986  0.6135140660000005
  0.0557965039999999  0.5892810819999994  0.7090334889999994
  0.7224630119999986  0.2142810819999994  0.8045527940000028
  0.3891296389999965  0.8392810229999981  0.9000720980000025
  0.0557968620000011  0.2142813210000014  0.4224754270000020
  0.7224633690000033  0.8392812609999964  0.5179947609999971
  0.3891299369999999  0.4642812009999986  0.6135140660000005
  0.0557966229999991  0.0892812009999986  0.7090334889999994
  0.7224630119999986  0.7142810819999994  0.8045527940000028
  0.3891295190000008  0.3392810819999994  0.9000722170000017
  0.3057968620000011  0.9642813210000014  0.4224754270000020
  0.9724633690000033  0.5892813210000014  0.5179947609999971
  0.6391299960000012  0.2142812009999986  0.6135140660000005
  0.3057965639999978  0.8392812009999986  0.7090333700000002
  0.9724630119999986  0.4642810819999994  0.8045527940000028
  0.6391296389999965  0.0892810819999994  0.9000720980000025
  0.3057968620000011  0.4642813210000014  0.4224754270000020
  0.9724633690000033  0.0892813210000014  0.5179947609999971
  0.6391299960000012  0.7142812009999986  0.6135140660000005
  0.3057965639999978  0.3392812009999986  0.7090333700000002
  0.9724630119999986  0.9642810229999981  0.8045527940000028
  0.6391296389999965  0.5892810819999994  0.9000720980000025
  0.0557968620000011  0.9642813210000014  0.4224754270000020
  0.7224633690000033  0.5892813210000014  0.5179947609999971
  0.3891299369999999  0.2142812009999986  0.6135140660000005
  0.0557966229999991  0.8392812009999986  0.7090334889999994
  0.7224630119999986  0.4642810819999994  0.8045527940000028
  0.3891295190000008  0.0892810819999994  0.9000720980000025
  0.0557968620000011  0.4642813210000014  0.4224754270000020
  0.7224633690000033  0.0892813210000014  0.5179947609999971
  0.3891299369999999  0.7142812009999986  0.6135140660000005
  0.0557965039999999  0.3392810819999994  0.7090334889999994
  0.7224630119999986  0.9642810229999981  0.8045527940000028
  0.3891295190000008  0.5892810819999994  0.9000722170000017
  0.3057968910000000  0.7142813210000014  0.4224754270000020
  0.9724634290000012  0.3392813210000014  0.5179947609999971
  0.6391299960000012  0.9642811419999973  0.6135140660000005
  0.3057965639999978  0.5892810819999994  0.7090333700000002
  0.9724630119999986  0.2142810819999994  0.8045527940000028
  0.6391296389999965  0.8392810229999981  0.9000720980000025
  0.3057968910000000  0.2142813210000014  0.4224754569999973
  0.9724634290000012  0.8392812609999964  0.5179947609999971
  0.6391299960000012  0.4642813210000014  0.6135140660000005
  0.3057965639999978  0.0892812009999986  0.7090333700000002
  0.9724630119999986  0.7142810819999994  0.8045527940000028
  0.6391296389999965  0.3392810819999994  0.9000720980000025
 
  0.00000000E+00  0.00000000E+00  0.00000000E+00
  0.00000000E+00  0.00000000E+00  0.00000000E+00
  0.00000000E+00  0.00000000E+00  0.00000000E+00
  0.00000000E+00  0.00000000E+00  0.00000000E+00
  0.00000000E+00  0.00000000E+00  0.00000000E+00
  0.00000000E+00  0.00000000E+00  0.00000000E+00
  0.00000000E+00  0.00000000E+00  0.00000000E+00
  0.00000000E+00  0.00000000E+00  0.00000000E+00
  0.00000000E+00  0.00000000E+00  0.00000000E+00
  0.00000000E+00  0.00000000E+00  0.00000000E+00
  0.00000000E+00  0.00000000E+00  0.00000000E+00
  0.00000000E+00  0.00000000E+00  0.00000000E+00
  0.00000000E+00  0.00000000E+00  0.00000000E+00
  0.00000000E+00  0.00000000E+00  0.00000000E+00
  0.00000000E+00  0.00000000E+00  0.00000000E+00
  0.00000000E+00  0.00000000E+00  0.00000000E+00
  0.00000000E+00  0.00000000E+00  0.00000000E+00
  0.00000000E+00  0.00000000E+00  0.00000000E+00
  0.00000000E+00  0.00000000E+00  0.00000000E+00
  0.00000000E+00  0.00000000E+00  0.00000000E+00
  0.00000000E+00  0.00000000E+00  0.00000000E+00
  0.00000000E+00  0.00000000E+00  0.00000000E+00
  0.00000000E+00  0.00000000E+00  0.00000000E+00
  0.00000000E+00  0.00000000E+00  0.00000000E+00
  0.00000000E+00  0.00000000E+00  0.00000000E+00
  0.00000000E+00  0.00000000E+00  0.00000000E+00
  0.00000000E+00  0.00000000E+00  0.00000000E+00
  0.00000000E+00  0.00000000E+00  0.00000000E+00
  0.00000000E+00  0.00000000E+00  0.00000000E+00
  0.00000000E+00  0.00000000E+00  0.00000000E+00
  0.00000000E+00  0.00000000E+00  0.00000000E+00
  0.00000000E+00  0.00000000E+00  0.00000000E+00
  0.00000000E+00  0.00000000E+00  0.00000000E+00
  0.00000000E+00  0.00000000E+00  0.00000000E+00
  0.00000000E+00  0.00000000E+00  0.00000000E+00
  0.00000000E+00  0.00000000E+00  0.00000000E+00
  0.00000000E+00  0.00000000E+00  0.00000000E+00
  0.00000000E+00  0.00000000E+00  0.00000000E+00
  0.00000000E+00  0.00000000E+00  0.00000000E+00
  0.00000000E+00  0.00000000E+00  0.00000000E+00
  0.00000000E+00  0.00000000E+00  0.00000000E+00
  0.00000000E+00  0.00000000E+00  0.00000000E+00
  0.00000000E+00  0.00000000E+00  0.00000000E+00
  0.00000000E+00  0.00000000E+00  0.00000000E+00
  0.00000000E+00  0.00000000E+00  0.00000000E+00
  0.00000000E+00  0.00000000E+00  0.00000000E+00
  0.00000000E+00  0.00000000E+00  0.00000000E+00
  0.00000000E+00  0.00000000E+00  0.00000000E+00
  0.00000000E+00  0.00000000E+00  0.00000000E+00
  0.00000000E+00  0.00000000E+00  0.00000000E+00
  0.00000000E+00  0.00000000E+00  0.00000000E+00
  0.00000000E+00  0.00000000E+00  0.00000000E+00
  0.00000000E+00  0.00000000E+00  0.00000000E+00
  0.00000000E+00  0.00000000E+00  0.00000000E+00
  0.00000000E+00  0.00000000E+00  0.00000000E+00
  0.00000000E+00  0.00000000E+00  0.00000000E+00
  0.00000000E+00  0.00000000E+00  0.00000000E+00
  0.00000000E+00  0.00000000E+00  0.00000000E+00
  0.00000000E+00  0.00000000E+00  0.00000000E+00
  0.00000000E+00  0.00000000E+00  0.00000000E+00
  0.00000000E+00  0.00000000E+00  0.00000000E+00
  0.00000000E+00  0.00000000E+00  0.00000000E+00
  0.00000000E+00  0.00000000E+00  0.00000000E+00
  0.00000000E+00  0.00000000E+00  0.00000000E+00
  0.00000000E+00  0.00000000E+00  0.00000000E+00
  0.00000000E+00  0.00000000E+00  0.00000000E+00
  0.00000000E+00  0.00000000E+00  0.00000000E+00
  0.00000000E+00  0.00000000E+00  0.00000000E+00
  0.00000000E+00  0.00000000E+00  0.00000000E+00
  0.00000000E+00  0.00000000E+00  0.00000000E+00
  0.00000000E+00  0.00000000E+00  0.00000000E+00
  0.00000000E+00  0.00000000E+00  0.00000000E+00
  0.00000000E+00  0.00000000E+00  0.00000000E+00
  0.00000000E+00  0.00000000E+00  0.00000000E+00
  0.00000000E+00  0.00000000E+00  0.00000000E+00
  0.00000000E+00  0.00000000E+00  0.00000000E+00
  0.00000000E+00  0.00000000E+00  0.00000000E+00
  0.00000000E+00  0.00000000E+00  0.00000000E+00
  0.00000000E+00  0.00000000E+00  0.00000000E+00
  0.00000000E+00  0.00000000E+00  0.00000000E+00
  0.00000000E+00  0.00000000E+00  0.00000000E+00
  0.00000000E+00  0.00000000E+00  0.00000000E+00
  0.00000000E+00  0.00000000E+00  0.00000000E+00
  0.00000000E+00  0.00000000E+00  0.00000000E+00
  0.00000000E+00  0.00000000E+00  0.00000000E+00
  0.00000000E+00  0.00000000E+00  0.00000000E+00
  0.00000000E+00  0.00000000E+00  0.00000000E+00
  0.00000000E+00  0.00000000E+00  0.00000000E+00
  0.00000000E+00  0.00000000E+00  0.00000000E+00
  0.00000000E+00  0.00000000E+00  0.00000000E+00
  0.00000000E+00  0.00000000E+00  0.00000000E+00
  0.00000000E+00  0.00000000E+00  0.00000000E+00
  0.00000000E+00  0.00000000E+00  0.00000000E+00
  0.00000000E+00  0.00000000E+00  0.00000000E+00
  0.00000000E+00  0.00000000E+00  0.00000000E+00
  0.00000000E+00  0.00000000E+00  0.00000000E+00
