Ge+Si                                   
   1.00000000000000     
    16.0026760099999983    0.0000000000000000    0.0000000000000000
     0.0000000000000000   16.9734020229999985    0.0000000000000000
     0.0000000000000000    0.0000000000000000   10.1226501459999998
   Ge   Si
    48   108
Direct
  0.9132377509999969  0.9100242849999987  0.0000000260000022
  0.5382377509999969  0.5211353899999978  0.0658700760000031
  0.1632378099999983  0.1322464940000003  0.1317400780000000
  0.7882378099999983  0.7433574200000024  0.1976102140000009
  0.4132378099999983  0.3544685840000028  0.2634802159999978
  0.0382376909999991  0.9655795099999978  0.3293502630000020
  0.4132376909999991  0.9100242849999987  0.0000000289999988
  0.0382377170000012  0.5211353299999999  0.0658700760000031
  0.6632377509999969  0.1322464349999990  0.1317400780000000
  0.2882376909999991  0.7433574200000024  0.1976101400000019
  0.9132378099999983  0.3544684649999965  0.2634802159999978
  0.5382378099999983  0.9655797480000032  0.3293503820000012
  0.0382377279999986  0.6600242259999973  0.0000000260000022
  0.6632377509999969  0.2711352999999974  0.0658700469999971
  0.2882378099999983  0.8822463750000011  0.1317400929999977
  0.9132378099999983  0.4933574200000024  0.1976101400000019
  0.5382376909999991  0.1044684049999987  0.2634801860000024
  0.1632376909999991  0.7155796289999969  0.3293502630000020
  0.5382376909999991  0.6600242259999973  0.0000000260000022
  0.1632377059999968  0.2711352999999974  0.0658700469999971
  0.7882377509999969  0.8822463750000011  0.1317400929999977
  0.4132376909999991  0.4933574800000002  0.1976101400000019
  0.0382377509999969  0.1044684649999965  0.2634802460000003
  0.6632376909999991  0.7155796289999969  0.3293502929999974
  0.2882377509999969  0.6600242259999973  0.0000000260000022
  0.9132377509999969  0.2711352999999974  0.0658700469999971
  0.5382378099999983  0.8822463750000011  0.1317400929999977
  0.1632378099999983  0.4933574200000024  0.1976101400000019
  0.7882378099999983  0.1044684649999965  0.2634801860000024
  0.4132378099999983  0.7155795099999978  0.3293502630000020
  0.7882376909999991  0.6600241659999995  0.0000000000000000
  0.4132377210000016  0.2711352999999974  0.0658700469999971
  0.0382377840000032  0.8822463750000011  0.1317400929999977
  0.6632377509999969  0.4933574200000024  0.1976101249999971
  0.2882376909999991  0.1044684649999965  0.2634801860000024
  0.9132378099999983  0.7155796289999969  0.3293502929999974
  0.1632377210000016  0.9100242849999987  0.0000000260000022
  0.7882376909999991  0.5211353299999999  0.0658700760000031
  0.4132378099999983  0.1322464940000003  0.1317401230000002
  0.0382377509999969  0.7433574200000024  0.1976102140000009
  0.6632378099999983  0.3544685840000028  0.2634801569999965
  0.2882376909999991  0.9655795099999978  0.3293502630000020
  0.6632376909999991  0.9100242849999987  0.0000000349999993
  0.2882377509999969  0.5211353299999999  0.0658700469999971
  0.9132377509999969  0.1322464940000003  0.1317401230000002
  0.5382378099999983  0.7433574200000024  0.1976102140000009
  0.1632376909999991  0.3544684649999965  0.2634801569999965
  0.7882378099999983  0.9655797480000032  0.3293502630000020
  0.0000000000000000  0.9940677290000011  0.3293503519999987
  0.0000000000000000  0.8274010419999982  0.5976102349999977
  0.0000000000000000  0.6607342960000011  0.8658699989999974
  0.3333333429999996  0.9940677290000011  0.3293503519999987
  0.3333333429999996  0.8274010419999982  0.5976102349999977
  0.3333333429999996  0.6607342960000011  0.8658699989999974
  0.6666666870000029  0.9940677290000011  0.3293503519999987
  0.6666666870000029  0.8274010419999982  0.5976102349999977
  0.6666666870000029  0.6607342960000011  0.8658699989999974
  0.0000000000000000  0.3274010419999982  0.3293503519999987
  0.0000000000000000  0.1607343700000001  0.5976102349999977
  0.0000000000000000  0.9940676690000032  0.8658699989999974
  0.3333333429999996  0.3274010419999982  0.3293503519999987
  0.3333333429999996  0.1607343700000001  0.5976102349999977
  0.3333333429999996  0.9940676690000032  0.8658699989999974
  0.6666666870000029  0.3274010419999982  0.3293503519999987
  0.6666666870000029  0.1607343700000001  0.5976102349999977
  0.6666666870000029  0.9940676690000032  0.8658699989999974
  0.0000000000000000  0.6607344150000003  0.3293503519999987
  0.0000000000000000  0.4940676989999986  0.5976102349999977
  0.0000000000000000  0.3274010419999982  0.8658699989999974
  0.3333333429999996  0.6607344150000003  0.3293503519999987
  0.3333333429999996  0.4940676989999986  0.5976102349999977
  0.3333333429999996  0.3274010419999982  0.8658699989999974
  0.6666666870000029  0.6607344150000003  0.3293503519999987
  0.6666666870000029  0.4940676989999986  0.5976102349999977
  0.6666666870000029  0.3274010419999982  0.8658699989999974
  0.0833333360000026  0.0774010490000023  0.4634802940000000
  0.0833333360000026  0.9107343550000024  0.7317399980000019
  0.0833333360000026  0.7440676690000032  0.9999998810000008
  0.4166666870000029  0.0774010490000023  0.4634802940000000
  0.4166666870000029  0.9107343550000024  0.7317399980000019
  0.4166666870000029  0.7440676690000032  0.9999998810000008
  0.7500000000000000  0.0774010490000023  0.4634802940000000
  0.7500000000000000  0.9107343550000024  0.7317399980000019
  0.7500000000000000  0.7440676690000032  0.9999998810000008
  0.0833333360000026  0.4107343550000024  0.4634802940000000
  0.0833333360000026  0.2440676690000032  0.7317399980000019
  0.0833333360000026  0.0774009820000003  0.9999998810000008
  0.4166666870000029  0.4107343550000024  0.4634802940000000
  0.4166666870000029  0.2440676690000032  0.7317399980000019
  0.4166666870000029  0.0774009820000003  0.9999998810000008
  0.7500000000000000  0.4107343550000024  0.4634802940000000
  0.7500000000000000  0.2440676690000032  0.7317399980000019
  0.7500000000000000  0.0774009820000003  0.9999998810000008
  0.0833333360000026  0.7440677290000011  0.4634802940000000
  0.0833333360000026  0.5774010419999982  0.7317399980000019
  0.0833333360000026  0.4107343550000024  0.9999998810000008
  0.4166666870000029  0.7440677290000011  0.4634802940000000
  0.4166666870000029  0.5774010419999982  0.7317399980000019
  0.4166666870000029  0.4107343550000024  0.9999998810000008
  0.7500000000000000  0.7440677290000011  0.4634802940000000
  0.7500000000000000  0.5774010419999982  0.7317399980000019
  0.7500000000000000  0.4107343550000024  0.9999998810000008
  0.1666666719999981  0.1607343849999978  0.3293503519999987
  0.1666666719999981  0.9940676690000032  0.5976102349999977
  0.1666666719999981  0.8274009820000003  0.8658699989999974
  0.5000000000000000  0.1607343849999978  0.3293503519999987
  0.5000000000000000  0.9940676690000032  0.5976102349999977
  0.5000000000000000  0.8274009820000003  0.8658699989999974
  0.8333333730000021  0.1607343849999978  0.3293503519999987
  0.8333333730000021  0.9940676690000032  0.5976102349999977
  0.8333333730000021  0.8274009820000003  0.8658699989999974
  0.1666666719999981  0.4940676989999986  0.3293503519999987
  0.1666666719999981  0.3274010419999982  0.5976102349999977
  0.1666666719999981  0.1607343109999988  0.8658699989999974
  0.5000000000000000  0.4940676989999986  0.3293503519999987
  0.5000000000000000  0.3274010419999982  0.5976102349999977
  0.5000000000000000  0.1607343109999988  0.8658699989999974
  0.8333333730000021  0.4940676989999986  0.3293503519999987
  0.8333333730000021  0.3274010419999982  0.5976102349999977
  0.8333333730000021  0.1607343109999988  0.8658699989999974
  0.1666666719999981  0.8274010419999982  0.3293503519999987
  0.1666666719999981  0.6607343550000024  0.5976102349999977
  0.1666666719999981  0.4940676390000007  0.8658699989999974
  0.5000000000000000  0.8274010419999982  0.3293503519999987
  0.5000000000000000  0.6607343550000024  0.5976102349999977
  0.5000000000000000  0.4940676390000007  0.8658699989999974
  0.8333333730000021  0.8274010419999982  0.3293503519999987
  0.8333333730000021  0.6607343550000024  0.5976102349999977
  0.8333333730000021  0.4940676390000007  0.8658699989999974
  0.2500000000000000  0.2440677140000034  0.4634802940000000
  0.2500000000000000  0.0774010270000005  0.7317399980000019
  0.2500000000000000  0.9107343550000024  0.9999998810000008
  0.5833333730000021  0.2440677140000034  0.4634802940000000
  0.5833333730000021  0.0774010270000005  0.7317399980000019
  0.5833333730000021  0.9107343550000024  0.9999998810000008
  0.9166666870000029  0.2440677140000034  0.4634802940000000
  0.9166666870000029  0.0774010270000005  0.7317399980000019
  0.9166666870000029  0.9107343550000024  0.9999998810000008
  0.2500000000000000  0.5774011609999974  0.4634802940000000
  0.2500000000000000  0.4107344450000028  0.7317399980000019
  0.2500000000000000  0.2440677430000022  0.9999998810000008
  0.5833333730000021  0.5774011609999974  0.4634802940000000
  0.5833333730000021  0.4107344450000028  0.7317399980000019
  0.5833333730000021  0.2440677430000022  0.9999998810000008
  0.9166666870000029  0.5774011609999974  0.4634802940000000
  0.9166666870000029  0.4107344450000028  0.7317399980000019
  0.9166666870000029  0.2440677430000022  0.9999998810000008
  0.2500000000000000  0.9107343550000024  0.4634802940000000
  0.2500000000000000  0.7440676690000032  0.7317399980000019
  0.2500000000000000  0.5774010419999982  0.9999998810000008
  0.5833333730000021  0.9107343550000024  0.4634802940000000
  0.5833333730000021  0.7440676690000032  0.7317399980000019
  0.5833333730000021  0.5774010419999982  0.9999998810000008
  0.9166666870000029  0.9107343550000024  0.4634802940000000
  0.9166666870000029  0.7440676690000032  0.7317399980000019
  0.9166666870000029  0.5774010419999982  0.9999998810000008
 
  0.00000000E+00  0.00000000E+00  0.00000000E+00
  0.00000000E+00  0.00000000E+00  0.00000000E+00
  0.00000000E+00  0.00000000E+00  0.00000000E+00
  0.00000000E+00  0.00000000E+00  0.00000000E+00
  0.00000000E+00  0.00000000E+00  0.00000000E+00
  0.00000000E+00  0.00000000E+00  0.00000000E+00
  0.00000000E+00  0.00000000E+00  0.00000000E+00
  0.00000000E+00  0.00000000E+00  0.00000000E+00
  0.00000000E+00  0.00000000E+00  0.00000000E+00
  0.00000000E+00  0.00000000E+00  0.00000000E+00
  0.00000000E+00  0.00000000E+00  0.00000000E+00
  0.00000000E+00  0.00000000E+00  0.00000000E+00
  0.00000000E+00  0.00000000E+00  0.00000000E+00
  0.00000000E+00  0.00000000E+00  0.00000000E+00
  0.00000000E+00  0.00000000E+00  0.00000000E+00
  0.00000000E+00  0.00000000E+00  0.00000000E+00
  0.00000000E+00  0.00000000E+00  0.00000000E+00
  0.00000000E+00  0.00000000E+00  0.00000000E+00
  0.00000000E+00  0.00000000E+00  0.00000000E+00
  0.00000000E+00  0.00000000E+00  0.00000000E+00
  0.00000000E+00  0.00000000E+00  0.00000000E+00
  0.00000000E+00  0.00000000E+00  0.00000000E+00
  0.00000000E+00  0.00000000E+00  0.00000000E+00
  0.00000000E+00  0.00000000E+00  0.00000000E+00
  0.00000000E+00  0.00000000E+00  0.00000000E+00
  0.00000000E+00  0.00000000E+00  0.00000000E+00
  0.00000000E+00  0.00000000E+00  0.00000000E+00
  0.00000000E+00  0.00000000E+00  0.00000000E+00
  0.00000000E+00  0.00000000E+00  0.00000000E+00
  0.00000000E+00  0.00000000E+00  0.00000000E+00
  0.00000000E+00  0.00000000E+00  0.00000000E+00
  0.00000000E+00  0.00000000E+00  0.00000000E+00
  0.00000000E+00  0.00000000E+00  0.00000000E+00
  0.00000000E+00  0.00000000E+00  0.00000000E+00
  0.00000000E+00  0.00000000E+00  0.00000000E+00
  0.00000000E+00  0.00000000E+00  0.00000000E+00
  0.00000000E+00  0.00000000E+00  0.00000000E+00
  0.00000000E+00  0.00000000E+00  0.00000000E+00
  0.00000000E+00  0.00000000E+00  0.00000000E+00
  0.00000000E+00  0.00000000E+00  0.00000000E+00
  0.00000000E+00  0.00000000E+00  0.00000000E+00
  0.00000000E+00  0.00000000E+00  0.00000000E+00
  0.00000000E+00  0.00000000E+00  0.00000000E+00
  0.00000000E+00  0.00000000E+00  0.00000000E+00
  0.00000000E+00  0.00000000E+00  0.00000000E+00
  0.00000000E+00  0.00000000E+00  0.00000000E+00
  0.00000000E+00  0.00000000E+00  0.00000000E+00
  0.00000000E+00  0.00000000E+00  0.00000000E+00
  0.00000000E+00  0.00000000E+00  0.00000000E+00
  0.00000000E+00  0.00000000E+00  0.00000000E+00
  0.00000000E+00  0.00000000E+00  0.00000000E+00
  0.00000000E+00  0.00000000E+00  0.00000000E+00
  0.00000000E+00  0.00000000E+00  0.00000000E+00
  0.00000000E+00  0.00000000E+00  0.00000000E+00
  0.00000000E+00  0.00000000E+00  0.00000000E+00
  0.00000000E+00  0.00000000E+00  0.00000000E+00
  0.00000000E+00  0.00000000E+00  0.00000000E+00
  0.00000000E+00  0.00000000E+00  0.00000000E+00
  0.00000000E+00  0.00000000E+00  0.00000000E+00
  0.00000000E+00  0.00000000E+00  0.00000000E+00
  0.00000000E+00  0.00000000E+00  0.00000000E+00
  0.00000000E+00  0.00000000E+00  0.00000000E+00
  0.00000000E+00  0.00000000E+00  0.00000000E+00
  0.00000000E+00  0.00000000E+00  0.00000000E+00
  0.00000000E+00  0.00000000E+00  0.00000000E+00
  0.00000000E+00  0.00000000E+00  0.00000000E+00
  0.00000000E+00  0.00000000E+00  0.00000000E+00
  0.00000000E+00  0.00000000E+00  0.00000000E+00
  0.00000000E+00  0.00000000E+00  0.00000000E+00
  0.00000000E+00  0.00000000E+00  0.00000000E+00
  0.00000000E+00  0.00000000E+00  0.00000000E+00
  0.00000000E+00  0.00000000E+00  0.00000000E+00
  0.00000000E+00  0.00000000E+00  0.00000000E+00
  0.00000000E+00  0.00000000E+00  0.00000000E+00
  0.00000000E+00  0.00000000E+00  0.00000000E+00
  0.00000000E+00  0.00000000E+00  0.00000000E+00
  0.00000000E+00  0.00000000E+00  0.00000000E+00
  0.00000000E+00  0.00000000E+00  0.00000000E+00
  0.00000000E+00  0.00000000E+00  0.00000000E+00
  0.00000000E+00  0.00000000E+00  0.00000000E+00
  0.00000000E+00  0.00000000E+00  0.00000000E+00
  0.00000000E+00  0.00000000E+00  0.00000000E+00
  0.00000000E+00  0.00000000E+00  0.00000000E+00
  0.00000000E+00  0.00000000E+00  0.00000000E+00
  0.00000000E+00  0.00000000E+00  0.00000000E+00
  0.00000000E+00  0.00000000E+00  0.00000000E+00
  0.00000000E+00  0.00000000E+00  0.00000000E+00
  0.00000000E+00  0.00000000E+00  0.00000000E+00
  0.00000000E+00  0.00000000E+00  0.00000000E+00
  0.00000000E+00  0.00000000E+00  0.00000000E+00
  0.00000000E+00  0.00000000E+00  0.00000000E+00
  0.00000000E+00  0.00000000E+00  0.00000000E+00
  0.00000000E+00  0.00000000E+00  0.00000000E+00
  0.00000000E+00  0.00000000E+00  0.00000000E+00
  0.00000000E+00  0.00000000E+00  0.00000000E+00
  0.00000000E+00  0.00000000E+00  0.00000000E+00
  0.00000000E+00  0.00000000E+00  0.00000000E+00
  0.00000000E+00  0.00000000E+00  0.00000000E+00
  0.00000000E+00  0.00000000E+00  0.00000000E+00
  0.00000000E+00  0.00000000E+00  0.00000000E+00
  0.00000000E+00  0.00000000E+00  0.00000000E+00
  0.00000000E+00  0.00000000E+00  0.00000000E+00
  0.00000000E+00  0.00000000E+00  0.00000000E+00
  0.00000000E+00  0.00000000E+00  0.00000000E+00
  0.00000000E+00  0.00000000E+00  0.00000000E+00
  0.00000000E+00  0.00000000E+00  0.00000000E+00
  0.00000000E+00  0.00000000E+00  0.00000000E+00
  0.00000000E+00  0.00000000E+00  0.00000000E+00
  0.00000000E+00  0.00000000E+00  0.00000000E+00
  0.00000000E+00  0.00000000E+00  0.00000000E+00
  0.00000000E+00  0.00000000E+00  0.00000000E+00
  0.00000000E+00  0.00000000E+00  0.00000000E+00
  0.00000000E+00  0.00000000E+00  0.00000000E+00
  0.00000000E+00  0.00000000E+00  0.00000000E+00
  0.00000000E+00  0.00000000E+00  0.00000000E+00
  0.00000000E+00  0.00000000E+00  0.00000000E+00
  0.00000000E+00  0.00000000E+00  0.00000000E+00
  0.00000000E+00  0.00000000E+00  0.00000000E+00
  0.00000000E+00  0.00000000E+00  0.00000000E+00
  0.00000000E+00  0.00000000E+00  0.00000000E+00
  0.00000000E+00  0.00000000E+00  0.00000000E+00
  0.00000000E+00  0.00000000E+00  0.00000000E+00
  0.00000000E+00  0.00000000E+00  0.00000000E+00
  0.00000000E+00  0.00000000E+00  0.00000000E+00
  0.00000000E+00  0.00000000E+00  0.00000000E+00
  0.00000000E+00  0.00000000E+00  0.00000000E+00
  0.00000000E+00  0.00000000E+00  0.00000000E+00
  0.00000000E+00  0.00000000E+00  0.00000000E+00
  0.00000000E+00  0.00000000E+00  0.00000000E+00
  0.00000000E+00  0.00000000E+00  0.00000000E+00
  0.00000000E+00  0.00000000E+00  0.00000000E+00
  0.00000000E+00  0.00000000E+00  0.00000000E+00
  0.00000000E+00  0.00000000E+00  0.00000000E+00
  0.00000000E+00  0.00000000E+00  0.00000000E+00
  0.00000000E+00  0.00000000E+00  0.00000000E+00
  0.00000000E+00  0.00000000E+00  0.00000000E+00
  0.00000000E+00  0.00000000E+00  0.00000000E+00
  0.00000000E+00  0.00000000E+00  0.00000000E+00
  0.00000000E+00  0.00000000E+00  0.00000000E+00
  0.00000000E+00  0.00000000E+00  0.00000000E+00
  0.00000000E+00  0.00000000E+00  0.00000000E+00
  0.00000000E+00  0.00000000E+00  0.00000000E+00
  0.00000000E+00  0.00000000E+00  0.00000000E+00
  0.00000000E+00  0.00000000E+00  0.00000000E+00
  0.00000000E+00  0.00000000E+00  0.00000000E+00
  0.00000000E+00  0.00000000E+00  0.00000000E+00
  0.00000000E+00  0.00000000E+00  0.00000000E+00
  0.00000000E+00  0.00000000E+00  0.00000000E+00
  0.00000000E+00  0.00000000E+00  0.00000000E+00
  0.00000000E+00  0.00000000E+00  0.00000000E+00
  0.00000000E+00  0.00000000E+00  0.00000000E+00
  0.00000000E+00  0.00000000E+00  0.00000000E+00
  0.00000000E+00  0.00000000E+00  0.00000000E+00
  0.00000000E+00  0.00000000E+00  0.00000000E+00
  0.00000000E+00  0.00000000E+00  0.00000000E+00
  0.00000000E+00  0.00000000E+00  0.00000000E+00
