Si+C
    1.000000000
   13.303179741    0.000000000    0.000000000
    6.651589394   14.873406410    0.000000000
    0.000000000    0.000000000    7.994752407
Si  C  
36     84
Direct
    0.283249497    0.641624749    0.000000047
    0.816582799    0.408291280    0.151900828
    0.349915981    0.174957767    0.303801656
    0.616582751    0.308291376    0.000000057
    0.149916053    0.074957930    0.151900828
    0.683249235    0.841624439    0.303801626
    0.949916124    0.974958062    0.000000040
    0.483249485    0.741624594    0.151900828
    0.016582668    0.508291125    0.303801626
    0.799916267    0.774958014    0.075950287
    0.333249509    0.541624546    0.227851093
    0.866582751    0.308291078    0.379751951
    0.133249685    0.441624761    0.075950302
    0.666582942    0.208291277    0.227851093
    0.199916244    0.974957764    0.379751951
    0.466582894    0.108291537    0.075950302
    0.999916136    0.874958038    0.227851093
    0.533249378    0.641624570    0.379751951
    0.783249557    0.641624749    0.000000000
    0.316582829    0.408291280    0.151900813
    0.849916041    0.174957782    0.303801656
    0.116582796    0.308291405    0.000000057
    0.649916053    0.074957952    0.151900858
    0.183249295    0.841624498    0.303801656
    0.449916124    0.974958062    0.000000057
    0.983249426    0.741624594    0.151900858
    0.516582668    0.508291125    0.303801656
    0.299916178    0.774958134    0.075950302
    0.833249450    0.541624665    0.227851152
    0.366582692    0.308291197    0.379751921
    0.633249402    0.441624731    0.075950317
    0.166582644    0.208291262    0.227851152
    0.699915946    0.974957824    0.379751891
    0.966582716    0.108291551    0.075950302
    0.499915957    0.874958038    0.227851152
    0.033249259    0.641624629    0.379751951
    0.256733179    0.882667065    0.764696479
    0.599590242    0.911238730    0.565175295
    0.928161740    0.896952927    0.664935887
    0.542447329    0.739809990    0.764696479
    0.885304570    0.768381596    0.565175295
    0.213876009    0.754095793    0.664935887
    0.828161597    0.596952856    0.764696479
    0.171018720    0.625524461    0.565175295
    0.499590188    0.611238658    0.664935887
    0.113875985    0.454095662    0.764696479
    0.456733108    0.482667267    0.565175235
    0.785304546    0.468381494    0.664935887
    0.399590284    0.311238527    0.764696479
    0.742447376    0.339810133    0.565175235
    0.071018815    0.325524360    0.664935887
    0.685304523    0.168381408    0.764696479
    0.028161645    0.196953014    0.565175235
    0.356733114    0.182667241    0.664935887
    0.971018910    0.025524259    0.764696538
    0.313875973    0.054095864    0.565175235
    0.642447472    0.039810061    0.664935887
    0.706732988    0.982667089    0.814576685
    0.049590111    0.011238694    0.615055501
    0.378161579    0.996952832    0.714816153
    0.992447257    0.839809954    0.814576685
    0.335304409    0.868381560    0.615055501
    0.663875818    0.854095697    0.714816153
    0.278161526    0.696952820    0.814576805
    0.621018708    0.725524426    0.615055442
    0.949590206    0.711238623    0.714816093
    0.563875914    0.554095745    0.814576685
    0.906733036    0.582667291    0.615055442
    0.235304475    0.568381548    0.714816153
    0.849590302    0.411238611    0.814576805
    0.192447424    0.439810187    0.615055442
    0.521018744    0.425524414    0.714816093
    0.135304451    0.268381417    0.814576805
    0.478161633    0.296953022    0.615055501
    0.806733131    0.282667220    0.714816153
    0.421018869    0.125524282    0.814576685
    0.763875961    0.154095873    0.615055501
    0.092447400    0.139810085    0.714816093
    0.756733060    0.882667124    0.764696479
    0.099590182    0.911238611    0.565175235
    0.428161532    0.896952927    0.664935946
    0.042447567    0.739809990    0.764696538
    0.385304570    0.768381596    0.565175235
    0.713876009    0.754095793    0.664935887
    0.328161865    0.596952856    0.764696538
    0.671018839    0.625524461    0.565175235
    0.999590278    0.611238658    0.664935887
    0.613875985    0.454095721    0.764696538
    0.956733108    0.482667297    0.565175235
    0.285304457    0.468381524    0.664935887
    0.899590135    0.311238647    0.764696538
    0.242447376    0.339810163    0.565175235
    0.571018815    0.325524360    0.664935887
    0.185304642    0.168381438    0.764696538
    0.528161645    0.196952984    0.565175295
    0.856733203    0.182667196    0.664935887
    0.471018821    0.025524378    0.764696538
    0.813875914    0.054095864    0.565175295
    0.142447352    0.039810061    0.664935887
    0.206733108    0.982667208    0.814576685
    0.549590230    0.011238694    0.615055501
    0.878161550    0.996952891    0.714816093
    0.492447406    0.839810014    0.814576685
    0.835304499    0.868381619    0.615055501
    0.163875937    0.854095757    0.714816093
    0.778161645    0.696952820    0.814576685
    0.121018887    0.725524426    0.615055501
    0.449590355    0.711238563    0.714816093
    0.063875794    0.554095745    0.814576626
    0.406733066    0.582667232    0.615055442
    0.735304475    0.568381488    0.714816093
    0.349590331    0.411238551    0.814576685
    0.692447484    0.439810127    0.615055442
    0.021018863    0.425524354    0.714816093
    0.635304332    0.268381387    0.814576685
    0.978161573    0.296952993    0.615055442
    0.306732923    0.282667220    0.714816093
    0.921018720    0.125524357    0.814576685
    0.263875961    0.154095858    0.615055501
    0.592447281    0.139810085    0.714816153
