Automatic KPOINTS generated
0
Gamma
5 3 1
0 0 0
