C+Si
    1.000000000
   13.345743179    0.000000000    0.000000000
   -6.672873020   14.920996666    0.000000000
    0.000000000    0.000000000    7.599440098
C   Si 
84     36
Direct
    0.803541958    0.827111602    0.209899947
    0.174970403    0.855683148    0.000000033
    0.489256203    0.841397464    0.104950003
    0.946399033    0.684254408    0.209900007
    0.317827493    0.712826014    0.000000006
    0.632113278    0.698540211    0.104950003
    0.089256167    0.541397333    0.209899947
    0.460684687    0.569968879    0.000000033
    0.774970472    0.555683136    0.104950003
    0.232113361    0.398540169    0.209899947
    0.603541851    0.427111745    0.000000033
    0.917827666    0.412825942    0.104950003
    0.374970436    0.255683035    0.209899947
    0.746398985    0.284254611    0.000000033
    0.060684800    0.269968837    0.104950003
    0.517827630    0.112825885    0.209899947
    0.889256120    0.141397476    0.000000033
    0.203541875    0.127111688    0.104950003
    0.660684824    0.969968736    0.209899962
    0.032113254    0.998540282    0.000000021
    0.346399039    0.984254539    0.104950003
    0.353541851    0.927111626    0.262374789
    0.724970222    0.955683172    0.052474901
    0.039256096    0.941397429    0.157424897
    0.496398926    0.784254432    0.262374848
    0.867827296    0.812825978    0.052474905
    0.182113051    0.798540175    0.157424837
    0.639256239    0.641397357    0.262374848
    0.010684609    0.669968843    0.052474897
    0.324970484    0.655683160    0.157424837
    0.782113314    0.498540282    0.262374848
    0.153541684    0.527111769    0.052474897
    0.467827559    0.512826025    0.157424837
    0.924970269    0.355683059    0.262374878
    0.296398789    0.384254605    0.052474927
    0.610684574    0.369968861    0.157424852
    0.067827582    0.212825894    0.262374878
    0.439256072    0.241397485    0.052474920
    0.753541827    0.227111697    0.157424852
    0.210684776    0.069968797    0.262374878
    0.582113147    0.098540336    0.052474923
    0.896398902    0.084254570    0.157424897
    0.303542018    0.827111602    0.209900007
    0.674970448    0.855683267    0.000000000
    0.989256203    0.841397405    0.104950003
    0.446399212    0.684254408    0.209900007
    0.817827702    0.712826073    0.000000000
    0.132113338    0.698540211    0.104950003
    0.589256406    0.541397274    0.209900007
    0.960684776    0.569968939    0.000000000
    0.274970531    0.555683136    0.104950003
    0.732113421    0.398540229    0.209900007
    0.103541844    0.427111775    0.000000014
    0.417827666    0.412825972    0.104949996
    0.874970555    0.255683005    0.209899947
    0.246398970    0.284254581    0.000000017
    0.560684800    0.269968808    0.104949996
    0.017827630    0.112825878    0.209899947
    0.389256120    0.141397446    0.000000016
    0.703541934    0.127111673    0.104949996
    0.160684824    0.969968736    0.209899947
    0.532113254    0.998540342    0.000000016
    0.846399069    0.984254539    0.104949996
    0.853541791    0.927111626    0.262374848
    0.224970296    0.955683172    0.052474927
    0.539256036    0.941397369    0.157424897
    0.996398866    0.784254551    0.262374848
    0.367827386    0.812826097    0.052474927
    0.682113111    0.798540294    0.157424897
    0.139256120    0.641397357    0.262374789
    0.510684609    0.669968843    0.052474927
    0.824970424    0.655683100    0.157424897
    0.282113314    0.498540163    0.262374848
    0.653541744    0.527111709    0.052474927
    0.967827499    0.512825906    0.157424897
    0.424970388    0.355683088    0.262374848
    0.796398759    0.384254575    0.052474935
    0.110684633    0.369968832    0.157424897
    0.567827702    0.212825909    0.262374908
    0.939256072    0.241397485    0.052474923
    0.253541827    0.227111712    0.157424897
    0.710684776    0.069968820    0.262374789
    0.082113147    0.098540328    0.052474927
    0.396399021    0.084254608    0.157424897
    0.012302518    0.029439330    0.431434453
    0.978969038    0.796105862    0.591236949
    0.945635617    0.562772512    0.751039386
    0.345635712    0.362772584    0.431434453
    0.312302291    0.129439190    0.591236949
    0.278968871    0.896105766    0.751039386
    0.678968966    0.696105838    0.431434453
    0.645635545    0.462772429    0.591236949
    0.612302125    0.229439050    0.751039386
    0.328969061    0.996106029    0.511335492
    0.295635641    0.762772679    0.671137929
    0.262302220    0.529439330    0.830940366
    0.662302315    0.329439282    0.511335492
    0.628968894    0.096105911    0.671137869
    0.595635474    0.862772465    0.830940425
    0.995635927    0.662772536    0.511335492
    0.962302506    0.429439187    0.671137869
    0.928969085    0.196105808    0.830940366
    0.178969085    0.696105838    0.431434453
    0.145635679    0.462772429    0.591236949
    0.112302266    0.229439035    0.751039386
    0.512302399    0.029439330    0.431434453
    0.478968918    0.796105862    0.591236889
    0.445635557    0.562772512    0.751039326
    0.845635653    0.362772584    0.431434453
    0.812302232    0.129439235    0.591236889
    0.778968811    0.896105766    0.751039326
    0.162302420    0.329439282    0.511335492
    0.128968999    0.096105881    0.671137929
    0.095635585    0.862772465    0.830940425
    0.495635748    0.662772655    0.511335492
    0.462302327    0.429439247    0.671137869
    0.428968906    0.196105883    0.830940425
    0.828969002    0.996106029    0.511335492
    0.795635641    0.762772560    0.671137869
    0.762302220    0.529439211    0.830940425
