Si+Ge
    1.000000000
   16.293001175    0.000000000    0.000000000
    0.000000000   16.293001175    0.000000000
    0.000000000    0.000000000   10.122648239
Si  Ge 
108     48
Direct
    0.000000000    0.994067729    0.000000000
    0.000000000    0.827401042    0.268259853
    0.000000000    0.660734296    0.536519825
    0.333333343    0.994067729    0.000000000
    0.333333343    0.827401042    0.268259853
    0.333333343    0.660734296    0.536519825
    0.666666687    0.994067729    0.000000000
    0.666666687    0.827401042    0.268259853
    0.666666687    0.660734296    0.536519825
    0.000000000    0.327401042    0.000000000
    0.000000000    0.160734370    0.268259853
    0.000000000    0.994067669    0.536519825
    0.333333343    0.327401042    0.000000000
    0.333333343    0.160734370    0.268259853
    0.333333343    0.994067669    0.536519825
    0.666666687    0.327401042    0.000000000
    0.666666687    0.160734370    0.268259853
    0.666666687    0.994067669    0.536519825
    0.000000000    0.660734415    0.000000000
    0.000000000    0.494067699    0.268259853
    0.000000000    0.327401042    0.536519825
    0.333333343    0.660734415    0.000000000
    0.333333343    0.494067699    0.268259853
    0.333333343    0.327401042    0.536519825
    0.666666687    0.660734415    0.000000000
    0.666666687    0.494067699    0.268259853
    0.666666687    0.327401042    0.536519825
    0.083333336    0.077401049    0.134129956
    0.083333336    0.910734355    0.402389765
    0.083333336    0.744067669    0.670649707
    0.416666687    0.077401049    0.134129956
    0.416666687    0.910734355    0.402389765
    0.416666687    0.744067669    0.670649707
    0.750000000    0.077401049    0.134129956
    0.750000000    0.910734355    0.402389765
    0.750000000    0.744067669    0.670649707
    0.083333336    0.410734355    0.134129956
    0.083333336    0.244067669    0.402389765
    0.083333336    0.077400982    0.670649707
    0.416666687    0.410734355    0.134129956
    0.416666687    0.244067669    0.402389765
    0.416666687    0.077400982    0.670649707
    0.750000000    0.410734355    0.134129956
    0.750000000    0.244067669    0.402389765
    0.750000000    0.077400982    0.670649707
    0.083333336    0.744067729    0.134129956
    0.083333336    0.577401042    0.402389765
    0.083333336    0.410734355    0.670649707
    0.416666687    0.744067729    0.134129956
    0.416666687    0.577401042    0.402389765
    0.416666687    0.410734355    0.670649707
    0.750000000    0.744067729    0.134129956
    0.750000000    0.577401042    0.402389765
    0.750000000    0.410734355    0.670649707
    0.166666672    0.160734385    0.000000000
    0.166666672    0.994067669    0.268259853
    0.166666672    0.827400982    0.536519825
    0.500000000    0.160734385    0.000000000
    0.500000000    0.994067669    0.268259853
    0.500000000    0.827400982    0.536519825
    0.833333373    0.160734385    0.000000000
    0.833333373    0.994067669    0.268259853
    0.833333373    0.827400982    0.536519825
    0.166666672    0.494067699    0.000000000
    0.166666672    0.327401042    0.268259853
    0.166666672    0.160734311    0.536519825
    0.500000000    0.494067699    0.000000000
    0.500000000    0.327401042    0.268259853
    0.500000000    0.160734311    0.536519825
    0.833333373    0.494067699    0.000000000
    0.833333373    0.327401042    0.268259853
    0.833333373    0.160734311    0.536519825
    0.166666672    0.827401042    0.000000000
    0.166666672    0.660734355    0.268259853
    0.166666672    0.494067639    0.536519825
    0.500000000    0.827401042    0.000000000
    0.500000000    0.660734355    0.268259853
    0.500000000    0.494067639    0.536519825
    0.833333373    0.827401042    0.000000000
    0.833333373    0.660734355    0.268259853
    0.833333373    0.494067639    0.536519825
    0.250000000    0.244067714    0.134129956
    0.250000000    0.077401027    0.402389765
    0.250000000    0.910734355    0.670649707
    0.583333373    0.244067714    0.134129956
    0.583333373    0.077401027    0.402389765
    0.583333373    0.910734355    0.670649707
    0.916666687    0.244067714    0.134129956
    0.916666687    0.077401027    0.402389765
    0.916666687    0.910734355    0.670649707
    0.250000000    0.577401161    0.134129956
    0.250000000    0.410734445    0.402389765
    0.250000000    0.244067743    0.670649707
    0.583333373    0.577401161    0.134129956
    0.583333373    0.410734445    0.402389765
    0.583333373    0.244067743    0.670649707
    0.916666687    0.577401161    0.134129956
    0.916666687    0.410734445    0.402389765
    0.916666687    0.244067743    0.670649707
    0.250000000    0.910734355    0.134129956
    0.250000000    0.744067669    0.402389765
    0.250000000    0.577401042    0.670649707
    0.583333373    0.910734355    0.134129956
    0.583333373    0.744067669    0.402389765
    0.583333373    0.577401042    0.670649707
    0.916666687    0.910734355    0.134129956
    0.916666687    0.744067669    0.402389765
    0.916666687    0.577401042    0.670649707
    0.910024285    0.913237751    0.670649707
    0.521135330    0.538237691    0.736519814
    0.132246375    0.163237751    0.802389741
    0.743357301    0.788237810    0.868259907
    0.354468465    0.413237810    0.934129834
    0.965579510    0.038237691    1.000000000
    0.910024285    0.413237661    0.670649707
    0.521135330    0.038237650    0.736519814
    0.132246375    0.663237691    0.802389920
    0.743357301    0.288237691    0.868259907
    0.354468465    0.913237810    0.934129834
    0.965579510    0.538237691    1.000000000
    0.660024166    0.038237695    0.670649707
    0.271135211    0.663237691    0.736519814
    0.882246315    0.288237751    0.802389741
    0.493357360    0.913237810    0.868259907
    0.104468405    0.538237810    0.934129953
    0.715579271    0.163237810    1.000000000
    0.660024226    0.538237631    0.670649707
    0.271135241    0.163237616    0.736519814
    0.882246315    0.788237631    0.802389741
    0.493357360    0.413237631    0.868259907
    0.104468405    0.038237751    0.934129953
    0.715579391    0.663237572    1.000000000
    0.660024226    0.288237721    0.670649827
    0.271135241    0.913237691    0.736519814
    0.882246315    0.538237751    0.802389741
    0.493357301    0.163237751    0.868259907
    0.104468465    0.788237810    0.934129953
    0.715579391    0.413237810    1.000000000
    0.660024226    0.788237631    0.670649707
    0.271135241    0.413237602    0.736519814
    0.882246315    0.038237661    0.802389741
    0.493357360    0.663237691    0.868259907
    0.104468465    0.288237751    0.934129953
    0.715579271    0.913237572    1.000000000
    0.910024285    0.163237691    0.670649707
    0.521135330    0.788237691    0.736519814
    0.132246375    0.413237810    0.802389920
    0.743357301    0.038237751    0.868259907
    0.354468703    0.663237929    0.934129953
    0.965579510    0.288237691    1.000000000
    0.910024285    0.663237631    0.670649707
    0.521135330    0.288237661    0.736519814
    0.132246375    0.913237751    0.802389920
    0.743357420    0.538237751    0.868259907
    0.354468584    0.163237810    0.934129834
    0.965579271    0.788237572    1.000000000
