Sn+Si
    1.000000000
   19.467599869    0.000000000    0.000000000
    0.000000000   19.467599869    0.000000000
    0.000000000    0.000000000   19.100252151
Sn  Si 
108     156
Direct
    0.843038082    0.062884443    0.890053868
    0.496884346    0.332115173    0.890053868
    0.661701739    0.666666687    0.339744180
    0.612268925    0.909038246    0.890053868
    0.828368425    0.333333343    0.169872105
    0.661701739    0.333333343    0.339744180
    0.995035112    0.000000000    0.000000000
    0.828368425    0.000000000    0.169872105
    0.900730610    0.851346016    0.534626484
    0.919961214    0.447499841    0.890053868
    0.161701739    0.666666687    0.169872105
    0.919961214    0.447499990    0.605711937
    0.328368455    0.333333343    0.000000000
    0.766114950    0.678269029    0.890053868
    0.995035112    0.333333343    0.339744180
    0.227653503    0.985961258    0.890053868
    0.996884286    0.832115233    0.890053868
    0.995035112    0.000000000    0.339744180
    0.661701798    0.666666687    0.000000000
    0.495035112    0.666666687    0.169872105
    0.328368455    0.666666687    0.339744180
    0.661701798    0.333333343    0.000000000
    0.495035112    0.333333343    0.169872105
    0.328368455    0.333333343    0.339744180
    0.804576516    0.870576739    0.890053868
    0.495035112    0.000000000    0.169872105
    0.328368455    0.000000000    0.339744180
    0.419961214    0.947499752    0.890053868
    0.911701798    0.916666746    0.254808098
    0.593038321    0.312884539    0.534626484
    0.535345793    0.524422884    0.890053868
    0.516115189    0.928269088    0.534626484
    0.362268925    0.159038350    0.534626484
    0.078368433    0.250000000    0.084936053
    0.746884346    0.082115322    0.534626484
    0.745035052    0.250000000    0.424680233
    0.411701769    0.916666746    0.084936053
    0.245035097    0.916666746    0.254808098
    0.669961333    0.697499871    0.534626484
    0.411701769    0.583333433    0.084936053
    0.245035097    0.583333433    0.254808098
    0.078368381    0.583333433    0.424680233
    0.411701769    0.250000000    0.084936053
    0.245035097    0.250000000    0.254808098
    0.977653563    0.235961497    0.534626484
    0.745035172    0.916666746    0.084936053
    0.246884346    0.582115293    0.534626484
    0.411701798    0.916666746    0.424680233
    0.745035172    0.583333433    0.084936053
    0.578368545    0.583333433    0.254808098
    0.411701798    0.583333433    0.424680233
    0.745035172    0.250000000    0.084936053
    0.578368545    0.250000000    0.254808098
    0.554576635    0.120576859    0.534626484
    0.161701769    0.833333313    0.000000000
    0.073807359    0.216730610    0.890053868
    0.285345912    0.774423003    0.534626484
    0.161701769    0.500000000    0.000000000
    0.766115189    0.178269103    0.747882783
    0.828368425    0.500000000    0.339744180
    0.161701769    0.166666672    0.000000000
    0.995035052    0.166666672    0.169872105
    0.169961214    0.197499931    0.534626484
    0.035345793    0.024422884    0.890053868
    0.328368425    0.833333313    0.169872105
    0.161701754    0.833333313    0.339744180
    0.495035112    0.500000000    0.000000000
    0.650730371    0.101345956    0.890053868
    0.161701754    0.500000000    0.339744180
    0.495035112    0.166666672    0.000000000
    0.328368425    0.166666672    0.169872105
    0.161701754    0.166666672    0.339744180
    0.828368545    0.833333313    0.000000000
    0.881499529    0.255192131    0.890053868
    0.495035201    0.833333313    0.339744180
    0.343038082    0.562884390    0.890053868
    0.689191818    0.293653667    0.890053868
    0.495035201    0.500000000    0.339744180
    0.828368545    0.166666672    0.000000000
    0.661701858    0.166666672    0.169872105
    0.495035201    0.166666672    0.339744180
    0.245035097    0.750000060    0.084936053
    0.400730610    0.351346105    0.534626484
    0.911701739    0.750000060    0.424680233
    0.169961214    0.197499827    0.818968296
    0.078368433    0.416666716    0.254808098
    0.911701739    0.416666716    0.424680233
    0.245035097    0.083333343    0.084936053
    0.078368433    0.083333343    0.254808098
    0.911701739    0.083333343    0.424680233
    0.578368485    0.750000060    0.084936053
    0.439192057    0.543653727    0.534626484
    0.245035127    0.750000060    0.424680233
    0.578368485    0.416666716    0.084936053
    0.411701858    0.416666716    0.254808098
    0.245035127    0.416666716    0.424680233
    0.578368485    0.083333343    0.084936053
    0.631499767    0.505192220    0.534626484
    0.785345912    0.274422944    0.534626484
    0.150730371    0.601346016    0.890053868
    0.516115069    0.428269118    0.676797330
    0.093038201    0.812884569    0.534626484
    0.911701739    0.416666716    0.084936053
    0.745035052    0.416666716    0.254808098
    0.578368366    0.416666716    0.424680233
    0.911701739    0.083333343    0.084936053
    0.823807478    0.466730744    0.534626484
    0.578368366    0.083333343    0.424680233
    0.939192057    0.043653727    0.534626484
    0.823807359    0.966730595    0.676797330
    0.708422661    0.889807463    0.818968296
    0.016115069    0.428269207    0.534626484
    0.900730371    0.351346046    0.676797330
    0.785345793    0.274422914    0.818968296
    0.828368425    0.166666672    0.339744180
    0.054576635    0.120576799    0.676797330
    0.939191937    0.043653727    0.818968296
    0.578368366    0.750000060    0.424680233
    0.977653503    0.735961437    0.676797330
    0.862268925    0.659038305    0.818968296
    0.578368545    0.916666746    0.254808098
    0.131499767    0.505192161    0.676797330
    0.016115069    0.428269058    0.818968296
    0.078368433    0.750000060    0.254808098
    0.285345793    0.274422944    0.676797330
    0.245035097    0.416666716    0.084936053
    0.411701798    0.250000000    0.424680233
    0.439192057    0.043653727    0.676797330
    0.323807359    0.966730535    0.818968296
    0.323807478    0.966730773    0.534626484
    0.208422899    0.889807642    0.676797330
    0.093038201    0.812884450    0.818968296
    0.477653623    0.735961437    0.534626484
    0.362268925    0.659038305    0.676797330
    0.246884227    0.582115173    0.818968296
    0.411701858    0.083333343    0.254808098
    0.745035052    0.750000060    0.254808098
    0.400730371    0.351345986    0.818968296
    0.245035127    0.083333343    0.424680233
    0.669961214    0.197499797    0.676797330
    0.554576635    0.120576665    0.818968296
    0.708422899    0.889807582    0.534626484
    0.593038321    0.812884450    0.676797330
    0.477653503    0.735961318    0.818968296
    0.862269044    0.659038365    0.534626484
    0.746884346    0.582115233    0.676797330
    0.631499767    0.505192101    0.818968296
    0.958422840    0.639807582    0.605711937
    0.843038201    0.562884450    0.747882783
    0.727653503    0.485961378    0.890053868
    0.112268925    0.409038424    0.605711937
    0.996884286    0.332115293    0.747882783
    0.661701858    0.833333313    0.169872105
    0.266115189    0.178269163    0.605711937
    0.150730491    0.101346016    0.747882783
    0.495035112    0.833333313    0.000000000
    0.035345912    0.024423003    0.605711937
    0.919961214    0.947499871    0.747882783
    0.661701798    0.000000000    0.000000000
    0.189192057    0.793653786    0.605711937
    0.073807359    0.716730654    0.747882783
    0.958422720    0.639807522    0.890053868
    0.343038321    0.562884569    0.605711937
    0.227653623    0.485961437    0.747882783
    0.112268925    0.409038305    0.890053868
    0.496884346    0.332115293    0.605711937
    0.381499767    0.255192131    0.747882783
    0.266115069    0.178269014    0.890053868
    0.650730610    0.101346053    0.605711937
    0.535345793    0.024422884    0.747882783
    0.078368433    0.916666746    0.084936053
    0.419961452    0.947499931    0.605711937
    0.304576635    0.870576799    0.747882783
    0.189192057    0.793653667    0.890053868
    0.573807478    0.716730714    0.605711937
    0.458422899    0.639807522    0.747882783
    0.828368545    0.500000000    0.000000000
    0.727653742    0.485961467    0.605711937
    0.612268925    0.409038305    0.747882783
    0.828368425    0.666666687    0.169872105
    0.881499767    0.255192250    0.605711937
    0.995035052    0.500000000    0.169872105
    0.328368425    0.500000000    0.169872105
    0.804576874    0.870576859    0.605711937
    0.689192176    0.793653727    0.747882783
    0.573807478    0.716730535    0.890053868
    0.078368381    0.250000000    0.424680233
    0.862268925    0.159038350    0.676797330
    0.746884227    0.082115218    0.818968296
    0.054576635    0.620576799    0.534626484
    0.939192057    0.543653727    0.676797330
    0.823807240    0.466730595    0.818968296
    0.208422899    0.389807671    0.534626484
    0.093038201    0.312884539    0.676797330
    0.977653503    0.235961407    0.818968296
    0.745035052    0.583333433    0.424680233
    0.246884346    0.082115225    0.676797330
    0.131499648    0.005192041    0.818968296
    0.131499767    0.005192161    0.534626484
    0.016115069    0.928269029    0.676797330
    0.900730371    0.851345956    0.818968296
    0.828368425    0.833333313    0.339744180
    0.169961214    0.697499871    0.676797330
    0.054576516    0.620576739    0.818968296
    0.411701858    0.750000060    0.254808098
    0.323807478    0.466730624    0.676797330
    0.208422661    0.389807492    0.818968296
    0.745035052    0.916666746    0.424680233
    0.477653623    0.235961407    0.676797330
    0.362268925    0.159038275    0.818968296
    0.911701798    0.250000000    0.254808098
    0.631499767    0.005192161    0.676797330
    0.516115069    0.928269029    0.818968296
    0.911701798    0.583333433    0.254808098
    0.400730371    0.851346016    0.676797330
    0.285345793    0.774422824    0.818968296
    0.078368381    0.916666746    0.424680233
    0.554576635    0.620576739    0.676797330
    0.439191937    0.543653607    0.818968296
    0.745035052    0.083333343    0.254808098
    0.708422899    0.389807612    0.676797330
    0.593038082    0.312884480    0.818968296
    0.661701739    0.000000000    0.339744180
    0.785345912    0.774422884    0.676797330
    0.669961214    0.697499752    0.818968296
    0.073807478    0.216730714    0.605711937
    0.958422780    0.139807582    0.747882783
    0.995035112    0.666666687    0.000000000
    0.996884346    0.832115352    0.605711937
    0.881499767    0.755192161    0.747882783
    0.161701739    0.333333343    0.169872105
    0.150730491    0.601346135    0.605711937
    0.035345912    0.524423003    0.747882783
    0.328368455    0.666666687    0.000000000
    0.304576635    0.370576888    0.605711937
    0.189192057    0.293653756    0.747882783
    0.995035052    0.833333313    0.169872105
    0.458422899    0.139807597    0.605711937
    0.343038201    0.062884480    0.747882783
    0.328368455    0.000000000    0.000000000
    0.227653623    0.985961556    0.605711937
    0.112268925    0.909038365    0.747882783
    0.161701739    0.000000000    0.169872105
    0.381499767    0.755192339    0.605711937
    0.266115069    0.678269148    0.747882783
    0.911701739    0.750000060    0.084936053
    0.535346031    0.524423003    0.605711937
    0.419961214    0.447499901    0.747882783
    0.304576635    0.370576769    0.890053868
    0.689192057    0.293653756    0.605711937
    0.573807478    0.216730624    0.747882783
    0.458422780    0.139807478    0.890053868
    0.843038321    0.062884539    0.605711937
    0.727653503    0.985961378    0.747882783
    0.995035112    0.333333343    0.000000000
    0.612269163    0.909038484    0.605711937
    0.496884346    0.832115352    0.747882783
    0.381499767    0.755192220    0.890053868
    0.766115189    0.678269148    0.605711937
    0.650730610    0.601346016    0.747882783
    0.078368433    0.583333433    0.084936053
    0.995035112    0.666666687    0.339744180
    0.804576635    0.370576829    0.747882783
    0.661701858    0.500000000    0.169872105
