Si+C
    1.000000000
   13.303179741    0.000000000    0.000000000
   -6.651589394   11.520891190    0.000000000
    0.000000000    0.000000000   21.679418564
Si  C  
72     308
Direct
    0.348160356    0.681493700    0.000000013
    0.681493759    0.014827132    0.144634396
    0.014827251    0.348160625    0.289268821
    0.014827028    0.014827028    0.000000014
    0.348160386    0.348160386    0.144634396
    0.681493878    0.681493878    0.289268821
    0.681493700    0.348160356    0.000000000
    0.014827132    0.681493759    0.144634381
    0.348160625    0.014827251    0.289268792
    0.014827013    0.681493759    0.036158606
    0.348160386    0.014827132    0.180793002
    0.681493878    0.348160625    0.325427443
    0.348160416    0.348160416    0.036158621
    0.681493759    0.681493819    0.180793017
    0.014827251    0.014827251    0.325427443
    0.681493759    0.014827013    0.036158606
    0.014827132    0.348160386    0.180793002
    0.348160625    0.681493878    0.325427413
    0.014827028    0.514827013    0.000000017
    0.348160416    0.848160446    0.144634411
    0.681493819    0.181493878    0.289268821
    0.681493759    0.848160386    0.000000038
    0.014827132    0.181493759    0.144634396
    0.348160625    0.514827251    0.289268821
    0.348160386    0.181493685    0.000000008
    0.681493759    0.514827073    0.144634381
    0.014827132    0.848160505    0.289268792
    0.348160416    0.848160267    0.036158569
    0.681493878    0.181493759    0.180792972
    0.014827132    0.514827013    0.325427353
    0.014827132    0.181493700    0.036158592
    0.348160505    0.514827132    0.180792972
    0.681493759    0.848160446    0.325427324
    0.681493819    0.514827073    0.036158577
    0.014827251    0.848160505    0.180793002
    0.348160625    0.181493878    0.325427383
    0.181493700    0.848160386    0.000000024
    0.514827073    0.181493759    0.144634396
    0.848160565    0.514827251    0.289268821
    0.514827013    0.514827013    0.000000014
    0.848160446    0.848160386    0.144634396
    0.181493878    0.181493878    0.289268821
    0.848160386    0.181493700    0.000000005
    0.181493759    0.514827073    0.144634381
    0.514827251    0.848160565    0.289268821
    0.181493685    0.514827013    0.036158577
    0.514827132    0.848160505    0.180793002
    0.848160446    0.181493759    0.325427353
    0.848160386    0.848160386    0.036158558
    0.181493878    0.181493878    0.180793002
    0.514827251    0.514827251    0.325427383
    0.514827073    0.181493670    0.036158577
    0.848160505    0.514827132    0.180793002
    0.181493759    0.848160446    0.325427383
    0.181493700    0.348160356    0.000000013
    0.514827073    0.681493759    0.144634396
    0.848160505    0.014827132    0.289268821
    0.848160386    0.681493759    0.000000027
    0.181493759    0.014827132    0.144634396
    0.514827251    0.348160625    0.289268821
    0.514827013    0.014827021    0.000000013
    0.848160386    0.348160416    0.144634396
    0.181493878    0.681493819    0.289268821
    0.514827013    0.681493640    0.036158621
    0.848160386    0.014827013    0.180793002
    0.181493878    0.348160505    0.325427443
    0.181493655    0.014827013    0.036158614
    0.514827013    0.348160386    0.180793002
    0.848160446    0.681493878    0.325427443
    0.848160446    0.348160386    0.036158606
    0.181493878    0.681493759    0.180793002
    0.514827251    0.014827251    0.325427413
    0.832630455    0.112757802    0.900184751
    0.785011768    0.303234369    0.425242633
    0.594535470    0.065139055    0.520231068
    0.404059231    0.827043772    0.615219474
    0.213582933    0.588948369    0.710207880
    0.023106813    0.350853145    0.805196285
    0.975487590    0.541329324    0.900184751
    0.927868903    0.731805861    0.425242662
    0.737392604    0.493710518    0.520231068
    0.546916366    0.255615234    0.615219533
    0.356440067    0.017519832    0.710207939
    0.165963858    0.779424608    0.805196345
    0.546916127    0.255614996    0.900184751
    0.499297440    0.446091533    0.425242633
    0.308821201    0.207996204    0.520231068
    0.118344933    0.969900906    0.615219474
    0.927868545    0.731805503    0.710207939
    0.737392366    0.493710339    0.805196345
    0.689773262    0.684186459    0.900184751
    0.642154574    0.874662936    0.425242633
    0.451678336    0.636567652    0.520231068
    0.261202097    0.398472369    0.615219474
    0.070725799    0.160376906    0.710207880
    0.880249560    0.922281742    0.805196345
    0.118344739    0.969900668    0.900184751
    0.070726037    0.160377264    0.425242633
    0.880249739    0.922281921    0.520231068
    0.689773500    0.684186637    0.615219474
    0.499297142    0.446091294    0.710207880
    0.308820963    0.207995996    0.805196285
    0.261201859    0.398472130    0.900184751
    0.213583171    0.588948667    0.425242633
    0.023106933    0.350853324    0.520231068
    0.832630634    0.112758040    0.615219474
    0.642154276    0.874662697    0.710207939
    0.451678097    0.636567473    0.805196285
    0.404058993    0.827043593    0.900184751
    0.356440306    0.017520070    0.425242633
    0.165964037    0.779424787    0.520231068
    0.975487769    0.541329503    0.615219474
    0.785011470    0.303234100    0.710207939
    0.594535291    0.065138817    0.805196285
    0.023106933    0.350853384    0.448989779
    0.832630694    0.112758040    0.543978214
    0.642154455    0.874662817    0.638966620
    0.451678097    0.636567414    0.733955085
    0.261201799    0.398472071    0.828943491
    0.737392664    0.493710577    0.448989749
    0.546916425    0.255615294    0.543978155
    0.356440187    0.017519951    0.638966560
    0.165963918    0.779424667    0.733955026
    0.975487530    0.541329205    0.828943491
    0.880249858    0.922282040    0.448989749
    0.689773619    0.684186757    0.543978155
    0.499297380    0.446091413    0.638966620
    0.308821082    0.207996070    0.733955026
    0.118344747    0.969900668    0.828943491
    0.308821261    0.207996264    0.448989779
    0.118344992    0.969900966    0.543978214
    0.927868724    0.731805682    0.638966620
    0.737392366    0.493710279    0.733955085
    0.546916068    0.255614936    0.828943491
    0.451678395    0.636567712    0.448989779
    0.261202157    0.398472399    0.543978214
    0.070725918    0.160377026    0.638966620
    0.880249560    0.922281742    0.733955026
    0.689773262    0.684186339    0.828943491
    0.594535530    0.065139174    0.448989779
    0.404059350    0.827043891    0.543978214
    0.213583067    0.588948607    0.638966620
    0.023106813    0.350853205    0.733955026
    0.832630396    0.112757802    0.828943491
    0.165964067    0.779424846    0.448989779
    0.975487828    0.541329503    0.543978214
    0.785011590    0.303234220    0.638966620
    0.594535291    0.065138817    0.733955085
    0.404058933    0.827043474    0.828943491
    0.046916246    0.255615056    0.900184751
    0.999297500    0.446091533    0.425242633
    0.808821261    0.207996234    0.520231068
    0.618345022    0.969900966    0.615219474
    0.427868664    0.731805503    0.710207880
    0.237392500    0.493710339    0.805196345
    0.618344724    0.969900668    0.900184751
    0.570726037    0.160377264    0.425242633
    0.380249798    0.922281921    0.520231068
    0.189773530    0.684186637    0.615219474
    0.999297202    0.446091235    0.710207939
    0.808820963    0.207995936    0.805196345
    0.761201918    0.398472130    0.900184751
    0.713583171    0.588948667    0.425242662
    0.523106933    0.350853354    0.520231068
    0.332630694    0.112758040    0.615219533
    0.142154381    0.874662697    0.710207939
    0.951678097    0.636567473    0.805196345
    0.904058993    0.827043593    0.900184751
    0.856440306    0.017520070    0.425242633
    0.665964007    0.779424787    0.520231068
    0.475487769    0.541329503    0.615219533
    0.285011470    0.303234100    0.710207939
    0.094535246    0.065138817    0.805196345
    0.332630396    0.112757802    0.900184751
    0.285011739    0.303234398    0.425242633
    0.094535463    0.065139055    0.520231068
    0.904059231    0.827043831    0.615219474
    0.713582873    0.588948369    0.710207880
    0.523106694    0.350853086    0.805196345
    0.475487530    0.541329265    0.900184751
    0.427868843    0.731805861    0.425242633
    0.237392604    0.493710518    0.520231068
    0.046916366    0.255615234    0.615219474
    0.856440008    0.017519832    0.710207939
    0.665963829    0.779424608    0.805196345
    0.189773276    0.684186399    0.900184751
    0.142154574    0.874662936    0.425242633
    0.951678276    0.636567652    0.520231068
    0.761202037    0.398472339    0.615219474
    0.570725739    0.160376906    0.710207939
    0.380249500    0.922281682    0.805196345
    0.808821321    0.207996279    0.448989749
    0.618345082    0.969900966    0.543978214
    0.427868783    0.731805682    0.638966560
    0.237392485    0.493710339    0.733955026
    0.046916246    0.255614996    0.828943491
    0.951678455    0.636567652    0.448989749
    0.761202216    0.398472369    0.543978214
    0.570725918    0.160377026    0.638966620
    0.380249679    0.922281742    0.733955026
    0.189773291    0.684186339    0.828943491
    0.523106992    0.350853413    0.448989719
    0.332630694    0.112758040    0.543978155
    0.142154455    0.874662817    0.638966560
    0.951678216    0.636567533    0.733955026
    0.761201859    0.398472190    0.828943431
    0.665964127    0.779424906    0.448989719
    0.475487828    0.541329563    0.543978155
    0.285011649    0.303234279    0.638966560
    0.094535358    0.065138936    0.733955026
    0.904059112    0.827043593    0.828943372
    0.237392679    0.493710577    0.448989749
    0.046916366    0.255615205    0.543978214
    0.856440127    0.017519951    0.638966620
    0.665963888    0.779424667    0.733955026
    0.475487590    0.541329324    0.828943431
    0.380249798    0.922282040    0.448989749
    0.189773545    0.684186697    0.543978214
    0.999297321    0.446091413    0.638966560
    0.808821023    0.207996070    0.733955026
    0.618344784    0.969900727    0.828943491
    0.094535515    0.065139174    0.448989749
    0.904059231    0.827043891    0.543978214
    0.713582933    0.588948548    0.638966560
    0.523106694    0.350853235    0.733955026
    0.332630396    0.112757921    0.828943491
    0.975487649    0.041329265    0.900184751
    0.927868903    0.231805801    0.425242662
    0.737392664    0.993710458    0.520231068
    0.546916485    0.755615234    0.615219533
    0.356440067    0.517519832    0.710207939
    0.165963888    0.279424608    0.805196345
    0.689773381    0.184186444    0.900184751
    0.642154634    0.374662995    0.425242662
    0.451678395    0.136567593    0.520231068
    0.261202157    0.898472369    0.615219533
    0.070725799    0.660377026    0.710207939
    0.880249560    0.422281802    0.805196345
    0.832630455    0.612757802    0.900184751
    0.785011768    0.803234398    0.425242633
    0.594535470    0.565139055    0.520231068
    0.404059231    0.327043772    0.615219474
    0.213582933    0.088948369    0.710207880
    0.023106694    0.850853145    0.805196285
    0.404059052    0.327043533    0.900184751
    0.356440306    0.517520070    0.425242633
    0.165964037    0.279424757    0.520231068
    0.975487769    0.041329503    0.615219474
    0.785011470    0.803234100    0.710207939
    0.594535291    0.565138876    0.805196345
    0.546916187    0.755614996    0.900184751
    0.499297440    0.946091533    0.425242633
    0.308821201    0.707996249    0.520231068
    0.118344963    0.469900906    0.615219474
    0.927868605    0.231805503    0.710207880
    0.737392426    0.993710279    0.805196285
    0.118344679    0.469900727    0.900184751
    0.070726037    0.660377204    0.425242633
    0.880249739    0.422281921    0.520231068
    0.689773500    0.184186637    0.615219474
    0.499297142    0.946091235    0.710207939
    0.308820963    0.707996011    0.805196285
    0.261201859    0.898472130    0.900184751
    0.213583156    0.088948727    0.425242633
    0.023106933    0.850853384    0.520231068
    0.832630575    0.612758100    0.615219474
    0.642154396    0.374662846    0.710207820
    0.451678097    0.136567473    0.805196345
    0.880249858    0.422281921    0.448989779
    0.689773619    0.184186623    0.543978214
    0.499297321    0.946091354    0.638966620
    0.308821052    0.707996011    0.733955085
    0.118344694    0.469900548    0.828943491
    0.023107052    0.850853443    0.448989779
    0.832630694    0.612758100    0.543978214
    0.642154455    0.374662817    0.638966620
    0.451678157    0.136567473    0.733955085
    0.261201859    0.898472071    0.828943491
    0.594535530    0.565139174    0.448989749
    0.404059291    0.327043802    0.543978214
    0.213583067    0.088948488    0.638966620
    0.023106813    0.850853264    0.733955085
    0.832630455    0.612757921    0.828943491
    0.737392724    0.993710577    0.448989749
    0.546916425    0.755615234    0.543978214
    0.356440187    0.517519951    0.638966560
    0.165963963    0.279424608    0.733955026
    0.975487649    0.041329265    0.828943431
    0.165964112    0.279424787    0.448989749
    0.975487769    0.041329384    0.543978214
    0.785011590    0.803234160    0.638966560
    0.594535291    0.565138936    0.733955026
    0.404059052    0.327043593    0.828943431
    0.308821261    0.707996309    0.448989749
    0.118344985    0.469900906    0.543978214
    0.927868724    0.231805682    0.638966560
    0.737392485    0.993710339    0.733955026
    0.546916187    0.755615056    0.828943431
    0.451678395    0.136567593    0.448989719
    0.261202097    0.898472369    0.543978155
    0.070725918    0.660377085    0.638966560
    0.880249619    0.422281742    0.733955026
    0.689773321    0.184186384    0.828943372
    0.904059112    0.327043533    0.900184751
    0.856440365    0.517520070    0.425242662
    0.665964127    0.279424787    0.520231068
    0.475487888    0.041329503    0.615219533
    0.285011560    0.803234100    0.710207939
    0.094535321    0.565138817    0.805196404
    0.046916246    0.755614996    0.900184751
    0.999297559    0.946091533    0.425242633
    0.808821261    0.707996249    0.520231068
    0.618345022    0.469900966    0.615219474
    0.427868724    0.231805548    0.710207880
    0.237392515    0.993710339    0.805196285
    0.475487530    0.041329145    0.900184751
    0.427868903    0.231805801    0.425242633
    0.237392619    0.993710458    0.520231068
    0.046916366    0.755615175    0.615219474
    0.856440008    0.517519772    0.710207880
    0.665963829    0.279424548    0.805196345
    0.618344665    0.469900668    0.900184751
    0.570726037    0.660377204    0.425242633
    0.380249739    0.422281921    0.520231068
    0.189773530    0.184186637    0.615219474
    0.999297202    0.946091235    0.710207939
    0.808820903    0.707996011    0.805196345
    0.761201918    0.898472190    0.900184751
    0.713583231    0.088948727    0.425242633
    0.523106933    0.850853384    0.520231068
    0.332630694    0.612758100    0.615219474
    0.142154396    0.374662697    0.710207880
    0.951678157    0.136567473    0.805196285
    0.189773276    0.184186384    0.900184751
    0.142154589    0.374662936    0.425242633
    0.951678276    0.136567593    0.520231068
    0.761202037    0.898472369    0.615219474
    0.570725679    0.660376966    0.710207880
    0.380249500    0.422281742    0.805196345
    0.332630455    0.612757921    0.900184751
    0.285011709    0.803234458    0.425242633
    0.094535477    0.565139115    0.520231068
    0.904059231    0.327043831    0.615219474
    0.713582873    0.088948369    0.710207880
    0.523106694    0.850853264    0.805196285
    0.665964186    0.279424876    0.448989779
    0.475487888    0.041329503    0.543978214
    0.285011679    0.803234279    0.638966620
    0.094535373    0.565138936    0.733955085
    0.904059052    0.327043533    0.828943491
    0.808821321    0.707996309    0.448989749
    0.618345082    0.469900966    0.543978155
    0.427868843    0.231805682    0.638966620
    0.237392575    0.993710339    0.733955026
    0.046916246    0.755614936    0.828943491
    0.951678455    0.136567712    0.448989749
    0.761202216    0.898472369    0.543978214
    0.570725918    0.660377085    0.638966560
    0.380249619    0.422281742    0.733955026
    0.189773306    0.184186384    0.828943491
    0.380249858    0.422281981    0.448989749
    0.189773619    0.184186697    0.543978214
    0.999297321    0.946091413    0.638966620
    0.808821023    0.707996070    0.733955085
    0.618344724    0.469900668    0.828943491
    0.523106933    0.850853384    0.448989749
    0.332630694    0.612758100    0.543978214
    0.142154455    0.374662817    0.638966620
    0.951678157    0.136567473    0.733955026
    0.761201799    0.898472011    0.828943491
    0.094535559    0.565139174    0.448989749
    0.904059291    0.327043861    0.543978214
    0.713583052    0.088948488    0.638966620
    0.523106694    0.850853205    0.733955085
    0.332630396    0.612757802    0.828943491
    0.237392709    0.993710577    0.448989749
    0.046916485    0.755615294    0.543978214
    0.856440187    0.517519951    0.638966620
    0.665963948    0.279424638    0.733955026
    0.475487590    0.041329265    0.828943491
