Sn+Si                                   
   1.00000000000000     
    19.4675998690000007    0.0000000000000000    0.0000000000000000
     0.0000000000000000   19.4675998690000007    0.0000000000000000
     0.0000000000000000    0.0000000000000000   19.1002521509999994
   Sn   Si
   108   156
Direct
  0.6693663599999979  0.5605053310000017  0.8900538680000025
  0.8283684250000007  0.6666666870000029  0.1698721050000032
  0.6617017390000015  0.6666666870000029  0.3397441799999967
  0.5924433469999997  0.1758899390000010  0.8900538680000025
  0.2270587679999991  0.8489669559999982  0.8189682960000013
  0.6617017390000015  0.3333333429999996  0.3397441799999967
  0.9950351119999965  0.0000000000000000  0.0000000000000000
  0.1309048829999995  0.8681977390000029  0.8900538680000025
  0.6617017390000015  0.0000000000000000  0.3397441799999967
  0.8232124450000029  0.3297361429999981  0.8900538680000025
  0.1617017390000015  0.6666666870000029  0.1698721050000032
  0.9950351119999965  0.6666666870000029  0.3397441799999967
  0.3283684550000032  0.3333333429999996  0.0000000000000000
  0.5155202750000001  0.7912747259999975  0.8900538680000025
  0.9950351119999965  0.3333333429999996  0.3397441799999967
  0.3283684550000032  0.0000000000000000  0.0000000000000000
  0.3616741000000019  0.0220437050000015  0.8900538680000025
  0.9950351119999965  0.0000000000000000  0.3397441799999967
  0.6617017980000028  0.6666666870000029  0.0000000000000000
  0.2847509979999998  0.6374285220000004  0.8900538680000025
  0.3283684550000032  0.6666666870000029  0.3397441799999967
  0.6617017980000028  0.3333333429999996  0.0000000000000000
  0.7078279850000015  0.7528130410000031  0.8900538680000025
  0.3283684550000032  0.3333333429999996  0.3397441799999967
  0.7847509979999998  0.1374284329999966  0.8900538680000025
  0.5539817809999974  0.9835822579999984  0.8900538680000025
  0.3283684550000032  0.0000000000000000  0.3397441799999967
  0.0783684330000014  0.9166667459999971  0.0849360529999998
  0.9117017980000028  0.9166667459999971  0.2548080979999980
  0.4193665089999996  0.8105055090000022  0.5346264840000003
  0.0783684330000014  0.5833334330000000  0.0849360529999998
  0.2655203340000014  0.0412746670000033  0.5346264840000003
  0.3424434360000035  0.4258901480000006  0.5346264840000003
  0.0783684330000014  0.2500000000000000  0.0849360529999998
  0.1116741749999974  0.2720439730000024  0.5346264840000003
  0.7450350519999986  0.2500000000000000  0.4246802329999966
  0.4117017689999969  0.9166667459999971  0.0849360529999998
  0.0347511769999969  0.8874285220000004  0.5346264840000003
  0.5732126830000013  0.5797362329999984  0.5346264840000003
  0.4117017689999969  0.5833334330000000  0.0849360529999998
  0.4578281040000007  0.0028132200000002  0.5346264840000003
  0.0783683809999971  0.5833334330000000  0.4246802329999966
  0.4117017689999969  0.2500000000000000  0.0849360529999998
  0.3039818700000012  0.2335824070000001  0.5346264840000003
  0.0783683809999971  0.2500000000000000  0.4246802329999966
  0.7450351720000015  0.9166667459999971  0.0849360529999998
  0.5783685450000036  0.9166667459999971  0.2548080979999980
  0.4117017980000028  0.9166667459999971  0.4246802329999966
  0.7450351720000015  0.5833334330000000  0.0849360529999998
  0.9770588279999970  0.0989670160000031  0.6057119370000024
  0.4117017980000028  0.5833334330000000  0.4246802329999966
  0.7450351720000015  0.2500000000000000  0.0849360529999998
  0.8809049729999998  0.1181977990000007  0.5346264840000003
  0.5347511169999990  0.3874285819999983  0.5346264840000003
  0.1617017689999969  0.8333333129999971  0.0000000000000000
  0.0924433019999995  0.6758900279999978  0.8900538680000025
  0.8283684250000007  0.8333333129999971  0.3397441799999967
  0.0155202150000022  0.2912746069999983  0.8900538680000025
  0.9001355770000004  0.7143515349999987  0.8900538680000025
  0.8283684250000007  0.5000000000000000  0.3397441799999967
  0.2078279260000002  0.2528130709999985  0.8900538680000025
  0.4962895210000013  0.1951207520000011  0.8189682960000013
  0.8283684250000007  0.1666666719999981  0.3397441799999967
  0.4950351119999965  0.8333333129999971  0.0000000000000000
  0.3283684250000007  0.8333333129999971  0.1698721050000032
  0.1617017539999992  0.8333333129999971  0.3397441799999967
  0.4950351119999965  0.5000000000000000  0.0000000000000000
  0.3283684250000007  0.5000000000000000  0.1698721050000032
  0.1617017539999992  0.5000000000000000  0.3397441799999967
  0.3232125939999975  0.8297361730000006  0.8900538680000025
  0.3283684250000007  0.1666666719999981  0.1698721050000032
  0.1617017539999992  0.1666666719999981  0.3397441799999967
  0.8283685450000036  0.8333333129999971  0.0000000000000000
  0.1693663599999979  0.0605053900000030  0.8900538680000025
  0.4950352010000003  0.8333333129999971  0.3397441799999967
  0.8283685450000036  0.5000000000000000  0.0000000000000000
  0.6617018580000007  0.5000000000000000  0.1698721050000032
  0.4950352010000003  0.5000000000000000  0.3397441799999967
  0.8283685450000036  0.1666666719999981  0.0000000000000000
  0.4001356360000017  0.2143514750000008  0.8900538680000025
  0.4950352010000003  0.1666666719999981  0.3397441799999967
  0.2450350969999988  0.7500000599999979  0.0849360529999998
  0.0783684330000014  0.7500000599999979  0.2548080979999980
  0.7655202750000001  0.5412747259999975  0.5346264840000003
  0.2450350969999988  0.4166667160000017  0.0849360529999998
  0.0783684330000014  0.4166667160000017  0.2548080979999980
  0.9578280449999994  0.5028132200000002  0.5346264840000003
  0.2450350969999988  0.0833333429999996  0.0849360529999998
  0.0783684330000014  0.0833333429999996  0.2548080979999980
  0.9117017390000015  0.0833333429999996  0.4246802329999966
  0.5783684849999986  0.7500000599999979  0.0849360529999998
  0.4117018580000007  0.7500000599999979  0.2548080979999980
  0.2450351270000013  0.7500000599999979  0.4246802329999966
  0.5783684849999986  0.4166667160000017  0.0849360529999998
  0.1501357109999972  0.4643516840000004  0.5346264840000003
  0.0732126239999999  0.0797362329999984  0.5346264840000003
  0.5783684849999986  0.0833333429999996  0.0849360529999998
  0.9193664789999971  0.3105054199999984  0.5346264840000003
  0.2450351270000013  0.0833333429999996  0.4246802329999966
  0.9117017390000015  0.7500000599999979  0.0849360529999998
  0.6501356959999995  0.9643515940000000  0.5346264840000003
  0.5783683659999994  0.7500000599999979  0.4246802329999966
  0.9117017390000015  0.4166667160000017  0.0849360529999998
  0.2462895509999967  0.4451209010000028  0.6057119370000024
  0.5783683659999994  0.4166667160000017  0.4246802329999966
  0.9117017390000015  0.0833333429999996  0.0849360529999998
  0.8424434659999989  0.9258900880000027  0.5346264840000003
  0.5783683659999994  0.0833333429999996  0.4246802329999966
  0.2450351270000013  0.4166667160000017  0.4246802329999966
  0.9578279260000002  0.0028131010000010  0.6767973299999994
  0.8424432870000018  0.9258899689999964  0.8189682960000013
  0.4117018580000007  0.4166667160000017  0.2548080979999980
  0.0347510579999977  0.3874285220000004  0.6767973299999994
  0.9193663599999979  0.3105053900000030  0.8189682960000013
  0.2450350969999988  0.2500000000000000  0.2548080979999980
  0.1885972019999969  0.1566592750000027  0.6767973299999994
  0.0732125039999971  0.0797361139999992  0.8189682960000013
  0.2270587980000016  0.8489670749999974  0.5346264840000003
  0.1116741149999996  0.7720439429999999  0.6767973299999994
  0.9962894319999975  0.6951208110000024  0.8189682960000013
  0.3809050019999987  0.6181977990000007  0.5346264840000003
  0.2655203039999989  0.5412746670000033  0.6767973299999994
  0.1501356509999994  0.4643515349999987  0.8189682960000013
  0.4117017980000028  0.2500000000000000  0.4246802329999966
  0.4193664490000018  0.3105054199999984  0.6767973299999994
  0.3039817809999974  0.2335822880000009  0.8189682960000013
  0.6885972620000018  0.1566593350000005  0.5346264840000003
  0.5732125640000021  0.0797361139999992  0.6767973299999994
  0.4578279549999991  0.0028129820000018  0.8189682960000013
  0.2450350969999988  0.5833334330000000  0.2548080979999980
  0.3424434360000035  0.9258901480000006  0.6767973299999994
  0.8283684250000007  0.3333333429999996  0.1698721050000032
  0.6116741900000022  0.7720439429999999  0.5346264840000003
  0.4962895210000013  0.6951208110000024  0.6767973299999994
  0.3809048529999970  0.6181976800000015  0.8189682960000013
  0.9117017390000015  0.7500000599999979  0.4246802329999966
  0.6501356360000017  0.4643515940000000  0.6767973299999994
  0.5347509380000020  0.3874284629999991  0.8189682960000013
  0.4117018580000007  0.0833333429999996  0.2548080979999980
  0.8039818410000024  0.2335822579999984  0.6767973299999994
  0.6885971430000026  0.1566591260000010  0.8189682960000013
  0.7450350519999986  0.0833333429999996  0.2548080979999980
  0.7270588279999970  0.8489669559999982  0.6767973299999994
  0.6116741299999973  0.7720438240000007  0.8189682960000013
  0.9962896110000017  0.6951208710000003  0.5346264840000003
  0.8809049729999998  0.6181977390000029  0.6767973299999994
  0.7655202750000001  0.5412746069999983  0.8189682960000013
  0.0924434209999987  0.6758900880000027  0.6057119370000024
  0.9770587679999991  0.5989669559999982  0.7478827830000014
  0.8616740699999994  0.5220438240000007  0.8900538680000025
  0.7450350519999986  0.4166667160000017  0.2548080979999980
  0.1309048829999995  0.3681977689999982  0.7478827830000014
  0.1617017689999969  0.5000000000000000  0.0000000000000000
  0.4001357260000020  0.2143516240000025  0.6057119370000024
  0.2847510280000023  0.1374284919999980  0.7478827830000014
  0.6617018580000007  0.8333333129999971  0.1698721050000032
  0.1693664789999971  0.0605055090000022  0.6057119370000024
  0.0539817809999974  0.9835823769999976  0.7478827830000014
  0.9385970829999977  0.9066592450000002  0.8900538680000025
  0.3232126529999988  0.8297362919999998  0.6057119370000024
  0.2078279850000015  0.7528131600000023  0.7478827830000014
  0.9950350519999986  0.8333333129999971  0.1698721050000032
  0.4770588579999995  0.5989670749999974  0.6057119370000024
  0.3616741900000022  0.5220438839999986  0.7478827830000014
  0.2462895210000013  0.4451207819999965  0.8900538680000025
  0.6309049729999998  0.3681977689999982  0.6057119370000024
  0.5155202750000001  0.2912746069999983  0.7478827830000014
  0.6617018580000007  0.1666666719999981  0.1698721050000032
  0.7847511169999990  0.1374285220000004  0.6057119370000024
  0.6693664189999993  0.0605053900000030  0.7478827830000014
  0.4950351119999965  0.0000000000000000  0.1698721050000032
  0.5539819600000015  0.9835824370000026  0.6057119370000024
  0.4385972919999972  0.9066593049999980  0.7478827830000014
  0.4950351119999965  0.1666666719999981  0.0000000000000000
  0.7078281040000007  0.7528132200000002  0.6057119370000024
  0.5924434069999975  0.6758900279999978  0.7478827830000014
  0.4770587379999967  0.5989668969999968  0.8900538680000025
  0.8616742490000036  0.5220439429999999  0.6057119370000024
  0.7462895509999967  0.4451207819999965  0.7478827830000014
  0.6309048529999970  0.3681976499999990  0.8900538680000025
  0.0155204530000006  0.2912747259999975  0.6057119370000024
  0.9001356959999995  0.2143515650000012  0.7478827830000014
  0.6617017980000028  0.0000000000000000  0.0000000000000000
  0.9385974409999989  0.9066593650000030  0.6057119370000024
  0.8232127429999991  0.8297362329999984  0.7478827830000014
  0.4950351119999965  0.3333333429999996  0.1698721050000032
  0.9117017980000028  0.2500000000000000  0.2548080979999980
  0.9962894920000025  0.1951208260000001  0.6767973299999994
  0.8809047940000028  0.1181976940000027  0.8189682960000013
  0.1885972469999970  0.6566593049999980  0.5346264840000003
  0.0732126239999999  0.5797362329999984  0.6767973299999994
  0.9578278660000024  0.5028130410000031  0.8189682960000013
  0.7450350519999986  0.5833334330000000  0.4246802329999966
  0.2270587679999991  0.3489670160000031  0.6767973299999994
  0.1116740780000001  0.2720438839999986  0.8189682960000013
  0.4962895809999992  0.1951208260000001  0.5346264840000003
  0.3809049130000020  0.1181976940000027  0.6767973299999994
  0.2655202150000022  0.0412745479999970  0.8189682960000013
  0.9117017980000028  0.5833334330000000  0.2548080979999980
  0.1501356360000017  0.9643515349999987  0.6767973299999994
  0.0347509380000020  0.8874284629999991  0.8189682960000013
  0.7450350519999986  0.9166667459999971  0.4246802329999966
  0.3039818109999999  0.7335823769999976  0.6767973299999994
  0.1885971580000003  0.6566592450000002  0.8189682960000013
  0.0783683809999971  0.9166667459999971  0.4246802329999966
  0.4578280149999969  0.5028131010000010  0.6767973299999994
  0.3424433169999972  0.4258899689999964  0.8189682960000013
  0.7270588279999970  0.3489670160000031  0.5346264840000003
  0.6116741900000022  0.2720438839999986  0.6767973299999994
  0.9950350519999986  0.1666666719999981  0.1698721050000032
  0.5783685450000036  0.2500000000000000  0.2548080979999980
  0.7655202750000001  0.0412746670000033  0.6767973299999994
  0.6501356360000017  0.9643515349999987  0.8189682960000013
  0.7450350519999986  0.7500000599999979  0.2548080979999980
  0.5347509979999998  0.8874285220000004  0.6767973299999994
  0.4193663900000004  0.8105053310000017  0.8189682960000013
  0.8039818999999966  0.7335823769999976  0.5346264840000003
  0.6885972019999969  0.6566592450000002  0.6767973299999994
  0.5732125039999971  0.5797360540000014  0.8189682960000013
  0.9117017390000015  0.4166667160000017  0.4246802329999966
  0.8424434069999975  0.4258900880000027  0.6767973299999994
  0.7270587089999978  0.3489669559999982  0.8189682960000013
  0.2450350969999988  0.9166667459999971  0.2548080979999980
  0.9193664789999971  0.8105053900000030  0.6767973299999994
  0.8039818410000024  0.7335822579999984  0.8189682960000013
  0.2078280149999969  0.2528131899999977  0.6057119370000024
  0.0924433539999967  0.1758900580000002  0.7478827830000014
  0.9770586489999999  0.0989669189999987  0.8900538680000025
  0.1309049279999996  0.8681978580000020  0.6057119370000024
  0.0155203340000014  0.7912746670000033  0.7478827830000014
  0.9950350519999986  0.5000000000000000  0.1698721050000032
  0.2847511169999990  0.6374286409999996  0.6057119370000024
  0.1693664490000018  0.5605054500000008  0.7478827830000014
  0.0539817809999974  0.4835823180000034  0.8900538680000025
  0.4385972919999972  0.4066593650000030  0.6057119370000024
  0.3232126239999999  0.3297362329999984  0.7478827830000014
  0.1617017689999969  0.1666666719999981  0.0000000000000000
  0.5924434069999975  0.1758900729999979  0.6057119370000024
  0.4770587980000016  0.0989669490000011  0.7478827830000014
  0.1617017390000015  0.0000000000000000  0.1698721050000032
  0.3616742490000036  0.0220440630000027  0.6057119370000024
  0.2462895809999992  0.9451208710000003  0.7478827830000014
  0.8283684250000007  0.0000000000000000  0.1698721050000032
  0.5155203340000014  0.7912748460000003  0.6057119370000024
  0.4001356659999971  0.7143516539999979  0.7478827830000014
  0.4950351119999965  0.6666666870000029  0.1698721050000032
  0.6693665390000021  0.5605055090000022  0.6057119370000024
  0.5539818410000024  0.4835823769999976  0.7478827830000014
  0.4385972019999969  0.4066592450000002  0.8900538680000025
  0.8232126830000013  0.3297362329999984  0.6057119370000024
  0.7078279850000015  0.2528131010000010  0.7478827830000014
  0.9950351119999965  0.3333333429999996  0.0000000000000000
  0.5783685450000036  0.5833334330000000  0.2548080979999980
  0.8616741299999973  0.0220438240000007  0.7478827830000014
  0.7462894920000025  0.9451207520000011  0.8900538680000025
  0.7462896700000030  0.9451209899999995  0.6057119370000024
  0.6309049729999998  0.8681978580000020  0.7478827830000014
  0.1617017390000015  0.3333333429999996  0.1698721050000032
  0.9001358149999987  0.7143516539999979  0.6057119370000024
  0.7847511169999990  0.6374285220000004  0.7478827830000014
  0.9950351119999965  0.6666666870000029  0.0000000000000000
  0.0539818999999966  0.4835824669999980  0.6057119370000024
  0.9385971430000026  0.4066593049999980  0.7478827830000014
  0.3283684550000032  0.6666666870000029  0.0000000000000000
 
  0.00000000E+00  0.00000000E+00  0.00000000E+00
  0.00000000E+00  0.00000000E+00  0.00000000E+00
  0.00000000E+00  0.00000000E+00  0.00000000E+00
  0.00000000E+00  0.00000000E+00  0.00000000E+00
  0.00000000E+00  0.00000000E+00  0.00000000E+00
  0.00000000E+00  0.00000000E+00  0.00000000E+00
  0.00000000E+00  0.00000000E+00  0.00000000E+00
  0.00000000E+00  0.00000000E+00  0.00000000E+00
  0.00000000E+00  0.00000000E+00  0.00000000E+00
  0.00000000E+00  0.00000000E+00  0.00000000E+00
  0.00000000E+00  0.00000000E+00  0.00000000E+00
  0.00000000E+00  0.00000000E+00  0.00000000E+00
  0.00000000E+00  0.00000000E+00  0.00000000E+00
  0.00000000E+00  0.00000000E+00  0.00000000E+00
  0.00000000E+00  0.00000000E+00  0.00000000E+00
  0.00000000E+00  0.00000000E+00  0.00000000E+00
  0.00000000E+00  0.00000000E+00  0.00000000E+00
  0.00000000E+00  0.00000000E+00  0.00000000E+00
  0.00000000E+00  0.00000000E+00  0.00000000E+00
  0.00000000E+00  0.00000000E+00  0.00000000E+00
  0.00000000E+00  0.00000000E+00  0.00000000E+00
  0.00000000E+00  0.00000000E+00  0.00000000E+00
  0.00000000E+00  0.00000000E+00  0.00000000E+00
  0.00000000E+00  0.00000000E+00  0.00000000E+00
  0.00000000E+00  0.00000000E+00  0.00000000E+00
  0.00000000E+00  0.00000000E+00  0.00000000E+00
  0.00000000E+00  0.00000000E+00  0.00000000E+00
  0.00000000E+00  0.00000000E+00  0.00000000E+00
  0.00000000E+00  0.00000000E+00  0.00000000E+00
  0.00000000E+00  0.00000000E+00  0.00000000E+00
  0.00000000E+00  0.00000000E+00  0.00000000E+00
  0.00000000E+00  0.00000000E+00  0.00000000E+00
  0.00000000E+00  0.00000000E+00  0.00000000E+00
  0.00000000E+00  0.00000000E+00  0.00000000E+00
  0.00000000E+00  0.00000000E+00  0.00000000E+00
  0.00000000E+00  0.00000000E+00  0.00000000E+00
  0.00000000E+00  0.00000000E+00  0.00000000E+00
  0.00000000E+00  0.00000000E+00  0.00000000E+00
  0.00000000E+00  0.00000000E+00  0.00000000E+00
  0.00000000E+00  0.00000000E+00  0.00000000E+00
  0.00000000E+00  0.00000000E+00  0.00000000E+00
  0.00000000E+00  0.00000000E+00  0.00000000E+00
  0.00000000E+00  0.00000000E+00  0.00000000E+00
  0.00000000E+00  0.00000000E+00  0.00000000E+00
  0.00000000E+00  0.00000000E+00  0.00000000E+00
  0.00000000E+00  0.00000000E+00  0.00000000E+00
  0.00000000E+00  0.00000000E+00  0.00000000E+00
  0.00000000E+00  0.00000000E+00  0.00000000E+00
  0.00000000E+00  0.00000000E+00  0.00000000E+00
  0.00000000E+00  0.00000000E+00  0.00000000E+00
  0.00000000E+00  0.00000000E+00  0.00000000E+00
  0.00000000E+00  0.00000000E+00  0.00000000E+00
  0.00000000E+00  0.00000000E+00  0.00000000E+00
  0.00000000E+00  0.00000000E+00  0.00000000E+00
  0.00000000E+00  0.00000000E+00  0.00000000E+00
  0.00000000E+00  0.00000000E+00  0.00000000E+00
  0.00000000E+00  0.00000000E+00  0.00000000E+00
  0.00000000E+00  0.00000000E+00  0.00000000E+00
  0.00000000E+00  0.00000000E+00  0.00000000E+00
  0.00000000E+00  0.00000000E+00  0.00000000E+00
  0.00000000E+00  0.00000000E+00  0.00000000E+00
  0.00000000E+00  0.00000000E+00  0.00000000E+00
  0.00000000E+00  0.00000000E+00  0.00000000E+00
  0.00000000E+00  0.00000000E+00  0.00000000E+00
  0.00000000E+00  0.00000000E+00  0.00000000E+00
  0.00000000E+00  0.00000000E+00  0.00000000E+00
  0.00000000E+00  0.00000000E+00  0.00000000E+00
  0.00000000E+00  0.00000000E+00  0.00000000E+00
  0.00000000E+00  0.00000000E+00  0.00000000E+00
  0.00000000E+00  0.00000000E+00  0.00000000E+00
  0.00000000E+00  0.00000000E+00  0.00000000E+00
  0.00000000E+00  0.00000000E+00  0.00000000E+00
  0.00000000E+00  0.00000000E+00  0.00000000E+00
  0.00000000E+00  0.00000000E+00  0.00000000E+00
  0.00000000E+00  0.00000000E+00  0.00000000E+00
  0.00000000E+00  0.00000000E+00  0.00000000E+00
  0.00000000E+00  0.00000000E+00  0.00000000E+00
  0.00000000E+00  0.00000000E+00  0.00000000E+00
  0.00000000E+00  0.00000000E+00  0.00000000E+00
  0.00000000E+00  0.00000000E+00  0.00000000E+00
  0.00000000E+00  0.00000000E+00  0.00000000E+00
  0.00000000E+00  0.00000000E+00  0.00000000E+00
  0.00000000E+00  0.00000000E+00  0.00000000E+00
  0.00000000E+00  0.00000000E+00  0.00000000E+00
  0.00000000E+00  0.00000000E+00  0.00000000E+00
  0.00000000E+00  0.00000000E+00  0.00000000E+00
  0.00000000E+00  0.00000000E+00  0.00000000E+00
  0.00000000E+00  0.00000000E+00  0.00000000E+00
  0.00000000E+00  0.00000000E+00  0.00000000E+00
  0.00000000E+00  0.00000000E+00  0.00000000E+00
  0.00000000E+00  0.00000000E+00  0.00000000E+00
  0.00000000E+00  0.00000000E+00  0.00000000E+00
  0.00000000E+00  0.00000000E+00  0.00000000E+00
  0.00000000E+00  0.00000000E+00  0.00000000E+00
  0.00000000E+00  0.00000000E+00  0.00000000E+00
  0.00000000E+00  0.00000000E+00  0.00000000E+00
  0.00000000E+00  0.00000000E+00  0.00000000E+00
  0.00000000E+00  0.00000000E+00  0.00000000E+00
  0.00000000E+00  0.00000000E+00  0.00000000E+00
  0.00000000E+00  0.00000000E+00  0.00000000E+00
  0.00000000E+00  0.00000000E+00  0.00000000E+00
  0.00000000E+00  0.00000000E+00  0.00000000E+00
  0.00000000E+00  0.00000000E+00  0.00000000E+00
  0.00000000E+00  0.00000000E+00  0.00000000E+00
  0.00000000E+00  0.00000000E+00  0.00000000E+00
  0.00000000E+00  0.00000000E+00  0.00000000E+00
  0.00000000E+00  0.00000000E+00  0.00000000E+00
  0.00000000E+00  0.00000000E+00  0.00000000E+00
  0.00000000E+00  0.00000000E+00  0.00000000E+00
  0.00000000E+00  0.00000000E+00  0.00000000E+00
  0.00000000E+00  0.00000000E+00  0.00000000E+00
  0.00000000E+00  0.00000000E+00  0.00000000E+00
  0.00000000E+00  0.00000000E+00  0.00000000E+00
  0.00000000E+00  0.00000000E+00  0.00000000E+00
  0.00000000E+00  0.00000000E+00  0.00000000E+00
  0.00000000E+00  0.00000000E+00  0.00000000E+00
  0.00000000E+00  0.00000000E+00  0.00000000E+00
  0.00000000E+00  0.00000000E+00  0.00000000E+00
  0.00000000E+00  0.00000000E+00  0.00000000E+00
  0.00000000E+00  0.00000000E+00  0.00000000E+00
  0.00000000E+00  0.00000000E+00  0.00000000E+00
  0.00000000E+00  0.00000000E+00  0.00000000E+00
  0.00000000E+00  0.00000000E+00  0.00000000E+00
  0.00000000E+00  0.00000000E+00  0.00000000E+00
  0.00000000E+00  0.00000000E+00  0.00000000E+00
  0.00000000E+00  0.00000000E+00  0.00000000E+00
  0.00000000E+00  0.00000000E+00  0.00000000E+00
  0.00000000E+00  0.00000000E+00  0.00000000E+00
  0.00000000E+00  0.00000000E+00  0.00000000E+00
  0.00000000E+00  0.00000000E+00  0.00000000E+00
  0.00000000E+00  0.00000000E+00  0.00000000E+00
  0.00000000E+00  0.00000000E+00  0.00000000E+00
  0.00000000E+00  0.00000000E+00  0.00000000E+00
  0.00000000E+00  0.00000000E+00  0.00000000E+00
  0.00000000E+00  0.00000000E+00  0.00000000E+00
  0.00000000E+00  0.00000000E+00  0.00000000E+00
  0.00000000E+00  0.00000000E+00  0.00000000E+00
  0.00000000E+00  0.00000000E+00  0.00000000E+00
  0.00000000E+00  0.00000000E+00  0.00000000E+00
  0.00000000E+00  0.00000000E+00  0.00000000E+00
  0.00000000E+00  0.00000000E+00  0.00000000E+00
  0.00000000E+00  0.00000000E+00  0.00000000E+00
  0.00000000E+00  0.00000000E+00  0.00000000E+00
  0.00000000E+00  0.00000000E+00  0.00000000E+00
  0.00000000E+00  0.00000000E+00  0.00000000E+00
  0.00000000E+00  0.00000000E+00  0.00000000E+00
  0.00000000E+00  0.00000000E+00  0.00000000E+00
  0.00000000E+00  0.00000000E+00  0.00000000E+00
  0.00000000E+00  0.00000000E+00  0.00000000E+00
  0.00000000E+00  0.00000000E+00  0.00000000E+00
  0.00000000E+00  0.00000000E+00  0.00000000E+00
  0.00000000E+00  0.00000000E+00  0.00000000E+00
  0.00000000E+00  0.00000000E+00  0.00000000E+00
  0.00000000E+00  0.00000000E+00  0.00000000E+00
  0.00000000E+00  0.00000000E+00  0.00000000E+00
  0.00000000E+00  0.00000000E+00  0.00000000E+00
  0.00000000E+00  0.00000000E+00  0.00000000E+00
  0.00000000E+00  0.00000000E+00  0.00000000E+00
  0.00000000E+00  0.00000000E+00  0.00000000E+00
  0.00000000E+00  0.00000000E+00  0.00000000E+00
  0.00000000E+00  0.00000000E+00  0.00000000E+00
  0.00000000E+00  0.00000000E+00  0.00000000E+00
  0.00000000E+00  0.00000000E+00  0.00000000E+00
  0.00000000E+00  0.00000000E+00  0.00000000E+00
  0.00000000E+00  0.00000000E+00  0.00000000E+00
  0.00000000E+00  0.00000000E+00  0.00000000E+00
  0.00000000E+00  0.00000000E+00  0.00000000E+00
  0.00000000E+00  0.00000000E+00  0.00000000E+00
  0.00000000E+00  0.00000000E+00  0.00000000E+00
  0.00000000E+00  0.00000000E+00  0.00000000E+00
  0.00000000E+00  0.00000000E+00  0.00000000E+00
  0.00000000E+00  0.00000000E+00  0.00000000E+00
  0.00000000E+00  0.00000000E+00  0.00000000E+00
  0.00000000E+00  0.00000000E+00  0.00000000E+00
  0.00000000E+00  0.00000000E+00  0.00000000E+00
  0.00000000E+00  0.00000000E+00  0.00000000E+00
  0.00000000E+00  0.00000000E+00  0.00000000E+00
  0.00000000E+00  0.00000000E+00  0.00000000E+00
  0.00000000E+00  0.00000000E+00  0.00000000E+00
  0.00000000E+00  0.00000000E+00  0.00000000E+00
  0.00000000E+00  0.00000000E+00  0.00000000E+00
  0.00000000E+00  0.00000000E+00  0.00000000E+00
  0.00000000E+00  0.00000000E+00  0.00000000E+00
  0.00000000E+00  0.00000000E+00  0.00000000E+00
  0.00000000E+00  0.00000000E+00  0.00000000E+00
  0.00000000E+00  0.00000000E+00  0.00000000E+00
  0.00000000E+00  0.00000000E+00  0.00000000E+00
  0.00000000E+00  0.00000000E+00  0.00000000E+00
  0.00000000E+00  0.00000000E+00  0.00000000E+00
  0.00000000E+00  0.00000000E+00  0.00000000E+00
  0.00000000E+00  0.00000000E+00  0.00000000E+00
  0.00000000E+00  0.00000000E+00  0.00000000E+00
  0.00000000E+00  0.00000000E+00  0.00000000E+00
  0.00000000E+00  0.00000000E+00  0.00000000E+00
  0.00000000E+00  0.00000000E+00  0.00000000E+00
  0.00000000E+00  0.00000000E+00  0.00000000E+00
  0.00000000E+00  0.00000000E+00  0.00000000E+00
  0.00000000E+00  0.00000000E+00  0.00000000E+00
  0.00000000E+00  0.00000000E+00  0.00000000E+00
  0.00000000E+00  0.00000000E+00  0.00000000E+00
  0.00000000E+00  0.00000000E+00  0.00000000E+00
  0.00000000E+00  0.00000000E+00  0.00000000E+00
  0.00000000E+00  0.00000000E+00  0.00000000E+00
  0.00000000E+00  0.00000000E+00  0.00000000E+00
  0.00000000E+00  0.00000000E+00  0.00000000E+00
  0.00000000E+00  0.00000000E+00  0.00000000E+00
  0.00000000E+00  0.00000000E+00  0.00000000E+00
  0.00000000E+00  0.00000000E+00  0.00000000E+00
  0.00000000E+00  0.00000000E+00  0.00000000E+00
  0.00000000E+00  0.00000000E+00  0.00000000E+00
  0.00000000E+00  0.00000000E+00  0.00000000E+00
  0.00000000E+00  0.00000000E+00  0.00000000E+00
  0.00000000E+00  0.00000000E+00  0.00000000E+00
  0.00000000E+00  0.00000000E+00  0.00000000E+00
  0.00000000E+00  0.00000000E+00  0.00000000E+00
  0.00000000E+00  0.00000000E+00  0.00000000E+00
  0.00000000E+00  0.00000000E+00  0.00000000E+00
  0.00000000E+00  0.00000000E+00  0.00000000E+00
  0.00000000E+00  0.00000000E+00  0.00000000E+00
  0.00000000E+00  0.00000000E+00  0.00000000E+00
  0.00000000E+00  0.00000000E+00  0.00000000E+00
  0.00000000E+00  0.00000000E+00  0.00000000E+00
  0.00000000E+00  0.00000000E+00  0.00000000E+00
  0.00000000E+00  0.00000000E+00  0.00000000E+00
  0.00000000E+00  0.00000000E+00  0.00000000E+00
  0.00000000E+00  0.00000000E+00  0.00000000E+00
  0.00000000E+00  0.00000000E+00  0.00000000E+00
  0.00000000E+00  0.00000000E+00  0.00000000E+00
  0.00000000E+00  0.00000000E+00  0.00000000E+00
  0.00000000E+00  0.00000000E+00  0.00000000E+00
  0.00000000E+00  0.00000000E+00  0.00000000E+00
  0.00000000E+00  0.00000000E+00  0.00000000E+00
  0.00000000E+00  0.00000000E+00  0.00000000E+00
  0.00000000E+00  0.00000000E+00  0.00000000E+00
  0.00000000E+00  0.00000000E+00  0.00000000E+00
  0.00000000E+00  0.00000000E+00  0.00000000E+00
  0.00000000E+00  0.00000000E+00  0.00000000E+00
  0.00000000E+00  0.00000000E+00  0.00000000E+00
  0.00000000E+00  0.00000000E+00  0.00000000E+00
  0.00000000E+00  0.00000000E+00  0.00000000E+00
  0.00000000E+00  0.00000000E+00  0.00000000E+00
  0.00000000E+00  0.00000000E+00  0.00000000E+00
  0.00000000E+00  0.00000000E+00  0.00000000E+00
  0.00000000E+00  0.00000000E+00  0.00000000E+00
  0.00000000E+00  0.00000000E+00  0.00000000E+00
  0.00000000E+00  0.00000000E+00  0.00000000E+00
  0.00000000E+00  0.00000000E+00  0.00000000E+00
  0.00000000E+00  0.00000000E+00  0.00000000E+00
  0.00000000E+00  0.00000000E+00  0.00000000E+00
  0.00000000E+00  0.00000000E+00  0.00000000E+00
  0.00000000E+00  0.00000000E+00  0.00000000E+00
  0.00000000E+00  0.00000000E+00  0.00000000E+00
  0.00000000E+00  0.00000000E+00  0.00000000E+00
  0.00000000E+00  0.00000000E+00  0.00000000E+00
  0.00000000E+00  0.00000000E+00  0.00000000E+00
  0.00000000E+00  0.00000000E+00  0.00000000E+00
  0.00000000E+00  0.00000000E+00  0.00000000E+00
  0.00000000E+00  0.00000000E+00  0.00000000E+00
  0.00000000E+00  0.00000000E+00  0.00000000E+00
  0.00000000E+00  0.00000000E+00  0.00000000E+00
  0.00000000E+00  0.00000000E+00  0.00000000E+00
  0.00000000E+00  0.00000000E+00  0.00000000E+00
  0.00000000E+00  0.00000000E+00  0.00000000E+00
  0.00000000E+00  0.00000000E+00  0.00000000E+00
