Sn+Si                                   
   1.00000000000000     
    19.4675998690000007    0.0000000000000000    0.0000000000000000
     0.0000000000000000   19.4675998690000007    0.0000000000000000
     0.0000000000000000    0.0000000000000000   19.3002529140000014
   Sn   Si
   108   156
Direct
  0.9950351119999965  0.6666666870000029  0.0000000000000000
  0.5888745780000022  0.5532932280000011  0.8860117790000004
  0.6617017390000015  0.6666666870000029  0.3362235430000027
  0.9950351119999965  0.3333333429999996  0.0000000000000000
  0.2811822890000002  0.0917549130000026  0.8860117790000004
  0.6617017390000015  0.3333333429999996  0.3362235430000027
  0.5119516849999997  0.9379086490000006  0.8860117790000004
  0.8283684250000007  0.0000000000000000  0.1681117859999972
  0.8388748169999971  0.3032931689999998  0.5342675449999987
  0.3283684550000032  0.6666666870000029  0.0000000000000000
  0.9350284340000030  0.8225240709999966  0.8860117790000004
  0.9950351119999965  0.6666666870000029  0.3362235430000027
  0.2427207229999979  0.2840625349999968  0.8860117790000004
  0.4734899999999982  0.1302163900000011  0.8860117790000004
  0.9950351119999965  0.3333333429999996  0.3362235430000027
  0.3283684550000032  0.0000000000000000  0.0000000000000000
  0.0119515660000005  0.4379086200000017  0.8860117790000004
  0.9950351119999965  0.0000000000000000  0.3362235430000027
  0.7619515660000005  0.6879086490000006  0.8156629200000012
  0.6273360249999982  0.3609855770000010  0.8860117790000004
  0.3283684550000032  0.6666666870000029  0.3362235430000027
  0.1273361439999974  0.8609855179999997  0.8860117790000004
  0.7427207229999979  0.7840624450000035  0.8860117790000004
  0.3283684550000032  0.3333333429999996  0.3362235430000027
  0.6617017980000028  0.0000000000000000  0.0000000000000000
  0.4950351119999965  0.0000000000000000  0.1681117859999972
  0.3283684550000032  0.0000000000000000  0.3362235430000027
  0.0783684330000014  0.9166667459999971  0.0840558929999986
  0.6850286720000014  0.0725240709999966  0.5342675449999987
  0.7450350519999986  0.9166667459999971  0.4202794429999983
  0.0783684330000014  0.5833334330000000  0.0840558929999986
  0.2234902379999966  0.3802162409999994  0.5342675449999987
  0.7450350519999986  0.5833334330000000  0.4202794429999983
  0.0783684330000014  0.2500000000000000  0.0840558929999986
  0.7619518039999988  0.6879085899999993  0.5342675449999987
  0.2619518039999988  0.1879084999999989  0.5342675449999987
  0.4117017689999969  0.9166667459999971  0.0840558929999986
  0.3773363829999994  0.6109855179999997  0.5342675449999987
  0.0783683809999971  0.9166667459999971  0.4202794429999983
  0.4117017689999969  0.5833334330000000  0.0840558929999986
  0.4927209619999999  0.0340625050000014  0.5342675449999987
  0.9927209619999999  0.5340623860000022  0.5342675449999987
  0.4117017689999969  0.2500000000000000  0.0840558929999986
  0.2450350969999988  0.2500000000000000  0.2521676120000009
  0.0783683809999971  0.2500000000000000  0.4202794429999983
  0.7450351720000015  0.9166667459999971  0.0840558929999986
  0.3388748169999971  0.8032930489999970  0.5342675449999987
  0.5119518039999988  0.9379085899999993  0.6046164039999979
  0.7450351720000015  0.5833334330000000  0.0840558929999986
  0.0311825280000022  0.3417546749999971  0.5342675449999987
  0.8773362640000002  0.1109854059999975  0.5342675449999987
  0.7450351720000015  0.2500000000000000  0.0840558929999986
  0.5783685450000036  0.2500000000000000  0.2521676120000009
  0.4117017980000028  0.2500000000000000  0.4202794429999983
  0.1617017689999969  0.8333333129999971  0.0000000000000000
  0.3196438550000025  0.8994470829999983  0.8860117790000004
  0.8283684250000007  0.8333333129999971  0.3362235430000027
  0.0504131320000027  0.2456010880000008  0.8860117790000004
  0.3965671059999991  0.5148317219999967  0.8860117790000004
  0.8283684250000007  0.5000000000000000  0.3362235430000027
  0.1617017689999969  0.1666666719999981  0.0000000000000000
  0.2042592760000019  0.4763701859999969  0.8860117790000004
  0.8283684250000007  0.1666666719999981  0.3362235430000027
  0.4950351119999965  0.8333333129999971  0.0000000000000000
  0.3283684250000007  0.8333333129999971  0.1681117859999972
  0.1617017539999992  0.8333333129999971  0.3362235430000027
  0.4950351119999965  0.5000000000000000  0.0000000000000000
  0.5311822890000002  0.8417548540000013  0.8156629200000012
  0.1617017539999992  0.5000000000000000  0.3362235430000027
  0.7811822890000002  0.5917547940000034  0.8860117790000004
  0.3283684250000007  0.1666666719999981  0.1681117859999972
  0.1617017539999992  0.1666666719999981  0.3362235430000027
  0.8283685450000036  0.8333333129999971  0.0000000000000000
  0.4350285530000022  0.3225240109999987  0.8860117790000004
  0.4950352010000003  0.8333333129999971  0.3362235430000027
  0.8283685450000036  0.5000000000000000  0.0000000000000000
  0.6617018580000007  0.5000000000000000  0.1681117859999972
  0.4950352010000003  0.5000000000000000  0.3362235430000027
  0.8283685450000036  0.1666666719999981  0.0000000000000000
  0.6617018580000007  0.1666666719999981  0.1681117859999972
  0.4950352010000003  0.1666666719999981  0.3362235430000027
  0.2450350969999988  0.7500000599999979  0.0840558929999986
  0.2811825280000022  0.0917547940000034  0.6046164039999979
  0.8004133700000011  0.4956007899999975  0.5342675449999987
  0.2450350969999988  0.4166667160000017  0.0840558929999986
  0.0783684330000014  0.4166667160000017  0.2521676120000009
  0.9117017390000015  0.4166667160000017  0.4202794429999983
  0.2450350969999988  0.0833333429999996  0.0840558929999986
  0.0783684330000014  0.0833333429999996  0.2521676120000009
  0.9117017390000015  0.0833333429999996  0.4202794429999983
  0.5783684849999986  0.7500000599999979  0.0840558929999986
  0.4117018580000007  0.7500000599999979  0.2521676120000009
  0.2450351270000013  0.7500000599999979  0.4202794429999983
  0.5783684849999986  0.4166667160000017  0.0840558929999986
  0.4117018580000007  0.4166667160000017  0.2521676120000009
  0.5311825280000022  0.8417546749999971  0.5342675449999987
  0.5783684849999986  0.0833333429999996  0.0840558929999986
  0.1850286720000014  0.5725239519999974  0.5342675449999987
  0.2450351270000013  0.0833333429999996  0.4202794429999983
  0.0888745780000022  0.0532932280000011  0.8860117790000004
  0.1465671059999991  0.7648316619999989  0.5342675449999987
  0.5783683659999994  0.7500000599999979  0.4202794429999983
  0.9117017390000015  0.4166667160000017  0.0840558929999986
  0.9542593959999977  0.7263700370000024  0.5342675449999987
  0.5783683659999994  0.4166667160000017  0.4202794429999983
  0.9117017390000015  0.0833333429999996  0.0840558929999986
  0.0696440939999974  0.1494469639999991  0.5342675449999987
  0.5783683659999994  0.0833333429999996  0.4202794429999983
  0.6465672249999983  0.2648315730000022  0.5342675449999987
  0.5311825280000022  0.3417547049999996  0.6749652029999993
  0.4157978300000025  0.4186778660000030  0.8156629200000012
  0.9117017390000015  0.7500000599999979  0.4202794429999983
  0.6850286720000014  0.5725238919999995  0.6749652029999993
  0.5696439740000017  0.6494470239999970  0.8156629200000012
  0.7450350519999986  0.2500000000000000  0.4202794429999983
  0.1465671059999991  0.2648316320000035  0.6749652029999993
  0.0311824079999994  0.3417547640000009  0.8156629200000012
  0.4157979490000017  0.4186777769999992  0.5342675449999987
  0.3004132510000019  0.4956009089999966  0.6749652029999993
  0.1850285530000022  0.5725240109999987  0.8156629200000012
  0.5696439740000017  0.6494469639999991  0.5342675449999987
  0.4542593959999977  0.7263700959999966  0.6749652029999993
  0.3388745780000022  0.8032932280000011  0.8156629200000012
  0.7234902379999966  0.8802163000000007  0.5342675449999987
  0.6081054209999976  0.9571394319999982  0.6749652029999993
  0.4927208419999971  0.0340626240000006  0.8156629200000012
  0.4117017980000028  0.5833334330000000  0.4202794429999983
  0.7619516849999997  0.1879085300000014  0.6749652029999993
  0.6465668680000007  0.2648316619999989  0.8156629200000012
  0.5783685450000036  0.5833334330000000  0.2521676120000009
  0.9157978300000025  0.4186778070000017  0.6749652029999993
  0.8004131320000027  0.4956009389999991  0.8156629200000012
  0.4117018580000007  0.0833333429999996  0.2521676120000009
  0.0696439740000017  0.6494470239999970  0.6749652029999993
  0.9542592760000019  0.7263701560000015  0.8156629200000012
  0.5783685450000036  0.9166667459999971  0.2521676120000009
  0.2234901189999974  0.8802161810000015  0.6749652029999993
  0.1081054209999976  0.9571393129999990  0.8156629200000012
  0.2450350969999988  0.5833334330000000  0.2521676120000009
  0.3773362640000002  0.1109855400000015  0.6749652029999993
  0.2619515660000005  0.1879086790000031  0.8156629200000012
  0.7450350519999986  0.4166667160000017  0.2521676120000009
  0.8388746979999979  0.8032931689999998  0.6749652029999993
  0.7234899999999982  0.8802163599999986  0.8156629200000012
  0.1081056590000031  0.9571392539999977  0.5342675449999987
  0.9927209020000021  0.0340623860000022  0.6749652029999993
  0.8773361439999974  0.1109855400000015  0.8156629200000012
  0.8581055399999968  0.2071392829999965  0.6046164039999979
  0.7427208419999971  0.2840624150000011  0.7453140619999985
  0.4950351119999965  0.6666666870000029  0.1681117859999972
  0.4734902379999966  0.1302162710000019  0.6046164039999979
  0.3581055399999968  0.2071394029999993  0.7453140619999985
  0.3283684550000032  0.3333333429999996  0.0000000000000000
  0.6273365019999986  0.3609854279999993  0.6046164039999979
  0.5119516849999997  0.4379085899999993  0.7453140619999985
  0.9950350519999986  0.5000000000000000  0.1681117859999972
  0.7811825280000022  0.5917546749999971  0.6046164039999979
  0.6657978300000025  0.6686778070000017  0.7453140619999985
  0.5504131320000027  0.7456009389999991  0.8860117790000004
  0.2427209619999999  0.2840623559999997  0.6046164039999979
  0.1273362640000002  0.3609854879999972  0.7453140619999985
  0.1617017390000015  0.0000000000000000  0.1681117859999972
  0.3965671059999991  0.5148316619999989  0.6046164039999979
  0.2811824079999994  0.5917547940000034  0.7453140619999985
  0.1657977099999997  0.6686779260000009  0.8860117790000004
  0.5504132510000019  0.7456008199999999  0.6046164039999979
  0.4350285530000022  0.8225239519999974  0.7453140619999985
  0.9950350519999986  0.8333333129999971  0.1681117859999972
  0.7042593959999977  0.9763700959999966  0.6046164039999979
  0.5888746979999979  0.0532932280000011  0.7453140619999985
  0.1617017390000015  0.3333333429999996  0.1681117859999972
  0.0119516849999997  0.4379085300000014  0.6046164039999979
  0.8965670469999978  0.5148316029999975  0.7453140619999985
  0.4950351119999965  0.1666666719999981  0.0000000000000000
  0.1657978300000025  0.6686778070000017  0.6046164039999979
  0.0504131320000027  0.7456008790000013  0.7453140619999985
  0.1617017390000015  0.6666666870000029  0.1681117859999972
  0.3196439740000017  0.8994469639999991  0.6046164039999979
  0.2042592760000019  0.9763700959999966  0.7453140619999985
  0.9117017390000015  0.7500000599999979  0.0840558929999986
  0.9350286130000001  0.8225238919999995  0.6046164039999979
  0.8196439740000017  0.8994470829999983  0.7453140619999985
  0.7042591570000027  0.9763701560000015  0.8860117790000004
  0.0888748169999971  0.0532931090000019  0.6046164039999979
  0.9734900589999995  0.1302162710000019  0.7453140619999985
  0.8581054209999976  0.2071394029999993  0.8860117790000004
  0.6617017390000015  0.0000000000000000  0.3362235430000027
  0.7234901189999974  0.3802163000000007  0.6749652029999993
  0.6081054209999976  0.4571394620000007  0.8156629200000012
  0.4542593959999977  0.2263700660000012  0.5342675449999987
  0.3388746979999979  0.3032931979999987  0.6749652029999993
  0.2234899999999982  0.3802163300000032  0.8156629200000012
  0.6081056590000031  0.4571393729999969  0.5342675449999987
  0.4927208419999971  0.5340625050000014  0.6749652029999993
  0.3773362640000002  0.6109856369999989  0.8156629200000012
  0.9117017980000028  0.2500000000000000  0.2521676120000009
  0.6465671059999991  0.7648317219999967  0.6749652029999993
  0.3283684250000007  0.5000000000000000  0.1681117859999972
  0.7450350519999986  0.0833333429999996  0.2521676120000009
  0.9542593959999977  0.2263700959999966  0.6749652029999993
  0.8388745780000022  0.3032932280000011  0.8156629200000012
  0.9117017980000028  0.5833334330000000  0.2521676120000009
  0.1081055399999968  0.4571393729999969  0.6749652029999993
  0.9927208419999971  0.5340625050000014  0.8156629200000012
  0.2450350969999988  0.9166667459999971  0.2521676120000009
  0.2619516849999997  0.6879086490000006  0.6749652029999993
  0.1465669869999999  0.7648317809999980  0.8156629200000012
  0.2450351270000013  0.4166667160000017  0.4202794429999983
  0.4157977099999997  0.9186778070000017  0.6749652029999993
  0.3004131320000027  0.9956009389999991  0.8156629200000012
  0.9117017980000028  0.9166667459999971  0.2521676120000009
  0.5696439740000017  0.1494471130000008  0.6749652029999993
  0.4542592760000019  0.2263702449999982  0.8156629200000012
  0.0783683809999971  0.5833334330000000  0.4202794429999983
  0.8773362640000002  0.6109855179999997  0.6749652029999993
  0.6617017980000028  0.6666666870000029  0.0000000000000000
  0.7450350519999986  0.7500000599999979  0.2521676120000009
  0.0311824079999994  0.8417547940000034  0.6749652029999993
  0.9157977099999997  0.9186779260000009  0.8156629200000012
  0.3004133700000011  0.9956008790000013  0.5342675449999987
  0.1850285530000022  0.0725240709999966  0.6749652029999993
  0.0696438550000025  0.1494471130000008  0.8156629200000012
  0.9157978889999967  0.9186777469999967  0.5342675449999987
  0.8004131320000027  0.9956008790000013  0.6749652029999993
  0.6850284340000030  0.0725240709999966  0.8156629200000012
  0.6657979490000017  0.1686777319999990  0.6046164039999979
  0.5504132510000019  0.2456008790000013  0.7453140619999985
  0.6617018580000007  0.8333333129999971  0.1681117859999972
  0.8196439740000017  0.3994469639999991  0.6046164039999979
  0.7042592760000019  0.4763701259999991  0.7453140619999985
  0.8283684250000007  0.6666666870000029  0.1681117859999972
  0.4350287910000006  0.3225238919999995  0.6046164039999979
  0.3196439740000017  0.3994470239999970  0.7453140619999985
  0.9950350519999986  0.1666666719999981  0.1681117859999972
  0.5888749360000034  0.5532931090000019  0.6046164039999979
  0.4734902379999966  0.6302162409999994  0.7453140619999985
  0.3581055399999968  0.7071393729999969  0.8860117790000004
  0.7427210809999991  0.7840623860000022  0.6046164039999979
  0.6273365019999986  0.8609855179999997  0.7453140619999985
  0.9950351119999965  0.0000000000000000  0.0000000000000000
  0.0504132510000019  0.2456007600000021  0.6046164039999979
  0.9350285530000022  0.3225238919999995  0.7453140619999985
  0.8196438550000025  0.3994470539999995  0.8860117790000004
  0.2042593959999977  0.4763700660000012  0.6046164039999979
  0.0888748169999971  0.5532931689999998  0.7453140619999985
  0.9734900589999995  0.6302163000000007  0.8860117790000004
  0.3581056590000031  0.7071392539999977  0.6046164039999979
  0.2427208419999971  0.7840623860000022  0.7453140619999985
  0.6617017980000028  0.3333333429999996  0.0000000000000000
  0.4117017980000028  0.9166667459999971  0.4202794429999983
  0.3965671059999991  0.0148317809999980  0.7453140619999985
  0.8283684250000007  0.3333333429999996  0.1681117859999972
  0.9734901790000023  0.6302161810000015  0.6046164039999979
  0.8581054209999976  0.7071393129999990  0.7453140619999985
  0.4950351119999965  0.3333333429999996  0.1681117859999972
  0.1273363829999994  0.8609853979999968  0.6046164039999979
  0.0119516849999997  0.9379085300000014  0.7453140619999985
  0.8965669270000021  0.0148317809999980  0.8860117790000004
  0.0783684330000014  0.7500000599999979  0.2521676120000009
  0.1657978300000025  0.1686779560000033  0.7453140619999985
  0.1617017689999969  0.5000000000000000  0.0000000000000000
  0.8965671059999991  0.0148315429999997  0.6046164039999979
  0.7811822890000002  0.0917547940000034  0.7453140619999985
  0.6657977099999997  0.1686778369999971  0.8860117790000004
 
  0.00000000E+00  0.00000000E+00  0.00000000E+00
  0.00000000E+00  0.00000000E+00  0.00000000E+00
  0.00000000E+00  0.00000000E+00  0.00000000E+00
  0.00000000E+00  0.00000000E+00  0.00000000E+00
  0.00000000E+00  0.00000000E+00  0.00000000E+00
  0.00000000E+00  0.00000000E+00  0.00000000E+00
  0.00000000E+00  0.00000000E+00  0.00000000E+00
  0.00000000E+00  0.00000000E+00  0.00000000E+00
  0.00000000E+00  0.00000000E+00  0.00000000E+00
  0.00000000E+00  0.00000000E+00  0.00000000E+00
  0.00000000E+00  0.00000000E+00  0.00000000E+00
  0.00000000E+00  0.00000000E+00  0.00000000E+00
  0.00000000E+00  0.00000000E+00  0.00000000E+00
  0.00000000E+00  0.00000000E+00  0.00000000E+00
  0.00000000E+00  0.00000000E+00  0.00000000E+00
  0.00000000E+00  0.00000000E+00  0.00000000E+00
  0.00000000E+00  0.00000000E+00  0.00000000E+00
  0.00000000E+00  0.00000000E+00  0.00000000E+00
  0.00000000E+00  0.00000000E+00  0.00000000E+00
  0.00000000E+00  0.00000000E+00  0.00000000E+00
  0.00000000E+00  0.00000000E+00  0.00000000E+00
  0.00000000E+00  0.00000000E+00  0.00000000E+00
  0.00000000E+00  0.00000000E+00  0.00000000E+00
  0.00000000E+00  0.00000000E+00  0.00000000E+00
  0.00000000E+00  0.00000000E+00  0.00000000E+00
  0.00000000E+00  0.00000000E+00  0.00000000E+00
  0.00000000E+00  0.00000000E+00  0.00000000E+00
  0.00000000E+00  0.00000000E+00  0.00000000E+00
  0.00000000E+00  0.00000000E+00  0.00000000E+00
  0.00000000E+00  0.00000000E+00  0.00000000E+00
  0.00000000E+00  0.00000000E+00  0.00000000E+00
  0.00000000E+00  0.00000000E+00  0.00000000E+00
  0.00000000E+00  0.00000000E+00  0.00000000E+00
  0.00000000E+00  0.00000000E+00  0.00000000E+00
  0.00000000E+00  0.00000000E+00  0.00000000E+00
  0.00000000E+00  0.00000000E+00  0.00000000E+00
  0.00000000E+00  0.00000000E+00  0.00000000E+00
  0.00000000E+00  0.00000000E+00  0.00000000E+00
  0.00000000E+00  0.00000000E+00  0.00000000E+00
  0.00000000E+00  0.00000000E+00  0.00000000E+00
  0.00000000E+00  0.00000000E+00  0.00000000E+00
  0.00000000E+00  0.00000000E+00  0.00000000E+00
  0.00000000E+00  0.00000000E+00  0.00000000E+00
  0.00000000E+00  0.00000000E+00  0.00000000E+00
  0.00000000E+00  0.00000000E+00  0.00000000E+00
  0.00000000E+00  0.00000000E+00  0.00000000E+00
  0.00000000E+00  0.00000000E+00  0.00000000E+00
  0.00000000E+00  0.00000000E+00  0.00000000E+00
  0.00000000E+00  0.00000000E+00  0.00000000E+00
  0.00000000E+00  0.00000000E+00  0.00000000E+00
  0.00000000E+00  0.00000000E+00  0.00000000E+00
  0.00000000E+00  0.00000000E+00  0.00000000E+00
  0.00000000E+00  0.00000000E+00  0.00000000E+00
  0.00000000E+00  0.00000000E+00  0.00000000E+00
  0.00000000E+00  0.00000000E+00  0.00000000E+00
  0.00000000E+00  0.00000000E+00  0.00000000E+00
  0.00000000E+00  0.00000000E+00  0.00000000E+00
  0.00000000E+00  0.00000000E+00  0.00000000E+00
  0.00000000E+00  0.00000000E+00  0.00000000E+00
  0.00000000E+00  0.00000000E+00  0.00000000E+00
  0.00000000E+00  0.00000000E+00  0.00000000E+00
  0.00000000E+00  0.00000000E+00  0.00000000E+00
  0.00000000E+00  0.00000000E+00  0.00000000E+00
  0.00000000E+00  0.00000000E+00  0.00000000E+00
  0.00000000E+00  0.00000000E+00  0.00000000E+00
  0.00000000E+00  0.00000000E+00  0.00000000E+00
  0.00000000E+00  0.00000000E+00  0.00000000E+00
  0.00000000E+00  0.00000000E+00  0.00000000E+00
  0.00000000E+00  0.00000000E+00  0.00000000E+00
  0.00000000E+00  0.00000000E+00  0.00000000E+00
  0.00000000E+00  0.00000000E+00  0.00000000E+00
  0.00000000E+00  0.00000000E+00  0.00000000E+00
  0.00000000E+00  0.00000000E+00  0.00000000E+00
  0.00000000E+00  0.00000000E+00  0.00000000E+00
  0.00000000E+00  0.00000000E+00  0.00000000E+00
  0.00000000E+00  0.00000000E+00  0.00000000E+00
  0.00000000E+00  0.00000000E+00  0.00000000E+00
  0.00000000E+00  0.00000000E+00  0.00000000E+00
  0.00000000E+00  0.00000000E+00  0.00000000E+00
  0.00000000E+00  0.00000000E+00  0.00000000E+00
  0.00000000E+00  0.00000000E+00  0.00000000E+00
  0.00000000E+00  0.00000000E+00  0.00000000E+00
  0.00000000E+00  0.00000000E+00  0.00000000E+00
  0.00000000E+00  0.00000000E+00  0.00000000E+00
  0.00000000E+00  0.00000000E+00  0.00000000E+00
  0.00000000E+00  0.00000000E+00  0.00000000E+00
  0.00000000E+00  0.00000000E+00  0.00000000E+00
  0.00000000E+00  0.00000000E+00  0.00000000E+00
  0.00000000E+00  0.00000000E+00  0.00000000E+00
  0.00000000E+00  0.00000000E+00  0.00000000E+00
  0.00000000E+00  0.00000000E+00  0.00000000E+00
  0.00000000E+00  0.00000000E+00  0.00000000E+00
  0.00000000E+00  0.00000000E+00  0.00000000E+00
  0.00000000E+00  0.00000000E+00  0.00000000E+00
  0.00000000E+00  0.00000000E+00  0.00000000E+00
  0.00000000E+00  0.00000000E+00  0.00000000E+00
  0.00000000E+00  0.00000000E+00  0.00000000E+00
  0.00000000E+00  0.00000000E+00  0.00000000E+00
  0.00000000E+00  0.00000000E+00  0.00000000E+00
  0.00000000E+00  0.00000000E+00  0.00000000E+00
  0.00000000E+00  0.00000000E+00  0.00000000E+00
  0.00000000E+00  0.00000000E+00  0.00000000E+00
  0.00000000E+00  0.00000000E+00  0.00000000E+00
  0.00000000E+00  0.00000000E+00  0.00000000E+00
  0.00000000E+00  0.00000000E+00  0.00000000E+00
  0.00000000E+00  0.00000000E+00  0.00000000E+00
  0.00000000E+00  0.00000000E+00  0.00000000E+00
  0.00000000E+00  0.00000000E+00  0.00000000E+00
  0.00000000E+00  0.00000000E+00  0.00000000E+00
  0.00000000E+00  0.00000000E+00  0.00000000E+00
  0.00000000E+00  0.00000000E+00  0.00000000E+00
  0.00000000E+00  0.00000000E+00  0.00000000E+00
  0.00000000E+00  0.00000000E+00  0.00000000E+00
  0.00000000E+00  0.00000000E+00  0.00000000E+00
  0.00000000E+00  0.00000000E+00  0.00000000E+00
  0.00000000E+00  0.00000000E+00  0.00000000E+00
  0.00000000E+00  0.00000000E+00  0.00000000E+00
  0.00000000E+00  0.00000000E+00  0.00000000E+00
  0.00000000E+00  0.00000000E+00  0.00000000E+00
  0.00000000E+00  0.00000000E+00  0.00000000E+00
  0.00000000E+00  0.00000000E+00  0.00000000E+00
  0.00000000E+00  0.00000000E+00  0.00000000E+00
  0.00000000E+00  0.00000000E+00  0.00000000E+00
  0.00000000E+00  0.00000000E+00  0.00000000E+00
  0.00000000E+00  0.00000000E+00  0.00000000E+00
  0.00000000E+00  0.00000000E+00  0.00000000E+00
  0.00000000E+00  0.00000000E+00  0.00000000E+00
  0.00000000E+00  0.00000000E+00  0.00000000E+00
  0.00000000E+00  0.00000000E+00  0.00000000E+00
  0.00000000E+00  0.00000000E+00  0.00000000E+00
  0.00000000E+00  0.00000000E+00  0.00000000E+00
  0.00000000E+00  0.00000000E+00  0.00000000E+00
  0.00000000E+00  0.00000000E+00  0.00000000E+00
  0.00000000E+00  0.00000000E+00  0.00000000E+00
  0.00000000E+00  0.00000000E+00  0.00000000E+00
  0.00000000E+00  0.00000000E+00  0.00000000E+00
  0.00000000E+00  0.00000000E+00  0.00000000E+00
  0.00000000E+00  0.00000000E+00  0.00000000E+00
  0.00000000E+00  0.00000000E+00  0.00000000E+00
  0.00000000E+00  0.00000000E+00  0.00000000E+00
  0.00000000E+00  0.00000000E+00  0.00000000E+00
  0.00000000E+00  0.00000000E+00  0.00000000E+00
  0.00000000E+00  0.00000000E+00  0.00000000E+00
  0.00000000E+00  0.00000000E+00  0.00000000E+00
  0.00000000E+00  0.00000000E+00  0.00000000E+00
  0.00000000E+00  0.00000000E+00  0.00000000E+00
  0.00000000E+00  0.00000000E+00  0.00000000E+00
  0.00000000E+00  0.00000000E+00  0.00000000E+00
  0.00000000E+00  0.00000000E+00  0.00000000E+00
  0.00000000E+00  0.00000000E+00  0.00000000E+00
  0.00000000E+00  0.00000000E+00  0.00000000E+00
  0.00000000E+00  0.00000000E+00  0.00000000E+00
  0.00000000E+00  0.00000000E+00  0.00000000E+00
  0.00000000E+00  0.00000000E+00  0.00000000E+00
  0.00000000E+00  0.00000000E+00  0.00000000E+00
  0.00000000E+00  0.00000000E+00  0.00000000E+00
  0.00000000E+00  0.00000000E+00  0.00000000E+00
  0.00000000E+00  0.00000000E+00  0.00000000E+00
  0.00000000E+00  0.00000000E+00  0.00000000E+00
  0.00000000E+00  0.00000000E+00  0.00000000E+00
  0.00000000E+00  0.00000000E+00  0.00000000E+00
  0.00000000E+00  0.00000000E+00  0.00000000E+00
  0.00000000E+00  0.00000000E+00  0.00000000E+00
  0.00000000E+00  0.00000000E+00  0.00000000E+00
  0.00000000E+00  0.00000000E+00  0.00000000E+00
  0.00000000E+00  0.00000000E+00  0.00000000E+00
  0.00000000E+00  0.00000000E+00  0.00000000E+00
  0.00000000E+00  0.00000000E+00  0.00000000E+00
  0.00000000E+00  0.00000000E+00  0.00000000E+00
  0.00000000E+00  0.00000000E+00  0.00000000E+00
  0.00000000E+00  0.00000000E+00  0.00000000E+00
  0.00000000E+00  0.00000000E+00  0.00000000E+00
  0.00000000E+00  0.00000000E+00  0.00000000E+00
  0.00000000E+00  0.00000000E+00  0.00000000E+00
  0.00000000E+00  0.00000000E+00  0.00000000E+00
  0.00000000E+00  0.00000000E+00  0.00000000E+00
  0.00000000E+00  0.00000000E+00  0.00000000E+00
  0.00000000E+00  0.00000000E+00  0.00000000E+00
  0.00000000E+00  0.00000000E+00  0.00000000E+00
  0.00000000E+00  0.00000000E+00  0.00000000E+00
  0.00000000E+00  0.00000000E+00  0.00000000E+00
  0.00000000E+00  0.00000000E+00  0.00000000E+00
  0.00000000E+00  0.00000000E+00  0.00000000E+00
  0.00000000E+00  0.00000000E+00  0.00000000E+00
  0.00000000E+00  0.00000000E+00  0.00000000E+00
  0.00000000E+00  0.00000000E+00  0.00000000E+00
  0.00000000E+00  0.00000000E+00  0.00000000E+00
  0.00000000E+00  0.00000000E+00  0.00000000E+00
  0.00000000E+00  0.00000000E+00  0.00000000E+00
  0.00000000E+00  0.00000000E+00  0.00000000E+00
  0.00000000E+00  0.00000000E+00  0.00000000E+00
  0.00000000E+00  0.00000000E+00  0.00000000E+00
  0.00000000E+00  0.00000000E+00  0.00000000E+00
  0.00000000E+00  0.00000000E+00  0.00000000E+00
  0.00000000E+00  0.00000000E+00  0.00000000E+00
  0.00000000E+00  0.00000000E+00  0.00000000E+00
  0.00000000E+00  0.00000000E+00  0.00000000E+00
  0.00000000E+00  0.00000000E+00  0.00000000E+00
  0.00000000E+00  0.00000000E+00  0.00000000E+00
  0.00000000E+00  0.00000000E+00  0.00000000E+00
  0.00000000E+00  0.00000000E+00  0.00000000E+00
  0.00000000E+00  0.00000000E+00  0.00000000E+00
  0.00000000E+00  0.00000000E+00  0.00000000E+00
  0.00000000E+00  0.00000000E+00  0.00000000E+00
  0.00000000E+00  0.00000000E+00  0.00000000E+00
  0.00000000E+00  0.00000000E+00  0.00000000E+00
  0.00000000E+00  0.00000000E+00  0.00000000E+00
  0.00000000E+00  0.00000000E+00  0.00000000E+00
  0.00000000E+00  0.00000000E+00  0.00000000E+00
  0.00000000E+00  0.00000000E+00  0.00000000E+00
  0.00000000E+00  0.00000000E+00  0.00000000E+00
  0.00000000E+00  0.00000000E+00  0.00000000E+00
  0.00000000E+00  0.00000000E+00  0.00000000E+00
  0.00000000E+00  0.00000000E+00  0.00000000E+00
  0.00000000E+00  0.00000000E+00  0.00000000E+00
  0.00000000E+00  0.00000000E+00  0.00000000E+00
  0.00000000E+00  0.00000000E+00  0.00000000E+00
  0.00000000E+00  0.00000000E+00  0.00000000E+00
  0.00000000E+00  0.00000000E+00  0.00000000E+00
  0.00000000E+00  0.00000000E+00  0.00000000E+00
  0.00000000E+00  0.00000000E+00  0.00000000E+00
  0.00000000E+00  0.00000000E+00  0.00000000E+00
  0.00000000E+00  0.00000000E+00  0.00000000E+00
  0.00000000E+00  0.00000000E+00  0.00000000E+00
  0.00000000E+00  0.00000000E+00  0.00000000E+00
  0.00000000E+00  0.00000000E+00  0.00000000E+00
  0.00000000E+00  0.00000000E+00  0.00000000E+00
  0.00000000E+00  0.00000000E+00  0.00000000E+00
  0.00000000E+00  0.00000000E+00  0.00000000E+00
  0.00000000E+00  0.00000000E+00  0.00000000E+00
  0.00000000E+00  0.00000000E+00  0.00000000E+00
  0.00000000E+00  0.00000000E+00  0.00000000E+00
  0.00000000E+00  0.00000000E+00  0.00000000E+00
  0.00000000E+00  0.00000000E+00  0.00000000E+00
  0.00000000E+00  0.00000000E+00  0.00000000E+00
  0.00000000E+00  0.00000000E+00  0.00000000E+00
  0.00000000E+00  0.00000000E+00  0.00000000E+00
  0.00000000E+00  0.00000000E+00  0.00000000E+00
  0.00000000E+00  0.00000000E+00  0.00000000E+00
  0.00000000E+00  0.00000000E+00  0.00000000E+00
  0.00000000E+00  0.00000000E+00  0.00000000E+00
  0.00000000E+00  0.00000000E+00  0.00000000E+00
  0.00000000E+00  0.00000000E+00  0.00000000E+00
  0.00000000E+00  0.00000000E+00  0.00000000E+00
  0.00000000E+00  0.00000000E+00  0.00000000E+00
  0.00000000E+00  0.00000000E+00  0.00000000E+00
  0.00000000E+00  0.00000000E+00  0.00000000E+00
  0.00000000E+00  0.00000000E+00  0.00000000E+00
  0.00000000E+00  0.00000000E+00  0.00000000E+00
  0.00000000E+00  0.00000000E+00  0.00000000E+00
  0.00000000E+00  0.00000000E+00  0.00000000E+00
  0.00000000E+00  0.00000000E+00  0.00000000E+00
  0.00000000E+00  0.00000000E+00  0.00000000E+00
  0.00000000E+00  0.00000000E+00  0.00000000E+00
  0.00000000E+00  0.00000000E+00  0.00000000E+00
  0.00000000E+00  0.00000000E+00  0.00000000E+00
  0.00000000E+00  0.00000000E+00  0.00000000E+00
  0.00000000E+00  0.00000000E+00  0.00000000E+00
  0.00000000E+00  0.00000000E+00  0.00000000E+00
  0.00000000E+00  0.00000000E+00  0.00000000E+00
  0.00000000E+00  0.00000000E+00  0.00000000E+00
  0.00000000E+00  0.00000000E+00  0.00000000E+00
  0.00000000E+00  0.00000000E+00  0.00000000E+00
  0.00000000E+00  0.00000000E+00  0.00000000E+00
