fcc Si+fcc Ge
    1.000000000
   12.253652517    0.000000000    0.000000000
    0.000000000   12.253652517    0.000000000
    0.000000000    0.000000000   32.050000000
Si    Ge   
110     110
Direct
    0.000000000    0.250000000    0.042745710
    0.000000000    0.750000000    0.128237129
    0.000000000    0.250000000    0.213728549
    0.000000000    0.750000000    0.299219969
    0.000000000    0.250000000    0.384711388
    0.200000000    0.650000000    0.042745710
    0.200000000    0.150000000    0.128237129
    0.200000000    0.650000000    0.213728549
    0.200000000    0.150000000    0.299219969
    0.200000000    0.650000000    0.384711388
    0.400000000    0.050000000    0.042745710
    0.400000000    0.550000000    0.128237129
    0.400000000    0.050000000    0.213728549
    0.400000000    0.550000000    0.299219969
    0.400000000    0.050000000    0.384711388
    0.600000000    0.450000000    0.042745710
    0.600000000    0.950000000    0.128237129
    0.600000000    0.450000000    0.213728549
    0.600000000    0.950000000    0.299219969
    0.600000000    0.450000000    0.384711388
    0.800000000    0.850000000    0.042745710
    0.800000000    0.350000000    0.128237129
    0.800000000    0.850000000    0.213728549
    0.800000000    0.350000000    0.299219969
    0.800000000    0.850000000    0.384711388
    0.100000000    0.950000000    0.042745710
    0.100000000    0.450000000    0.128237129
    0.100000000    0.950000000    0.213728549
    0.100000000    0.450000000    0.299219969
    0.100000000    0.950000000    0.384711388
    0.300000000    0.350000000    0.042745710
    0.300000000    0.850000000    0.128237129
    0.300000000    0.350000000    0.213728549
    0.300000000    0.850000000    0.299219969
    0.300000000    0.350000000    0.384711388
    0.500000000    0.750000000    0.042745710
    0.500000000    0.250000000    0.128237129
    0.500000000    0.750000000    0.213728549
    0.500000000    0.250000000    0.299219969
    0.500000000    0.750000000    0.384711388
    0.700000000    0.150000000    0.042745710
    0.700000000    0.650000000    0.128237129
    0.700000000    0.150000000    0.213728549
    0.700000000    0.650000000    0.299219969
    0.700000000    0.150000000    0.384711388
    0.900000000    0.550000000    0.042745710
    0.900000000    0.050000000    0.128237129
    0.900000000    0.550000000    0.213728549
    0.900000000    0.050000000    0.299219969
    0.900000000    0.550000000    0.384711388
    0.150000000    0.800000000    0.000000000
    0.150000000    0.300000000    0.085491420
    0.150000000    0.800000000    0.170982839
    0.150000000    0.300000000    0.256474259
    0.150000000    0.800000000    0.341965679
    0.150000000    0.300000000    0.427457098
    0.350000000    0.200000000    0.000000000
    0.350000000    0.700000000    0.085491420
    0.350000000    0.200000000    0.170982839
    0.350000000    0.700000000    0.256474259
    0.350000000    0.200000000    0.341965679
    0.350000000    0.700000000    0.427457098
    0.550000000    0.600000000    0.000000000
    0.550000000    0.100000000    0.085491420
    0.550000000    0.600000000    0.170982839
    0.550000000    0.100000000    0.256474259
    0.550000000    0.600000000    0.341965679
    0.550000000    0.100000000    0.427457098
    0.750000000    0.000000000    0.000000000
    0.750000000    0.500000000    0.085491420
    0.750000000    0.000000000    0.170982839
    0.750000000    0.500000000    0.256474259
    0.750000000    0.000000000    0.341965679
    0.750000000    0.500000000    0.427457098
    0.950000000    0.400000000    0.000000000
    0.950000000    0.900000000    0.085491420
    0.950000000    0.400000000    0.170982839
    0.950000000    0.900000000    0.256474259
    0.950000000    0.400000000    0.341965679
    0.950000000    0.900000000    0.427457098
    0.050000000    0.100000000    0.000000000
    0.050000000    0.600000000    0.085491420
    0.050000000    0.100000000    0.170982839
    0.050000000    0.600000000    0.256474259
    0.050000000    0.100000000    0.341965679
    0.050000000    0.600000000    0.427457098
    0.250000000    0.500000000    0.000000000
    0.250000000    0.000000000    0.085491420
    0.250000000    0.500000000    0.170982839
    0.250000000    0.000000000    0.256474259
    0.250000000    0.500000000    0.341965679
    0.250000000    0.000000000    0.427457098
    0.450000000    0.900000000    0.000000000
    0.450000000    0.400000000    0.085491420
    0.450000000    0.900000000    0.170982839
    0.450000000    0.400000000    0.256474259
    0.450000000    0.900000000    0.341965679
    0.450000000    0.400000000    0.427457098
    0.650000000    0.300000000    0.000000000
    0.650000000    0.800000000    0.085491420
    0.650000000    0.300000000    0.170982839
    0.650000000    0.800000000    0.256474259
    0.650000000    0.300000000    0.341965679
    0.650000000    0.800000000    0.427457098
    0.850000000    0.700000000    0.000000000
    0.850000000    0.200000000    0.085491420
    0.850000000    0.700000000    0.170982839
    0.850000000    0.200000000    0.256474259
    0.850000000    0.700000000    0.341965679
    0.850000000    0.200000000    0.427457098
    0.315573770    0.655737705    0.537129485
    0.415573770    0.455737705    0.625429017
    0.515573770    0.255737705    0.713728549
    0.615573770    0.055737705    0.802028081
    0.715573770    0.855737705    0.890327613
    0.715573770    0.855737705    0.537129485
    0.815573770    0.655737705    0.625429017
    0.915573770    0.455737705    0.713728549
    0.015573770    0.255737705    0.802028081
    0.115573770    0.055737705    0.890327613
    0.115573770    0.055737705    0.537129485
    0.215573770    0.855737705    0.625429017
    0.315573770    0.655737705    0.713728549
    0.415573770    0.455737705    0.802028081
    0.515573770    0.255737705    0.890327613
    0.515573770    0.255737705    0.537129485
    0.615573770    0.055737705    0.625429017
    0.715573770    0.855737705    0.713728549
    0.815573770    0.655737705    0.802028081
    0.915573770    0.455737705    0.890327613
    0.915573770    0.455737705    0.537129485
    0.015573770    0.255737705    0.625429017
    0.115573770    0.055737705    0.713728549
    0.215573770    0.855737705    0.802028081
    0.315573770    0.655737705    0.890327613
    0.415573770    0.955737705    0.537129485
    0.515573770    0.755737705    0.625429017
    0.615573770    0.555737705    0.713728549
    0.715573770    0.355737705    0.802028081
    0.815573770    0.155737705    0.890327613
    0.215573770    0.355737705    0.537129485
    0.315573770    0.155737705    0.625429017
    0.415573770    0.955737705    0.713728549
    0.515573770    0.755737705    0.802028081
    0.615573770    0.555737705    0.890327613
    0.615573770    0.555737705    0.537129485
    0.715573770    0.355737705    0.625429017
    0.815573770    0.155737705    0.713728549
    0.915573770    0.955737705    0.802028081
    0.015573770    0.755737705    0.890327613
    0.015573770    0.755737705    0.537129485
    0.115573770    0.555737705    0.625429017
    0.215573770    0.355737705    0.713728549
    0.315573770    0.155737705    0.802028081
    0.415573770    0.955737705    0.890327613
    0.815573770    0.155737705    0.537129485
    0.915573770    0.955737705    0.625429017
    0.015573770    0.755737705    0.713728549
    0.115573770    0.555737705    0.802028081
    0.215573770    0.355737705    0.890327613
    0.165573770    0.205737705    0.492979719
    0.265573770    0.005737705    0.581279251
    0.365573770    0.805737705    0.669578783
    0.465573770    0.605737705    0.757878315
    0.565573770    0.405737705    0.846177847
    0.665573770    0.205737705    0.934477379
    0.365573770    0.805737705    0.492979719
    0.465573770    0.605737705    0.581279251
    0.565573770    0.405737705    0.669578783
    0.665573770    0.205737705    0.757878315
    0.765573770    0.005737705    0.846177847
    0.865573770    0.805737705    0.934477379
    0.765573770    0.005737705    0.492979719
    0.865573770    0.805737705    0.581279251
    0.965573770    0.605737705    0.669578783
    0.065573770    0.405737705    0.757878315
    0.165573770    0.205737705    0.846177847
    0.265573770    0.005737705    0.934477379
    0.565573770    0.405737705    0.492979719
    0.665573770    0.205737705    0.581279251
    0.765573770    0.005737705    0.669578783
    0.865573770    0.805737705    0.757878315
    0.965573770    0.605737705    0.846177847
    0.065573770    0.405737705    0.934477379
    0.965573770    0.605737705    0.492979719
    0.065573770    0.405737705    0.581279251
    0.165573770    0.205737705    0.669578783
    0.265573770    0.005737705    0.757878315
    0.365573770    0.805737705    0.846177847
    0.465573770    0.605737705    0.934477379
    0.065573770    0.905737705    0.492979719
    0.165573770    0.705737705    0.581279251
    0.265573770    0.505737705    0.669578783
    0.365573770    0.305737705    0.757878315
    0.465573770    0.105737705    0.846177847
    0.565573770    0.905737705    0.934477379
    0.465573770    0.105737705    0.492979719
    0.565573770    0.905737705    0.581279251
    0.665573770    0.705737705    0.669578783
    0.765573770    0.505737705    0.757878315
    0.865573770    0.305737705    0.846177847
    0.965573770    0.105737705    0.934477379
    0.265573770    0.505737705    0.492979719
    0.365573770    0.305737705    0.581279251
    0.465573770    0.105737705    0.669578783
    0.565573770    0.905737705    0.757878315
    0.665573770    0.705737705    0.846177847
    0.765573770    0.505737705    0.934477379
    0.665573770    0.705737705    0.492979719
    0.765573770    0.505737705    0.581279251
    0.865573770    0.305737705    0.669578783
    0.965573770    0.105737705    0.757878315
    0.065573770    0.905737705    0.846177847
    0.165573770    0.705737705    0.934477379
    0.865573770    0.305737705    0.492979719
    0.965573770    0.105737705    0.581279251
    0.065573770    0.905737705    0.669578783
    0.165573770    0.705737705    0.757878315
    0.265573770    0.505737705    0.846177847
    0.365573770    0.305737705    0.934477379
