fcc Si+fcc Ge
    1.000000000
    7.749890322    0.000000000    0.000000000
   -3.874945161   11.624835483    0.000000000
    0.000000000    0.000000000   18.633333333
Si    Ge   
12     66
Direct
    0.000000000    0.000000000    0.000000000
    0.388888889    0.277777778    0.049016100
    0.777777778    0.555555556    0.098032200
    0.500000000    0.000000000    0.000000000
    0.888888889    0.277777778    0.049016100
    0.277777778    0.555555556    0.098032200
    0.694444444    0.888888889    0.024508050
    0.083333333    0.166666667    0.073524150
    0.472222222    0.444444444    0.122540250
    0.194444444    0.888888889    0.024508050
    0.583333333    0.166666667    0.073524150
    0.972222222    0.444444444    0.122540250
    0.135964912    0.719945355    0.257513417
    0.302631579    0.553278689    0.409391771
    0.469298246    0.386612022    0.561270125
    0.635964912    0.219945355    0.713148479
    0.802631579    0.053278689    0.865026834
    0.802631579    0.053278689    0.257513417
    0.969298246    0.886612022    0.409391771
    0.135964912    0.719945355    0.561270125
    0.302631579    0.553278689    0.713148479
    0.469298246    0.386612022    0.865026834
    0.469298246    0.386612022    0.257513417
    0.635964912    0.219945355    0.409391771
    0.802631579    0.053278689    0.561270125
    0.969298246    0.886612022    0.713148479
    0.135964912    0.719945355    0.865026834
    0.635964912    0.719945355    0.257513417
    0.802631579    0.553278689    0.409391771
    0.969298246    0.386612022    0.561270125
    0.135964912    0.219945355    0.713148479
    0.302631579    0.053278689    0.865026834
    0.302631579    0.053278689    0.257513417
    0.469298246    0.886612022    0.409391771
    0.635964912    0.719945355    0.561270125
    0.802631579    0.553278689    0.713148479
    0.969298246    0.386612022    0.865026834
    0.969298246    0.386612022    0.257513417
    0.135964912    0.219945355    0.409391771
    0.302631579    0.053278689    0.561270125
    0.469298246    0.886612022    0.713148479
    0.635964912    0.719945355    0.865026834
    0.052631579    0.053278689    0.181574240
    0.219298246    0.886612022    0.333452594
    0.385964912    0.719945355    0.485330948
    0.552631579    0.553278689    0.637209302
    0.719298246    0.386612022    0.789087657
    0.885964912    0.219945355    0.940966011
    0.719298246    0.386612022    0.181574240
    0.885964912    0.219945355    0.333452594
    0.052631579    0.053278689    0.485330948
    0.219298246    0.886612022    0.637209302
    0.385964912    0.719945355    0.789087657
    0.552631579    0.553278689    0.940966011
    0.385964912    0.719945355    0.181574240
    0.552631579    0.553278689    0.333452594
    0.719298246    0.386612022    0.485330948
    0.885964912    0.219945355    0.637209302
    0.052631579    0.053278689    0.789087657
    0.219298246    0.886612022    0.940966011
    0.552631579    0.053278689    0.181574240
    0.719298246    0.886612022    0.333452594
    0.885964912    0.719945355    0.485330948
    0.052631579    0.553278689    0.637209302
    0.219298246    0.386612022    0.789087657
    0.385964912    0.219945355    0.940966011
    0.219298246    0.386612022    0.181574240
    0.385964912    0.219945355    0.333452594
    0.552631579    0.053278689    0.485330948
    0.719298246    0.886612022    0.637209302
    0.885964912    0.719945355    0.789087657
    0.052631579    0.553278689    0.940966011
    0.885964912    0.719945355    0.181574240
    0.052631579    0.553278689    0.333452594
    0.219298246    0.386612022    0.485330948
    0.385964912    0.219945355    0.637209302
    0.552631579    0.053278689    0.789087657
    0.719298246    0.886612022    0.940966011
