Si+C
    1.000000000
   13.303179741    0.000000000    0.000000000
    6.651589394   14.873406410    0.000000000
    0.000000000    0.000000000    8.390059471
Si  C  
36     84
Direct
    0.982905626    0.658119500    0.000000005
    0.782905579    0.558119297    0.144743800
    0.582905412    0.458119094    0.289487600
    0.982905626    0.324786127    0.000000005
    0.782905579    0.224785969    0.144743800
    0.582905412    0.124785803    0.289487600
    0.982905626    0.991452813    0.000000005
    0.782905579    0.891452670    0.144743800
    0.582905412    0.791452527    0.289487600
    0.632905662    0.691452682    0.072371744
    0.432905585    0.591452479    0.217115551
    0.232905522    0.491452426    0.361859351
    0.632905662    0.358119428    0.072371744
    0.432905585    0.258119285    0.217115551
    0.232905522    0.158119142    0.361859351
    0.632905662    0.024786137    0.072371744
    0.432905585    0.924785972    0.217115551
    0.232905522    0.824785829    0.361859351
    0.482905626    0.658119500    0.000000000
    0.282905549    0.558119297    0.144743800
    0.082905442    0.458119094    0.289487600
    0.482905626    0.324786127    0.000000000
    0.282905549    0.224785954    0.144743800
    0.082905442    0.124785811    0.289487600
    0.482905626    0.991452813    0.000000000
    0.282905549    0.891452670    0.144743800
    0.082905442    0.791452527    0.289487600
    0.132905677    0.691452742    0.072371759
    0.932905555    0.591452479    0.217115551
    0.732905507    0.491452396    0.361859351
    0.132905677    0.358119488    0.072371759
    0.932905555    0.258119285    0.217115551
    0.732905507    0.158119127    0.361859351
    0.132905677    0.024786137    0.072371759
    0.932905555    0.924785972    0.217115551
    0.732905507    0.824785829    0.361859351
    0.360717058    0.132672414    0.562104404
    0.332145452    0.404101044    0.657164693
    0.303573847    0.675529659    0.752224922
    0.503574133    0.275529563    0.562104404
    0.475002557    0.546958208    0.657164693
    0.446431041    0.818386853    0.752224922
    0.646431267    0.418386728    0.562104404
    0.617859721    0.689815342    0.657164693
    0.589288175    0.961244047    0.752224922
    0.789288402    0.561243892    0.562104404
    0.760716856    0.832672536    0.657164693
    0.732145309    0.104101181    0.752224922
    0.932145536    0.704101026    0.562104404
    0.903573930    0.975529611    0.657164693
    0.875002384    0.246958256    0.752224922
    0.075002670    0.846958101    0.562104404
    0.046431065    0.118386745    0.657164693
    0.017859578    0.389815331    0.752224922
    0.217859864    0.989815354    0.562104404
    0.189288378    0.261243939    0.657164693
    0.160716653    0.532672524    0.752224922
    0.453574151    0.875529408    0.609634459
    0.425002605    0.146957994    0.704694688
    0.396431118    0.418386698    0.799754918
    0.596431255    0.018386602    0.609634459
    0.567859709    0.289815307    0.704694688
    0.539288163    0.561244011    0.799754918
    0.739288449    0.161243796    0.609634459
    0.710716844    0.432672501    0.704694688
    0.682145238    0.704101086    0.799754858
    0.882145524    0.304100871    0.609634459
    0.853574038    0.575529516    0.704694688
    0.825002372    0.846958041    0.799754858
    0.025002718    0.446958154    0.609634459
    0.996431112    0.718386769    0.704694688
    0.967859566    0.989815414    0.799754858
    0.167859793    0.589815259    0.609634459
    0.139288187    0.861243904    0.704694688
    0.110716820    0.132672548    0.799754918
    0.310716987    0.732672393    0.609634459
    0.282145500    0.004101038    0.704694688
    0.253573895    0.275529504    0.799754858
    0.432145506    0.704100966    0.562104404
    0.403573990    0.975529611    0.657164693
    0.375002414    0.246958256    0.752224922
    0.575002670    0.846958101    0.562104404
    0.546431124    0.118386745    0.657164693
    0.517859638    0.389815450    0.752224922
    0.717859864    0.989815235    0.562104404
    0.689288378    0.261243939    0.657164693
    0.660716712    0.532672524    0.752224863
    0.860716999    0.132672414    0.562104404
    0.832145393    0.404101044    0.657164693
    0.803573847    0.675529659    0.752224922
    0.003574133    0.275529504    0.562104404
    0.975002587    0.546958148    0.657164693
    0.946431041    0.818386793    0.752224922
    0.146431327    0.418386728    0.562104404
    0.117859721    0.689815342    0.657164693
    0.089288235    0.961243987    0.752224922
    0.289288521    0.561243832    0.562104404
    0.260716915    0.832672477    0.657164693
    0.232145309    0.104101062    0.752224922
    0.382145554    0.304100871    0.609634459
    0.353574038    0.575529516    0.704694688
    0.325002432    0.846958160    0.799754858
    0.525002718    0.446957946    0.609634459
    0.496431172    0.718386590    0.704694688
    0.467859626    0.989815176    0.799754858
    0.667859793    0.589815259    0.609634459
    0.639288306    0.861243844    0.704694688
    0.610716701    0.132672429    0.799754918
    0.810716987    0.732672334    0.609634459
    0.782145381    0.004100919    0.704694688
    0.753573895    0.275529504    0.799754918
    0.953574061    0.875529349    0.609634459
    0.925002575    0.146957994    0.704694688
    0.896431029    0.418386698    0.799754918
    0.096431255    0.018386602    0.609634459
    0.067859650    0.289815307    0.704694688
    0.039288044    0.561243773    0.799754918
    0.239288330    0.161243677    0.609634459
    0.210716724    0.432672262    0.704694688
    0.182145119    0.704100847    0.799754858
