Ge+Si
    1.000000000
    8.001338005    0.000000000    0.000000000
    0.000000000   16.002676010    0.000000000
    0.000000000    0.000000000   13.264324188
Ge  Si 
48     24
Direct
    0.991458297    0.995729148    0.000000000
    0.741458297    0.870729148    0.213271320
    0.491458297    0.745729148    0.426542670
    0.991458237    0.495729089    0.000000000
    0.741458297    0.370729119    0.213271320
    0.491458297    0.245729119    0.426542670
    0.491458237    0.245729119    0.000000000
    0.241458267    0.120729133    0.213271320
    0.991458297    0.995729148    0.426542670
    0.491458237    0.745729089    0.000000000
    0.241458282    0.620729089    0.213271320
    0.991458237    0.495729089    0.426542670
    0.241458282    0.995729148    0.106635660
    0.991458297    0.870729148    0.319907010
    0.741458297    0.745729148    0.533178329
    0.241458237    0.495729089    0.106635660
    0.991458237    0.370729089    0.319907010
    0.741458237    0.245729089    0.533178329
    0.741458297    0.245729148    0.106635660
    0.491458297    0.120729148    0.319907010
    0.241458282    0.995729148    0.533178329
    0.741458297    0.745729089    0.106635660
    0.491458267    0.620729089    0.319907010
    0.241458267    0.495729119    0.533178329
    0.991458297    0.245729133    0.000000000
    0.741458297    0.120729133    0.213271320
    0.491458297    0.995729148    0.426542670
    0.491458267    0.995729148    0.000000000
    0.241458267    0.870729148    0.213271320
    0.991458297    0.745729148    0.426542670
    0.991458237    0.745729148    0.000000000
    0.741458297    0.620729148    0.213271320
    0.491458297    0.495729148    0.426542670
    0.491458267    0.495729119    0.000000000
    0.241458312    0.370729148    0.213271320
    0.991458297    0.245729148    0.426542670
    0.241458282    0.245729119    0.106635660
    0.991458297    0.120729133    0.319907010
    0.741458297    0.995729148    0.533178329
    0.741458237    0.995729148    0.106635660
    0.491458267    0.870729148    0.319907010
    0.241458252    0.745729089    0.533178329
    0.241458282    0.745729089    0.106635660
    0.991458297    0.620729089    0.319907010
    0.741458297    0.495729089    0.533178329
    0.741458237    0.495729089    0.106635660
    0.491458267    0.370729119    0.319907010
    0.241458252    0.245729089    0.533178329
    0.373893738    0.855529189    0.645955384
    0.123893738    0.466640234    0.694208860
    0.873893738    0.077751398    0.742462397
    0.623893678    0.688862324    0.790715814
    0.373893619    0.299973369    0.838969350
    0.123893499    0.911084056    0.887222767
    0.623893857    0.605529308    0.645955384
    0.373893738    0.216640234    0.694208860
    0.123893738    0.827751398    0.742462397
    0.873893619    0.438862324    0.790715873
    0.623893559    0.049973249    0.838969290
    0.373893499    0.661084175    0.887222886
    0.123893976    0.605529308    0.645955384
    0.873893797    0.216640234    0.694208860
    0.623893797    0.827751279    0.742462397
    0.373893738    0.438862324    0.790715873
    0.123893619    0.049973249    0.838969290
    0.873893559    0.661084175    0.887222826
    0.873893857    0.855529189    0.645955384
    0.623893738    0.466640234    0.694208860
    0.373893738    0.077751398    0.742462397
    0.123893738    0.688862324    0.790715814
    0.873893678    0.299973249    0.838969350
    0.623893440    0.911084294    0.887222886
