Si+C
    1.000000000
   13.303179741    0.000000000    0.000000000
   -6.651589394   11.520891190    0.000000000
    0.000000000    0.000000000   21.679416656
Si  C  
72     308
Direct
    0.348160356    0.681493700    0.000000013
    0.681493759    0.014827132    0.144634396
    0.014827251    0.348160625    0.289268821
    0.014827028    0.014827028    0.000000014
    0.348160386    0.348160386    0.144634396
    0.681493878    0.681493878    0.289268821
    0.681493700    0.348160356    0.000000000
    0.014827132    0.681493759    0.144634396
    0.348160625    0.014827251    0.289268792
    0.014827013    0.681493759    0.036158606
    0.348160386    0.014827132    0.180793017
    0.681493878    0.348160625    0.325427473
    0.348160416    0.348160416    0.036158621
    0.681493759    0.681493819    0.180793032
    0.014827251    0.014827251    0.325427473
    0.681493759    0.014827013    0.036158606
    0.014827132    0.348160386    0.180793017
    0.348160625    0.681493878    0.325427443
    0.014827028    0.514827013    0.000000017
    0.348160416    0.848160446    0.144634411
    0.681493819    0.181493878    0.289268821
    0.681493759    0.848160386    0.000000038
    0.014827132    0.181493759    0.144634396
    0.348160625    0.514827251    0.289268821
    0.348160386    0.181493685    0.000000008
    0.681493759    0.514827073    0.144634396
    0.014827132    0.848160505    0.289268792
    0.348160416    0.848160267    0.036158569
    0.681493878    0.181493759    0.180793002
    0.014827132    0.514827013    0.325427413
    0.014827132    0.181493700    0.036158592
    0.348160505    0.514827132    0.180793002
    0.681493759    0.848160446    0.325427353
    0.681493819    0.514827073    0.036158577
    0.014827251    0.848160505    0.180793017
    0.348160625    0.181493878    0.325427413
    0.181493700    0.848160386    0.000000024
    0.514827073    0.181493759    0.144634396
    0.848160565    0.514827251    0.289268821
    0.514827013    0.514827013    0.000000014
    0.848160446    0.848160386    0.144634396
    0.181493878    0.181493878    0.289268821
    0.848160386    0.181493700    0.000000005
    0.181493759    0.514827073    0.144634381
    0.514827251    0.848160565    0.289268821
    0.181493685    0.514827013    0.036158577
    0.514827132    0.848160505    0.180793017
    0.848160446    0.181493759    0.325427413
    0.848160386    0.848160386    0.036158562
    0.181493878    0.181493878    0.180793017
    0.514827251    0.514827251    0.325427413
    0.514827073    0.181493670    0.036158577
    0.848160505    0.514827132    0.180793017
    0.181493759    0.848160446    0.325427413
    0.181493700    0.348160356    0.000000013
    0.514827073    0.681493759    0.144634396
    0.848160505    0.014827132    0.289268821
    0.848160386    0.681493759    0.000000027
    0.181493759    0.014827132    0.144634396
    0.514827251    0.348160625    0.289268821
    0.514827013    0.014827021    0.000000013
    0.848160386    0.348160416    0.144634396
    0.181493878    0.681493819    0.289268821
    0.514827013    0.681493640    0.036158621
    0.848160386    0.014827013    0.180793017
    0.181493878    0.348160505    0.325427473
    0.181493655    0.014827013    0.036158614
    0.514827013    0.348160386    0.180793017
    0.848160446    0.681493878    0.325427473
    0.848160446    0.348160386    0.036158606
    0.181493878    0.681493759    0.180793017
    0.514827251    0.014827251    0.325427443
    0.872673869    0.255615115    0.876437604
    0.634578764    0.207996130    0.496484011
    0.444102556    0.969900906    0.591472447
    0.253626287    0.731805563    0.686460853
    0.063150048    0.493710279    0.781449199
    0.015531063    0.684186578    0.876437724
    0.777435899    0.636567652    0.496484041
    0.586959660    0.398472399    0.591472447
    0.396483392    0.160377026    0.686460853
    0.206007123    0.922281742    0.781449258
    0.586959541    0.398472250    0.876437724
    0.348864436    0.350853324    0.496484011
    0.158388257    0.112758160    0.591472447
    0.967911959    0.874662757    0.686460853
    0.777435720    0.636567414    0.781449258
    0.729816735    0.827043653    0.876437604
    0.491721630    0.779424787    0.496484011
    0.301245421    0.541329503    0.591472447
    0.110769108    0.303234160    0.686460853
    0.920292854    0.065138817    0.781449258
    0.158388138    0.112758040    0.876437604
    0.920293033    0.065139055    0.496484011
    0.729816794    0.827043772    0.591472447
    0.539340496    0.588948429    0.686460853
    0.348864257    0.350853145    0.781449199
    0.301245272    0.541329384    0.876437604
    0.063150167    0.493710458    0.496484011
    0.872673929    0.255615205    0.591472447
    0.682197690    0.017519951    0.686460853
    0.491721392    0.779424548    0.781449199
    0.444102407    0.969900846    0.876437604
    0.206007332    0.922281921    0.496484011
    0.015531182    0.684186697    0.591472447
    0.825054824    0.446091294    0.686460853
    0.634578526    0.207995892    0.781449199
    0.110769041    0.303234100    0.900184691
    0.063150287    0.493710458    0.425242722
    0.872673929    0.255615175    0.520231128
    0.682197750    0.017519951    0.615219593
    0.491721451    0.779424548    0.710207939
    0.301245153    0.541329265    0.805196404
    0.825054705    0.446091235    0.900184691
    0.777435958    0.636567712    0.425242692
    0.586959720    0.398472399    0.520231068
    0.396483451    0.160377026    0.615219533
    0.206007153    0.922281742    0.710207939
    0.015530944    0.684186518    0.805196345
    0.967911959    0.874662757    0.900184751
    0.920293152    0.065139174    0.425242692
    0.729816914    0.827043831    0.520231128
    0.539340675    0.588948548    0.615219533
    0.348864347    0.350853205    0.710207939
    0.158388153    0.112757921    0.805196404
    0.396483302    0.160377026    0.900184691
    0.348864496    0.350853384    0.425242722
    0.158388257    0.112758040    0.520231128
    0.967912018    0.874662757    0.615219593
    0.777435720    0.636567414    0.710207939
    0.586959422    0.398472190    0.805196464
    0.539340436    0.588948429    0.900184691
    0.491721690    0.779424787    0.425242722
    0.301245421    0.541329503    0.520231128
    0.110769175    0.303234220    0.615219593
    0.920292854    0.065138817    0.710207939
    0.729816616    0.827043593    0.805196404
    0.682197630    0.017519832    0.900184751
    0.634578824    0.207996249    0.425242722
    0.444102585    0.969900966    0.520231128
    0.253626347    0.731805682    0.615219593
    0.063150048    0.493710339    0.710207939
    0.872673810    0.255615115    0.805196404
    0.253626168    0.731805563    0.900184751
    0.206007361    0.922281921    0.425242722
    0.015531063    0.684186637    0.520231128
    0.825054824    0.446091354    0.615219593
    0.634578526    0.207996011    0.710207939
    0.444102347    0.969900727    0.805196464
    0.086959660    0.398472250    0.876437604
    0.848864555    0.350853324    0.496484011
    0.658388376    0.112758160    0.591472447
    0.467912018    0.874662757    0.686460853
    0.277435780    0.636567473    0.781449199
    0.658388138    0.112757921    0.876437604
    0.420293033    0.065139055    0.496484011
    0.229816824    0.827043772    0.591472447
    0.039340615    0.588948429    0.686460853
    0.848864257    0.350853086    0.781449258
    0.801245272    0.541329443    0.876437604
    0.563150227    0.493710458    0.496484041
    0.372673988    0.255615234    0.591472447
    0.182197720    0.017519951    0.686460853
    0.991721451    0.779424548    0.781449258
    0.944102347    0.969900846    0.876437724
    0.706007302    0.922281921    0.496484041
    0.515531123    0.684186637    0.591472447
    0.325054795    0.446091294    0.686460853
    0.134578496    0.207995892    0.781449258
    0.372673810    0.255615056    0.876437604
    0.134578735    0.207996130    0.496484011
    0.944102526    0.969900966    0.591472447
    0.753626227    0.731805503    0.686460853
    0.563149989    0.493710220    0.781449258
    0.515530944    0.684186518    0.876437604
    0.277435869    0.636567593    0.496484041
    0.086959682    0.398472369    0.591472447
    0.896483362    0.160377026    0.686460853
    0.706007123    0.922281682    0.781449258
    0.229816675    0.827043653    0.876437604
    0.991721570    0.779424727    0.496484011
    0.801245391    0.541329503    0.591472447
    0.610769093    0.303234160    0.686460853
    0.420292795    0.065138817    0.781449199
    0.896483362    0.160376906    0.900184751
    0.848864555    0.350853384    0.425242722
    0.658388376    0.112758160    0.520231128
    0.467912138    0.874662757    0.615219593
    0.277435780    0.636567414    0.710207939
    0.086959571    0.398472190    0.805196404
    0.039340496    0.588948369    0.900184751
    0.991721749    0.779424787    0.425242722
    0.801245511    0.541329503    0.520231128
    0.610769272    0.303234190    0.615219593
    0.420292914    0.065138817    0.710207939
    0.229816735    0.827043593    0.805196404
    0.610769093    0.303234100    0.900184691
    0.563150227    0.493710518    0.425242692
    0.372673988    0.255615205    0.520231068
    0.182197794    0.017519951    0.615219474
    0.991721451    0.779424608    0.710207939
    0.801245272    0.541329384    0.805196345
    0.753626227    0.731805563    0.900184691
    0.706007421    0.922281981    0.425242662
    0.515531182    0.684186697    0.520231068
    0.325054973    0.446091473    0.615219474
    0.134578645    0.207996130    0.710207939
    0.944102407    0.969900787    0.805196345
    0.325054765    0.446091235    0.900184691
    0.277435929    0.636567652    0.425242692
    0.086959675    0.398472369    0.520231068
    0.896483481    0.160377145    0.615219474
    0.706007183    0.922281742    0.710207939
    0.515531003    0.684186578    0.805196345
    0.467911959    0.874662757    0.900184691
    0.420293123    0.065139174    0.425242692
    0.229816854    0.827043831    0.520231068
    0.039340734    0.588948607    0.615219474
    0.848864317    0.350853205    0.710207939
    0.658388078    0.112757921    0.805196345
    0.182197571    0.017519951    0.900184691
    0.134578794    0.207996368    0.425242692
    0.944102526    0.969900966    0.520231068
    0.753626287    0.731805801    0.615219474
    0.563149989    0.493710339    0.710207939
    0.372673750    0.255615115    0.805196345
    0.015531063    0.184186578    0.876437724
    0.777435958    0.136567593    0.496484041
    0.586959779    0.898472369    0.591472447
    0.396483421    0.660377026    0.686460853
    0.206007183    0.422281742    0.781449258
    0.729816735    0.327043712    0.876437724
    0.491721660    0.279424787    0.496484041
    0.301245451    0.041329503    0.591472447
    0.110769168    0.803234220    0.686460853
    0.920292914    0.565138876    0.781449258
    0.872673869    0.755615115    0.876437604
    0.634578764    0.707996130    0.496484011
    0.444102556    0.469900906    0.591472447
    0.253626257    0.231805563    0.686460853
    0.063149929    0.993710279    0.781449199
    0.444102407    0.469900787    0.876437604
    0.206007332    0.422281861    0.496484011
    0.015531182    0.184186697    0.591472447
    0.825054824    0.946091294    0.686460853
    0.634578586    0.707995951    0.781449199
    0.586959541    0.898472190    0.876437604
    0.348864496    0.850853324    0.496484011
    0.158388287    0.612758040    0.591472447
    0.967911959    0.374662697    0.686460853
    0.777435720    0.136567354    0.781449199
    0.158388078    0.612757921    0.876437604
    0.920293033    0.565139055    0.496484011
    0.729816794    0.327043802    0.591472447
    0.539340496    0.088948488    0.686460853
    0.348864198    0.850853086    0.781449199
    0.301245213    0.041329384    0.876437724
    0.063150167    0.993710518    0.496483982
    0.872673929    0.755615234    0.591472447
    0.682197750    0.517520070    0.686460793
    0.491721332    0.279424548    0.781449258
    0.967911899    0.374662578    0.900184751
    0.920293152    0.565139055    0.425242722
    0.729816914    0.327043742    0.520231128
    0.539340675    0.088948488    0.615219593
    0.348864317    0.850853086    0.710207939
    0.158388138    0.612757862    0.805196404
    0.110769100    0.803234100    0.900184691
    0.063150287    0.993710518    0.425242722
    0.872673988    0.755615234    0.520231128
    0.682197750    0.517519951    0.615219593
    0.491721451    0.279424548    0.710207939
    0.301245213    0.041329265    0.805196404
    0.682197630    0.517519832    0.900184751
    0.634578824    0.707996249    0.425242692
    0.444102585    0.469900966    0.520231128
    0.253626406    0.231805801    0.615219533
    0.063150048    0.993710339    0.710207939
    0.872673810    0.755615115    0.805196404
    0.825054824    0.946091294    0.900184691
    0.777435958    0.136567593    0.425242692
    0.586959720    0.898472369    0.520231068
    0.396483541    0.660377145    0.615219474
    0.206007242    0.422281742    0.710207939
    0.015531063    0.184186459    0.805196345
    0.253626227    0.231805444    0.900184691
    0.206007391    0.422281921    0.425242692
    0.015531182    0.184186578    0.520231068
    0.825054944    0.946091354    0.615219474
    0.634578645    0.707996011    0.710207939
    0.444102407    0.469900787    0.805196345
    0.396483362    0.660377026    0.900184691
    0.348864526    0.850853443    0.425242692
    0.158388287    0.612758100    0.520231068
    0.967912078    0.374662876    0.615219474
    0.777435720    0.136567473    0.710207939
    0.586959541    0.898472190    0.805196345
    0.539340496    0.088948369    0.900184691
    0.491721660    0.279424757    0.425242692
    0.301245421    0.041329384    0.520231068
    0.110769212    0.803234220    0.615219474
    0.920292914    0.565138876    0.710207939
    0.729816675    0.327043653    0.805196345
    0.944102526    0.469900846    0.876437724
    0.706007421    0.422281861    0.496484041
    0.515531182    0.184186697    0.591472447
    0.325054914    0.946091294    0.686460853
    0.134578615    0.707995951    0.781449318
    0.086959623    0.898472250    0.876437604
    0.848864555    0.850853324    0.496483982
    0.658388317    0.612758100    0.591472447
    0.467912048    0.374662757    0.686460853
    0.277435750    0.136567354    0.781449199
    0.515531003    0.184186459    0.876437604
    0.277435899    0.136567593    0.496484011
    0.086959690    0.898472309    0.591472447
    0.896483362    0.660376966    0.686460853
    0.706007063    0.422281682    0.781449258
    0.658388197    0.612757981    0.876437604
    0.420293003    0.565139055    0.496484011
    0.229816824    0.327043802    0.591472447
    0.039340615    0.088948488    0.686460853
    0.848864257    0.850853086    0.781449258
    0.801245332    0.041329384    0.876437604
    0.563150227    0.993710518    0.496483982
    0.372674018    0.755615294    0.591472447
    0.182197720    0.517519951    0.686460853
    0.991721451    0.279424578    0.781449258
    0.229816675    0.327043712    0.876437604
    0.991721570    0.279424727    0.496484011
    0.801245391    0.041329503    0.591472447
    0.610769093    0.803234100    0.686460853
    0.420292795    0.565138817    0.781449258
    0.372673869    0.755615115    0.876437604
    0.134578735    0.707996249    0.496484011
    0.944102526    0.469901025    0.591472447
    0.753626227    0.231805682    0.686460853
    0.563149989    0.993710399    0.781449199
    0.753626168    0.231805563    0.900184751
    0.706007421    0.422281981    0.425242722
    0.515531242    0.184186697    0.520231128
    0.325054944    0.946091413    0.615219593
    0.134578660    0.707996070    0.710207939
    0.944102466    0.469900727    0.805196404
    0.896483481    0.660376966    0.900184691
    0.848864615    0.850853443    0.425242692
    0.658388376    0.612758100    0.520231068
    0.467912108    0.374662787    0.615219533
    0.277435839    0.136567473    0.710207939
    0.086959615    0.898472190    0.805196345
    0.039340496    0.088948369    0.900184691
    0.991721690    0.279424816    0.425242692
    0.801245451    0.041329503    0.520231068
    0.610769272    0.803234220    0.615219593
    0.420292884    0.565138817    0.710207939
    0.229816705    0.327043533    0.805196404
    0.467911899    0.374662638    0.900184751
    0.420293123    0.565139055    0.425242722
    0.229816884    0.327043802    0.520231128
    0.039340615    0.088948488    0.615219593
    0.848864317    0.850853205    0.710207939
    0.658388138    0.612757921    0.805196404
    0.610768974    0.803234100    0.900184691
    0.563150227    0.993710518    0.425242692
    0.372673988    0.755615234    0.520231068
    0.182197735    0.517519951    0.615219533
    0.991721451    0.279424578    0.710207939
    0.801245272    0.041329384    0.805196404
    0.182197630    0.517519891    0.900184691
    0.134578824    0.707996249    0.425242722
    0.944102585    0.469900966    0.520231128
    0.753626287    0.231805682    0.615219593
    0.563149989    0.993710279    0.710207939
    0.372673750    0.755615056    0.805196404
    0.325054765    0.946091294    0.900184691
    0.277435988    0.136567712    0.425242692
    0.086959735    0.898472369    0.520231068
    0.896483481    0.660377085    0.615219593
    0.706007183    0.422281742    0.710207939
    0.515531003    0.184186459    0.805196345
