Sn+Ge                                   
   1.00000000000000     
    14.5102920530000006    0.0000000000000000    0.0000000000000000
     0.0000000000000000   19.4676017759999986    0.0000000000000000
     0.0000000000000000    0.0000000000000000   17.4044361109999990
   Sn   Ge
    36   144
Direct
  0.9829056259999973  0.6524212960000000  0.0000000069999970
  0.7829055790000012  0.4857546089999971  0.0833712889999987
  0.5829054120000023  0.3190878930000025  0.1667425480000020
  0.9829056259999973  0.3190880120000017  0.0000000069999970
  0.7829055790000012  0.1524213249999988  0.0833712889999987
  0.5829054120000023  0.9857546089999971  0.1667425480000020
  0.9829056259999973  0.9857547280000034  0.0000000069999970
  0.7829055790000012  0.8190880419999971  0.0833712889999987
  0.5829054120000023  0.6524212960000000  0.1667425480000020
  0.6329056020000010  0.9024214149999992  0.0416855699999985
  0.4329055250000025  0.7357547280000034  0.1250568479999998
  0.2329054329999991  0.5690880419999971  0.2084280850000013
  0.6329056020000010  0.5690879819999992  0.0416855699999985
  0.4329055250000025  0.4024212960000000  0.1250568479999998
  0.2329054329999991  0.2357546089999971  0.2084280850000013
  0.6329056020000010  0.2357547579999988  0.0416855699999985
  0.4329055250000025  0.0690880639999989  0.1250568479999998
  0.2329054329999991  0.9024213550000013  0.2084280850000013
  0.4829055960000019  0.8190879229999979  0.0000000000000000
  0.2829054589999984  0.6524212360000021  0.0833712740000010
  0.0829053519999974  0.4857545790000017  0.1667425779999974
  0.4829055960000019  0.4857546690000021  0.0000000000000000
  0.2829054589999984  0.3190879819999992  0.0833712740000010
  0.0829053519999974  0.1524212810000023  0.1667425779999974
  0.4829055960000019  0.1524213550000013  0.0000000000000000
  0.2829054589999984  0.9857546690000021  0.0833712740000010
  0.0829053519999974  0.8190879819999992  0.1667425779999974
  0.1329056470000012  0.7357546690000021  0.0416855630000015
  0.9329055549999978  0.5690879819999992  0.1250568179999973
  0.7329055069999981  0.4024212960000000  0.2084280850000013
  0.1329056470000012  0.4024213849999967  0.0416855630000015
  0.9329055549999978  0.2357547129999986  0.1250568179999973
  0.7329055069999981  0.0690880120000017  0.2084280850000013
  0.1329056470000012  0.0690880120000017  0.0416855630000015
  0.9329055549999978  0.9024213550000013  0.1250568179999973
  0.7329055069999981  0.7357546089999971  0.2084280850000013
  0.4863228800000030  0.6288659570000021  0.3168829079999966
  0.2363227609999967  0.6288658980000008  0.4318153560000013
  0.9863226410000010  0.6288658380000030  0.5467478039999989
  0.7363226410000010  0.6288657779999980  0.6616802810000024
  0.4863226410000010  0.6288657189999967  0.7766126989999975
  0.2363224030000026  0.6288656589999988  0.8915452359999989
  0.8196561930000001  0.7955326439999979  0.3168828789999978
  0.5696560740000010  0.7955325840000000  0.4318153560000013
  0.3196560140000031  0.7955325249999987  0.5467478039999989
  0.0696558949999968  0.7955324650000009  0.6616802220000011
  0.8196558949999968  0.7955324050000030  0.7766126389999997
  0.5696557759999976  0.7955323460000017  0.8915452359999989
  0.1529893880000017  0.9621992710000029  0.3168828789999978
  0.9029893880000017  0.9621992109999979  0.4318153560000013
  0.6529892679999989  0.9621991519999966  0.5467478039999989
  0.4029892679999989  0.9621991519999966  0.6616802220000011
  0.1529891489999997  0.9621990320000009  0.7766126389999997
  0.9029890890000019  0.9621989729999996  0.8915452359999989
  0.4863228800000030  0.1288659719999998  0.3168829079999966
  0.2363227609999967  0.1288659570000021  0.4318153259999988
  0.9863227009999989  0.1288658380000030  0.5467478039999989
  0.7363227009999989  0.1288658380000030  0.6616802220000011
  0.4863226410000010  0.1288657189999967  0.7766126389999997
  0.2363225220000018  0.1288657189999967  0.8915452359999989
  0.8196561930000001  0.2955326439999979  0.3168829079999966
  0.5696561339999988  0.2955325840000000  0.4318153259999988
  0.3196560140000031  0.2955325249999987  0.5467477440000010
  0.0696558949999968  0.2955324650000009  0.6616802220000011
  0.8196558949999968  0.2955324050000030  0.7766126989999975
  0.5696557759999976  0.2955323460000017  0.8915452359999989
  0.1529896260000001  0.4621993299999971  0.3168829079999966
  0.9029893880000017  0.4621992710000029  0.4318153560000013
  0.6529893279999968  0.4621992109999979  0.5467477440000010
  0.4029892679999989  0.4621990919999988  0.6616802220000011
  0.1529892679999989  0.4621990919999988  0.7766126989999975
  0.9029891489999997  0.4621990320000009  0.8915452359999989
  0.6529895070000009  0.9621993299999971  0.3168828789999978
  0.4029893880000017  0.9621992710000029  0.4318153259999988
  0.1529892679999989  0.9621992109999979  0.5467478039999989
  0.9029892089999976  0.9621991519999966  0.6616802810000024
  0.6529892679999989  0.9621990919999988  0.7766127590000025
  0.4029891489999997  0.9621989729999996  0.8915451769999976
  0.6529895070000009  0.4621992710000029  0.3168829079999966
  0.4029893880000017  0.4621992710000029  0.4318153560000013
  0.1529893880000017  0.4621992109999979  0.5467478039999989
  0.9029893279999968  0.4621990919999988  0.6616802810000024
  0.6529892679999989  0.4621990320000009  0.7766126389999997
  0.4029891489999997  0.4621989729999996  0.8915451769999976
  0.9863228800000030  0.6288659570000021  0.3168829079999966
  0.7363227609999967  0.6288658980000008  0.4318153560000013
  0.4863226410000010  0.6288658380000030  0.5467478039999989
  0.2363226410000010  0.6288657779999980  0.6616802810000024
  0.9863225819999997  0.6288657189999967  0.7766126389999997
  0.7363224630000005  0.6288656589999988  0.8915451769999976
  0.3196561339999988  0.7955326439999979  0.3168829079999966
  0.0696561339999988  0.7955325840000000  0.4318153560000013
  0.8196559550000018  0.7955324650000009  0.5467477440000010
  0.5696558949999968  0.7955324650000009  0.6616802810000024
  0.3196558949999968  0.7955324050000030  0.7766126989999975
  0.0696557759999976  0.7955322859999967  0.8915451769999976
  0.9863228800000030  0.1288659719999998  0.3168829079999966
  0.7363227609999967  0.1288659570000021  0.4318153560000013
  0.4863226410000010  0.1288658380000030  0.5467477440000010
  0.2363226410000010  0.1288658380000030  0.6616802810000024
  0.9863225819999997  0.1288657189999967  0.7766126989999975
  0.7363224630000005  0.1288657189999967  0.8915452359999989
  0.3196561339999988  0.2955326439999979  0.3168829079999966
  0.0696561339999988  0.2955325840000000  0.4318153560000013
  0.8196560740000010  0.2955325249999987  0.5467477440000010
  0.5696560140000031  0.2955324650000009  0.6616802810000024
  0.3196560140000031  0.2955324050000030  0.7766126389999997
  0.0696558949999968  0.2955323759999970  0.8915452359999989
  0.6529895660000022  0.8371993299999971  0.3168828789999978
  0.4029893880000017  0.8371992710000029  0.4318153560000013
  0.1529893880000017  0.8371992109999979  0.5467478039999989
  0.9029892679999989  0.8371991519999966  0.6616802810000024
  0.6529892679999989  0.8371990919999988  0.7766126389999997
  0.4029891489999997  0.8371990320000009  0.8915451769999976
  0.9863228800000030  0.0038660760000013  0.3168828789999978
  0.7363228199999980  0.0038659570000021  0.4318153560000013
  0.4863226410000010  0.0038659570000021  0.5467478039999989
  0.2363226410000010  0.0038658380000030  0.6616802810000024
  0.9863226410000010  0.0038657189999967  0.7766126389999997
  0.7363225220000018  0.0038657189999967  0.8915451769999976
  0.6529895070000009  0.3371993009999983  0.3168829079999966
  0.4029893880000017  0.3371992410000004  0.4318153259999988
  0.1529893880000017  0.3371991810000026  0.5467477440000010
  0.9029892679999989  0.3371991220000012  0.6616802810000024
  0.6529892679999989  0.3371990919999988  0.7766126989999975
  0.4029891489999997  0.3371990320000009  0.8915451769999976
  0.9863228800000030  0.5038659570000021  0.3168829079999966
  0.7363227609999967  0.5038658980000008  0.4318153560000013
  0.4863226410000010  0.5038658380000030  0.5467478039999989
  0.2363226410000010  0.5038657779999980  0.6616802810000024
  0.9863226410000010  0.5038657189999967  0.7766126989999975
  0.7363224630000005  0.5038656589999988  0.8915451769999976
  0.3196561339999988  0.6705326439999979  0.3168829079999966
  0.0696561339999988  0.6705325840000000  0.4318153560000013
  0.8196560140000031  0.6705325249999987  0.5467478039999989
  0.5696560140000031  0.6705324650000009  0.6616802810000024
  0.3196558949999968  0.6705324050000030  0.7766126989999975
  0.0696558949999968  0.6705323460000017  0.8915451769999976
  0.3196562529999980  0.1705326290000002  0.3168828789999978
  0.0696561339999988  0.1705325539999976  0.4318153560000013
  0.8196560140000031  0.1705324950000033  0.5467478039999989
  0.5696560140000031  0.1705324650000009  0.6616802810000024
  0.3196558949999968  0.1705323899999982  0.7766126989999975
  0.0696558949999968  0.1705323159999992  0.8915452359999989
  0.4863228800000030  0.0038660760000013  0.3168828789999978
  0.2363227609999967  0.0038659570000021  0.4318153259999988
  0.9863227009999989  0.0038658380000030  0.5467478039999989
  0.7363226410000010  0.0038658380000030  0.6616802810000024
  0.4863226410000010  0.0038657189999967  0.7766127590000025
  0.2363225220000018  0.0038657189999967  0.8915451769999976
  0.4863228800000030  0.5038659570000021  0.3168828789999978
  0.2363227609999967  0.5038658980000008  0.4318153560000013
  0.9863227009999989  0.5038658380000030  0.5467478039999989
  0.7363226410000010  0.5038657779999980  0.6616802220000011
  0.4863226410000010  0.5038657189999967  0.7766126389999997
  0.2363225220000018  0.5038656589999988  0.8915451769999976
  0.8196562529999980  0.6705326439999979  0.3168828789999978
  0.5696561339999988  0.6705325840000000  0.4318153560000013
  0.3196560140000031  0.6705325249999987  0.5467478039999989
  0.0696558949999968  0.6705324650000009  0.6616802810000024
  0.8196559550000018  0.6705324050000030  0.7766126989999975
  0.5696558360000026  0.6705323460000017  0.8915452359999989
  0.1529895070000009  0.8371992710000029  0.3168828789999978
  0.9029893880000017  0.8371992109999979  0.4318153560000013
  0.6529893279999968  0.8371991519999966  0.5467478039999989
  0.4029892679999989  0.8371990919999988  0.6616802220000011
  0.1529892679999989  0.8371990320000009  0.7766126389999997
  0.9029891489999997  0.8371989729999996  0.8915451769999976
  0.8196561339999988  0.1705326140000025  0.3168829079999966
  0.5696561339999988  0.1705325690000024  0.4318153259999988
  0.3196560140000031  0.1705325100000010  0.5467477440000010
  0.0696558949999968  0.1705324500000032  0.6616802810000024
  0.8196559550000018  0.1705324050000030  0.7766126989999975
  0.5696558360000026  0.1705323460000017  0.8915451769999976
  0.1529896260000001  0.3371993299999971  0.3168829079999966
  0.9029895070000009  0.3371992710000029  0.4318153259999988
  0.6529893880000017  0.3371991810000026  0.5467477440000010
  0.4029893880000017  0.3371991519999966  0.6616802810000024
  0.1529892679999989  0.3371990919999988  0.7766126989999975
  0.9029891489999997  0.3371990320000009  0.8915451769999976
 
  0.00000000E+00  0.00000000E+00  0.00000000E+00
  0.00000000E+00  0.00000000E+00  0.00000000E+00
  0.00000000E+00  0.00000000E+00  0.00000000E+00
  0.00000000E+00  0.00000000E+00  0.00000000E+00
  0.00000000E+00  0.00000000E+00  0.00000000E+00
  0.00000000E+00  0.00000000E+00  0.00000000E+00
  0.00000000E+00  0.00000000E+00  0.00000000E+00
  0.00000000E+00  0.00000000E+00  0.00000000E+00
  0.00000000E+00  0.00000000E+00  0.00000000E+00
  0.00000000E+00  0.00000000E+00  0.00000000E+00
  0.00000000E+00  0.00000000E+00  0.00000000E+00
  0.00000000E+00  0.00000000E+00  0.00000000E+00
  0.00000000E+00  0.00000000E+00  0.00000000E+00
  0.00000000E+00  0.00000000E+00  0.00000000E+00
  0.00000000E+00  0.00000000E+00  0.00000000E+00
  0.00000000E+00  0.00000000E+00  0.00000000E+00
  0.00000000E+00  0.00000000E+00  0.00000000E+00
  0.00000000E+00  0.00000000E+00  0.00000000E+00
  0.00000000E+00  0.00000000E+00  0.00000000E+00
  0.00000000E+00  0.00000000E+00  0.00000000E+00
  0.00000000E+00  0.00000000E+00  0.00000000E+00
  0.00000000E+00  0.00000000E+00  0.00000000E+00
  0.00000000E+00  0.00000000E+00  0.00000000E+00
  0.00000000E+00  0.00000000E+00  0.00000000E+00
  0.00000000E+00  0.00000000E+00  0.00000000E+00
  0.00000000E+00  0.00000000E+00  0.00000000E+00
  0.00000000E+00  0.00000000E+00  0.00000000E+00
  0.00000000E+00  0.00000000E+00  0.00000000E+00
  0.00000000E+00  0.00000000E+00  0.00000000E+00
  0.00000000E+00  0.00000000E+00  0.00000000E+00
  0.00000000E+00  0.00000000E+00  0.00000000E+00
  0.00000000E+00  0.00000000E+00  0.00000000E+00
  0.00000000E+00  0.00000000E+00  0.00000000E+00
  0.00000000E+00  0.00000000E+00  0.00000000E+00
  0.00000000E+00  0.00000000E+00  0.00000000E+00
  0.00000000E+00  0.00000000E+00  0.00000000E+00
  0.00000000E+00  0.00000000E+00  0.00000000E+00
  0.00000000E+00  0.00000000E+00  0.00000000E+00
  0.00000000E+00  0.00000000E+00  0.00000000E+00
  0.00000000E+00  0.00000000E+00  0.00000000E+00
  0.00000000E+00  0.00000000E+00  0.00000000E+00
  0.00000000E+00  0.00000000E+00  0.00000000E+00
  0.00000000E+00  0.00000000E+00  0.00000000E+00
  0.00000000E+00  0.00000000E+00  0.00000000E+00
  0.00000000E+00  0.00000000E+00  0.00000000E+00
  0.00000000E+00  0.00000000E+00  0.00000000E+00
  0.00000000E+00  0.00000000E+00  0.00000000E+00
  0.00000000E+00  0.00000000E+00  0.00000000E+00
  0.00000000E+00  0.00000000E+00  0.00000000E+00
  0.00000000E+00  0.00000000E+00  0.00000000E+00
  0.00000000E+00  0.00000000E+00  0.00000000E+00
  0.00000000E+00  0.00000000E+00  0.00000000E+00
  0.00000000E+00  0.00000000E+00  0.00000000E+00
  0.00000000E+00  0.00000000E+00  0.00000000E+00
  0.00000000E+00  0.00000000E+00  0.00000000E+00
  0.00000000E+00  0.00000000E+00  0.00000000E+00
  0.00000000E+00  0.00000000E+00  0.00000000E+00
  0.00000000E+00  0.00000000E+00  0.00000000E+00
  0.00000000E+00  0.00000000E+00  0.00000000E+00
  0.00000000E+00  0.00000000E+00  0.00000000E+00
  0.00000000E+00  0.00000000E+00  0.00000000E+00
  0.00000000E+00  0.00000000E+00  0.00000000E+00
  0.00000000E+00  0.00000000E+00  0.00000000E+00
  0.00000000E+00  0.00000000E+00  0.00000000E+00
  0.00000000E+00  0.00000000E+00  0.00000000E+00
  0.00000000E+00  0.00000000E+00  0.00000000E+00
  0.00000000E+00  0.00000000E+00  0.00000000E+00
  0.00000000E+00  0.00000000E+00  0.00000000E+00
  0.00000000E+00  0.00000000E+00  0.00000000E+00
  0.00000000E+00  0.00000000E+00  0.00000000E+00
  0.00000000E+00  0.00000000E+00  0.00000000E+00
  0.00000000E+00  0.00000000E+00  0.00000000E+00
  0.00000000E+00  0.00000000E+00  0.00000000E+00
  0.00000000E+00  0.00000000E+00  0.00000000E+00
  0.00000000E+00  0.00000000E+00  0.00000000E+00
  0.00000000E+00  0.00000000E+00  0.00000000E+00
  0.00000000E+00  0.00000000E+00  0.00000000E+00
  0.00000000E+00  0.00000000E+00  0.00000000E+00
  0.00000000E+00  0.00000000E+00  0.00000000E+00
  0.00000000E+00  0.00000000E+00  0.00000000E+00
  0.00000000E+00  0.00000000E+00  0.00000000E+00
  0.00000000E+00  0.00000000E+00  0.00000000E+00
  0.00000000E+00  0.00000000E+00  0.00000000E+00
  0.00000000E+00  0.00000000E+00  0.00000000E+00
  0.00000000E+00  0.00000000E+00  0.00000000E+00
  0.00000000E+00  0.00000000E+00  0.00000000E+00
  0.00000000E+00  0.00000000E+00  0.00000000E+00
  0.00000000E+00  0.00000000E+00  0.00000000E+00
  0.00000000E+00  0.00000000E+00  0.00000000E+00
  0.00000000E+00  0.00000000E+00  0.00000000E+00
  0.00000000E+00  0.00000000E+00  0.00000000E+00
  0.00000000E+00  0.00000000E+00  0.00000000E+00
  0.00000000E+00  0.00000000E+00  0.00000000E+00
  0.00000000E+00  0.00000000E+00  0.00000000E+00
  0.00000000E+00  0.00000000E+00  0.00000000E+00
  0.00000000E+00  0.00000000E+00  0.00000000E+00
  0.00000000E+00  0.00000000E+00  0.00000000E+00
  0.00000000E+00  0.00000000E+00  0.00000000E+00
  0.00000000E+00  0.00000000E+00  0.00000000E+00
  0.00000000E+00  0.00000000E+00  0.00000000E+00
  0.00000000E+00  0.00000000E+00  0.00000000E+00
  0.00000000E+00  0.00000000E+00  0.00000000E+00
  0.00000000E+00  0.00000000E+00  0.00000000E+00
  0.00000000E+00  0.00000000E+00  0.00000000E+00
  0.00000000E+00  0.00000000E+00  0.00000000E+00
  0.00000000E+00  0.00000000E+00  0.00000000E+00
  0.00000000E+00  0.00000000E+00  0.00000000E+00
  0.00000000E+00  0.00000000E+00  0.00000000E+00
  0.00000000E+00  0.00000000E+00  0.00000000E+00
  0.00000000E+00  0.00000000E+00  0.00000000E+00
  0.00000000E+00  0.00000000E+00  0.00000000E+00
  0.00000000E+00  0.00000000E+00  0.00000000E+00
  0.00000000E+00  0.00000000E+00  0.00000000E+00
  0.00000000E+00  0.00000000E+00  0.00000000E+00
  0.00000000E+00  0.00000000E+00  0.00000000E+00
  0.00000000E+00  0.00000000E+00  0.00000000E+00
  0.00000000E+00  0.00000000E+00  0.00000000E+00
  0.00000000E+00  0.00000000E+00  0.00000000E+00
  0.00000000E+00  0.00000000E+00  0.00000000E+00
  0.00000000E+00  0.00000000E+00  0.00000000E+00
  0.00000000E+00  0.00000000E+00  0.00000000E+00
  0.00000000E+00  0.00000000E+00  0.00000000E+00
  0.00000000E+00  0.00000000E+00  0.00000000E+00
  0.00000000E+00  0.00000000E+00  0.00000000E+00
  0.00000000E+00  0.00000000E+00  0.00000000E+00
  0.00000000E+00  0.00000000E+00  0.00000000E+00
  0.00000000E+00  0.00000000E+00  0.00000000E+00
  0.00000000E+00  0.00000000E+00  0.00000000E+00
  0.00000000E+00  0.00000000E+00  0.00000000E+00
  0.00000000E+00  0.00000000E+00  0.00000000E+00
  0.00000000E+00  0.00000000E+00  0.00000000E+00
  0.00000000E+00  0.00000000E+00  0.00000000E+00
  0.00000000E+00  0.00000000E+00  0.00000000E+00
  0.00000000E+00  0.00000000E+00  0.00000000E+00
  0.00000000E+00  0.00000000E+00  0.00000000E+00
  0.00000000E+00  0.00000000E+00  0.00000000E+00
  0.00000000E+00  0.00000000E+00  0.00000000E+00
  0.00000000E+00  0.00000000E+00  0.00000000E+00
  0.00000000E+00  0.00000000E+00  0.00000000E+00
  0.00000000E+00  0.00000000E+00  0.00000000E+00
  0.00000000E+00  0.00000000E+00  0.00000000E+00
  0.00000000E+00  0.00000000E+00  0.00000000E+00
  0.00000000E+00  0.00000000E+00  0.00000000E+00
  0.00000000E+00  0.00000000E+00  0.00000000E+00
  0.00000000E+00  0.00000000E+00  0.00000000E+00
  0.00000000E+00  0.00000000E+00  0.00000000E+00
  0.00000000E+00  0.00000000E+00  0.00000000E+00
  0.00000000E+00  0.00000000E+00  0.00000000E+00
  0.00000000E+00  0.00000000E+00  0.00000000E+00
  0.00000000E+00  0.00000000E+00  0.00000000E+00
  0.00000000E+00  0.00000000E+00  0.00000000E+00
  0.00000000E+00  0.00000000E+00  0.00000000E+00
  0.00000000E+00  0.00000000E+00  0.00000000E+00
  0.00000000E+00  0.00000000E+00  0.00000000E+00
  0.00000000E+00  0.00000000E+00  0.00000000E+00
  0.00000000E+00  0.00000000E+00  0.00000000E+00
  0.00000000E+00  0.00000000E+00  0.00000000E+00
  0.00000000E+00  0.00000000E+00  0.00000000E+00
  0.00000000E+00  0.00000000E+00  0.00000000E+00
  0.00000000E+00  0.00000000E+00  0.00000000E+00
  0.00000000E+00  0.00000000E+00  0.00000000E+00
  0.00000000E+00  0.00000000E+00  0.00000000E+00
  0.00000000E+00  0.00000000E+00  0.00000000E+00
  0.00000000E+00  0.00000000E+00  0.00000000E+00
  0.00000000E+00  0.00000000E+00  0.00000000E+00
  0.00000000E+00  0.00000000E+00  0.00000000E+00
  0.00000000E+00  0.00000000E+00  0.00000000E+00
  0.00000000E+00  0.00000000E+00  0.00000000E+00
  0.00000000E+00  0.00000000E+00  0.00000000E+00
  0.00000000E+00  0.00000000E+00  0.00000000E+00
  0.00000000E+00  0.00000000E+00  0.00000000E+00
  0.00000000E+00  0.00000000E+00  0.00000000E+00
  0.00000000E+00  0.00000000E+00  0.00000000E+00
  0.00000000E+00  0.00000000E+00  0.00000000E+00
  0.00000000E+00  0.00000000E+00  0.00000000E+00
  0.00000000E+00  0.00000000E+00  0.00000000E+00
  0.00000000E+00  0.00000000E+00  0.00000000E+00
  0.00000000E+00  0.00000000E+00  0.00000000E+00
  0.00000000E+00  0.00000000E+00  0.00000000E+00
  0.00000000E+00  0.00000000E+00  0.00000000E+00
