Si+C
    1.000000000
   16.293001175    0.000000000    0.000000000
  -10.862000465   12.144085884    0.000000000
    0.000000000    0.000000000    7.204128742
Si  C  
36     84
Direct
    0.974358499    0.982905626    0.000000002
    0.674358428    0.782905579    0.168571234
    0.374358416    0.582905531    0.337142467
    0.307691783    0.982905626    0.000000002
    0.007691726    0.782905579    0.168571234
    0.707691669    0.582905531    0.337142467
    0.641025066    0.982905626    0.000000002
    0.341025025    0.782905579    0.168571234
    0.041024987    0.582905531    0.337142467
    0.157691970    0.632905602    0.084285453
    0.857691944    0.432905525    0.252856702
    0.557691932    0.232905507    0.421427935
    0.491025209    0.632905602    0.084285453
    0.191025153    0.432905525    0.252856702
    0.891025186    0.232905507    0.421427935
    0.824358463    0.632905602    0.084285453
    0.524358392    0.432905525    0.252856702
    0.224358499    0.232905507    0.421427935
    0.141025156    0.482905596    0.000000000
    0.841025114    0.282905489    0.168571234
    0.541025102    0.082905434    0.337142467
    0.474358439    0.482905596    0.000000000
    0.174358383    0.282905489    0.168571234
    0.874358356    0.082905434    0.337142467
    0.807691693    0.482905596    0.000000000
    0.507691681    0.282905489    0.168571234
    0.207691625    0.082905434    0.337142467
    0.991025209    0.132905662    0.084285460
    0.691025138    0.932905614    0.252856702
    0.391025186    0.732905567    0.421427935
    0.324358463    0.132905662    0.084285460
    0.024358414    0.932905614    0.252856702
    0.724358439    0.732905567    0.421427935
    0.657691658    0.132905662    0.084285460
    0.357691616    0.932905614    0.252856702
    0.057691652    0.732905567    0.421427935
    0.247036994    0.935352206    0.572327852
    0.489894211    0.906780720    0.683036745
    0.732751429    0.878209233    0.793745637
    0.532751262    0.078209400    0.572327852
    0.775608480    0.049637794    0.683036745
    0.018465757    0.021066427    0.793745637
    0.818465471    0.221066475    0.572327852
    0.061322808    0.192494988    0.683036745
    0.304180026    0.163923502    0.793745637
    0.104179859    0.363923669    0.572327852
    0.347037077    0.335352182    0.683036745
    0.589894414    0.306780696    0.793745637
    0.389894128    0.506780744    0.572327852
    0.632751346    0.478209257    0.683036745
    0.875608563    0.449637890    0.793745637
    0.675608456    0.649637938    0.572327852
    0.918465674    0.621066451    0.683036745
    0.161322951    0.592494965    0.793745637
    0.961322665    0.792495012    0.572327852
    0.204179883    0.763923526    0.683036745
    0.447037101    0.735352039    0.793745637
    0.082751155    0.028209329    0.627682209
    0.325608492    0.999637842    0.738391101
    0.568465710    0.971066356    0.849099934
    0.368465364    0.171066523    0.627682149
    0.611322641    0.142495036    0.738391161
    0.854179859    0.113923550    0.849099994
    0.654179752    0.313923597    0.627682149
    0.897036970    0.285352230    0.738391161
    0.139894247    0.256780624    0.849099994
    0.939894080    0.456780791    0.627682149
    0.182751417    0.428209305    0.738391161
    0.425608635    0.399637938    0.849099994
    0.225608245    0.599637985    0.627682149
    0.468465567    0.571066380    0.738391161
    0.711322665    0.542495012    0.849099994
    0.511322677    0.742495060    0.627682209
    0.754179955    0.713923454    0.738391161
    0.997037172    0.685352087    0.849099934
    0.797036827    0.885352135    0.627682209
    0.039894104    0.856780767    0.738391161
    0.282751322    0.828209162    0.849099934
    0.889894247    0.006780744    0.572327852
    0.132751346    0.978209257    0.683036745
    0.375608683    0.949637830    0.793745637
    0.175608635    0.149637938    0.572327852
    0.418465734    0.121066451    0.683036745
    0.661322832    0.092494965    0.793745637
    0.461322725    0.292495012    0.572327852
    0.704179943    0.263923645    0.683036745
    0.947037160    0.235352039    0.793745637
    0.747036934    0.435352206    0.572327852
    0.989894211    0.406780720    0.683036745
    0.232751504    0.378209233    0.793745637
    0.032751322    0.578209400    0.572327852
    0.275608540    0.549637914    0.683036745
    0.518465638    0.521066427    0.793745637
    0.318465561    0.721066475    0.572327852
    0.561322808    0.692495108    0.683036804
    0.804180086    0.663923621    0.793745637
    0.604179859    0.863923669    0.572327852
    0.847037017    0.835352182    0.683036804
    0.089894414    0.806780815    0.793745637
    0.439894140    0.956780791    0.627682149
    0.682751417    0.928209305    0.738391161
    0.925608695    0.899637818    0.849099994
    0.725608289    0.099637985    0.627682149
    0.968465567    0.071066380    0.738391161
    0.211322784    0.042495012    0.849099934
    0.011322618    0.242495060    0.627682149
    0.254179955    0.213923573    0.738391161
    0.497037172    0.185352087    0.849099934
    0.297036767    0.385352135    0.627682149
    0.539894104    0.356780767    0.738391101
    0.782751322    0.328209162    0.849099934
    0.582751215    0.528209209    0.627682149
    0.825608552    0.499637842    0.738391161
    0.068465829    0.471066356    0.849099994
    0.868465543    0.671066523    0.627682149
    0.111322880    0.642494917    0.738391161
    0.354180098    0.613923550    0.849099994
    0.154179692    0.813923597    0.627682149
    0.397037029    0.785352230    0.738391161
    0.639894247    0.756780624    0.849099994
