Ge+Sn
    1.000000000
   13.858724594    0.000000000    0.000000000
    0.000000000   19.599195480    0.000000000
    0.000000000    0.000000000   17.603130341
Ge  Sn 
144     36
Direct
    0.979378462    0.499999970    0.000000015
    0.729378343    0.499999940    0.113635220
    0.479378223    0.499999881    0.227270424
    0.229378223    0.499999821    0.340905577
    0.979378223    0.499999732    0.454540730
    0.729377985    0.499999702    0.568175912
    0.312711775    0.666666687    0.000000015
    0.062711671    0.666666627    0.113635205
    0.812711596    0.666666567    0.227270409
    0.562711537    0.666666508    0.340905517
    0.312711477    0.666666448    0.454540700
    0.062711358    0.666666389    0.568175912
    0.646045029    0.833333313    0.000000015
    0.396044970    0.833333254    0.113635205
    0.146044835    0.833333194    0.227270409
    0.896044850    0.833333194    0.340905517
    0.646044731    0.833333075    0.454540700
    0.396044672    0.833333015    0.568175912
    0.979378462    0.000000000    0.000000020
    0.729378343    0.999999940    0.113635190
    0.479378283    0.999999881    0.227270409
    0.229378283    0.999999821    0.340905517
    0.979378223    0.999999762    0.454540700
    0.729378104    0.999999702    0.568175912
    0.312711775    0.166666657    0.000000020
    0.062711693    0.166666612    0.113635190
    0.812711596    0.166666538    0.227270380
    0.562711537    0.166666478    0.340905517
    0.312711477    0.166666433    0.454540730
    0.062711358    0.166666359    0.568175912
    0.646045148    0.333333343    0.000000020
    0.396044999    0.333333284    0.113635205
    0.146044925    0.333333224    0.227270380
    0.896044850    0.333333135    0.340905517
    0.646044850    0.333333105    0.454540730
    0.396044731    0.333333045    0.568175912
    0.146045104    0.833333373    0.000000006
    0.896044970    0.833333313    0.113635182
    0.646044850    0.833333254    0.227270409
    0.396044791    0.833333194    0.340905577
    0.146044850    0.833333135    0.454540759
    0.896044731    0.833333015    0.568175852
    0.146045104    0.333333313    0.000000022
    0.896045029    0.333333284    0.113635212
    0.646044910    0.333333224    0.227270409
    0.396044910    0.333333135    0.340905577
    0.146044850    0.333333075    0.454540700
    0.896044731    0.333333015    0.568175852
    0.479378492    0.500000000    0.000000022
    0.229378358    0.499999940    0.113635212
    0.979378223    0.499999881    0.227270409
    0.729378223    0.499999791    0.340905577
    0.479378164    0.499999762    0.454540700
    0.229378045    0.499999672    0.568175852
    0.812711656    0.666666687    0.000000021
    0.562711656    0.666666627    0.113635212
    0.312711537    0.666666508    0.227270380
    0.062711500    0.666666508    0.340905577
    0.812711418    0.666666448    0.454540730
    0.562711358    0.666666329    0.568175852
    0.479378432    0.000000000    0.000000017
    0.229378358    0.999999940    0.113635205
    0.979378223    0.999999881    0.227270380
    0.729378223    0.999999821    0.340905577
    0.479378164    0.999999762    0.454540730
    0.229378045    0.999999702    0.568175912
    0.812711775    0.166666672    0.000000017
    0.562711716    0.166666597    0.113635205
    0.312711656    0.166666567    0.227270380
    0.062711604    0.166666508    0.340905577
    0.812711596    0.166666433    0.454540700
    0.562711477    0.166666403    0.568175912
    0.146045148    0.708333373    0.000000000
    0.896044970    0.708333313    0.113635212
    0.646044910    0.708333254    0.227270424
    0.396044850    0.708333194    0.340905577
    0.146044850    0.708333135    0.454540700
    0.896044731    0.708333075    0.568175852
    0.479378432    0.875000060    0.000000000
    0.229378387    0.875000000    0.113635212
    0.979378223    0.874999940    0.227270424
    0.729378223    0.874999881    0.340905577
    0.479378223    0.874999762    0.454540700
    0.229378104    0.874999762    0.568175852
    0.146045089    0.208333328    0.000000020
    0.896045029    0.208333269    0.113635190
    0.646044910    0.208333209    0.227270380
    0.396044850    0.208333150    0.340905577
    0.146044850    0.208333105    0.454540730
    0.896044731    0.208333045    0.568175852
    0.479378492    0.375000000    0.000000021
    0.229378372    0.374999940    0.113635205
    0.979378283    0.374999881    0.227270409
    0.729378223    0.374999821    0.340905577
    0.479378223    0.374999762    0.454540730
    0.229378045    0.374999702    0.568175852
    0.812711775    0.541666687    0.000000021
    0.562711775    0.541666627    0.113635205
    0.312711626    0.541666567    0.227270409
    0.062711582    0.541666508    0.340905577
    0.812711537    0.541666448    0.454540730
    0.562711477    0.541666389    0.568175852
    0.812711835    0.041666660    0.000000011
    0.562711716    0.041666590    0.113635205
    0.312711626    0.041666526    0.227270409
    0.062711574    0.041666493    0.340905577
    0.812711537    0.041666422    0.454540730
    0.562711477    0.041666344    0.568175912
    0.979378521    0.875000060    0.000000014
    0.729378343    0.874999940    0.113635182
    0.479378283    0.874999881    0.227270409
    0.229378223    0.874999821    0.340905577
    0.979378223    0.874999762    0.454540759
    0.729378104    0.874999702    0.568175852
    0.979378462    0.374999970    0.000000010
    0.729378343    0.374999911    0.113635205
    0.479378283    0.374999851    0.227270409
    0.229378223    0.374999791    0.340905517
    0.979378223    0.374999732    0.454540700
    0.729378104    0.374999672    0.568175852
    0.312711835    0.541666687    0.000000008
    0.062711686    0.541666627    0.113635205
    0.812711596    0.541666567    0.227270424
    0.562711537    0.541666508    0.340905577
    0.312711537    0.541666448    0.454540730
    0.062711418    0.541666389    0.568175912
    0.646045089    0.708333313    0.000000010
    0.396044999    0.708333254    0.113635205
    0.146044895    0.708333194    0.227270409
    0.896044850    0.708333135    0.340905517
    0.646044850    0.708333075    0.454540700
    0.396044731    0.708333015    0.568175852
    0.312711746    0.041666649    0.000000018
    0.062711686    0.041666593    0.113635190
    0.812711596    0.041666538    0.227270380
    0.562711537    0.041666482    0.340905577
    0.312711537    0.041666433    0.454540730
    0.062711418    0.041666370    0.568175852
    0.646045208    0.208333358    0.000000018
    0.396045059    0.208333284    0.113635190
    0.146044940    0.208333209    0.227270380
    0.896044910    0.208333164    0.340905577
    0.646044850    0.208333105    0.454540730
    0.396044731    0.208333045    0.568175852
    0.482905626    0.775498211    0.681050241
    0.282905579    0.608831525    0.763480484
    0.082905412    0.442164809    0.845910788
    0.482905626    0.442164928    0.681050241
    0.282905579    0.275498241    0.763480484
    0.082905412    0.108831525    0.845910788
    0.482905626    0.108831644    0.681050241
    0.282905579    0.942164958    0.763480484
    0.082905412    0.775498211    0.845910788
    0.132905602    0.025498390    0.722265303
    0.932905555    0.858831644    0.804695547
    0.732905447    0.692164958    0.887125731
    0.132905602    0.692164898    0.722265303
    0.932905555    0.525498211    0.804695547
    0.732905447    0.358831525    0.887125731
    0.132905602    0.358831674    0.722265303
    0.932905555    0.192164987    0.804695547
    0.732905447    0.025498271    0.887125731
    0.982905626    0.942164838    0.681050241
    0.782905459    0.775498152    0.763480484
    0.582905352    0.608831525    0.845910788
    0.982905626    0.608831584    0.681050241
    0.782905459    0.442164898    0.763480484
    0.582905352    0.275498211    0.845910788
    0.982905626    0.275498271    0.681050241
    0.782905459    0.108831644    0.763480484
    0.582905352    0.942164898    0.845910788
    0.632905662    0.858831584    0.722265303
    0.432905555    0.692164898    0.804695547
    0.232905507    0.525498211    0.887125731
    0.632905662    0.525498331    0.722265303
    0.432905555    0.358831644    0.804695547
    0.232905507    0.192164928    0.887125731
    0.632905662    0.192164928    0.722265303
    0.432905555    0.025498271    0.804695547
    0.232905507    0.858831525    0.887125731
