Ge+Ge
    1.000000000
   12.651226044    0.000000000    0.000000000
  -10.120981216    7.590735435    0.000000000
    0.000000000    0.000000000   11.611743927
Ge 
48
Direct
    0.344722271    0.672361135    0.000000000
    0.678055644    0.839027822    0.243624046
    0.011389017    0.005694628    0.487248123
    0.011388971    0.005694487    0.000000000
    0.344722331    0.172361225    0.243624046
    0.678055704    0.339027971    0.487248123
    0.678055644    0.339027822    0.000000000
    0.011388898    0.505694509    0.243624046
    0.344722390    0.672361314    0.487248123
    0.094722271    0.922361135    0.121812023
    0.428055644    0.089027882    0.365436077
    0.761389017    0.255694628    0.609060228
    0.428055644    0.589027882    0.121812023
    0.761389017    0.755694568    0.365436077
    0.094722390    0.922361374    0.609060228
    0.761388898    0.255694479    0.121812023
    0.094722390    0.422361225    0.365436077
    0.428055644    0.589027941    0.609060228
    0.178055570    0.839027703    0.000000000
    0.511388958    0.005694509    0.243624046
    0.844722271    0.172361135    0.487248123
    0.511388958    0.505694509    0.000000000
    0.844722271    0.672361195    0.243624046
    0.178055644    0.839027941    0.487248123
    0.844722331    0.172361180    0.000000000
    0.178055644    0.339027911    0.243624046
    0.511389017    0.505694628    0.487248123
    0.261388958    0.755694449    0.121812023
    0.594722331    0.922361195    0.365436077
    0.928055763    0.089028001    0.609060228
    0.594722331    0.422361165    0.121812023
    0.928055704    0.589027882    0.365436077
    0.261389017    0.755694628    0.609060228
    0.928055644    0.089027874    0.121812023
    0.261389017    0.255694628    0.365436077
    0.594722390    0.422361344    0.609060228
    0.306845069    0.193005323    0.703020036
    0.195733905    0.804116428    0.784228086
    0.084622741    0.415227532    0.865436137
    0.806845069    0.693005323    0.703020036
    0.695733905    0.304116368    0.784228086
    0.584622741    0.915227473    0.865436137
    0.001289368    0.998560905    0.743624091
    0.890178323    0.609671950    0.824832141
    0.779067039    0.220782995    0.906040192
    0.501289487    0.498560846    0.743624091
    0.390178323    0.109671950    0.824832141
    0.279067159    0.720782936    0.906040192
