Si+C                                    
   1.00000000000000     
    13.3031797409999992    0.0000000000000000    0.0000000000000000
    -6.6515893940000002   14.8734064099999994    0.0000000000000000
     0.0000000000000000    0.0000000000000000    7.9947485919999997
   Si   C 
    36    84
Direct
  0.0170943480000005  0.9914528130000022  0.0000000000000000
  0.2170944510000012  0.8914527299999975  0.1519008280000023
  0.4170945580000023  0.7914526460000033  0.3038016559999974
  0.0170943480000005  0.3247861270000030  0.0000000000000000
  0.2170944510000012  0.2247860430000017  0.1519008280000023
  0.4170945580000023  0.1247859449999993  0.3038016559999974
  0.0170943480000005  0.6581194999999980  0.0000000000000000
  0.2170944510000012  0.5581193570000025  0.1519008280000023
  0.4170945580000023  0.4581192429999987  0.3038016559999974
  0.3670942780000033  0.1914527859999993  0.0759502650000030
  0.5670943860000008  0.0914526950000010  0.2278511230000007
  0.7670944930000019  0.9914526339999981  0.3797519800000018
  0.3670942780000033  0.5247860549999999  0.0759502650000030
  0.5670943860000008  0.4247860010000011  0.2278511230000007
  0.7670944930000019  0.3247859180000034  0.3797519800000018
  0.3670942780000033  0.8581194280000020  0.0759502650000030
  0.5670943860000008  0.7581192259999980  0.2278511230000007
  0.7670944930000019  0.6581192020000017  0.3797519800000018
  0.5170943740000027  0.9914528130000022  0.0000000040000003
  0.7170944209999988  0.8914526699999996  0.1519008129999975
  0.9170945290000034  0.7914525870000020  0.3038016559999974
  0.5170943740000027  0.3247861270000030  0.0000000040000003
  0.7170944209999988  0.2247860129999992  0.1519008129999975
  0.9170945290000034  0.1247859220000009  0.3038016559999974
  0.5170943740000027  0.6581193800000023  0.0000000040000003
  0.7170944209999988  0.5581192969999975  0.1519008129999975
  0.9170945290000034  0.4581192429999987  0.3038016559999974
  0.8670942780000033  0.1914528009999970  0.0759502720000000
  0.0670944450000022  0.0914527250000035  0.2278511379999983
  0.2670943740000027  0.9914526339999981  0.3797519210000004
  0.8670942780000033  0.5247861149999977  0.0759502720000000
  0.0670944450000022  0.4247860010000011  0.2278511379999983
  0.2670943740000027  0.3247859180000034  0.3797519210000004
  0.8670942780000033  0.8581194879999998  0.0759502720000000
  0.0670944450000022  0.7581193449999972  0.2278511379999983
  0.2670943740000027  0.6581192610000031  0.3797519210000004
  0.9247540830000034  0.8394572730000007  0.7646964790000013
  0.2961825129999980  0.8680288199999993  0.5651752349999981
  0.6104683280000032  0.8537431359999985  0.6649358869999986
  0.0676112169999996  0.6966000800000032  0.7646965380000026
  0.4390396180000025  0.7251716849999994  0.5651752349999981
  0.7533254029999981  0.7108858819999995  0.6649358869999986
  0.2104682920000016  0.5537430050000012  0.7646964790000013
  0.5818967820000012  0.5823145510000032  0.5651752349999981
  0.8961825969999992  0.5680288080000011  0.6649358869999986
  0.3533254860000028  0.4108858410000025  0.7646964790000013
  0.7247539760000024  0.4394574169999999  0.5651752349999981
  0.0390398500000018  0.4251716139999999  0.6649358869999986
  0.4961825609999977  0.2680287060000026  0.7646964790000013
  0.8676111099999986  0.2966002820000000  0.5651752349999981
  0.1818969249999967  0.2823145090000025  0.6649358869999986
  0.6390397549999989  0.1251715719999993  0.7646964790000013
  0.0104682449999984  0.1537431479999967  0.5651752349999981
  0.3247539999999987  0.1394573749999992  0.6649358869999986
  0.7818969490000001  0.9823144080000006  0.7646964790000013
  0.1533253790000018  0.0108859540000026  0.5651752349999981
  0.4676111639999974  0.9966002110000005  0.6649358869999986
  0.4747539760000024  0.9394572969999970  0.8145766259999974
  0.8461823459999991  0.9680288429999990  0.6150555010000005
  0.1604682210000021  0.9537430999999970  0.7148161530000010
  0.6176110509999972  0.7966001030000029  0.8145766849999987
  0.9890394210000011  0.8251716489999978  0.6150555010000005
  0.3033251760000013  0.8108858470000015  0.7148160930000031
  0.7604683639999976  0.6537430289999975  0.8145766849999987
  0.1318967340000015  0.6823145150000016  0.6150555010000005
  0.4461826089999974  0.6680288310000009  0.7148160930000031
  0.9033254380000031  0.5108859540000026  0.8145766849999987
  0.2747538090000035  0.5394574399999996  0.6150555010000005
  0.5890396830000029  0.5251716969999976  0.7148160930000031
  0.0461823939999988  0.3680287299999989  0.8145766849999987
  0.4176109140000008  0.3966002760000009  0.6150555010000005
  0.7318966979999999  0.3823145329999988  0.7148161530000010
  0.1890397069999992  0.2251715660000002  0.8145766849999987
  0.5604681969999987  0.2537431720000001  0.6150555010000005
  0.8747539519999989  0.2394573690000001  0.7148161530000010
  0.3318969010000004  0.0823144760000005  0.8145766849999987
  0.7033252720000007  0.1108860149999984  0.6150555010000005
  0.0176110270000009  0.0966002489999980  0.7148161530000010
  0.4247541430000012  0.8394572730000007  0.7646965380000026
  0.7961825730000029  0.8680289389999984  0.5651752349999981
  0.1104683880000010  0.8537430760000007  0.6649358869999986
  0.5676113370000024  0.6966000800000032  0.7646965380000026
  0.9390398259999984  0.7251717449999973  0.5651752349999981
  0.2533254619999994  0.7108858819999995  0.6649358869999986
  0.7104685309999965  0.5537429450000033  0.7646965380000026
  0.0818969010000004  0.5823146099999974  0.5651752349999981
  0.3961826560000006  0.5680288080000011  0.6649358869999986
  0.8533255460000007  0.4108858999999967  0.7646965380000026
  0.2247539760000024  0.4394574459999987  0.5651752349999981
  0.5390397910000004  0.4251716429999988  0.6649358869999986
  0.9961826799999969  0.2680286769999967  0.7646964790000013
  0.3676111099999986  0.2966002519999975  0.5651752349999981
  0.6818969249999967  0.2823144790000001  0.6649358869999986
  0.1390397549999989  0.1251715570000016  0.7646964790000013
  0.5104682449999984  0.1537431180000013  0.5651752349999981
  0.8247540590000000  0.1394573449999967  0.6649358869999986
  0.2818969490000001  0.9823144080000006  0.7646964790000013
  0.6533253790000018  0.0108860730000018  0.5651752349999981
  0.9676111939999998  0.9966002110000005  0.6649358869999986
  0.9747539159999974  0.9394572969999970  0.8145766849999987
  0.3461824059999969  0.9680288429999990  0.6150555010000005
  0.6604681609999972  0.9537430410000027  0.7148161530000010
  0.1176109310000015  0.7966002229999987  0.8145766849999987
  0.4890395099999978  0.8251717690000007  0.6150555010000005
  0.8033252359999992  0.8108859660000007  0.7148161530000010
  0.2604682449999984  0.6537430289999975  0.8145766259999974
  0.6318967340000015  0.6823145150000016  0.6150555010000005
  0.9461825489999995  0.6680287719999995  0.7148161530000010
  0.4033254380000031  0.5108858350000034  0.8145766849999987
  0.7747538690000013  0.5394573809999983  0.6150555010000005
  0.0890395639999966  0.5251715779999984  0.7148161530000010
  0.5461825129999980  0.3680287600000014  0.8145766849999987
  0.9176108839999984  0.3966002459999984  0.6150555609999984
  0.2318967579999978  0.3823145030000035  0.7148161530000010
  0.6890398259999984  0.2251715960000027  0.8145767449999965
  0.0604681969999987  0.2537431720000001  0.6150555010000005
  0.3747539519999989  0.2394573990000026  0.7148161530000010
  0.8318969010000004  0.0823144989999989  0.8145766259999974
  0.2033252720000007  0.1108860080000014  0.6150555010000005
  0.5176111460000001  0.0966002870000011  0.7148161530000010
 
  0.00000000E+00  0.00000000E+00  0.00000000E+00
  0.00000000E+00  0.00000000E+00  0.00000000E+00
  0.00000000E+00  0.00000000E+00  0.00000000E+00
  0.00000000E+00  0.00000000E+00  0.00000000E+00
  0.00000000E+00  0.00000000E+00  0.00000000E+00
  0.00000000E+00  0.00000000E+00  0.00000000E+00
  0.00000000E+00  0.00000000E+00  0.00000000E+00
  0.00000000E+00  0.00000000E+00  0.00000000E+00
  0.00000000E+00  0.00000000E+00  0.00000000E+00
  0.00000000E+00  0.00000000E+00  0.00000000E+00
  0.00000000E+00  0.00000000E+00  0.00000000E+00
  0.00000000E+00  0.00000000E+00  0.00000000E+00
  0.00000000E+00  0.00000000E+00  0.00000000E+00
  0.00000000E+00  0.00000000E+00  0.00000000E+00
  0.00000000E+00  0.00000000E+00  0.00000000E+00
  0.00000000E+00  0.00000000E+00  0.00000000E+00
  0.00000000E+00  0.00000000E+00  0.00000000E+00
  0.00000000E+00  0.00000000E+00  0.00000000E+00
  0.00000000E+00  0.00000000E+00  0.00000000E+00
  0.00000000E+00  0.00000000E+00  0.00000000E+00
  0.00000000E+00  0.00000000E+00  0.00000000E+00
  0.00000000E+00  0.00000000E+00  0.00000000E+00
  0.00000000E+00  0.00000000E+00  0.00000000E+00
  0.00000000E+00  0.00000000E+00  0.00000000E+00
  0.00000000E+00  0.00000000E+00  0.00000000E+00
  0.00000000E+00  0.00000000E+00  0.00000000E+00
  0.00000000E+00  0.00000000E+00  0.00000000E+00
  0.00000000E+00  0.00000000E+00  0.00000000E+00
  0.00000000E+00  0.00000000E+00  0.00000000E+00
  0.00000000E+00  0.00000000E+00  0.00000000E+00
  0.00000000E+00  0.00000000E+00  0.00000000E+00
  0.00000000E+00  0.00000000E+00  0.00000000E+00
  0.00000000E+00  0.00000000E+00  0.00000000E+00
  0.00000000E+00  0.00000000E+00  0.00000000E+00
  0.00000000E+00  0.00000000E+00  0.00000000E+00
  0.00000000E+00  0.00000000E+00  0.00000000E+00
  0.00000000E+00  0.00000000E+00  0.00000000E+00
  0.00000000E+00  0.00000000E+00  0.00000000E+00
  0.00000000E+00  0.00000000E+00  0.00000000E+00
  0.00000000E+00  0.00000000E+00  0.00000000E+00
  0.00000000E+00  0.00000000E+00  0.00000000E+00
  0.00000000E+00  0.00000000E+00  0.00000000E+00
  0.00000000E+00  0.00000000E+00  0.00000000E+00
  0.00000000E+00  0.00000000E+00  0.00000000E+00
  0.00000000E+00  0.00000000E+00  0.00000000E+00
  0.00000000E+00  0.00000000E+00  0.00000000E+00
  0.00000000E+00  0.00000000E+00  0.00000000E+00
  0.00000000E+00  0.00000000E+00  0.00000000E+00
  0.00000000E+00  0.00000000E+00  0.00000000E+00
  0.00000000E+00  0.00000000E+00  0.00000000E+00
  0.00000000E+00  0.00000000E+00  0.00000000E+00
  0.00000000E+00  0.00000000E+00  0.00000000E+00
  0.00000000E+00  0.00000000E+00  0.00000000E+00
  0.00000000E+00  0.00000000E+00  0.00000000E+00
  0.00000000E+00  0.00000000E+00  0.00000000E+00
  0.00000000E+00  0.00000000E+00  0.00000000E+00
  0.00000000E+00  0.00000000E+00  0.00000000E+00
  0.00000000E+00  0.00000000E+00  0.00000000E+00
  0.00000000E+00  0.00000000E+00  0.00000000E+00
  0.00000000E+00  0.00000000E+00  0.00000000E+00
  0.00000000E+00  0.00000000E+00  0.00000000E+00
  0.00000000E+00  0.00000000E+00  0.00000000E+00
  0.00000000E+00  0.00000000E+00  0.00000000E+00
  0.00000000E+00  0.00000000E+00  0.00000000E+00
  0.00000000E+00  0.00000000E+00  0.00000000E+00
  0.00000000E+00  0.00000000E+00  0.00000000E+00
  0.00000000E+00  0.00000000E+00  0.00000000E+00
  0.00000000E+00  0.00000000E+00  0.00000000E+00
  0.00000000E+00  0.00000000E+00  0.00000000E+00
  0.00000000E+00  0.00000000E+00  0.00000000E+00
  0.00000000E+00  0.00000000E+00  0.00000000E+00
  0.00000000E+00  0.00000000E+00  0.00000000E+00
  0.00000000E+00  0.00000000E+00  0.00000000E+00
  0.00000000E+00  0.00000000E+00  0.00000000E+00
  0.00000000E+00  0.00000000E+00  0.00000000E+00
  0.00000000E+00  0.00000000E+00  0.00000000E+00
  0.00000000E+00  0.00000000E+00  0.00000000E+00
  0.00000000E+00  0.00000000E+00  0.00000000E+00
  0.00000000E+00  0.00000000E+00  0.00000000E+00
  0.00000000E+00  0.00000000E+00  0.00000000E+00
  0.00000000E+00  0.00000000E+00  0.00000000E+00
  0.00000000E+00  0.00000000E+00  0.00000000E+00
  0.00000000E+00  0.00000000E+00  0.00000000E+00
  0.00000000E+00  0.00000000E+00  0.00000000E+00
  0.00000000E+00  0.00000000E+00  0.00000000E+00
  0.00000000E+00  0.00000000E+00  0.00000000E+00
  0.00000000E+00  0.00000000E+00  0.00000000E+00
  0.00000000E+00  0.00000000E+00  0.00000000E+00
  0.00000000E+00  0.00000000E+00  0.00000000E+00
  0.00000000E+00  0.00000000E+00  0.00000000E+00
  0.00000000E+00  0.00000000E+00  0.00000000E+00
  0.00000000E+00  0.00000000E+00  0.00000000E+00
  0.00000000E+00  0.00000000E+00  0.00000000E+00
  0.00000000E+00  0.00000000E+00  0.00000000E+00
  0.00000000E+00  0.00000000E+00  0.00000000E+00
  0.00000000E+00  0.00000000E+00  0.00000000E+00
  0.00000000E+00  0.00000000E+00  0.00000000E+00
  0.00000000E+00  0.00000000E+00  0.00000000E+00
  0.00000000E+00  0.00000000E+00  0.00000000E+00
  0.00000000E+00  0.00000000E+00  0.00000000E+00
  0.00000000E+00  0.00000000E+00  0.00000000E+00
  0.00000000E+00  0.00000000E+00  0.00000000E+00
  0.00000000E+00  0.00000000E+00  0.00000000E+00
  0.00000000E+00  0.00000000E+00  0.00000000E+00
  0.00000000E+00  0.00000000E+00  0.00000000E+00
  0.00000000E+00  0.00000000E+00  0.00000000E+00
  0.00000000E+00  0.00000000E+00  0.00000000E+00
  0.00000000E+00  0.00000000E+00  0.00000000E+00
  0.00000000E+00  0.00000000E+00  0.00000000E+00
  0.00000000E+00  0.00000000E+00  0.00000000E+00
  0.00000000E+00  0.00000000E+00  0.00000000E+00
  0.00000000E+00  0.00000000E+00  0.00000000E+00
  0.00000000E+00  0.00000000E+00  0.00000000E+00
  0.00000000E+00  0.00000000E+00  0.00000000E+00
  0.00000000E+00  0.00000000E+00  0.00000000E+00
  0.00000000E+00  0.00000000E+00  0.00000000E+00
  0.00000000E+00  0.00000000E+00  0.00000000E+00
  0.00000000E+00  0.00000000E+00  0.00000000E+00
  0.00000000E+00  0.00000000E+00  0.00000000E+00
  0.00000000E+00  0.00000000E+00  0.00000000E+00
