Si+Sn                                   
   1.00000000000000     
    10.8620004649999995    0.0000000000000000    0.0000000000000000
     0.0000000000000000   16.2930011750000006    0.0000000000000000
     0.0000000000000000    0.0000000000000000   22.7847366330000014
   Si   Sn
    72    72
Direct
  0.0000000000000000  0.9940677290000011  0.0000000000000000
  0.0000000000000000  0.8274010419999982  0.1191806639999982
  0.0000000000000000  0.6607342960000011  0.2383613439999976
  0.5000000000000000  0.9940677290000011  0.0000000000000000
  0.5000000000000000  0.8274010419999982  0.1191806639999982
  0.5000000000000000  0.6607342960000011  0.2383613439999976
  0.0000000000000000  0.3274010720000007  0.0000000000000000
  0.0000000000000000  0.1607343849999978  0.1191806639999982
  0.0000000000000000  0.9940676690000032  0.2383613439999976
  0.5000000000000000  0.3274010720000007  0.0000000000000000
  0.5000000000000000  0.1607343849999978  0.1191806639999982
  0.5000000000000000  0.9940676690000032  0.2383613439999976
  0.0000000000000000  0.6607344749999982  0.0000000000000000
  0.0000000000000000  0.4940677290000011  0.1191806639999982
  0.0000000000000000  0.3274010419999982  0.2383613439999976
  0.5000000000000000  0.6607344749999982  0.0000000000000000
  0.5000000000000000  0.4940677290000011  0.1191806639999982
  0.5000000000000000  0.3274010419999982  0.2383613439999976
  0.1250000000000000  0.0774010570000030  0.0595903359999994
  0.1250000000000000  0.9107343550000024  0.1787710190000027
  0.1250000000000000  0.7440676690000032  0.2979516979999985
  0.6250000000000000  0.0774010570000030  0.0595903359999994
  0.6250000000000000  0.9107343550000024  0.1787710190000027
  0.6250000000000000  0.7440676690000032  0.2979516979999985
  0.1250000000000000  0.4107343849999978  0.0595903359999994
  0.1250000000000000  0.2440676690000032  0.1787710190000027
  0.1250000000000000  0.0774009530000015  0.2979516979999985
  0.6250000000000000  0.4107343849999978  0.0595903359999994
  0.6250000000000000  0.2440676690000032  0.1787710190000027
  0.6250000000000000  0.0774009530000015  0.2979516979999985
  0.1250000000000000  0.7440677880000024  0.0595903359999994
  0.1250000000000000  0.5774010419999982  0.1787710190000027
  0.1250000000000000  0.4107343259999965  0.2979516979999985
  0.6250000000000000  0.7440677880000024  0.0595903359999994
  0.6250000000000000  0.5774010419999982  0.1787710190000027
  0.6250000000000000  0.4107343259999965  0.2979516979999985
  0.2500000000000000  0.1607343849999978  0.0000000000000000
  0.2500000000000000  0.9940676690000032  0.1191806639999982
  0.2500000000000000  0.8274009820000003  0.2383613439999976
  0.7500000599999979  0.1607343849999978  0.0000000000000000
  0.7500000599999979  0.9940676690000032  0.1191806639999982
  0.7500000599999979  0.8274009820000003  0.2383613439999976
  0.2500000000000000  0.4940677290000011  0.0000000000000000
  0.2500000000000000  0.3274010419999982  0.1191806639999982
  0.2500000000000000  0.1607343259999965  0.2383613439999976
  0.7500000599999979  0.4940677290000011  0.0000000000000000
  0.7500000599999979  0.3274010419999982  0.1191806639999982
  0.7500000599999979  0.1607343259999965  0.2383613439999976
  0.2500000000000000  0.8274011020000032  0.0000000000000000
  0.2500000000000000  0.6607344150000003  0.1191806639999982
  0.2500000000000000  0.4940677290000011  0.2383613439999976
  0.7500000599999979  0.8274011020000032  0.0000000000000000
  0.7500000599999979  0.6607344150000003  0.1191806639999982
  0.7500000599999979  0.4940677290000011  0.2383613439999976
  0.3750000300000025  0.2440677290000011  0.0595903359999994
  0.3750000300000025  0.0774010200000035  0.1787710190000027
  0.3750000300000025  0.9107342960000011  0.2979516979999985
  0.8750000599999979  0.2440677290000011  0.0595903359999994
  0.8750000599999979  0.0774010200000035  0.1787710190000027
  0.8750000599999979  0.9107342960000011  0.2979516979999985
  0.3750000300000025  0.5774011609999974  0.0595903359999994
  0.3750000300000025  0.4107344749999982  0.1787710190000027
  0.3750000300000025  0.2440677140000034  0.2979516979999985
  0.8750000599999979  0.5774011609999974  0.0595903359999994
  0.8750000599999979  0.4107344749999982  0.1787710190000027
  0.8750000599999979  0.2440677140000034  0.2979516979999985
  0.3750000300000025  0.9107343550000024  0.0595903359999994
  0.3750000300000025  0.7440676690000032  0.1787710190000027
  0.3750000300000025  0.5774009229999990  0.2979516979999985
  0.8750000599999979  0.9107343550000024  0.0595903359999994
  0.8750000599999979  0.7440676690000032  0.1787710190000027
  0.8750000599999979  0.5774009229999990  0.2979516979999985
  0.2962962989999980  0.1610327960000006  0.3972416519999982
  0.2962962390000001  0.9110327360000028  0.4979352949999978
  0.2962961200000009  0.6610326170000036  0.5986290569999966
  0.2962961200000009  0.4110324379999994  0.6993227009999998
  0.2962961200000009  0.1610323190000003  0.8000163439999994
  0.2962961200000009  0.9110322590000024  0.9007101059999982
  0.6296297310000014  0.8276995419999977  0.3972416519999982
  0.6296296720000001  0.5776994819999999  0.4979352949999978
  0.6296296120000022  0.3276993630000007  0.5986289980000024
  0.6296294930000030  0.0776991839999965  0.6993226410000020
  0.6296294930000030  0.8276991839999965  0.8000163439999994
  0.6296294930000030  0.5776990649999973  0.9007100460000004
  0.9629630450000022  0.4943661690000027  0.3972416519999982
  0.9629629849999972  0.2443661390000003  0.4979352949999978
  0.9629629249999994  0.9943659899999986  0.5986289980000024
  0.9629629249999994  0.7443658709999994  0.6993226410000020
  0.9629628659999980  0.4943658110000015  0.8000163439999994
  0.9629629249999994  0.2443656769999976  0.9007100460000004
  0.2962962989999980  0.6610328559999985  0.3972416519999982
  0.2962962390000001  0.4110327960000006  0.4979352949999978
  0.2962961200000009  0.1610326770000015  0.5986290569999966
  0.2962961200000009  0.9110324979999973  0.6993227009999998
  0.2962961200000009  0.6610324979999973  0.8000163439999994
  0.2962961200000009  0.4110323190000003  0.9007100460000004
  0.6296296720000001  0.3276995120000024  0.3972416519999982
  0.6296296120000022  0.0776994229999985  0.4979352949999978
  0.6296295519999973  0.8276993630000007  0.5986290569999966
  0.6296295519999973  0.5776991250000023  0.6993226410000020
  0.6296294930000030  0.3276990649999973  0.8000163439999994
  0.6296294930000030  0.0776989459999982  0.9007100460000004
  0.9629631039999964  0.9943662880000019  0.3972416519999982
  0.9629630450000022  0.7443661690000027  0.4979352949999978
  0.9629629849999972  0.4943660499999964  0.5986290569999966
  0.9629629249999994  0.2443659010000019  0.6993227009999998
  0.9629628060000002  0.9943658709999994  0.8000163439999994
  0.9629628060000002  0.7443657520000002  0.9007100460000004
  0.3796295819999997  0.8276996020000027  0.3972416820000007
  0.3796295519999973  0.5776996020000027  0.4979352949999978
  0.3796294930000030  0.3276994229999985  0.5986290569999966
  0.3796294630000006  0.0776993039999994  0.6993226410000020
  0.3796293739999967  0.8276992440000015  0.8000163439999994
  0.3796293739999967  0.5776991250000023  0.9007100460000004
  0.7129629849999972  0.4943661690000027  0.3972416820000007
  0.7129629249999994  0.2443661089999978  0.4979352949999978
  0.7129628659999980  0.9943659899999986  0.5986290569999966
  0.7129628060000002  0.7443658709999994  0.6993226410000020
  0.7129627469999988  0.4943658110000015  0.8000163439999994
  0.7129627469999988  0.2443656769999976  0.9007100460000004
  0.0462963579999993  0.1610327960000006  0.3972416820000007
  0.0462963579999993  0.9110327360000028  0.4979352949999978
  0.0462962390000001  0.6610326170000036  0.5986290569999966
  0.0462961200000009  0.4110324979999973  0.6993226410000020
  0.0462961200000009  0.1610323190000003  0.8000163439999994
  0.0462961200000009  0.9110322590000024  0.9007100460000004
  0.3796296120000022  0.3276994819999999  0.3972416519999982
  0.3796295819999997  0.0776994229999985  0.4979352949999978
  0.3796295519999973  0.8276993039999994  0.5986290569999966
  0.3796294930000030  0.5776991839999965  0.6993227009999998
  0.3796294329999981  0.3276991250000023  0.8000163439999994
  0.3796293739999967  0.0776989459999982  0.9007100460000004
  0.7129629849999972  0.9943661690000027  0.3972416519999982
  0.7129629849999972  0.7443660499999964  0.4979352949999978
  0.7129629249999994  0.4943659309999973  0.5986290569999966
  0.7129628659999980  0.2443657820000027  0.6993227009999998
  0.7129628060000002  0.9943657520000002  0.8000163439999994
  0.7129628659999980  0.7443656330000010  0.9007100460000004
  0.0462963579999993  0.6610328559999985  0.3972416519999982
  0.0462962390000001  0.4110327659999982  0.4979352949999978
  0.0462962390000001  0.1610326770000015  0.5986290569999966
  0.0462961200000009  0.9110324979999973  0.6993227009999998
  0.0462961200000009  0.6610324379999994  0.8000163439999994
  0.0462961200000009  0.4110323190000003  0.9007100460000004
 
  0.00000000E+00  0.00000000E+00  0.00000000E+00
  0.00000000E+00  0.00000000E+00  0.00000000E+00
  0.00000000E+00  0.00000000E+00  0.00000000E+00
  0.00000000E+00  0.00000000E+00  0.00000000E+00
  0.00000000E+00  0.00000000E+00  0.00000000E+00
  0.00000000E+00  0.00000000E+00  0.00000000E+00
  0.00000000E+00  0.00000000E+00  0.00000000E+00
  0.00000000E+00  0.00000000E+00  0.00000000E+00
  0.00000000E+00  0.00000000E+00  0.00000000E+00
  0.00000000E+00  0.00000000E+00  0.00000000E+00
  0.00000000E+00  0.00000000E+00  0.00000000E+00
  0.00000000E+00  0.00000000E+00  0.00000000E+00
  0.00000000E+00  0.00000000E+00  0.00000000E+00
  0.00000000E+00  0.00000000E+00  0.00000000E+00
  0.00000000E+00  0.00000000E+00  0.00000000E+00
  0.00000000E+00  0.00000000E+00  0.00000000E+00
  0.00000000E+00  0.00000000E+00  0.00000000E+00
  0.00000000E+00  0.00000000E+00  0.00000000E+00
  0.00000000E+00  0.00000000E+00  0.00000000E+00
  0.00000000E+00  0.00000000E+00  0.00000000E+00
  0.00000000E+00  0.00000000E+00  0.00000000E+00
  0.00000000E+00  0.00000000E+00  0.00000000E+00
  0.00000000E+00  0.00000000E+00  0.00000000E+00
  0.00000000E+00  0.00000000E+00  0.00000000E+00
  0.00000000E+00  0.00000000E+00  0.00000000E+00
  0.00000000E+00  0.00000000E+00  0.00000000E+00
  0.00000000E+00  0.00000000E+00  0.00000000E+00
  0.00000000E+00  0.00000000E+00  0.00000000E+00
  0.00000000E+00  0.00000000E+00  0.00000000E+00
  0.00000000E+00  0.00000000E+00  0.00000000E+00
  0.00000000E+00  0.00000000E+00  0.00000000E+00
  0.00000000E+00  0.00000000E+00  0.00000000E+00
  0.00000000E+00  0.00000000E+00  0.00000000E+00
  0.00000000E+00  0.00000000E+00  0.00000000E+00
  0.00000000E+00  0.00000000E+00  0.00000000E+00
  0.00000000E+00  0.00000000E+00  0.00000000E+00
  0.00000000E+00  0.00000000E+00  0.00000000E+00
  0.00000000E+00  0.00000000E+00  0.00000000E+00
  0.00000000E+00  0.00000000E+00  0.00000000E+00
  0.00000000E+00  0.00000000E+00  0.00000000E+00
  0.00000000E+00  0.00000000E+00  0.00000000E+00
  0.00000000E+00  0.00000000E+00  0.00000000E+00
  0.00000000E+00  0.00000000E+00  0.00000000E+00
  0.00000000E+00  0.00000000E+00  0.00000000E+00
  0.00000000E+00  0.00000000E+00  0.00000000E+00
  0.00000000E+00  0.00000000E+00  0.00000000E+00
  0.00000000E+00  0.00000000E+00  0.00000000E+00
  0.00000000E+00  0.00000000E+00  0.00000000E+00
  0.00000000E+00  0.00000000E+00  0.00000000E+00
  0.00000000E+00  0.00000000E+00  0.00000000E+00
  0.00000000E+00  0.00000000E+00  0.00000000E+00
  0.00000000E+00  0.00000000E+00  0.00000000E+00
  0.00000000E+00  0.00000000E+00  0.00000000E+00
  0.00000000E+00  0.00000000E+00  0.00000000E+00
  0.00000000E+00  0.00000000E+00  0.00000000E+00
  0.00000000E+00  0.00000000E+00  0.00000000E+00
  0.00000000E+00  0.00000000E+00  0.00000000E+00
  0.00000000E+00  0.00000000E+00  0.00000000E+00
  0.00000000E+00  0.00000000E+00  0.00000000E+00
  0.00000000E+00  0.00000000E+00  0.00000000E+00
  0.00000000E+00  0.00000000E+00  0.00000000E+00
  0.00000000E+00  0.00000000E+00  0.00000000E+00
  0.00000000E+00  0.00000000E+00  0.00000000E+00
  0.00000000E+00  0.00000000E+00  0.00000000E+00
  0.00000000E+00  0.00000000E+00  0.00000000E+00
  0.00000000E+00  0.00000000E+00  0.00000000E+00
  0.00000000E+00  0.00000000E+00  0.00000000E+00
  0.00000000E+00  0.00000000E+00  0.00000000E+00
  0.00000000E+00  0.00000000E+00  0.00000000E+00
  0.00000000E+00  0.00000000E+00  0.00000000E+00
  0.00000000E+00  0.00000000E+00  0.00000000E+00
  0.00000000E+00  0.00000000E+00  0.00000000E+00
  0.00000000E+00  0.00000000E+00  0.00000000E+00
  0.00000000E+00  0.00000000E+00  0.00000000E+00
  0.00000000E+00  0.00000000E+00  0.00000000E+00
  0.00000000E+00  0.00000000E+00  0.00000000E+00
  0.00000000E+00  0.00000000E+00  0.00000000E+00
  0.00000000E+00  0.00000000E+00  0.00000000E+00
  0.00000000E+00  0.00000000E+00  0.00000000E+00
  0.00000000E+00  0.00000000E+00  0.00000000E+00
  0.00000000E+00  0.00000000E+00  0.00000000E+00
  0.00000000E+00  0.00000000E+00  0.00000000E+00
  0.00000000E+00  0.00000000E+00  0.00000000E+00
  0.00000000E+00  0.00000000E+00  0.00000000E+00
  0.00000000E+00  0.00000000E+00  0.00000000E+00
  0.00000000E+00  0.00000000E+00  0.00000000E+00
  0.00000000E+00  0.00000000E+00  0.00000000E+00
  0.00000000E+00  0.00000000E+00  0.00000000E+00
  0.00000000E+00  0.00000000E+00  0.00000000E+00
  0.00000000E+00  0.00000000E+00  0.00000000E+00
  0.00000000E+00  0.00000000E+00  0.00000000E+00
  0.00000000E+00  0.00000000E+00  0.00000000E+00
  0.00000000E+00  0.00000000E+00  0.00000000E+00
  0.00000000E+00  0.00000000E+00  0.00000000E+00
  0.00000000E+00  0.00000000E+00  0.00000000E+00
  0.00000000E+00  0.00000000E+00  0.00000000E+00
  0.00000000E+00  0.00000000E+00  0.00000000E+00
  0.00000000E+00  0.00000000E+00  0.00000000E+00
  0.00000000E+00  0.00000000E+00  0.00000000E+00
  0.00000000E+00  0.00000000E+00  0.00000000E+00
  0.00000000E+00  0.00000000E+00  0.00000000E+00
  0.00000000E+00  0.00000000E+00  0.00000000E+00
  0.00000000E+00  0.00000000E+00  0.00000000E+00
  0.00000000E+00  0.00000000E+00  0.00000000E+00
  0.00000000E+00  0.00000000E+00  0.00000000E+00
  0.00000000E+00  0.00000000E+00  0.00000000E+00
  0.00000000E+00  0.00000000E+00  0.00000000E+00
  0.00000000E+00  0.00000000E+00  0.00000000E+00
  0.00000000E+00  0.00000000E+00  0.00000000E+00
  0.00000000E+00  0.00000000E+00  0.00000000E+00
  0.00000000E+00  0.00000000E+00  0.00000000E+00
  0.00000000E+00  0.00000000E+00  0.00000000E+00
  0.00000000E+00  0.00000000E+00  0.00000000E+00
  0.00000000E+00  0.00000000E+00  0.00000000E+00
  0.00000000E+00  0.00000000E+00  0.00000000E+00
  0.00000000E+00  0.00000000E+00  0.00000000E+00
  0.00000000E+00  0.00000000E+00  0.00000000E+00
  0.00000000E+00  0.00000000E+00  0.00000000E+00
  0.00000000E+00  0.00000000E+00  0.00000000E+00
  0.00000000E+00  0.00000000E+00  0.00000000E+00
  0.00000000E+00  0.00000000E+00  0.00000000E+00
  0.00000000E+00  0.00000000E+00  0.00000000E+00
  0.00000000E+00  0.00000000E+00  0.00000000E+00
  0.00000000E+00  0.00000000E+00  0.00000000E+00
  0.00000000E+00  0.00000000E+00  0.00000000E+00
  0.00000000E+00  0.00000000E+00  0.00000000E+00
  0.00000000E+00  0.00000000E+00  0.00000000E+00
  0.00000000E+00  0.00000000E+00  0.00000000E+00
  0.00000000E+00  0.00000000E+00  0.00000000E+00
  0.00000000E+00  0.00000000E+00  0.00000000E+00
  0.00000000E+00  0.00000000E+00  0.00000000E+00
  0.00000000E+00  0.00000000E+00  0.00000000E+00
  0.00000000E+00  0.00000000E+00  0.00000000E+00
  0.00000000E+00  0.00000000E+00  0.00000000E+00
  0.00000000E+00  0.00000000E+00  0.00000000E+00
  0.00000000E+00  0.00000000E+00  0.00000000E+00
  0.00000000E+00  0.00000000E+00  0.00000000E+00
  0.00000000E+00  0.00000000E+00  0.00000000E+00
  0.00000000E+00  0.00000000E+00  0.00000000E+00
  0.00000000E+00  0.00000000E+00  0.00000000E+00
  0.00000000E+00  0.00000000E+00  0.00000000E+00
  0.00000000E+00  0.00000000E+00  0.00000000E+00
  0.00000000E+00  0.00000000E+00  0.00000000E+00
  0.00000000E+00  0.00000000E+00  0.00000000E+00
