Sn+Si
    1.000000000
   19.467599869    0.000000000    0.000000000
    0.000000000   19.467599869    0.000000000
    0.000000000    0.000000000   19.300252914
Sn  Si 
108     156
Direct
    0.995035112    0.666666687    0.000000000
    0.828368425    0.666666687    0.168111786
    0.661701739    0.666666687    0.336223543
    0.995035112    0.333333343    0.000000000
    0.828368425    0.333333343    0.168111786
    0.661701739    0.333333343    0.336223543
    0.995035112    0.000000000    0.000000000
    0.828368425    0.000000000    0.168111786
    0.661701739    0.000000000    0.336223543
    0.328368455    0.666666687    0.000000000
    0.161701739    0.666666687    0.168111786
    0.995035112    0.666666687    0.336223543
    0.328368455    0.333333343    0.000000000
    0.161701739    0.333333343    0.168111786
    0.995035112    0.333333343    0.336223543
    0.328368455    0.000000000    0.000000000
    0.161701739    0.000000000    0.168111786
    0.995035112    0.000000000    0.336223543
    0.661701798    0.666666687    0.000000000
    0.495035112    0.666666687    0.168111786
    0.328368455    0.666666687    0.336223543
    0.661701798    0.333333343    0.000000000
    0.495035112    0.333333343    0.168111786
    0.328368455    0.333333343    0.336223543
    0.661701798    0.000000000    0.000000000
    0.495035112    0.000000000    0.168111786
    0.328368455    0.000000000    0.336223543
    0.078368433    0.916666746    0.084055893
    0.911701798    0.916666746    0.252167612
    0.745035052    0.916666746    0.420279443
    0.078368433    0.583333433    0.084055893
    0.911701798    0.583333433    0.252167612
    0.745035052    0.583333433    0.420279443
    0.078368433    0.250000000    0.084055893
    0.911701798    0.250000000    0.252167612
    0.745035052    0.250000000    0.420279443
    0.411701769    0.916666746    0.084055893
    0.245035097    0.916666746    0.252167612
    0.078368381    0.916666746    0.420279443
    0.411701769    0.583333433    0.084055893
    0.245035097    0.583333433    0.252167612
    0.078368381    0.583333433    0.420279443
    0.411701769    0.250000000    0.084055893
    0.245035097    0.250000000    0.252167612
    0.078368381    0.250000000    0.420279443
    0.745035172    0.916666746    0.084055893
    0.578368545    0.916666746    0.252167612
    0.411701798    0.916666746    0.420279443
    0.745035172    0.583333433    0.084055893
    0.578368545    0.583333433    0.252167612
    0.411701798    0.583333433    0.420279443
    0.745035172    0.250000000    0.084055893
    0.578368545    0.250000000    0.252167612
    0.411701798    0.250000000    0.420279443
    0.161701769    0.833333313    0.000000000
    0.995035052    0.833333313    0.168111786
    0.828368425    0.833333313    0.336223543
    0.161701769    0.500000000    0.000000000
    0.995035052    0.500000000    0.168111786
    0.828368425    0.500000000    0.336223543
    0.161701769    0.166666672    0.000000000
    0.995035052    0.166666672    0.168111786
    0.828368425    0.166666672    0.336223543
    0.495035112    0.833333313    0.000000000
    0.328368425    0.833333313    0.168111786
    0.161701754    0.833333313    0.336223543
    0.495035112    0.500000000    0.000000000
    0.328368425    0.500000000    0.168111786
    0.161701754    0.500000000    0.336223543
    0.495035112    0.166666672    0.000000000
    0.328368425    0.166666672    0.168111786
    0.161701754    0.166666672    0.336223543
    0.828368545    0.833333313    0.000000000
    0.661701858    0.833333313    0.168111786
    0.495035201    0.833333313    0.336223543
    0.828368545    0.500000000    0.000000000
    0.661701858    0.500000000    0.168111786
    0.495035201    0.500000000    0.336223543
    0.828368545    0.166666672    0.000000000
    0.661701858    0.166666672    0.168111786
    0.495035201    0.166666672    0.336223543
    0.245035097    0.750000060    0.084055893
    0.078368433    0.750000060    0.252167612
    0.911701739    0.750000060    0.420279443
    0.245035097    0.416666716    0.084055893
    0.078368433    0.416666716    0.252167612
    0.911701739    0.416666716    0.420279443
    0.245035097    0.083333343    0.084055893
    0.078368433    0.083333343    0.252167612
    0.911701739    0.083333343    0.420279443
    0.578368485    0.750000060    0.084055893
    0.411701858    0.750000060    0.252167612
    0.245035127    0.750000060    0.420279443
    0.578368485    0.416666716    0.084055893
    0.411701858    0.416666716    0.252167612
    0.245035127    0.416666716    0.420279443
    0.578368485    0.083333343    0.084055893
    0.411701858    0.083333343    0.252167612
    0.245035127    0.083333343    0.420279443
    0.911701739    0.750000060    0.084055893
    0.745035052    0.750000060    0.252167612
    0.578368366    0.750000060    0.420279443
    0.911701739    0.416666716    0.084055893
    0.745035052    0.416666716    0.252167612
    0.578368366    0.416666716    0.420279443
    0.911701739    0.083333343    0.084055893
    0.745035052    0.083333343    0.252167612
    0.578368366    0.083333343    0.420279443
    0.269088864    0.043653727    0.534267545
    0.153704166    0.966730595    0.674965203
    0.038319588    0.889807463    0.815662920
    0.346011996    0.428269207    0.534267545
    0.230627298    0.351346046    0.674965203
    0.115242720    0.274422914    0.815662920
    0.499858141    0.197499931    0.534267545
    0.384473473    0.120576799    0.674965203
    0.269088745    0.043653727    0.815662920
    0.422935069    0.812884569    0.534267545
    0.307550400    0.735961437    0.674965203
    0.192165732    0.659038305    0.815662920
    0.576781273    0.582115293    0.534267545
    0.461396575    0.505192161    0.674965203
    0.346011937    0.428269058    0.815662920
    0.730627418    0.351346105    0.534267545
    0.615242720    0.274422944    0.674965203
    0.499858081    0.197499827    0.815662920
    0.884473562    0.120576859    0.534267545
    0.769088864    0.043653727    0.674965203
    0.653704226    0.966730535    0.815662920
    0.653704405    0.966730773    0.534267545
    0.538319707    0.889807642    0.674965203
    0.422935039    0.812884450    0.815662920
    0.807550490    0.735961437    0.534267545
    0.692165792    0.659038305    0.674965203
    0.576781154    0.582115173    0.815662920
    0.961396575    0.505192220    0.534267545
    0.846011937    0.428269118    0.674965203
    0.730627239    0.351345986    0.815662920
    0.115242720    0.274422944    0.534267545
    0.999858141    0.197499797    0.674965203
    0.884473443    0.120576665    0.815662920
    0.038319826    0.889807582    0.534267545
    0.922935128    0.812884450    0.674965203
    0.807550430    0.735961318    0.815662920
    0.192165852    0.659038365    0.534267545
    0.076781273    0.582115233    0.674965203
    0.961396575    0.505192101    0.815662920
    0.288319707    0.639807582    0.604616404
    0.172935009    0.562884450    0.745314062
    0.057550430    0.485961378    0.886011779
    0.442165822    0.409038424    0.604616404
    0.326781154    0.332115293    0.745314062
    0.211396456    0.255192131    0.886011779
    0.596011996    0.178269163    0.604616404
    0.480627298    0.101346016    0.745314062
    0.365242630    0.024422884    0.886011779
    0.365242749    0.024423003    0.604616404
    0.249858141    0.947499871    0.745314062
    0.134473324    0.870576739    0.886011779
    0.519088924    0.793653786    0.604616404
    0.403704286    0.716730654    0.745314062
    0.288319588    0.639807522    0.886011779
    0.672935128    0.562884569    0.604616404
    0.557550430    0.485961437    0.745314062
    0.442165792    0.409038305    0.886011779
    0.826781273    0.332115293    0.604616404
    0.711396575    0.255192131    0.745314062
    0.596011877    0.178269014    0.886011779
    0.980627418    0.101346053    0.604616404
    0.865242720    0.024422884    0.745314062
    0.749858022    0.947499752    0.886011779
    0.749858260    0.947499931    0.604616404
    0.634473562    0.870576799    0.745314062
    0.519088864    0.793653667    0.886011779
    0.903704405    0.716730714    0.604616404
    0.788319707    0.639807522    0.745314062
    0.672935009    0.562884390    0.886011779
    0.057550550    0.485961467    0.604616404
    0.942165852    0.409038305    0.745314062
    0.826781154    0.332115173    0.886011779
    0.211396694    0.255192250    0.604616404
    0.096011996    0.178269103    0.745314062
    0.980627298    0.101345956    0.886011779
    0.134473801    0.870576859    0.604616404
    0.019088984    0.793653727    0.745314062
    0.903704286    0.716730535    0.886011779
    0.307550460    0.235961497    0.534267545
    0.192165852    0.159038350    0.674965203
    0.076781034    0.082115218    0.815662920
    0.384473532    0.620576799    0.534267545
    0.269088864    0.543653727    0.674965203
    0.153704166    0.466730595    0.815662920
    0.538319707    0.389807671    0.534267545
    0.422935069    0.312884539    0.674965203
    0.307550371    0.235961407    0.815662920
    0.692165852    0.159038350    0.534267545
    0.576781154    0.082115225    0.674965203
    0.461396515    0.005192041    0.815662920
    0.461396635    0.005192161    0.534267545
    0.346011937    0.928269029    0.674965203
    0.230627298    0.851345956    0.815662920
    0.615242779    0.774423003    0.534267545
    0.499858081    0.697499871    0.674965203
    0.384473443    0.620576739    0.815662920
    0.769088984    0.543653727    0.534267545
    0.653704286    0.466730624    0.674965203
    0.538319588    0.389807492    0.815662920
    0.922935128    0.312884539    0.534267545
    0.807550490    0.235961407    0.674965203
    0.692165792    0.159038275    0.815662920
    0.076781273    0.082115322    0.534267545
    0.961396575    0.005192161    0.674965203
    0.846011937    0.928269029    0.815662920
    0.846011996    0.928269088    0.534267545
    0.730627298    0.851346016    0.674965203
    0.615242660    0.774422824    0.815662920
    0.999858201    0.697499871    0.534267545
    0.884473503    0.620576739    0.674965203
    0.769088805    0.543653607    0.815662920
    0.153704405    0.466730744    0.534267545
    0.038319707    0.389807612    0.674965203
    0.922935009    0.312884480    0.815662920
    0.230627537    0.851346016    0.534267545
    0.115242720    0.774422884    0.674965203
    0.999858141    0.697499752    0.815662920
    0.403704286    0.216730714    0.604616404
    0.288319618    0.139807582    0.745314062
    0.172935009    0.062884443    0.886011779
    0.326781213    0.832115352    0.604616404
    0.211396575    0.755192161    0.745314062
    0.096011877    0.678269029    0.886011779
    0.480627388    0.601346135    0.604616404
    0.365242720    0.524423003    0.745314062
    0.249858022    0.447499841    0.886011779
    0.634473562    0.370576888    0.604616404
    0.519088864    0.293653756    0.745314062
    0.403704196    0.216730610    0.886011779
    0.788319707    0.139807597    0.604616404
    0.672935069    0.062884480    0.745314062
    0.557550371    0.985961258    0.886011779
    0.557550550    0.985961556    0.604616404
    0.442165852    0.909038365    0.745314062
    0.326781154    0.832115233    0.886011779
    0.711396635    0.755192339    0.604616404
    0.596011937    0.678269148    0.745314062
    0.480627269    0.601346016    0.886011779
    0.865242839    0.524423003    0.604616404
    0.749858141    0.447499901    0.745314062
    0.634473443    0.370576769    0.886011779
    0.019088984    0.293653756    0.604616404
    0.903704286    0.216730624    0.745314062
    0.788319647    0.139807478    0.886011779
    0.172935128    0.062884539    0.604616404
    0.057550430    0.985961378    0.745314062
    0.942165792    0.909038246    0.886011779
    0.942165971    0.909038484    0.604616404
    0.826781273    0.832115352    0.745314062
    0.711396575    0.755192220    0.886011779
    0.096012115    0.678269148    0.604616404
    0.980627418    0.601346016    0.745314062
    0.865242660    0.524422884    0.886011779
    0.249858141    0.447499990    0.604616404
    0.134473443    0.370576829    0.745314062
    0.019088745    0.293653667    0.886011779
