Si+C
    1.000000000
   16.293001175    0.000000000    0.000000000
  -10.862000465   12.144085884    0.000000000
    0.000000000    0.000000000    7.006474018
Si  C  
36     84
Direct
    0.974358499    0.982905626    0.000000002
    0.674358428    0.782905579    0.173326701
    0.374358416    0.582905531    0.346653402
    0.307691783    0.982905626    0.000000002
    0.007691726    0.782905579    0.173326701
    0.707691669    0.582905531    0.346653402
    0.641025066    0.982905626    0.000000002
    0.341025025    0.782905579    0.173326701
    0.041024987    0.582905531    0.346653402
    0.157691970    0.632905602    0.086663172
    0.857691944    0.432905525    0.259989887
    0.557691932    0.232905507    0.433316529
    0.491025209    0.632905602    0.086663172
    0.191025153    0.432905525    0.259989887
    0.891025186    0.232905507    0.433316529
    0.824358463    0.632905602    0.086663172
    0.524358392    0.432905525    0.259989887
    0.224358499    0.232905507    0.433316529
    0.141025156    0.482905596    0.000000000
    0.841025114    0.282905489    0.173326701
    0.541025102    0.082905434    0.346653402
    0.474358439    0.482905596    0.000000000
    0.174358383    0.282905489    0.173326701
    0.874358356    0.082905434    0.346653402
    0.807691693    0.482905596    0.000000000
    0.507691681    0.282905489    0.173326701
    0.207691625    0.082905434    0.346653402
    0.991025209    0.132905662    0.086663179
    0.691025138    0.932905614    0.259989887
    0.391025186    0.732905567    0.433316529
    0.324358463    0.132905662    0.086663179
    0.024358414    0.932905614    0.259989887
    0.724358439    0.732905567    0.433316529
    0.657691658    0.132905662    0.086663179
    0.357691616    0.932905614    0.259989887
    0.057691652    0.732905567    0.433316529
    0.135925889    0.200784326    0.574368298
    0.378783107    0.172212839    0.688200295
    0.621640325    0.143641353    0.802032351
    0.421640158    0.343641460    0.574368298
    0.664497375    0.315069973    0.688200295
    0.907354593    0.286498487    0.802032351
    0.707354367    0.486498564    0.574368298
    0.950211644    0.457927078    0.688200295
    0.193068922    0.429355621    0.802032351
    0.993068755    0.629355788    0.574368298
    0.235925972    0.600784302    0.688200295
    0.478783309    0.572212815    0.802032351
    0.278783023    0.772212863    0.574368298
    0.521640241    0.743641436    0.688200295
    0.764497459    0.715069950    0.802032351
    0.564497352    0.915070057    0.574368298
    0.807354569    0.886498570    0.688200295
    0.050211787    0.857927084    0.802032351
    0.850211561    0.057927132    0.574368298
    0.093068838    0.029355645    0.688200295
    0.335925996    0.000784159    0.802032351
    0.971640050    0.293641448    0.631284237
    0.214497387    0.265069991    0.745116174
    0.457354605    0.236498475    0.858948231
    0.257354259    0.436498582    0.631284177
    0.500211537    0.407927126    0.745116293
    0.743068755    0.379355609    0.858948231
    0.543068647    0.579355776    0.631284177
    0.785925865    0.550784290    0.745116293
    0.028783202    0.522212803    0.858948231
    0.828782976    0.722212911    0.631284177
    0.071640253    0.693641424    0.745116293
    0.314497530    0.665069997    0.858948231
    0.114497133    0.865070045    0.631284177
    0.357354462    0.836498559    0.745116293
    0.600211561    0.807927072    0.858948231
    0.400211573    0.007927179    0.631284237
    0.643068850    0.979355633    0.745116293
    0.885926068    0.950784206    0.858948231
    0.685925722    0.150784254    0.631284237
    0.928782940    0.122212887    0.745116293
    0.171640217    0.093641281    0.858948231
    0.778783143    0.272212923    0.574368298
    0.021640301    0.243641406    0.688200295
    0.264497578    0.215069979    0.802032351
    0.064497471    0.415070057    0.574368298
    0.307354629    0.386498541    0.688200295
    0.550211728    0.357927054    0.802032351
    0.350211620    0.557927191    0.574368298
    0.593068838    0.529355705    0.688200295
    0.835926056    0.500784218    0.802032351
    0.635925829    0.700784326    0.574368298
    0.878783107    0.672212839    0.688200295
    0.121640392    0.643641353    0.802032351
    0.921640158    0.843641460    0.574368298
    0.164497435    0.815070033    0.688200295
    0.407354534    0.786498487    0.802032351
    0.207354456    0.986498654    0.574368298
    0.450211674    0.957927227    0.688200355
    0.693068981    0.929355741    0.802032351
    0.493068725    0.129355788    0.574368298
    0.735925913    0.100784302    0.688200355
    0.978783250    0.072212934    0.802032351
    0.328783035    0.222212896    0.631284177
    0.571640313    0.193641424    0.745116293
    0.814497590    0.165069938    0.858948231
    0.614497185    0.365070045    0.631284177
    0.857354462    0.336498559    0.745116293
    0.100211740    0.307927102    0.858948231
    0.900211453    0.507927179    0.631284177
    0.143068850    0.479355723    0.745116293
    0.385926068    0.450784266    0.858948231
    0.185925663    0.650784314    0.631284177
    0.428783000    0.622212887    0.745116174
    0.671640217    0.593641341    0.858948231
    0.471640110    0.793641388    0.631284177
    0.714497447    0.765069902    0.745116293
    0.957354665    0.736498475    0.858948231
    0.757354438    0.936498582    0.631284177
    0.000211716    0.907927096    0.745116293
    0.243068993    0.879355729    0.858948231
    0.043068647    0.079355717    0.631284177
    0.285925925    0.050784349    0.745116293
    0.528783143    0.022212744    0.858948231
