Si+C
    1.000000000
   13.303179741    0.000000000    0.000000000
    6.651589394   11.520891190    0.000000000
    0.000000000    0.000000000   21.679418564
Si  C  
72     308
Direct
    0.000000000    0.318506181    0.289268762
    0.000000000    0.985172927    0.000000014
    0.000000000    0.651839554    0.144634396
    0.333333343    0.651839614    0.289268732
    0.333333343    0.318506300    0.000000009
    0.333333343    0.985172868    0.144634381
    0.666666687    0.985172927    0.289268732
    0.666666687    0.651839614    0.000000006
    0.666666687    0.318506241    0.144634381
    0.333333343    0.318506062    0.325427443
    0.333333343    0.985172868    0.036158618
    0.333333343    0.651839495    0.180793002
    1.000000000    0.985172808    0.325427443
    1.000000000    0.651839614    0.036158614
    1.000000000    0.318506271    0.180793002
    0.666666746    0.651839375    0.325427443
    0.666666746    0.318506211    0.036158625
    0.666666746    0.985172868    0.180793002
    0.500000000    0.318506241    0.289268732
    0.500000000    0.985172927    0.000000010
    0.500000000    0.651839554    0.144634381
    0.166666672    0.985172927    0.289268732
    0.166666672    0.651839674    0.000000001
    0.166666672    0.318506241    0.144634381
    0.833333373    0.651839614    0.289268732
    0.833333373    0.318506300    0.000000001
    0.833333373    0.985172927    0.144634381
    0.166666657    0.651839554    0.325427353
    0.166666657    0.318506300    0.036158573
    0.166666657    0.985172868    0.180792958
    0.833333433    0.318506181    0.325427383
    0.833333433    0.985172927    0.036158588
    0.833333433    0.651839495    0.180792972
    0.500000060    0.985172868    0.325427383
    0.500000060    0.651839614    0.036158592
    0.500000060    0.318506211    0.180793002
    0.166666672    0.485172927    0.289268732
    0.166666672    0.151839614    0.000000010
    0.166666672    0.818506241    0.144634381
    0.500000000    0.818506241    0.289268762
    0.500000000    0.485172987    0.000000016
    0.500000000    0.151839584    0.144634396
    0.833333373    0.151839629    0.289268732
    0.833333373    0.818506360    0.000000000
    0.833333373    0.485173017    0.144634351
    0.500000000    0.485172868    0.325427383
    0.500000000    0.151839614    0.036158588
    0.500000000    0.818506241    0.180792972
    0.166666672    0.151839569    0.325427353
    0.166666672    0.818506360    0.036158565
    0.166666672    0.485172927    0.180792958
    0.833333373    0.818506181    0.325427353
    0.833333373    0.485172927    0.036158565
    0.833333373    0.151839525    0.180792958
    0.000000000    0.818506241    0.289268732
    0.000000000    0.485172957    0.000000009
    0.000000000    0.151839554    0.144634381
    0.666666687    0.485172868    0.289268732
    0.666666687    0.151839599    0.000000009
    0.666666687    0.818506181    0.144634381
    0.333333313    0.151839495    0.289268732
    0.333333313    0.818506241    0.000000002
    0.333333313    0.485172868    0.144634351
    0.000000000    0.485172808    0.325427443
    0.000000000    0.151839659    0.036158610
    0.000000000    0.818506300    0.180793002
    0.333333343    0.818506122    0.325427443
    0.333333343    0.485172957    0.036158614
    0.333333343    0.151839599    0.180793002
    0.666666687    0.151839525    0.325427413
    0.666666687    0.818506300    0.036158610
    0.666666687    0.485172957    0.180792972
    0.545151353    0.340606242    0.900184691
    0.211818457    0.007273078    0.425242662
    0.878485084    0.673939645    0.520231068
    0.545151651    0.340606302    0.615219474
    0.211818099    0.007272720    0.710207939
    0.878484726    0.673939347    0.805196404
    0.830865622    0.483463317    0.900184751
    0.497532845    0.150130183    0.425242662
    0.164199352    0.816796780    0.520231068
    0.830865979    0.483463436    0.615219533
    0.497532368    0.150129884    0.710207939
    0.164198995    0.816796541    0.805196345
    0.688008547    0.912034631    0.900184751
    0.354675651    0.578701556    0.425242662
    0.021342278    0.245368212    0.520231068
    0.688008845    0.912034810    0.615219474
    0.354675174    0.578701258    0.710207939
    0.021341920    0.245367974    0.805196404
    0.116580009    0.626320362    0.900184751
    0.783247113    0.292987347    0.425242662
    0.449913681    0.959653914    0.520231068
    0.116580248    0.626320541    0.615219533
    0.783246636    0.292987019    0.710207939
    0.449913323    0.959653616    0.805196464
    0.973722696    0.054891787    0.900184751
    0.640389979    0.721558750    0.425242633
    0.307056516    0.388225406    0.520231009
    0.973723054    0.054891966    0.615219474
    0.640389681    0.721558571    0.710207880
    0.307056129    0.388225049    0.805196404
    0.402294159    0.769177437    0.900184751
    0.068961263    0.435844481    0.425242633
    0.735627949    0.102511086    0.520231009
    0.402294487    0.769177675    0.615219474
    0.068961143    0.435844332    0.710207880
    0.735627532    0.102510773    0.805196404
    0.259437025    0.197748929    0.900184751
    0.926104188    0.864415824    0.425242662
    0.592770755    0.531082451    0.520231068
    0.259437352    0.197749078    0.615219474
    0.926103771    0.864415526    0.710207939
    0.592770398    0.531082213    0.805196345
    0.307056546    0.388225377    0.448989749
    0.973723173    0.054891974    0.543978214
    0.640389740    0.721558571    0.638966620
    0.307056189    0.388225168    0.733955026
    0.973722696    0.054891668    0.828943491
    0.735628009    0.102511100    0.448989749
    0.402294576    0.769177675    0.543978214
    0.068961143    0.435844392    0.638966560
    0.735627651    0.102510892    0.733955026
    0.402294099    0.769177318    0.828943491
    0.592770815    0.531082451    0.448989749
    0.259437412    0.197749108    0.543978214
    0.926103950    0.864415705    0.638966560
    0.592770457    0.531082273    0.733955026
    0.259436965    0.197748870    0.828943431
    0.021342158    0.245368212    0.448989749
    0.688008845    0.912034810    0.543978214
    0.354675353    0.578701437    0.638966620
    0.021341801    0.245367974    0.733955026
    0.688008368    0.912034512    0.828943431
    0.449913681    0.959653974    0.448989749
    0.116580248    0.626320541    0.543978214
    0.783246875    0.292987198    0.638966620
    0.449913323    0.959653616    0.733955026
    0.116579890    0.626320243    0.828943431
    0.878485203    0.673939645    0.448989749
    0.545151770    0.340606272    0.543978214
    0.211818337    0.007272840    0.638966620
    0.878484845    0.673939347    0.733955026
    0.545151293    0.340605944    0.828943491
    0.164199471    0.816796780    0.448989719
    0.830865979    0.483463407    0.543978155
    0.497532606    0.150130033    0.638966560
    0.164199114    0.816796601    0.733955026
    0.830865622    0.483463138    0.828943431
    0.759437084    0.697748899    0.900184691
    0.426104218    0.364415914    0.425242662
    0.092770815    0.031082498    0.520231068
    0.759437382    0.697749078    0.615219474
    0.426103771    0.364415556    0.710207939
    0.092770457    0.031082295    0.805196345
    0.188008547    0.412034661    0.900184691
    0.854675710    0.078701630    0.425242633
    0.521342218    0.745368242    0.520231009
    0.188008785    0.412034899    0.615219474
    0.854675174    0.078701280    0.710207939
    0.521341860    0.745368004    0.805196345
    0.616579890    0.126320332    0.900184751
    0.283247113    0.792987287    0.425242633
    0.949913740    0.459653944    0.520231068
    0.616580248    0.126320496    0.615219474
    0.283246875    0.792987168    0.710207939
    0.949913383    0.459653646    0.805196404
    0.045151353    0.840606093    0.900184751
    0.711818516    0.507273018    0.425242633
    0.378485084    0.173939645    0.520231068
    0.045151591    0.840606213    0.615219474
    0.711818278    0.507272840    0.710207939
    0.378484726    0.173939377    0.805196345
    0.473722756    0.554891706    0.900184751
    0.140389919    0.221558779    0.425242603
    0.807056546    0.888225377    0.520231009
    0.473723054    0.554891944    0.615219474
    0.140389681    0.221558660    0.710207880
    0.807056069    0.888225079    0.805196404
    0.902294159    0.269177586    0.900184751
    0.568961382    0.935844481    0.425242662
    0.235627905    0.602511048    0.520231068
    0.902294517    0.269177705    0.615219474
    0.568960905    0.935844123    0.710207939
    0.235627577    0.602510810    0.805196345
    0.330865681    0.983463287    0.900184751
    0.997532845    0.650130153    0.425242692
    0.664199352    0.316796780    0.520231068
    0.330865979    0.983463407    0.615219533
    0.997532368    0.650129795    0.710207939
    0.664198995    0.316796571    0.805196404
    0.378485143    0.173939675    0.448989719
    0.045151711    0.840606213    0.543978214
    0.711818278    0.507272899    0.638966560
    0.378484786    0.173939496    0.733955026
    0.045151353    0.840605974    0.828943491
    0.235628009    0.602511048    0.448989719
    0.902294517    0.269177675    0.543978214
    0.568961203    0.935844302    0.638966560
    0.235627636    0.602510870    0.733955026
    0.902294278    0.269177407    0.828943372
    0.664199412    0.316796809    0.448989719
    0.330865949    0.983463347    0.543978155
    0.997532547    0.650130033    0.638966560
    0.664199054    0.316796631    0.733955026
    0.330865502    0.983463168    0.828943372
    0.092770696    0.031082489    0.448989719
    0.759437382    0.697749078    0.543978155
    0.426103950    0.364415735    0.638966560
    0.092770457    0.031082295    0.733955026
    0.759437025    0.697748780    0.828943372
    0.521342278    0.745368242    0.448989719
    0.188008785    0.412034810    0.543978155
    0.854675412    0.078701407    0.638966560
    0.521341980    0.745368004    0.733955026
    0.188008428    0.412034541    0.828943431
    0.949913800    0.459653974    0.448989719
    0.616580307    0.126320511    0.543978214
    0.283246875    0.792987108    0.638966620
    0.949913442    0.459653705    0.733955026
    0.616579950    0.126320213    0.828943491
    0.807056546    0.888225317    0.448989719
    0.473723084    0.554891884    0.543978214
    0.140389681    0.221558481    0.638966560
    0.807056189    0.888225079    0.733955026
    0.473722756    0.554891646    0.828943431
    0.688008547    0.412034661    0.900184810
    0.354675651    0.078701615    0.425242662
    0.021342158    0.745368242    0.520231068
    0.688008845    0.412034899    0.615219474
    0.354675233    0.078701340    0.710207939
    0.021341801    0.745367885    0.805196404
    0.545151472    0.840606093    0.900184751
    0.211818576    0.507273018    0.425242662
    0.878485084    0.173939645    0.520231068
    0.545151711    0.840606213    0.615219533
    0.211818099    0.507272661    0.710207939
    0.878484726    0.173939437    0.805196404
    0.973722816    0.554891825    0.900184751
    0.640389979    0.221558779    0.425242633
    0.307056546    0.888225377    0.520231068
    0.973723114    0.554891944    0.615219474
    0.640389502    0.221558422    0.710207939
    0.307056189    0.888225079    0.805196404
    0.830865622    0.983463168    0.900184810
    0.497532785    0.650130212    0.425242633
    0.164199352    0.316796869    0.520231009
    0.830865920    0.983463407    0.615219474
    0.497532547    0.650130093    0.710207880
    0.164198995    0.316796511    0.805196404
    0.259437084    0.697748899    0.900184751
    0.926104248    0.364415944    0.425242633
    0.592770815    0.031082544    0.520231009
    0.259437382    0.697749078    0.615219474
    0.926104009    0.364415795    0.710207880
    0.592770457    0.031082235    0.805196404
    0.116579890    0.126320392    0.900184691
    0.783247113    0.792987287    0.425242662
    0.449913651    0.459653944    0.520231068
    0.116580248    0.126320571    0.615219474
    0.783246636    0.792986989    0.710207939
    0.449913323    0.459653705    0.805196345
    0.402294219    0.269177467    0.900184751
    0.068961382    0.935844421    0.425242662
    0.735627949    0.602511048    0.520231068
    0.402294517    0.269177705    0.615219474
    0.068960905    0.935844123    0.710207939
    0.735627592    0.602510810    0.805196345
    0.592770815    0.031082517    0.448989749
    0.259437352    0.697749078    0.543978214
    0.926103950    0.364415735    0.638966620
    0.592770457    0.031082354    0.733955026
    0.259436965    0.697748780    0.828943491
    0.449913740    0.459653914    0.448989749
    0.116580248    0.126320511    0.543978214
    0.783246875    0.792987108    0.638966560
    0.449913383    0.459653705    0.733955026
    0.116579890    0.126320332    0.828943372
    0.878485143    0.173939645    0.448989749
    0.545151711    0.840606213    0.543978214
    0.211818218    0.507272899    0.638966560
    0.878484786    0.173939437    0.733955026
    0.545151353    0.840605974    0.828943431
    0.307056606    0.888225377    0.448989749
    0.973723114    0.554891944    0.543978214
    0.640389740    0.221558601    0.638966620
    0.307056248    0.888225198    0.733955026
    0.973722696    0.554891706    0.828943491
    0.735628009    0.602511048    0.448989719
    0.402294517    0.269177645    0.543978155
    0.068961024    0.935844243    0.638966560
    0.735627651    0.602510810    0.733954966
    0.402294159    0.269177407    0.828943431
    0.164199471    0.316796809    0.448989719
    0.830866098    0.983463347    0.543978214
    0.497532666    0.650129974    0.638966560
    0.164199114    0.316796571    0.733955026
    0.830865622    0.983463168    0.828943372
    0.021342278    0.745368242    0.448989749
    0.688008845    0.412034810    0.543978214
    0.354675442    0.078701437    0.638966620
    0.021341920    0.745368004    0.733955026
    0.688008487    0.412034601    0.828943431
    0.616580129    0.626320362    0.900184751
    0.283247083    0.292987347    0.425242633
    0.949913621    0.959653914    0.520231068
    0.616580248    0.626320541    0.615219474
    0.283246636    0.292987019    0.710207939
    0.949913263    0.959653735    0.805196345
    0.045151353    0.340606123    0.900184691
    0.711818516    0.007273078    0.425242633
    0.378485054    0.673939645    0.520231068
    0.045151591    0.340606302    0.615219474
    0.711818039    0.007272720    0.710207939
    0.378484666    0.673939466    0.805196345
    0.902294159    0.769177556    0.900184751
    0.568961382    0.435844481    0.425242662
    0.235627934    0.102511123    0.520231009
    0.902294517    0.769177675    0.615219474
    0.568961084    0.435844392    0.710207880
    0.235627517    0.102510832    0.805196404
    0.330865562    0.483463198    0.900184810
    0.997532725    0.150130153    0.425242633
    0.664199352    0.816796780    0.520231009
    0.330865860    0.483463377    0.615219474
    0.997532487    0.150130063    0.710207880
    0.664198935    0.816796541    0.805196345
    0.759436965    0.197748929    0.900184751
    0.426104248    0.864415824    0.425242662
    0.092770815    0.531082451    0.520231068
    0.759437442    0.197749078    0.615219474
    0.426103771    0.864415526    0.710207939
    0.092770338    0.531082153    0.805196404
    0.188008547    0.912034631    0.900184691
    0.854675710    0.578701615    0.425242633
    0.521342218    0.245368212    0.520231009
    0.188008785    0.912034810    0.615219474
    0.854675233    0.578701258    0.710207939
    0.521341860    0.245367974    0.805196345
    0.473722756    0.054891787    0.900184751
    0.140389919    0.721558690    0.425242662
    0.807056546    0.388225317    0.520231068
    0.473723054    0.054891936    0.615219474
    0.140389442    0.721558332    0.710207939
    0.807056189    0.388225108    0.805196404
    0.235628024    0.102511175    0.448989749
    0.902294636    0.769177794    0.543978214
    0.568961143    0.435844392    0.638966620
    0.235627636    0.102510951    0.733955026
    0.902294159    0.769177437    0.828943491
    0.521342337    0.245368302    0.448989749
    0.188008904    0.912034869    0.543978214
    0.854675412    0.578701496    0.638966620
    0.521341920    0.245368034    0.733955026
    0.188008428    0.912034631    0.828943491
    0.378485203    0.673939645    0.448989749
    0.045151711    0.340606332    0.543978214
    0.711818337    0.007272959    0.638966560
    0.378484786    0.673939466    0.733955026
    0.045151353    0.340606004    0.828943491
    0.807056606    0.388225436    0.448989749
    0.473723143    0.054892045    0.543978214
    0.140389681    0.721558630    0.638966620
    0.807056189    0.388225168    0.733955026
    0.473722696    0.054891728    0.828943491
    0.664199412    0.816796780    0.448989749
    0.330865949    0.483463436    0.543978155
    0.997532547    0.150130033    0.638966560
    0.664198995    0.816796541    0.733955026
    0.330865502    0.483463079    0.828943431
    0.092770815    0.531082451    0.448989719
    0.759437382    0.197749108    0.543978214
    0.426103950    0.864415705    0.638966620
    0.092770338    0.531082213    0.733955026
    0.759436905    0.197748810    0.828943431
    0.949913740    0.959654033    0.448989779
    0.616580307    0.626320660    0.543978214
    0.283246875    0.292987317    0.638966620
    0.949913383    0.959653735    0.733955026
    0.616579890    0.626320362    0.828943491
