Ge
 1.0000000000000000
    17.8915345457006545    0.0000000000000000    0.0000000000000000
     1.7891534545700658    7.7987391029576045    0.0000000000000000
     0.0000000000000000    0.0000000000000000   60.4433163407126202
 Ge 
 128
Direct
  0.0000000000000000  0.0000000000000000  0.3308885284728936
  0.7368421052631579  0.1315789473684211  0.3469943829040465
  0.0000000000000000  0.4999999999999999  0.3308885284728936
  0.7368421052631582  0.6315789473684211  0.3469943829040465
  0.5000000000000000  0.0000000000000000  0.3308885284728936
  0.2368421052631580  0.1315789473684212  0.3469943829040465
  0.5000000000000000  0.4999999999999999  0.3308885284728936
  0.2368421052631579  0.6315789473684210  0.3469943829040465
  0.3157894736842106  0.8421052631578947  0.3523630010477642
  0.0526315789473684  0.9736842105263157  0.3684688554789172
  0.3157894736842106  0.3421052631578946  0.3523630010477642
  0.0526315789473686  0.4736842105263158  0.3684688554789172
  0.8157894736842104  0.8421052631578947  0.3523630010477642
  0.5526315789473685  0.9736842105263158  0.3684688554789172
  0.8157894736842105  0.3421052631578946  0.3523630010477642
  0.5526315789473685  0.4736842105263158  0.3684688554789172
  0.6315789473684211  0.6842105263157894  0.3738374736226349
  0.3684210526315787  0.8157894736842106  0.3899433280537878
  0.6315789473684211  0.1842105263157895  0.3738374736226349
  0.3684210526315791  0.3157894736842106  0.3899433280537878
  0.1315789473684210  0.6842105263157894  0.3738374736226349
  0.8684210526315790  0.8157894736842106  0.3899433280537878
  0.1315789473684212  0.1842105263157894  0.3738374736226349
  0.8684210526315789  0.3157894736842106  0.3899433280537878
  0.9473684210526315  0.5263157894736843  0.3953119461975055
  0.6842105263157893  0.6578947368421053  0.4114178006286586
  0.9473684210526315  0.0263157894736843  0.3953119461975055
  0.6842105263157893  0.1578947368421054  0.4114178006286585
  0.4473684210526314  0.5263157894736843  0.3953119461975055
  0.1842105263157894  0.6578947368421054  0.4114178006286585
  0.4473684210526316  0.0263157894736843  0.3953119461975055
  0.1842105263157891  0.1578947368421053  0.4114178006286585
  0.2631578947368423  0.3684210526315790  0.4167864187723762
  0.0000000000000000  0.4999999999999999  0.4328922732035292
  0.2631578947368420  0.8684210526315789  0.4167864187723762
  0.0000000000000000  0.0000000000000002  0.4328922732035292
  0.7631578947368419  0.3684210526315790  0.4167864187723762
  0.5000000000000000  0.5000000000000002  0.4328922732035292
  0.7631578947368420  0.8684210526315789  0.4167864187723762
  0.5000000000000000  0.0000000000000001  0.4328922732035292
  0.5789473684210529  0.2105263157894736  0.4382608913472469
  0.3157894736842106  0.3421052631578948  0.4543667457783999
  0.5789473684210529  0.7105263157894736  0.4382608913472469
  0.3157894736842110  0.8421052631578947  0.4543667457783999
  0.0789473684210531  0.2105263157894738  0.4382608913472469
  0.8157894736842106  0.3421052631578949  0.4543667457783999
  0.0789473684210526  0.7105263157894737  0.4382608913472469
  0.8157894736842106  0.8421052631578949  0.4543667457783999
  0.8947368421052631  0.0526315789473686  0.4597353639221176
  0.6315789473684209  0.1842105263157897  0.4758412183532705
  0.8947368421052631  0.5526315789473685  0.4597353639221175
  0.6315789473684217  0.6842105263157896  0.4758412183532705
  0.3947368421052628  0.0526315789473685  0.4597353639221176
  0.1315789473684204  0.1842105263157896  0.4758412183532705
  0.3947368421052623  0.5526315789473684  0.4597353639221176
  0.1315789473684208  0.6842105263157896  0.4758412183532705
  0.2105263157894735  0.8947368421052633  0.4812098364969882
  0.9473684210526313  0.0263157894736843  0.4973156909281412
  0.2105263157894739  0.3947368421052631  0.4812098364969882
  0.9473684210526313  0.5263157894736844  0.4973156909281412
  0.7105263157894735  0.8947368421052633  0.4812098364969882
  0.4473684210526314  0.0263157894736844  0.4973156909281412
  0.7105263157894735  0.3947368421052631  0.4812098364969882
  0.4473684210526314  0.5263157894736843  0.4973156909281412
  0.5263157894736845  0.7368421052631580  0.5026843090718589
  0.2631578947368420  0.8684210526315789  0.5187901635030119
  0.5263157894736845  0.2368421052631579  0.5026843090718589
  0.2631578947368424  0.3684210526315789  0.5187901635030119
  0.0263157894736845  0.7368421052631580  0.5026843090718589
  0.7631578947368416  0.8684210526315791  0.5187901635030119
  0.0263157894736841  0.2368421052631579  0.5026843090718589
  0.7631578947368416  0.3684210526315791  0.5187901635030118
  0.8421052631578950  0.5789473684210525  0.5241587816467295
  0.5789473684210530  0.7105263157894737  0.5402646360778824
  0.8421052631578951  0.0789473684210527  0.5241587816467295
  0.5789473684210530  0.2105263157894739  0.5402646360778824
  0.3421052631578946  0.5789473684210525  0.5241587816467295
  0.0789473684210522  0.7105263157894739  0.5402646360778824
  0.3421052631578942  0.0789473684210527  0.5241587816467295
  0.0789473684210526  0.2105263157894739  0.5402646360778824
  0.1578947368421057  0.4210526315789471  0.5456332542216003
  0.8947368421052641  0.5526315789473683  0.5617391086527532
  0.1578947368421058  0.9210526315789471  0.5456332542216003
  0.8947368421052641  0.0526315789473684  0.5617391086527532
  0.6578947368421058  0.4210526315789475  0.5456332542216003
  0.3947368421052633  0.5526315789473687  0.5617391086527532
  0.6578947368421048  0.9210526315789473  0.5456332542216003
  0.3947368421052632  0.0526315789473686  0.5617391086527532
  0.4736842105263159  0.2631578947368423  0.5671077267964708
  0.2105263157894743  0.3947368421052635  0.5832135812276238
  0.4736842105263159  0.7631578947368421  0.5671077267964708
  0.2105263157894735  0.8947368421052633  0.5832135812276238
  0.9736842105263155  0.2631578947368423  0.5671077267964708
  0.7105263157894738  0.3947368421052633  0.5832135812276239
  0.9736842105263155  0.7631578947368421  0.5671077267964707
  0.7105263157894738  0.8947368421052629  0.5832135812276238
  0.7894736842105261  0.1052631578947372  0.5885821993713415
  0.5263157894736848  0.2368421052631582  0.6046880538024945
  0.7894736842105261  0.6052631578947372  0.5885821993713415
  0.5263157894736840  0.7368421052631584  0.6046880538024945
  0.2894736842105257  0.1052631578947369  0.5885821993713415
  0.0263157894736841  0.2368421052631582  0.6046880538024945
  0.2894736842105265  0.6052631578947369  0.5885821993713414
  0.0263157894736841  0.7368421052631580  0.6046880538024945
  0.1052631578947372  0.9473684210526317  0.6100566719462122
  0.8421052631578956  0.0789473684210524  0.6261625263773652
  0.1052631578947372  0.4473684210526316  0.6100566719462122
  0.8421052631578955  0.5789473684210525  0.6261625263773652
  0.6052631578947363  0.9473684210526317  0.6100566719462122
  0.3421052631578956  0.0789473684210527  0.6261625263773652
  0.6052631578947372  0.4473684210526316  0.6100566719462122
  0.3421052631578965  0.5789473684210523  0.6261625263773652
  0.4210526315789469  0.7894736842105265  0.6315311445210828
  0.1578947368421053  0.9210526315789478  0.6476369989522357
  0.4210526315789468  0.2894736842105263  0.6315311445210828
  0.1578947368421062  0.4210526315789475  0.6476369989522358
  0.9210526315789468  0.7894736842105265  0.6315311445210828
  0.6578947368421053  0.9210526315789473  0.6476369989522358
  0.9210526315789478  0.2894736842105263  0.6315311445210828
  0.6578947368421062  0.4210526315789471  0.6476369989522359
  0.7368421052631583  0.6315789473684212  0.6530056170959535
  0.4736842105263159  0.7631578947368424  0.6691114715271064
  0.7368421052631574  0.1315789473684212  0.6530056170959535
  0.4736842105263168  0.2631578947368423  0.6691114715271065
  0.2368421052631584  0.6315789473684212  0.6530056170959535
  0.9736842105263158  0.7631578947368419  0.6691114715271064
  0.2368421052631584  0.1315789473684212  0.6530056170959535
  0.9736842105263168  0.2631578947368420  0.6691114715271065
