fcc Si+fcc Ge
    1.000000000
   17.329281578    0.000000000    0.000000000
    0.000000000   17.329281578    0.000000000
    0.000000000    0.000000000   24.575000000
Si    Ge   
220     108
Direct
    0.975000000    0.825000000    0.055747711
    0.925000000    0.475000000    0.167243133
    0.875000000    0.125000000    0.278738555
    0.825000000    0.775000000    0.390233978
    0.775000000    0.425000000    0.501729400
    0.075000000    0.525000000    0.055747711
    0.025000000    0.175000000    0.167243133
    0.975000000    0.825000000    0.278738555
    0.925000000    0.475000000    0.390233978
    0.875000000    0.125000000    0.501729400
    0.175000000    0.225000000    0.055747711
    0.125000000    0.875000000    0.167243133
    0.075000000    0.525000000    0.278738555
    0.025000000    0.175000000    0.390233978
    0.975000000    0.825000000    0.501729400
    0.275000000    0.925000000    0.055747711
    0.225000000    0.575000000    0.167243133
    0.175000000    0.225000000    0.278738555
    0.125000000    0.875000000    0.390233978
    0.075000000    0.525000000    0.501729400
    0.375000000    0.625000000    0.055747711
    0.325000000    0.275000000    0.167243133
    0.275000000    0.925000000    0.278738555
    0.225000000    0.575000000    0.390233978
    0.175000000    0.225000000    0.501729400
    0.475000000    0.325000000    0.055747711
    0.425000000    0.975000000    0.167243133
    0.375000000    0.625000000    0.278738555
    0.325000000    0.275000000    0.390233978
    0.275000000    0.925000000    0.501729400
    0.575000000    0.025000000    0.055747711
    0.525000000    0.675000000    0.167243133
    0.475000000    0.325000000    0.278738555
    0.425000000    0.975000000    0.390233978
    0.375000000    0.625000000    0.501729400
    0.675000000    0.725000000    0.055747711
    0.625000000    0.375000000    0.167243133
    0.575000000    0.025000000    0.278738555
    0.525000000    0.675000000    0.390233978
    0.475000000    0.325000000    0.501729400
    0.775000000    0.425000000    0.055747711
    0.725000000    0.075000000    0.167243133
    0.675000000    0.725000000    0.278738555
    0.625000000    0.375000000    0.390233978
    0.575000000    0.025000000    0.501729400
    0.875000000    0.125000000    0.055747711
    0.825000000    0.775000000    0.167243133
    0.775000000    0.425000000    0.278738555
    0.725000000    0.075000000    0.390233978
    0.675000000    0.725000000    0.501729400
    0.975000000    0.325000000    0.055747711
    0.925000000    0.975000000    0.167243133
    0.875000000    0.625000000    0.278738555
    0.825000000    0.275000000    0.390233978
    0.775000000    0.925000000    0.501729400
    0.075000000    0.025000000    0.055747711
    0.025000000    0.675000000    0.167243133
    0.975000000    0.325000000    0.278738555
    0.925000000    0.975000000    0.390233978
    0.875000000    0.625000000    0.501729400
    0.175000000    0.725000000    0.055747711
    0.125000000    0.375000000    0.167243133
    0.075000000    0.025000000    0.278738555
    0.025000000    0.675000000    0.390233978
    0.975000000    0.325000000    0.501729400
    0.275000000    0.425000000    0.055747711
    0.225000000    0.075000000    0.167243133
    0.175000000    0.725000000    0.278738555
    0.125000000    0.375000000    0.390233978
    0.075000000    0.025000000    0.501729400
    0.375000000    0.125000000    0.055747711
    0.325000000    0.775000000    0.167243133
    0.275000000    0.425000000    0.278738555
    0.225000000    0.075000000    0.390233978
    0.175000000    0.725000000    0.501729400
    0.475000000    0.825000000    0.055747711
    0.425000000    0.475000000    0.167243133
    0.375000000    0.125000000    0.278738555
    0.325000000    0.775000000    0.390233978
    0.275000000    0.425000000    0.501729400
    0.575000000    0.525000000    0.055747711
    0.525000000    0.175000000    0.167243133
    0.475000000    0.825000000    0.278738555
    0.425000000    0.475000000    0.390233978
    0.375000000    0.125000000    0.501729400
    0.675000000    0.225000000    0.055747711
    0.625000000    0.875000000    0.167243133
    0.575000000    0.525000000    0.278738555
    0.525000000    0.175000000    0.390233978
    0.475000000    0.825000000    0.501729400
    0.775000000    0.925000000    0.055747711
    0.725000000    0.575000000    0.167243133
    0.675000000    0.225000000    0.278738555
    0.625000000    0.875000000    0.390233978
    0.575000000    0.525000000    0.501729400
    0.875000000    0.625000000    0.055747711
    0.825000000    0.275000000    0.167243133
    0.775000000    0.925000000    0.278738555
    0.725000000    0.575000000    0.390233978
    0.675000000    0.225000000    0.501729400
    0.025000000    0.425000000    0.000000000
    0.975000000    0.075000000    0.111495422
    0.925000000    0.725000000    0.222990844
    0.875000000    0.375000000    0.334486267
    0.825000000    0.025000000    0.445981689
    0.775000000    0.675000000    0.557477111
    0.125000000    0.125000000    0.000000000
    0.075000000    0.775000000    0.111495422
    0.025000000    0.425000000    0.222990844
    0.975000000    0.075000000    0.334486267
    0.925000000    0.725000000    0.445981689
    0.875000000    0.375000000    0.557477111
    0.225000000    0.825000000    0.000000000
    0.175000000    0.475000000    0.111495422
    0.125000000    0.125000000    0.222990844
    0.075000000    0.775000000    0.334486267
    0.025000000    0.425000000    0.445981689
    0.975000000    0.075000000    0.557477111
    0.325000000    0.525000000    0.000000000
    0.275000000    0.175000000    0.111495422
    0.225000000    0.825000000    0.222990844
    0.175000000    0.475000000    0.334486267
    0.125000000    0.125000000    0.445981689
    0.075000000    0.775000000    0.557477111
    0.425000000    0.225000000    0.000000000
    0.375000000    0.875000000    0.111495422
    0.325000000    0.525000000    0.222990844
    0.275000000    0.175000000    0.334486267
    0.225000000    0.825000000    0.445981689
    0.175000000    0.475000000    0.557477111
    0.525000000    0.925000000    0.000000000
    0.475000000    0.575000000    0.111495422
    0.425000000    0.225000000    0.222990844
    0.375000000    0.875000000    0.334486267
    0.325000000    0.525000000    0.445981689
    0.275000000    0.175000000    0.557477111
    0.625000000    0.625000000    0.000000000
    0.575000000    0.275000000    0.111495422
    0.525000000    0.925000000    0.222990844
    0.475000000    0.575000000    0.334486267
    0.425000000    0.225000000    0.445981689
    0.375000000    0.875000000    0.557477111
    0.725000000    0.325000000    0.000000000
    0.675000000    0.975000000    0.111495422
    0.625000000    0.625000000    0.222990844
    0.575000000    0.275000000    0.334486267
    0.525000000    0.925000000    0.445981689
    0.475000000    0.575000000    0.557477111
    0.825000000    0.025000000    0.000000000
    0.775000000    0.675000000    0.111495422
    0.725000000    0.325000000    0.222990844
    0.675000000    0.975000000    0.334486267
    0.625000000    0.625000000    0.445981689
    0.575000000    0.275000000    0.557477111
    0.925000000    0.725000000    0.000000000
    0.875000000    0.375000000    0.111495422
    0.825000000    0.025000000    0.222990844
    0.775000000    0.675000000    0.334486267
    0.725000000    0.325000000    0.445981689
    0.675000000    0.975000000    0.557477111
    0.025000000    0.925000000    0.000000000
    0.975000000    0.575000000    0.111495422
    0.925000000    0.225000000    0.222990844
    0.875000000    0.875000000    0.334486267
    0.825000000    0.525000000    0.445981689
    0.775000000    0.175000000    0.557477111
    0.125000000    0.625000000    0.000000000
    0.075000000    0.275000000    0.111495422
    0.025000000    0.925000000    0.222990844
    0.975000000    0.575000000    0.334486267
    0.925000000    0.225000000    0.445981689
    0.875000000    0.875000000    0.557477111
    0.225000000    0.325000000    0.000000000
    0.175000000    0.975000000    0.111495422
    0.125000000    0.625000000    0.222990844
    0.075000000    0.275000000    0.334486267
    0.025000000    0.925000000    0.445981689
    0.975000000    0.575000000    0.557477111
    0.325000000    0.025000000    0.000000000
    0.275000000    0.675000000    0.111495422
    0.225000000    0.325000000    0.222990844
    0.175000000    0.975000000    0.334486267
    0.125000000    0.625000000    0.445981689
    0.075000000    0.275000000    0.557477111
    0.425000000    0.725000000    0.000000000
    0.375000000    0.375000000    0.111495422
    0.325000000    0.025000000    0.222990844
    0.275000000    0.675000000    0.334486267
    0.225000000    0.325000000    0.445981689
    0.175000000    0.975000000    0.557477111
    0.525000000    0.425000000    0.000000000
    0.475000000    0.075000000    0.111495422
    0.425000000    0.725000000    0.222990844
    0.375000000    0.375000000    0.334486267
    0.325000000    0.025000000    0.445981689
    0.275000000    0.675000000    0.557477111
    0.625000000    0.125000000    0.000000000
    0.575000000    0.775000000    0.111495422
    0.525000000    0.425000000    0.222990844
    0.475000000    0.075000000    0.334486267
    0.425000000    0.725000000    0.445981689
    0.375000000    0.375000000    0.557477111
    0.725000000    0.825000000    0.000000000
    0.675000000    0.475000000    0.111495422
    0.625000000    0.125000000    0.222990844
    0.575000000    0.775000000    0.334486267
    0.525000000    0.425000000    0.445981689
    0.475000000    0.075000000    0.557477111
    0.825000000    0.525000000    0.000000000
    0.775000000    0.175000000    0.111495422
    0.725000000    0.825000000    0.222990844
    0.675000000    0.475000000    0.334486267
    0.625000000    0.125000000    0.445981689
    0.575000000    0.775000000    0.557477111
    0.925000000    0.225000000    0.000000000
    0.875000000    0.875000000    0.111495422
    0.825000000    0.525000000    0.222990844
    0.775000000    0.175000000    0.334486267
    0.725000000    0.825000000    0.445981689
    0.675000000    0.475000000    0.557477111
    0.108527132    0.174418605    0.634791455
    0.941860465    0.174418605    0.749949135
    0.775193798    0.174418605    0.865106816
    0.108527132    0.507751938    0.634791455
    0.941860465    0.507751938    0.749949135
    0.775193798    0.507751938    0.865106816
    0.108527132    0.841085271    0.634791455
    0.941860465    0.841085271    0.749949135
    0.775193798    0.841085271    0.865106816
    0.775193798    0.174418605    0.634791455
    0.608527132    0.174418605    0.749949135
    0.441860465    0.174418605    0.865106816
    0.775193798    0.507751938    0.634791455
    0.608527132    0.507751938    0.749949135
    0.441860465    0.507751938    0.865106816
    0.775193798    0.841085271    0.634791455
    0.608527132    0.841085271    0.749949135
    0.441860465    0.841085271    0.865106816
    0.441860465    0.174418605    0.634791455
    0.275193798    0.174418605    0.749949135
    0.108527132    0.174418605    0.865106816
    0.441860465    0.507751938    0.634791455
    0.275193798    0.507751938    0.749949135
    0.108527132    0.507751938    0.865106816
    0.441860465    0.841085271    0.634791455
    0.275193798    0.841085271    0.749949135
    0.108527132    0.841085271    0.865106816
    0.275193798    0.341085271    0.634791455
    0.108527132    0.341085271    0.749949135
    0.941860465    0.341085271    0.865106816
    0.275193798    0.674418605    0.634791455
    0.108527132    0.674418605    0.749949135
    0.941860465    0.674418605    0.865106816
    0.275193798    0.007751938    0.634791455
    0.108527132    0.007751938    0.749949135
    0.941860465    0.007751938    0.865106816
    0.941860465    0.341085271    0.634791455
    0.775193798    0.341085271    0.749949135
    0.608527132    0.341085271    0.865106816
    0.941860465    0.674418605    0.634791455
    0.775193798    0.674418605    0.749949135
    0.608527132    0.674418605    0.865106816
    0.941860465    0.007751938    0.634791455
    0.775193798    0.007751938    0.749949135
    0.608527132    0.007751938    0.865106816
    0.608527132    0.341085271    0.634791455
    0.441860465    0.341085271    0.749949135
    0.275193798    0.341085271    0.865106816
    0.608527132    0.674418605    0.634791455
    0.441860465    0.674418605    0.749949135
    0.275193798    0.674418605    0.865106816
    0.608527132    0.007751938    0.634791455
    0.441860465    0.007751938    0.749949135
    0.275193798    0.007751938    0.865106816
    0.358527132    0.257751938    0.692370295
    0.191860465    0.257751938    0.807527976
    0.025193798    0.257751938    0.922685656
    0.358527132    0.591085271    0.692370295
    0.191860465    0.591085271    0.807527976
    0.025193798    0.591085271    0.922685656
    0.358527132    0.924418605    0.692370295
    0.191860465    0.924418605    0.807527976
    0.025193798    0.924418605    0.922685656
    0.025193798    0.257751938    0.692370295
    0.858527132    0.257751938    0.807527976
    0.691860465    0.257751938    0.922685656
    0.025193798    0.591085271    0.692370295
    0.858527132    0.591085271    0.807527976
    0.691860465    0.591085271    0.922685656
    0.025193798    0.924418605    0.692370295
    0.858527132    0.924418605    0.807527976
    0.691860465    0.924418605    0.922685656
    0.691860465    0.257751938    0.692370295
    0.525193798    0.257751938    0.807527976
    0.358527132    0.257751938    0.922685656
    0.691860465    0.591085271    0.692370295
    0.525193798    0.591085271    0.807527976
    0.358527132    0.591085271    0.922685656
    0.691860465    0.924418605    0.692370295
    0.525193798    0.924418605    0.807527976
    0.358527132    0.924418605    0.922685656
    0.191860465    0.424418605    0.692370295
    0.025193798    0.424418605    0.807527976
    0.858527132    0.424418605    0.922685656
    0.191860465    0.757751938    0.692370295
    0.025193798    0.757751938    0.807527976
    0.858527132    0.757751938    0.922685656
    0.191860465    0.091085271    0.692370295
    0.025193798    0.091085271    0.807527976
    0.858527132    0.091085271    0.922685656
    0.858527132    0.424418605    0.692370295
    0.691860465    0.424418605    0.807527976
    0.525193798    0.424418605    0.922685656
    0.858527132    0.757751938    0.692370295
    0.691860465    0.757751938    0.807527976
    0.525193798    0.757751938    0.922685656
    0.858527132    0.091085271    0.692370295
    0.691860465    0.091085271    0.807527976
    0.525193798    0.091085271    0.922685656
    0.525193798    0.424418605    0.692370295
    0.358527132    0.424418605    0.807527976
    0.191860465    0.424418605    0.922685656
    0.525193798    0.757751938    0.692370295
    0.358527132    0.757751938    0.807527976
    0.191860465    0.757751938    0.922685656
    0.525193798    0.091085271    0.692370295
    0.358527132    0.091085271    0.807527976
    0.191860465    0.091085271    0.922685656
