Sn+Si
    1.000000000
   19.467599869    0.000000000    0.000000000
    0.000000000   19.467599869    0.000000000
    0.000000000    0.000000000   19.300252914
Sn  Si 
108     156
Direct
    0.995035112    0.666666687    0.000000000
    0.828368425    0.666666687    0.168111786
    0.661701739    0.666666687    0.336223543
    0.995035112    0.333333343    0.000000000
    0.828368425    0.333333343    0.168111786
    0.661701739    0.333333343    0.336223543
    0.995035112    0.000000000    0.000000000
    0.828368425    0.000000000    0.168111786
    0.661701739    0.000000000    0.336223543
    0.328368455    0.666666687    0.000000000
    0.161701739    0.666666687    0.168111786
    0.995035112    0.666666687    0.336223543
    0.328368455    0.333333343    0.000000000
    0.161701739    0.333333343    0.168111786
    0.995035112    0.333333343    0.336223543
    0.328368455    0.000000000    0.000000000
    0.161701739    0.000000000    0.168111786
    0.995035112    0.000000000    0.336223543
    0.661701798    0.666666687    0.000000000
    0.495035112    0.666666687    0.168111786
    0.328368455    0.666666687    0.336223543
    0.661701798    0.333333343    0.000000000
    0.495035112    0.333333343    0.168111786
    0.328368455    0.333333343    0.336223543
    0.661701798    0.000000000    0.000000000
    0.495035112    0.000000000    0.168111786
    0.328368455    0.000000000    0.336223543
    0.078368433    0.916666746    0.084055893
    0.911701798    0.916666746    0.252167612
    0.745035052    0.916666746    0.420279443
    0.078368433    0.583333433    0.084055893
    0.911701798    0.583333433    0.252167612
    0.745035052    0.583333433    0.420279443
    0.078368433    0.250000000    0.084055893
    0.911701798    0.250000000    0.252167612
    0.745035052    0.250000000    0.420279443
    0.411701769    0.916666746    0.084055893
    0.245035097    0.916666746    0.252167612
    0.078368381    0.916666746    0.420279443
    0.411701769    0.583333433    0.084055893
    0.245035097    0.583333433    0.252167612
    0.078368381    0.583333433    0.420279443
    0.411701769    0.250000000    0.084055893
    0.245035097    0.250000000    0.252167612
    0.078368381    0.250000000    0.420279443
    0.745035172    0.916666746    0.084055893
    0.578368545    0.916666746    0.252167612
    0.411701798    0.916666746    0.420279443
    0.745035172    0.583333433    0.084055893
    0.578368545    0.583333433    0.252167612
    0.411701798    0.583333433    0.420279443
    0.745035172    0.250000000    0.084055893
    0.578368545    0.250000000    0.252167612
    0.411701798    0.250000000    0.420279443
    0.161701769    0.833333313    0.000000000
    0.995035052    0.833333313    0.168111786
    0.828368425    0.833333313    0.336223543
    0.161701769    0.500000000    0.000000000
    0.995035052    0.500000000    0.168111786
    0.828368425    0.500000000    0.336223543
    0.161701769    0.166666672    0.000000000
    0.995035052    0.166666672    0.168111786
    0.828368425    0.166666672    0.336223543
    0.495035112    0.833333313    0.000000000
    0.328368425    0.833333313    0.168111786
    0.161701754    0.833333313    0.336223543
    0.495035112    0.500000000    0.000000000
    0.328368425    0.500000000    0.168111786
    0.161701754    0.500000000    0.336223543
    0.495035112    0.166666672    0.000000000
    0.328368425    0.166666672    0.168111786
    0.161701754    0.166666672    0.336223543
    0.828368545    0.833333313    0.000000000
    0.661701858    0.833333313    0.168111786
    0.495035201    0.833333313    0.336223543
    0.828368545    0.500000000    0.000000000
    0.661701858    0.500000000    0.168111786
    0.495035201    0.500000000    0.336223543
    0.828368545    0.166666672    0.000000000
    0.661701858    0.166666672    0.168111786
    0.495035201    0.166666672    0.336223543
    0.245035097    0.750000060    0.084055893
    0.078368433    0.750000060    0.252167612
    0.911701739    0.750000060    0.420279443
    0.245035097    0.416666716    0.084055893
    0.078368433    0.416666716    0.252167612
    0.911701739    0.416666716    0.420279443
    0.245035097    0.083333343    0.084055893
    0.078368433    0.083333343    0.252167612
    0.911701739    0.083333343    0.420279443
    0.578368485    0.750000060    0.084055893
    0.411701858    0.750000060    0.252167612
    0.245035127    0.750000060    0.420279443
    0.578368485    0.416666716    0.084055893
    0.411701858    0.416666716    0.252167612
    0.245035127    0.416666716    0.420279443
    0.578368485    0.083333343    0.084055893
    0.411701858    0.083333343    0.252167612
    0.245035127    0.083333343    0.420279443
    0.911701739    0.750000060    0.084055893
    0.745035052    0.750000060    0.252167612
    0.578368366    0.750000060    0.420279443
    0.911701739    0.416666716    0.084055893
    0.745035052    0.416666716    0.252167612
    0.578368366    0.416666716    0.420279443
    0.911701739    0.083333343    0.084055893
    0.745035052    0.083333343    0.252167612
    0.578368366    0.083333343    0.420279443
    0.774243593    0.213756800    0.534267545
    0.658858895    0.136833668    0.674965203
    0.543474197    0.059910536    0.815662920
    0.851166666    0.598372281    0.534267545
    0.735781908    0.521449149    0.674965203
    0.620397329    0.444526017    0.815662920
    0.005012751    0.367603004    0.534267545
    0.889628172    0.290679902    0.674965203
    0.774243474    0.213756800    0.815662920
    0.928089738    0.982987702    0.534267545
    0.812705040    0.906064570    0.674965203
    0.697320461    0.829141438    0.815662920
    0.081935883    0.752218425    0.534267545
    0.966551244    0.675295293    0.674965203
    0.851166606    0.598372161    0.815662920
    0.235782146    0.521449208    0.534267545
    0.120397329    0.444526047    0.674965203
    0.005012751    0.367602915    0.815662920
    0.389628172    0.290679932    0.534267545
    0.274243593    0.213756800    0.674965203
    0.158858895    0.136833668    0.815662920
    0.158859015    0.136833906    0.534267545
    0.043474436    0.059910774    0.674965203
    0.928089738    0.982987583    0.815662920
    0.312705159    0.906064570    0.534267545
    0.197320461    0.829141438    0.674965203
    0.081935763    0.752218306    0.815662920
    0.466551304    0.675295353    0.534267545
    0.351166606    0.598372221    0.674965203
    0.235781908    0.521449089    0.815662920
    0.620397449    0.444526017    0.534267545
    0.505012751    0.367602885    0.674965203
    0.389628172    0.290679753    0.815662920
    0.543474436    0.059910655    0.534267545
    0.428089857    0.982987583    0.674965203
    0.312705040    0.906064451    0.815662920
    0.697320580    0.829141498    0.534267545
    0.581935883    0.752218366    0.674965203
    0.466551304    0.675295234    0.815662920
    0.793474376    0.809910715    0.604616404
    0.678089738    0.732987583    0.745314062
    0.562705040    0.656064451    0.886011779
    0.947320461    0.579141498    0.604616404
    0.831935823    0.502218366    0.745314062
    0.716551065    0.425295234    0.886011779
    0.101166725    0.348372251    0.604616404
    0.985781968    0.271449119    0.745314062
    0.870397329    0.194525957    0.886011779
    0.870397449    0.194526076    0.604616404
    0.755012751    0.117602944    0.745314062
    0.639628053    0.040679812    0.886011779
    0.024243593    0.963756919    0.604616404
    0.908858955    0.886833787    0.745314062
    0.793474257    0.809910655    0.886011779
    0.178089857    0.732987702    0.604616404
    0.062705159    0.656064510    0.745314062
    0.947320461    0.579141378    0.886011779
    0.331935883    0.502218366    0.604616404
    0.216551304    0.425295234    0.745314062
    0.101166606    0.348372102    0.886011779
    0.485782146    0.271449149    0.604616404
    0.370397329    0.194525957    0.745314062
    0.255012751    0.117602825    0.886011779
    0.255012989    0.117603064    0.604616404
    0.139628172    0.040679932    0.745314062
    0.024243593    0.963756800    0.886011779
    0.408859015    0.886833847    0.604616404
    0.293474436    0.809910655    0.745314062
    0.178089619    0.732987523    0.886011779
    0.562705278    0.656064570    0.604616404
    0.447320461    0.579141378    0.745314062
    0.331935883    0.502218246    0.886011779
    0.716551304    0.425295353    0.604616404
    0.601166725    0.348372191    0.745314062
    0.485781908    0.271449059    0.886011779
    0.639628410    0.040679932    0.604616404
    0.524243712    0.963756859    0.745314062
    0.408859015    0.886833668    0.886011779
    0.812705100    0.406064570    0.534267545
    0.697320461    0.329141438    0.674965203
    0.581935763    0.252218306    0.815662920
    0.889628172    0.790679932    0.534267545
    0.774243593    0.713756859    0.674965203
    0.658858776    0.636833668    0.815662920
    0.043474436    0.559910774    0.534267545
    0.928089738    0.482987642    0.674965203
    0.812705040    0.406064510    0.815662920
    0.197320461    0.329141438    0.534267545
    0.081935883    0.252218306    0.674965203
    0.966551185    0.175295115    0.815662920
    0.966551304    0.175295234    0.534267545
    0.851166606    0.098372102    0.674965203
    0.735781908    0.021449089    0.815662920
    0.120397449    0.944526136    0.534267545
    0.005012751    0.867603004    0.674965203
    0.889628112    0.790679872    0.815662920
    0.274243593    0.713756859    0.534267545
    0.158859015    0.636833727    0.674965203
    0.043474197    0.559910595    0.815662920
    0.428089857    0.482987642    0.534267545
    0.312705159    0.406064510    0.674965203
    0.197320461    0.329141378    0.815662920
    0.581935883    0.252218425    0.534267545
    0.466551304    0.175295234    0.674965203
    0.351166606    0.098372102    0.815662920
    0.351166725    0.098372221    0.534267545
    0.235781908    0.021449089    0.674965203
    0.120397329    0.944525957    0.815662920
    0.505012870    0.867603004    0.534267545
    0.389628172    0.790679872    0.674965203
    0.274243474    0.713756680    0.815662920
    0.658859015    0.636833847    0.534267545
    0.543474436    0.559910715    0.674965203
    0.428089619    0.482987583    0.815662920
    0.735782146    0.021449089    0.534267545
    0.620397449    0.944526017    0.674965203
    0.505012751    0.867602885    0.815662920
    0.908858955    0.386833787    0.604616404
    0.793474317    0.309910685    0.745314062
    0.678089619    0.232987538    0.886011779
    0.831935883    0.002218485    0.604616404
    0.716551304    0.925295293    0.745314062
    0.601166487    0.848372161    0.886011779
    0.985782027    0.771449268    0.604616404
    0.870397389    0.694526076    0.745314062
    0.755012751    0.617602944    0.886011779
    0.139628172    0.540679991    0.604616404
    0.024243593    0.463756859    0.745314062
    0.908858895    0.386833698    0.886011779
    0.293474436    0.309910685    0.604616404
    0.178089738    0.232987568    0.745314062
    0.062705040    0.156064391    0.886011779
    0.062705159    0.156064630    0.604616404
    0.947320521    0.079141498    0.745314062
    0.831935823    0.002218366    0.886011779
    0.216551304    0.925295472    0.604616404
    0.101166606    0.848372281    0.745314062
    0.985781908    0.771449149    0.886011779
    0.370397568    0.694526136    0.604616404
    0.255012751    0.617603004    0.745314062
    0.139628172    0.540679872    0.886011779
    0.524243593    0.463756859    0.604616404
    0.408859015    0.386833727    0.745314062
    0.293474317    0.309910566    0.886011779
    0.678089857    0.232987627    0.604616404
    0.562705040    0.156064510    0.745314062
    0.447320461    0.079141378    0.886011779
    0.447320700    0.079141617    0.604616404
    0.331935883    0.002218485    0.745314062
    0.216551304    0.925295353    0.886011779
    0.601166725    0.848372281    0.604616404
    0.485782146    0.771449149    0.745314062
    0.370397329    0.694525957    0.886011779
    0.755012751    0.617603064    0.604616404
    0.639628172    0.540679932    0.745314062
    0.524243355    0.463756770    0.886011779
