Ge+Ge
    1.000000000
   17.891534805    0.000000000    0.000000000
  -16.102380753    7.798739433    0.000000000
    0.000000283   -0.000000065   13.828835487
Ge 
96
Direct
    0.812287450    0.187712550    0.469305247
    0.022813324    0.977186680    0.000000010
    0.180708155    0.819291830    0.093861058
    0.338602990    0.661396980    0.187722117
    0.496497810    0.503502190    0.281583160
    0.654392600    0.345607400    0.375444233
    0.101761222    0.898238838    0.492770463
    0.312287062    0.687712908    0.023465294
    0.470181882    0.529818058    0.117326319
    0.628076732    0.371923268    0.211187407
    0.785971582    0.214028403    0.305048466
    0.943866432    0.056133550    0.398909539
    0.312287331    0.687712610    0.469305217
    0.522813261    0.477186650    0.000000000
    0.680708110    0.319291830    0.093861051
    0.838602960    0.161397010    0.187722087
    0.996497810    0.003502154    0.281583130
    0.154392600    0.845607400    0.375444233
    0.601761222    0.398238838    0.492770672
    0.812287092    0.187712908    0.023465462
    0.970181823    0.029818127    0.117326453
    0.128076673    0.871923268    0.211187586
    0.285971522    0.714028358    0.305048615
    0.443866372    0.556133628    0.398909658
    0.312287450    0.187712491    0.469305277
    0.522813261    0.977186680    0.000000011
    0.680708110    0.819291890    0.093861051
    0.838602960    0.661397040    0.187722087
    0.996497750    0.503502250    0.281583130
    0.154392600    0.345607400    0.375444233
    0.601761460    0.898238719    0.492770642
    0.812287271    0.687712848    0.023465434
    0.970182121    0.529818058    0.117326483
    0.128076911    0.371923238    0.211187512
    0.285971761    0.214028388    0.305048615
    0.443866730    0.056133520    0.398909628
    0.812287509    0.687712491    0.469305247
    0.022813387    0.477186650    0.000000014
    0.180708200    0.319291830    0.093861043
    0.338603050    0.161396980    0.187722117
    0.496497840    0.003502190    0.281583130
    0.654392660    0.845607340    0.375444233
    0.101761222    0.398238778    0.492770672
    0.312287062    0.187712878    0.023465449
    0.470181882    0.029818086    0.117326483
    0.628076732    0.871923268    0.211187556
    0.785971522    0.714028418    0.305048615
    0.943866372    0.556133509    0.398909658
    0.975208580    0.446139514    0.969305217
    0.185734674    0.235613585    0.499999940
    0.343629479    0.077718735    0.593861043
    0.501524270    0.919823945    0.687722087
    0.659419000    0.761929095    0.781583130
    0.817313850    0.604034245    0.875444233
    0.264682353    0.156665802    0.992770612
    0.475208402    0.946139872    0.523465276
    0.633103192    0.788245082    0.617326260
    0.790997982    0.630350173    0.711187363
    0.948892832    0.472455323    0.805048466
    0.106787562    0.314560473    0.898909509
    0.475208461    0.946139514    0.969305217
    0.685734630    0.735613585    0.499999940
    0.843629420    0.577718794    0.593860924
    0.001524210    0.419823915    0.687722087
    0.159418941    0.261929095    0.781583130
    0.317313731    0.104034185    0.875444114
    0.764682353    0.656665683    0.992770731
    0.975208402    0.446139902    0.523465395
    0.133103132    0.288245052    0.617326438
    0.290998042    0.130350232    0.711187422
    0.448892772    0.972455382    0.805048585
    0.606787622    0.814560473    0.898909628
    0.975208640    0.946139395    0.969305098
    0.185734749    0.735613585    0.499999940
    0.343629509    0.577718735    0.593860924
    0.501524329    0.419823885    0.687722087
    0.659419060    0.261929095    0.781583130
    0.817313910    0.104034185    0.875444233
    0.264682353    0.656665623    0.992770731
    0.475208402    0.446139842    0.523465395
    0.633103192    0.288245022    0.617326438
    0.790997982    0.130350113    0.711187482
    0.948892772    0.972455382    0.805048525
    0.106787562    0.814560473    0.898909628
    0.475208580    0.446139455    0.969305098
    0.685734630    0.235613585    0.499999940
    0.843629420    0.077718735    0.593861043
    0.001524210    0.919823945    0.687722087
    0.159418941    0.761929214    0.781583130
    0.317313731    0.604034305    0.875444114
    0.764682591    0.156665564    0.992770731
    0.975208700    0.946139812    0.523465395
    0.133103371    0.788244963    0.617326438
    0.290998280    0.630350113    0.711187422
    0.448893011    0.472455323    0.805048525
    0.606787860    0.314560413    0.898909628
