Si+Sn                                   
   1.00000000000000     
    13.3031797409999992    0.0000000000000000    0.0000000000000000
     6.6515893940000002   14.8734064099999994    0.0000000000000000
     0.0000000000000000    0.0000000000000000    6.6635961530000003
   Si   Sn
    36    24
Direct
  0.2832494969999999  0.6416247490000018  0.0000000559999975
  0.8165827990000025  0.4082912800000003  0.1822453739999972
  0.3499159810000023  0.1749577670000022  0.3644907469999978
  0.6165827510000028  0.3082913759999997  0.0000000679999985
  0.1499160529999983  0.0749579299999965  0.1822453739999972
  0.6832492349999981  0.8416244390000003  0.3644906879999965
  0.9499161239999978  0.9749580619999989  0.0000000479999969
  0.4832494850000018  0.7416245940000010  0.1822453739999972
  0.0165826679999981  0.5082911249999995  0.3644906879999965
  0.7999162670000004  0.7749580139999992  0.0911225380000005
  0.3332495089999981  0.5416245460000013  0.2733678820000023
  0.8665827510000028  0.3082910780000034  0.4556132559999995
  0.1332496850000027  0.4416247609999999  0.0911225529999982
  0.6665829419999980  0.2082912770000007  0.2733678820000023
  0.1999162440000006  0.9749577640000027  0.4556132559999995
  0.4665828939999983  0.1082915369999995  0.0911225529999982
  0.9999161360000031  0.8749580380000026  0.2733678820000023
  0.5332493780000007  0.6416245699999976  0.4556132559999995
  0.7832495569999978  0.6416247490000018  0.0000000000000000
  0.3165828289999979  0.4082912800000003  0.1822453440000018
  0.8499160410000002  0.1749577819999999  0.3644907469999978
  0.1165827960000030  0.3082914049999985  0.0000000679999985
  0.6499160529999983  0.0749579519999983  0.1822454180000008
  0.1832492950000031  0.8416244980000016  0.3644907469999978
  0.4499161239999978  0.9749580619999989  0.0000000679999985
  0.9832494260000004  0.7416245940000010  0.1822454180000008
  0.5165826679999981  0.5082911249999995  0.3644907469999978
  0.2999161779999966  0.7749581340000020  0.0911225529999982
  0.8332494499999967  0.5416246650000005  0.2733679119999977
  0.3665826920000015  0.3082911970000026  0.4556132259999970
  0.6332494019999970  0.4416247309999974  0.0911225750000000
  0.1665826440000018  0.2082912620000030  0.2733679119999977
  0.6999159459999973  0.9749578240000005  0.4556131659999991
  0.9665827159999978  0.1082915510000007  0.0911225529999982
  0.4999159569999989  0.8749580380000026  0.2733679119999977
  0.0332492590000015  0.6416246289999989  0.4556132559999995
  0.9871792200000016  0.0256415140000001  0.4556132849999983
  0.8371791840000000  0.3256415720000021  0.6733680959999973
  0.6871791479999985  0.6256416439999981  0.8911228179999995
  0.4871792499999970  0.0256415140000001  0.4556132849999983
  0.3371791539999975  0.3256415720000021  0.6733680959999973
  0.1871791330000008  0.6256416439999981  0.8911228179999995
  0.2871792019999972  0.6756414769999992  0.5644904380000000
  0.1371791810000005  0.9756414889999974  0.7822451589999986
  0.9871791010000024  0.2756415610000005  0.0000000000000000
  0.7871793509999989  0.6756414769999992  0.5644904380000000
  0.6371793149999974  0.9756414889999974  0.7822451589999986
  0.4871792499999970  0.2756415610000005  0.0000000000000000
  0.9871792790000029  0.5256415010000026  0.4556133450000033
  0.8371791840000000  0.8256415130000008  0.6733680959999973
  0.6871790889999971  0.1256417040000031  0.8911228179999995
  0.4871792499999970  0.5256415010000026  0.4556133450000033
  0.3371792439999979  0.8256415130000008  0.6733680959999973
  0.1871791180000031  0.1256417040000031  0.8911228179999995
  0.2871792319999997  0.1756415070000017  0.5644904380000000
  0.1371791660000028  0.4756415490000023  0.7822451589999986
  0.9871791599999966  0.7756416200000018  0.0000000000000000
  0.7871792910000011  0.1756415070000017  0.5644904380000000
  0.6371792549999995  0.4756415490000023  0.7822451589999986
  0.4871791599999966  0.7756416200000018  0.0000000000000000
 
  0.00000000E+00  0.00000000E+00  0.00000000E+00
  0.00000000E+00  0.00000000E+00  0.00000000E+00
  0.00000000E+00  0.00000000E+00  0.00000000E+00
  0.00000000E+00  0.00000000E+00  0.00000000E+00
  0.00000000E+00  0.00000000E+00  0.00000000E+00
  0.00000000E+00  0.00000000E+00  0.00000000E+00
  0.00000000E+00  0.00000000E+00  0.00000000E+00
  0.00000000E+00  0.00000000E+00  0.00000000E+00
  0.00000000E+00  0.00000000E+00  0.00000000E+00
  0.00000000E+00  0.00000000E+00  0.00000000E+00
  0.00000000E+00  0.00000000E+00  0.00000000E+00
  0.00000000E+00  0.00000000E+00  0.00000000E+00
  0.00000000E+00  0.00000000E+00  0.00000000E+00
  0.00000000E+00  0.00000000E+00  0.00000000E+00
  0.00000000E+00  0.00000000E+00  0.00000000E+00
  0.00000000E+00  0.00000000E+00  0.00000000E+00
  0.00000000E+00  0.00000000E+00  0.00000000E+00
  0.00000000E+00  0.00000000E+00  0.00000000E+00
  0.00000000E+00  0.00000000E+00  0.00000000E+00
  0.00000000E+00  0.00000000E+00  0.00000000E+00
  0.00000000E+00  0.00000000E+00  0.00000000E+00
  0.00000000E+00  0.00000000E+00  0.00000000E+00
  0.00000000E+00  0.00000000E+00  0.00000000E+00
  0.00000000E+00  0.00000000E+00  0.00000000E+00
  0.00000000E+00  0.00000000E+00  0.00000000E+00
  0.00000000E+00  0.00000000E+00  0.00000000E+00
  0.00000000E+00  0.00000000E+00  0.00000000E+00
  0.00000000E+00  0.00000000E+00  0.00000000E+00
  0.00000000E+00  0.00000000E+00  0.00000000E+00
  0.00000000E+00  0.00000000E+00  0.00000000E+00
  0.00000000E+00  0.00000000E+00  0.00000000E+00
  0.00000000E+00  0.00000000E+00  0.00000000E+00
  0.00000000E+00  0.00000000E+00  0.00000000E+00
  0.00000000E+00  0.00000000E+00  0.00000000E+00
  0.00000000E+00  0.00000000E+00  0.00000000E+00
  0.00000000E+00  0.00000000E+00  0.00000000E+00
  0.00000000E+00  0.00000000E+00  0.00000000E+00
  0.00000000E+00  0.00000000E+00  0.00000000E+00
  0.00000000E+00  0.00000000E+00  0.00000000E+00
  0.00000000E+00  0.00000000E+00  0.00000000E+00
  0.00000000E+00  0.00000000E+00  0.00000000E+00
  0.00000000E+00  0.00000000E+00  0.00000000E+00
  0.00000000E+00  0.00000000E+00  0.00000000E+00
  0.00000000E+00  0.00000000E+00  0.00000000E+00
  0.00000000E+00  0.00000000E+00  0.00000000E+00
  0.00000000E+00  0.00000000E+00  0.00000000E+00
  0.00000000E+00  0.00000000E+00  0.00000000E+00
  0.00000000E+00  0.00000000E+00  0.00000000E+00
  0.00000000E+00  0.00000000E+00  0.00000000E+00
  0.00000000E+00  0.00000000E+00  0.00000000E+00
  0.00000000E+00  0.00000000E+00  0.00000000E+00
  0.00000000E+00  0.00000000E+00  0.00000000E+00
  0.00000000E+00  0.00000000E+00  0.00000000E+00
  0.00000000E+00  0.00000000E+00  0.00000000E+00
  0.00000000E+00  0.00000000E+00  0.00000000E+00
  0.00000000E+00  0.00000000E+00  0.00000000E+00
  0.00000000E+00  0.00000000E+00  0.00000000E+00
  0.00000000E+00  0.00000000E+00  0.00000000E+00
  0.00000000E+00  0.00000000E+00  0.00000000E+00
  0.00000000E+00  0.00000000E+00  0.00000000E+00
