Ge+Sn
    1.000000000
   11.315600395    0.000000000    0.000000000
  -11.315600395   16.002676010    0.000000000
    0.000000000    0.000000000   25.604219437
Ge  Sn 
96     72
Direct
    0.469067723    0.989689231    0.000000017
    0.094067708    0.864689231    0.078125209
    0.719067633    0.739689231    0.156250417
    0.344067693    0.614689231    0.234375581
    0.969067812    0.489689291    0.312500775
    0.594067693    0.364689231    0.390625983
    0.969067693    0.989689231    0.000000017
    0.594067693    0.864689231    0.078125209
    0.219067633    0.739689231    0.156250417
    0.844067693    0.614689231    0.234375581
    0.469067812    0.489689291    0.312500775
    0.094067693    0.364689231    0.390625983
    0.469067693    0.489689231    0.000000009
    0.094067700    0.364689231    0.078125209
    0.719067574    0.239689216    0.156250417
    0.344067693    0.114689231    0.234375581
    0.969067812    0.989689231    0.312500775
    0.594067693    0.864689231    0.390625983
    0.969067693    0.489689231    0.000000009
    0.594067693    0.364689231    0.078125209
    0.219067574    0.239689216    0.156250417
    0.844067693    0.114689231    0.234375581
    0.469067693    0.989689231    0.312500775
    0.094067574    0.864689231    0.390625983
    0.719067693    0.239689231    0.000000017
    0.344067663    0.114689231    0.078125209
    0.969067574    0.989689231    0.156250417
    0.594067693    0.864689231    0.234375581
    0.219067693    0.739689231    0.312500775
    0.844067574    0.614689231    0.390625983
    0.219067678    0.239689231    0.000000017
    0.844067693    0.114689231    0.078125209
    0.469067633    0.989689231    0.156250417
    0.094067693    0.864689231    0.234375581
    0.719067812    0.739689231    0.312500775
    0.344067693    0.614689231    0.390625983
    0.719067633    0.739689231    0.000000021
    0.344067663    0.614689231    0.078125224
    0.969067574    0.489689201    0.156250432
    0.594067633    0.364689231    0.234375611
    0.219067693    0.239689246    0.312500805
    0.844067693    0.114689231    0.390625983
    0.219067693    0.739689231    0.000000021
    0.844067693    0.614689231    0.078125224
    0.469067574    0.489689201    0.156250432
    0.094067693    0.364689231    0.234375611
    0.719067693    0.239689246    0.312500805
    0.344067574    0.114689231    0.390625983
    0.469067663    0.364689231    0.000000016
    0.094067693    0.239689231    0.078125216
    0.719067633    0.114689209    0.156250432
    0.344067693    0.989689231    0.234375611
    0.969067812    0.864689231    0.312500775
    0.594067693    0.739689231    0.390625983
    0.969067693    0.364689231    0.000000016
    0.594067693    0.239689231    0.078125216
    0.219067633    0.114689209    0.156250432
    0.844067693    0.989689231    0.234375611
    0.469067812    0.864689231    0.312500775
    0.094067693    0.739689231    0.390625983
    0.469067752    0.864689291    0.000000000
    0.094067737    0.739689291    0.078125209
    0.719067693    0.614689291    0.156250402
    0.344067693    0.489689291    0.234375581
    0.969067812    0.364689291    0.312500775
    0.594067693    0.239689291    0.390625954
    0.969067693    0.864689291    0.000000000
    0.594067574    0.739689291    0.078125209
    0.219067574    0.614689291    0.156250402
    0.844067574    0.489689291    0.234375581
    0.469067574    0.364689291    0.312500775
    0.094067693    0.239689291    0.390625954
    0.719067693    0.114689223    0.000000017
    0.344067663    0.989689231    0.078125209
    0.969067633    0.864689231    0.156250417
    0.594067693    0.739689231    0.234375611
    0.219067693    0.614689231    0.312500775
    0.844067693    0.489689231    0.390625983
    0.219067678    0.114689223    0.000000017
    0.844067693    0.989689231    0.078125209
    0.469067633    0.864689231    0.156250417
    0.094067693    0.739689231    0.234375611
    0.719067812    0.614689231    0.312500775
    0.344067693    0.489689231    0.390625983
    0.719067693    0.614689231    0.000000015
    0.344067693    0.489689231    0.078125216
    0.969067633    0.364689231    0.156250417
    0.594067693    0.239689231    0.234375611
    0.219067752    0.114689253    0.312500775
    0.844067574    0.989689231    0.390625983
    0.219067723    0.614689231    0.000000015
    0.844067693    0.489689231    0.078125216
    0.469067633    0.364689231    0.156250417
    0.094067693    0.239689231    0.234375611
    0.719067812    0.114689253    0.312500775
    0.344067693    0.989689231    0.390625983
    0.440598607    0.351312995    0.471299201
    0.690598607    0.601312876    0.560904682
    0.940598786    0.851313174    0.650510252
    0.190599069    0.101313353    0.740115762
    0.440598965    0.351313353    0.829721272
    0.690599084    0.601313353    0.919326842
    0.107265234    0.684646189    0.471299201
    0.357265294    0.934646249    0.560904741
    0.607265532    0.184646368    0.650510252
    0.857265711    0.434646606    0.740115821
    0.107265696    0.684646666    0.829721272
    0.357265830    0.934646785    0.919326842
    0.773931980    0.017979622    0.471299201
    0.023932099    0.267979622    0.560904741
    0.273932219    0.517979741    0.650510252
    0.523932457    0.767979920    0.740115762
    0.773932338    0.017979860    0.829721272
    0.023932695    0.267980099    0.919326842
    0.273931921    0.517979622    0.471299171
    0.523931861    0.767979681    0.560904682
    0.773932159    0.017979860    0.650510252
    0.023932338    0.267979860    0.740115762
    0.273932219    0.517980099    0.829721272
    0.523932457    0.767980278    0.919326842
    0.607265353    0.184646249    0.471299201
    0.857265234    0.434646368    0.560904741
    0.107265458    0.684646428    0.650510252
    0.357265711    0.934646666    0.740115762
    0.607265711    0.184646606    0.829721272
    0.857265592    0.434646845    0.919326842
    0.940598726    0.851312876    0.471299201
    0.190598831    0.101312995    0.560904741
    0.440598965    0.351313114    0.650510252
    0.690599084    0.601313353    0.740115762
    0.940598965    0.851313293    0.829721272
    0.190599307    0.101313591    0.919326842
    0.190598622    0.351312876    0.471299171
    0.440598667    0.601312876    0.560904741
    0.690598726    0.851313055    0.650510252
    0.940598905    0.101313114    0.740115762
    0.190598950    0.351313114    0.829721272
    0.440598965    0.601313353    0.919326842
    0.523931980    0.017979622    0.471299201
    0.773931980    0.267979622    0.560904741
    0.023932099    0.517979741    0.650510252
    0.273932338    0.767979801    0.740115762
    0.523932219    0.017979860    0.829721272
    0.773932338    0.267980099    0.919326842
    0.857265294    0.684646189    0.471299201
    0.107265338    0.934646249    0.560904741
    0.357265472    0.184646368    0.650510252
    0.607265711    0.434646606    0.740115821
    0.857265830    0.684646666    0.829721272
    0.107265815    0.934646666    0.919326842
    0.357265234    0.184646368    0.471299201
    0.607265353    0.434646249    0.560904741
    0.857265413    0.684646428    0.650510252
    0.107265577    0.934646547    0.740115821
    0.357265592    0.184646606    0.829721272
    0.607265711    0.434646845    0.919326782
    0.023931861    0.517979622    0.471299201
    0.273932099    0.767979681    0.560904741
    0.523932219    0.017979860    0.650510252
    0.773932457    0.267979860    0.740115821
    0.023932338    0.517979860    0.829721272
    0.273932815    0.767980278    0.919326782
    0.690598667    0.851312935    0.471299201
    0.940598607    0.101312876    0.560904741
    0.190598711    0.351313114    0.650510252
    0.440598845    0.601313233    0.740115762
    0.690598845    0.851313293    0.829721272
    0.940598845    0.101313353    0.919326842
