Si+Ge                                   
   1.00000000000000     
    16.2930011750000006    0.0000000000000000    0.0000000000000000
     0.0000000000000000   17.1743297579999989    0.0000000000000000
     0.0000000000000000    0.0000002570000000   10.6005525590000005
   Si   Ge
    72    48
Direct
  0.1303789019999968  0.8262046580000018  0.4050344819999978
  0.9637124540000030  0.0762039119999969  0.0000000559999975
  0.7970457079999989  0.4262040260000006  0.0810069440000021
  0.6303790810000010  0.7762041690000032  0.1620137840000027
  0.4637122749999989  0.1262044910000029  0.2430207129999999
  0.2970455290000018  0.4762046339999984  0.3240275980000007
  0.4637122749999989  0.8262046580000018  0.4050344819999978
  0.2970457970000027  0.0762039119999969  0.0000000559999975
  0.1303790810000010  0.4262040260000006  0.0810069440000021
  0.9637123939999981  0.7762041690000032  0.1620137840000027
  0.7970455880000031  0.1262044910000029  0.2430207129999999
  0.6303788419999989  0.4762046339999984  0.3240275980000007
  0.7970455880000031  0.8262046580000018  0.4050344819999978
  0.6303791400000023  0.0762039119999969  0.0000000559999975
  0.4637124240000006  0.4262040260000006  0.0810069440000021
  0.2970457670000002  0.7762041690000032  0.1620137840000027
  0.1303789760000029  0.1262044910000029  0.2430207129999999
  0.9637122150000010  0.4762046339999984  0.3240275980000007
  0.2137122150000010  0.5762047770000009  0.4050344229999965
  0.0470457670000002  0.8262040019999972  0.0000000000000000
  0.8803790810000010  0.1762042049999977  0.0810069220000003
  0.7137123349999968  0.5262044669999995  0.1620137390000025
  0.5470455880000031  0.8762046100000020  0.2430206539999986
  0.3803789620000018  0.2262046339999984  0.3240275080000004
  0.5470455880000031  0.5762047770000009  0.4050344229999965
  0.3803790810000010  0.8262040019999972  0.0000000000000000
  0.2137123790000004  0.1762042049999977  0.0810069220000003
  0.0470456930000012  0.5262044669999995  0.1620137390000025
  0.8803789620000018  0.8762046100000020  0.2430206539999986
  0.7137123349999968  0.2262046339999984  0.3240275080000004
  0.8803789019999968  0.5762047770000009  0.4050344229999965
  0.7137123939999981  0.8262040019999972  0.0000000000000000
  0.5470457079999989  0.1762042049999977  0.0810069220000003
  0.3803789910000006  0.5262044669999995  0.1620137390000025
  0.2137122299999987  0.8762046100000020  0.2430206539999986
  0.0470455809999990  0.2262046339999984  0.3240275080000004
  0.1303789019999968  0.3262047770000009  0.4050344819999978
  0.9637123939999981  0.5762040019999972  0.0000000229999984
  0.7970457079999989  0.9262041449999998  0.0810068919999978
  0.6303790210000031  0.2762042279999974  0.1620137390000025
  0.4637122749999989  0.6262044910000029  0.2430207129999999
  0.2970456480000010  0.9762046339999984  0.3240275080000004
  0.4637122749999989  0.3262047770000009  0.4050344819999978
  0.2970457670000002  0.5762040019999972  0.0000000229999984
  0.1303790509999985  0.9262041449999998  0.0810068919999978
  0.9637123939999981  0.2762042279999974  0.1620137390000025
  0.7970455880000031  0.6262044910000029  0.2430207129999999
  0.6303789620000018  0.9762046339999984  0.3240275080000004
  0.7970455880000031  0.3262047770000009  0.4050344819999978
  0.6303791400000023  0.5762040019999972  0.0000000229999984
  0.4637123939999981  0.9262041449999998  0.0810068919999978
  0.2970457380000013  0.2762042279999974  0.1620137390000025
  0.1303789760000029  0.6262044910000029  0.2430207129999999
  0.9637123349999968  0.9762046339999984  0.3240275080000004
  0.2137122150000010  0.0762047770000009  0.4050343930000011
  0.0470457670000002  0.3262039119999969  0.0000000559999975
  0.8803790810000010  0.6762040260000006  0.0810068990000019
  0.7137123939999981  0.0262042279999974  0.1620137540000002
  0.5470455880000031  0.3762044910000029  0.2430206539999986
  0.3803788419999989  0.7262047529999975  0.3240275080000004
  0.5470455880000031  0.0762047770000009  0.4050343930000011
  0.3803791110000034  0.3262039119999969  0.0000000559999975
  0.2137124090000029  0.6762040260000006  0.0810068990000019
  0.0470457260000003  0.0262042279999974  0.1620137540000002
  0.8803789620000018  0.3762044910000029  0.2430206539999986
  0.7137122150000010  0.7262047529999975  0.3240275080000004
  0.8803789620000018  0.0762047770000009  0.4050343930000011
  0.7137124540000030  0.3262039119999969  0.0000000559999975
  0.5470457670000002  0.6762040260000006  0.0810068990000019
  0.3803790810000010  0.0262042279999974  0.1620137540000002
  0.2137122899999966  0.3762044910000029  0.2430206539999986
  0.0470455399999992  0.7262047529999975  0.3240275080000004
  0.2095340489999984  0.9860476850000026  0.5452660919999985
  0.8345340489999984  0.5971587900000017  0.6081665159999972
  0.4595341090000034  0.2082698939999972  0.6710669989999971
  0.0845341679999976  0.8193808199999992  0.7339674830000007
  0.7095341090000034  0.4304919839999997  0.7968679069999993
  0.3345339890000005  0.0416028499999967  0.8597683309999979
  0.7095339890000005  0.9860476850000026  0.5452660919999985
  0.3345340190000030  0.5971587299999968  0.6081665159999972
  0.9595340489999984  0.2082698350000030  0.6710669989999971
  0.5845339890000005  0.8193808199999992  0.7339674230000028
  0.2095341679999976  0.4304918650000005  0.7968679069999993
  0.8345341090000034  0.0416030880000022  0.8597684499999971
  0.3345340190000030  0.7360476260000013  0.5452660919999985
  0.9595340489999984  0.3471587000000014  0.6081665159999972
  0.5845341090000034  0.9582697749999980  0.6710669989999971
  0.2095341679999976  0.5693808199999992  0.7339674230000028
  0.8345339890000005  0.1804918050000026  0.7968678470000015
  0.4595339890000005  0.7916030290000009  0.8597683309999979
  0.8345339890000005  0.7360476260000013  0.5452660919999985
  0.4595339890000005  0.3471587000000014  0.6081665159999972
  0.0845340489999984  0.9582697749999980  0.6710669989999971
  0.7095339890000005  0.5693808790000006  0.7339674230000028
  0.3345340489999984  0.1804918650000005  0.7968679069999993
  0.9595339890000005  0.7916030290000009  0.8597683309999979
  0.5845340489999984  0.7360476260000013  0.5452660919999985
  0.2095340489999984  0.3471587000000014  0.6081665159999972
  0.8345341090000034  0.9582697749999980  0.6710669989999971
  0.4595341090000034  0.5693808199999992  0.7339674230000028
  0.0845341679999976  0.1804918650000005  0.7968678470000015
  0.7095341090000034  0.7916029100000017  0.8597683309999979
  0.0845339299999992  0.7360475660000034  0.5452660919999985
  0.7095340489999984  0.3471587000000014  0.6081665159999972
  0.3345340790000009  0.9582697749999980  0.6710669989999971
  0.9595340489999984  0.5693808199999992  0.7339674230000028
  0.5845339890000005  0.1804918650000005  0.7968678470000015
  0.2095341679999976  0.7916030290000009  0.8597683309999979
  0.4595340190000030  0.9860476850000026  0.5452660919999985
  0.0845339299999992  0.5971587299999968  0.6081665159999972
  0.7095341090000034  0.2082698939999972  0.6710669989999971
  0.3345340489999984  0.8193808199999992  0.7339674830000007
  0.9595341090000034  0.4304919839999997  0.7968677880000001
  0.5845339890000005  0.0416028499999967  0.8597683309999979
  0.9595339890000005  0.9860476850000026  0.5452661509999999
  0.5845340489999984  0.5971587299999968  0.6081665159999972
  0.2095340489999984  0.2082698939999972  0.6710669989999971
  0.8345341090000034  0.8193808199999992  0.7339674830000007
  0.4595339890000005  0.4304918650000005  0.7968677880000001
  0.0845341679999976  0.0416030880000022  0.8597683309999979
 
  0.00000000E+00  0.00000000E+00  0.00000000E+00
  0.00000000E+00  0.00000000E+00  0.00000000E+00
  0.00000000E+00  0.00000000E+00  0.00000000E+00
  0.00000000E+00  0.00000000E+00  0.00000000E+00
  0.00000000E+00  0.00000000E+00  0.00000000E+00
  0.00000000E+00  0.00000000E+00  0.00000000E+00
  0.00000000E+00  0.00000000E+00  0.00000000E+00
  0.00000000E+00  0.00000000E+00  0.00000000E+00
  0.00000000E+00  0.00000000E+00  0.00000000E+00
  0.00000000E+00  0.00000000E+00  0.00000000E+00
  0.00000000E+00  0.00000000E+00  0.00000000E+00
  0.00000000E+00  0.00000000E+00  0.00000000E+00
  0.00000000E+00  0.00000000E+00  0.00000000E+00
  0.00000000E+00  0.00000000E+00  0.00000000E+00
  0.00000000E+00  0.00000000E+00  0.00000000E+00
  0.00000000E+00  0.00000000E+00  0.00000000E+00
  0.00000000E+00  0.00000000E+00  0.00000000E+00
  0.00000000E+00  0.00000000E+00  0.00000000E+00
  0.00000000E+00  0.00000000E+00  0.00000000E+00
  0.00000000E+00  0.00000000E+00  0.00000000E+00
  0.00000000E+00  0.00000000E+00  0.00000000E+00
  0.00000000E+00  0.00000000E+00  0.00000000E+00
  0.00000000E+00  0.00000000E+00  0.00000000E+00
  0.00000000E+00  0.00000000E+00  0.00000000E+00
  0.00000000E+00  0.00000000E+00  0.00000000E+00
  0.00000000E+00  0.00000000E+00  0.00000000E+00
  0.00000000E+00  0.00000000E+00  0.00000000E+00
  0.00000000E+00  0.00000000E+00  0.00000000E+00
  0.00000000E+00  0.00000000E+00  0.00000000E+00
  0.00000000E+00  0.00000000E+00  0.00000000E+00
  0.00000000E+00  0.00000000E+00  0.00000000E+00
  0.00000000E+00  0.00000000E+00  0.00000000E+00
  0.00000000E+00  0.00000000E+00  0.00000000E+00
  0.00000000E+00  0.00000000E+00  0.00000000E+00
  0.00000000E+00  0.00000000E+00  0.00000000E+00
  0.00000000E+00  0.00000000E+00  0.00000000E+00
  0.00000000E+00  0.00000000E+00  0.00000000E+00
  0.00000000E+00  0.00000000E+00  0.00000000E+00
  0.00000000E+00  0.00000000E+00  0.00000000E+00
  0.00000000E+00  0.00000000E+00  0.00000000E+00
  0.00000000E+00  0.00000000E+00  0.00000000E+00
  0.00000000E+00  0.00000000E+00  0.00000000E+00
  0.00000000E+00  0.00000000E+00  0.00000000E+00
  0.00000000E+00  0.00000000E+00  0.00000000E+00
  0.00000000E+00  0.00000000E+00  0.00000000E+00
  0.00000000E+00  0.00000000E+00  0.00000000E+00
  0.00000000E+00  0.00000000E+00  0.00000000E+00
  0.00000000E+00  0.00000000E+00  0.00000000E+00
  0.00000000E+00  0.00000000E+00  0.00000000E+00
  0.00000000E+00  0.00000000E+00  0.00000000E+00
  0.00000000E+00  0.00000000E+00  0.00000000E+00
  0.00000000E+00  0.00000000E+00  0.00000000E+00
  0.00000000E+00  0.00000000E+00  0.00000000E+00
  0.00000000E+00  0.00000000E+00  0.00000000E+00
  0.00000000E+00  0.00000000E+00  0.00000000E+00
  0.00000000E+00  0.00000000E+00  0.00000000E+00
  0.00000000E+00  0.00000000E+00  0.00000000E+00
  0.00000000E+00  0.00000000E+00  0.00000000E+00
  0.00000000E+00  0.00000000E+00  0.00000000E+00
  0.00000000E+00  0.00000000E+00  0.00000000E+00
  0.00000000E+00  0.00000000E+00  0.00000000E+00
  0.00000000E+00  0.00000000E+00  0.00000000E+00
  0.00000000E+00  0.00000000E+00  0.00000000E+00
  0.00000000E+00  0.00000000E+00  0.00000000E+00
  0.00000000E+00  0.00000000E+00  0.00000000E+00
  0.00000000E+00  0.00000000E+00  0.00000000E+00
  0.00000000E+00  0.00000000E+00  0.00000000E+00
  0.00000000E+00  0.00000000E+00  0.00000000E+00
  0.00000000E+00  0.00000000E+00  0.00000000E+00
  0.00000000E+00  0.00000000E+00  0.00000000E+00
  0.00000000E+00  0.00000000E+00  0.00000000E+00
  0.00000000E+00  0.00000000E+00  0.00000000E+00
  0.00000000E+00  0.00000000E+00  0.00000000E+00
  0.00000000E+00  0.00000000E+00  0.00000000E+00
  0.00000000E+00  0.00000000E+00  0.00000000E+00
  0.00000000E+00  0.00000000E+00  0.00000000E+00
  0.00000000E+00  0.00000000E+00  0.00000000E+00
  0.00000000E+00  0.00000000E+00  0.00000000E+00
  0.00000000E+00  0.00000000E+00  0.00000000E+00
  0.00000000E+00  0.00000000E+00  0.00000000E+00
  0.00000000E+00  0.00000000E+00  0.00000000E+00
  0.00000000E+00  0.00000000E+00  0.00000000E+00
  0.00000000E+00  0.00000000E+00  0.00000000E+00
  0.00000000E+00  0.00000000E+00  0.00000000E+00
  0.00000000E+00  0.00000000E+00  0.00000000E+00
  0.00000000E+00  0.00000000E+00  0.00000000E+00
  0.00000000E+00  0.00000000E+00  0.00000000E+00
  0.00000000E+00  0.00000000E+00  0.00000000E+00
  0.00000000E+00  0.00000000E+00  0.00000000E+00
  0.00000000E+00  0.00000000E+00  0.00000000E+00
  0.00000000E+00  0.00000000E+00  0.00000000E+00
  0.00000000E+00  0.00000000E+00  0.00000000E+00
  0.00000000E+00  0.00000000E+00  0.00000000E+00
  0.00000000E+00  0.00000000E+00  0.00000000E+00
  0.00000000E+00  0.00000000E+00  0.00000000E+00
  0.00000000E+00  0.00000000E+00  0.00000000E+00
  0.00000000E+00  0.00000000E+00  0.00000000E+00
  0.00000000E+00  0.00000000E+00  0.00000000E+00
  0.00000000E+00  0.00000000E+00  0.00000000E+00
  0.00000000E+00  0.00000000E+00  0.00000000E+00
  0.00000000E+00  0.00000000E+00  0.00000000E+00
  0.00000000E+00  0.00000000E+00  0.00000000E+00
  0.00000000E+00  0.00000000E+00  0.00000000E+00
  0.00000000E+00  0.00000000E+00  0.00000000E+00
  0.00000000E+00  0.00000000E+00  0.00000000E+00
  0.00000000E+00  0.00000000E+00  0.00000000E+00
  0.00000000E+00  0.00000000E+00  0.00000000E+00
  0.00000000E+00  0.00000000E+00  0.00000000E+00
  0.00000000E+00  0.00000000E+00  0.00000000E+00
  0.00000000E+00  0.00000000E+00  0.00000000E+00
  0.00000000E+00  0.00000000E+00  0.00000000E+00
  0.00000000E+00  0.00000000E+00  0.00000000E+00
  0.00000000E+00  0.00000000E+00  0.00000000E+00
  0.00000000E+00  0.00000000E+00  0.00000000E+00
  0.00000000E+00  0.00000000E+00  0.00000000E+00
  0.00000000E+00  0.00000000E+00  0.00000000E+00
  0.00000000E+00  0.00000000E+00  0.00000000E+00
  0.00000000E+00  0.00000000E+00  0.00000000E+00
  0.00000000E+00  0.00000000E+00  0.00000000E+00
  0.00000000E+00  0.00000000E+00  0.00000000E+00
