Ge+Sn                                   
   1.00000000000000     
    11.3156003950000006    0.0000000000000000    0.0000000000000000
   -11.3156003950000006   16.0026760099999983    0.0000000000000000
     0.0000000000000000    0.0000000000000000   21.4730720519999991
   Ge   Sn
    96    72
Direct
  0.4690677230000020  0.9896892309999998  0.0000000200000017
  0.0940677079999972  0.8646892309999998  0.0931555029999984
  0.7190676330000016  0.7396892309999998  0.1863110070000005
  0.3440676929999995  0.6146892309999998  0.2794664800000035
  0.9690678119999987  0.4896892909999977  0.3726219529999995
  0.5940676929999995  0.3646892309999998  0.4657774869999969
  0.9690676929999995  0.9896892309999998  0.0000000200000017
  0.5940676929999995  0.8646892309999998  0.0931555029999984
  0.2190676330000016  0.7396892309999998  0.1863110070000005
  0.8440676929999995  0.6146892309999998  0.2794664800000035
  0.4690678119999987  0.4896892909999977  0.3726219529999995
  0.0940676929999995  0.3646892309999998  0.4657774869999969
  0.4690676929999995  0.4896892309999998  0.0000000100000008
  0.0940676999999965  0.3646892309999998  0.0931555029999984
  0.7190675740000003  0.2396892160000021  0.1863110070000005
  0.3440676929999995  0.1146892309999998  0.2794664800000035
  0.9690678119999987  0.9896892309999998  0.3726219529999995
  0.5940676929999995  0.8646892309999998  0.4657774869999969
  0.9690676929999995  0.4896892309999998  0.0000000100000008
  0.5940676929999995  0.3646892309999998  0.0931555029999984
  0.2190675740000003  0.2396892160000021  0.1863110070000005
  0.8440676929999995  0.1146892309999998  0.2794664800000035
  0.4690676929999995  0.9896892309999998  0.3726219529999995
  0.0940675740000003  0.8646892309999998  0.4657774869999969
  0.7190676929999995  0.2396892309999998  0.0000000200000017
  0.3440676629999970  0.1146892309999998  0.0931555029999984
  0.9690675740000003  0.9896892309999998  0.1863110070000005
  0.5940676929999995  0.8646892309999998  0.2794664800000035
  0.2190676929999995  0.7396892309999998  0.3726219529999995
  0.8440675740000003  0.6146892309999998  0.4657774869999969
  0.2190676780000018  0.2396892309999998  0.0000000200000017
  0.8440676929999995  0.1146892309999998  0.0931555029999984
  0.4690676330000016  0.9896892309999998  0.1863110070000005
  0.0940676929999995  0.8646892309999998  0.2794664800000035
  0.7190678119999987  0.7396892309999998  0.3726219529999995
  0.3440676929999995  0.6146892309999998  0.4657774869999969
  0.7190676330000016  0.7396892309999998  0.0000000240000020
  0.3440676629999970  0.6146892309999998  0.0931555259999968
  0.9690675740000003  0.4896892009999974  0.1863110210000016
  0.5940676330000016  0.3646892309999998  0.2794665099999989
  0.2190676929999995  0.2396892459999975  0.3726219830000019
  0.8440676929999995  0.1146892309999998  0.4657774869999969
  0.2190676929999995  0.7396892309999998  0.0000000240000020
  0.8440676929999995  0.6146892309999998  0.0931555259999968
  0.4690675740000003  0.4896892009999974  0.1863110210000016
  0.0940676929999995  0.3646892309999998  0.2794665099999989
  0.7190676929999995  0.2396892459999975  0.3726219830000019
  0.3440675740000003  0.1146892309999998  0.4657774869999969
  0.4690676629999970  0.3646892309999998  0.0000000189999980
  0.0940676929999995  0.2396892309999998  0.0931555109999991
  0.7190676330000016  0.1146892089999980  0.1863110210000016
  0.3440676929999995  0.9896892309999998  0.2794665099999989
  0.9690678119999987  0.8646892309999998  0.3726219529999995
  0.5940676929999995  0.7396892309999998  0.4657774869999969
  0.9690676929999995  0.3646892309999998  0.0000000189999980
  0.5940676929999995  0.2396892309999998  0.0931555109999991
  0.2190676330000016  0.1146892089999980  0.1863110210000016
  0.8440676929999995  0.9896892309999998  0.2794665099999989
  0.4690678119999987  0.8646892309999998  0.3726219529999995
  0.0940676929999995  0.7396892309999998  0.4657774869999969
  0.4690677520000008  0.8646892909999977  0.0000000000000000
  0.0940677370000031  0.7396892909999977  0.0931555029999984
  0.7190676929999995  0.6146892909999977  0.1863109920000028
  0.3440676929999995  0.4896892909999977  0.2794664800000035
  0.9690678119999987  0.3646892909999977  0.3726219529999995
  0.5940676929999995  0.2396892909999977  0.4657774570000015
  0.9690676929999995  0.8646892909999977  0.0000000000000000
  0.5940675740000003  0.7396892909999977  0.0931555029999984
  0.2190675740000003  0.6146892909999977  0.1863109920000028
  0.8440675740000003  0.4896892909999977  0.2794664800000035
  0.4690675740000003  0.3646892909999977  0.3726219529999995
  0.0940676929999995  0.2396892909999977  0.4657774570000015
  0.7190676929999995  0.1146892229999992  0.0000000209999982
  0.3440676629999970  0.9896892309999998  0.0931555029999984
  0.9690676330000016  0.8646892309999998  0.1863110070000005
  0.5940676929999995  0.7396892309999998  0.2794665099999989
  0.2190676929999995  0.6146892309999998  0.3726219529999995
  0.8440676929999995  0.4896892309999998  0.4657774869999969
  0.2190676780000018  0.1146892229999992  0.0000000209999982
  0.8440676929999995  0.9896892309999998  0.0931555029999984
  0.4690676330000016  0.8646892309999998  0.1863110070000005
  0.0940676929999995  0.7396892309999998  0.2794665099999989
  0.7190678119999987  0.6146892309999998  0.3726219529999995
  0.3440676929999995  0.4896892309999998  0.4657774869999969
  0.7190676929999995  0.6146892309999998  0.0000000180000015
  0.3440676929999995  0.4896892309999998  0.0931555109999991
  0.9690676330000016  0.3646892309999998  0.1863110070000005
  0.5940676929999995  0.2396892309999998  0.2794665099999989
  0.2190677520000008  0.1146892530000017  0.3726219529999995
  0.8440675740000003  0.9896892309999998  0.4657774869999969
  0.2190677230000020  0.6146892309999998  0.0000000180000015
  0.8440676929999995  0.4896892309999998  0.0931555109999991
  0.4690676330000016  0.3646892309999998  0.1863110070000005
  0.0940676929999995  0.2396892309999998  0.2794665099999989
  0.7190678119999987  0.1146892530000017  0.3726219529999995
  0.3440676929999995  0.9896892309999998  0.4657774869999969
  0.3513128760000015  0.6846463079999978  0.4657775459999982
  0.6013128760000015  0.9346462489999965  0.5726219419999978
  0.8513130549999985  0.1846464870000020  0.6794664860000026
  0.1013133530000019  0.4346466060000012  0.7863110300000002
  0.3513132329999991  0.6846466060000012  0.8931554560000023
  0.6013133530000019  0.9346467259999969  0.9999998810000008
  0.0179795179999971  0.0179795179999971  0.4657775459999982
  0.2679795620000007  0.2679795920000032  0.5726220609999970
  0.5179798010000027  0.5179797409999978  0.6794664860000026
  0.7679799799999998  0.7679798599999970  0.7863110300000002
  0.0179799799999998  0.0179799799999998  0.8931554560000023
  0.2679800989999990  0.2679800989999990  0.9999998810000008
  0.6846462489999965  0.3513128760000015  0.4657775459999982
  0.9346463680000028  0.6013129350000028  0.5726220609999970
  0.1846464870000020  0.8513130549999985  0.6794664860000026
  0.4346467259999969  0.1013132329999991  0.7863110300000002
  0.6846466060000012  0.3513132329999991  0.8931554560000023
  0.9346469640000024  0.6013134720000011  0.9999998810000008
  0.1846462040000034  0.8513129350000028  0.4657774869999969
  0.4346461590000033  0.1013129950000007  0.5726219419999978
  0.6846464280000006  0.3513131139999999  0.6794664860000026
  0.9346466659999990  0.6013132329999991  0.7863110300000002
  0.1846464870000020  0.8513133530000019  0.8931554560000023
  0.4346467259999969  0.1013135910000003  0.9999998810000008
  0.5179796219999986  0.5179795620000007  0.4657775459999982
  0.7679795029999994  0.7679796219999986  0.5726220609999970
  0.0179797409999978  0.0179797409999978  0.6794664860000026
  0.2679799799999998  0.2679799799999998  0.7863110300000002
  0.5179799799999998  0.5179798599999970  0.8931554560000023
  0.7679798599999970  0.7679800989999990  0.9999998810000008
  0.8513129950000007  0.1846462040000034  0.4657775459999982
  0.1013131139999999  0.4346462789999990  0.5726220609999970
  0.3513132329999991  0.6846464280000006  0.6794664860000026
  0.6013133530000019  0.9346466060000012  0.7863110300000002
  0.8513132329999991  0.1846466060000012  0.8931554560000023
  0.1013135910000003  0.4346468450000032  0.9999998810000008
  0.1013129059999969  0.6846461889999986  0.4657774869999969
  0.3513129649999982  0.9346461889999986  0.5726220609999970
  0.6013129950000007  0.1846463680000028  0.6794664860000026
  0.8513131739999977  0.4346464870000020  0.7863110300000002
  0.1013132329999991  0.6846464870000020  0.8931554560000023
  0.3513132329999991  0.9346467259999969  0.9999998810000008
  0.4346462489999965  0.3513128760000015  0.4657775459999982
  0.6846462489999965  0.6013128760000015  0.5726220609999970
  0.9346464280000006  0.8513130549999985  0.6794664860000026
  0.1846466060000012  0.1013131139999999  0.7863110300000002
  0.4346464870000020  0.3513132329999991  0.8931554560000023
  0.6846466060000012  0.6013133530000019  0.9999998810000008
  0.7679795620000007  0.0179795190000007  0.4657775459999982
  0.0179796219999986  0.2679795920000032  0.5726220609999970
  0.2679797409999978  0.5179796809999999  0.6794664860000026
  0.5179799799999998  0.7679798599999970  0.7863110300000002
  0.7679800989999990  0.0179799799999998  0.8931554560000023
  0.0179800989999990  0.2679799799999998  0.9999998810000008
  0.2679795319999982  0.5179796219999986  0.4657775459999982
  0.5179796219999986  0.7679795620000007  0.5726220609999970
  0.7679796809999999  0.0179797409999978  0.6794664860000026
  0.0179798599999970  0.2679798599999970  0.7863110300000002
  0.2679798599999970  0.5179798599999970  0.8931554560000023
  0.5179799799999998  0.7679800989999990  0.9999998810000008
  0.9346461889999986  0.8513128760000015  0.4657775459999982
  0.1846463680000028  0.1013129950000007  0.5726220609999970
  0.4346464870000020  0.3513131139999999  0.6794664860000026
  0.6846467259999969  0.6013132329999991  0.7863110300000002
  0.9346466060000012  0.8513132329999991  0.8931554560000023
  0.1846470830000015  0.1013135910000003  0.9999998810000008
  0.6013129350000028  0.1846462339999988  0.4657775459999982
  0.8513128760000015  0.4346462489999965  0.5726220609999970
  0.1013129950000007  0.6846464280000006  0.6794664860000026
  0.3513131139999999  0.9346465469999998  0.7863110300000002
  0.6013131139999999  0.1846466060000012  0.8931554560000023
  0.8513131139999999  0.4346467259999969  0.9999998810000008
 
  0.00000000E+00  0.00000000E+00  0.00000000E+00
  0.00000000E+00  0.00000000E+00  0.00000000E+00
  0.00000000E+00  0.00000000E+00  0.00000000E+00
  0.00000000E+00  0.00000000E+00  0.00000000E+00
  0.00000000E+00  0.00000000E+00  0.00000000E+00
  0.00000000E+00  0.00000000E+00  0.00000000E+00
  0.00000000E+00  0.00000000E+00  0.00000000E+00
  0.00000000E+00  0.00000000E+00  0.00000000E+00
  0.00000000E+00  0.00000000E+00  0.00000000E+00
  0.00000000E+00  0.00000000E+00  0.00000000E+00
  0.00000000E+00  0.00000000E+00  0.00000000E+00
  0.00000000E+00  0.00000000E+00  0.00000000E+00
  0.00000000E+00  0.00000000E+00  0.00000000E+00
  0.00000000E+00  0.00000000E+00  0.00000000E+00
  0.00000000E+00  0.00000000E+00  0.00000000E+00
  0.00000000E+00  0.00000000E+00  0.00000000E+00
  0.00000000E+00  0.00000000E+00  0.00000000E+00
  0.00000000E+00  0.00000000E+00  0.00000000E+00
  0.00000000E+00  0.00000000E+00  0.00000000E+00
  0.00000000E+00  0.00000000E+00  0.00000000E+00
  0.00000000E+00  0.00000000E+00  0.00000000E+00
  0.00000000E+00  0.00000000E+00  0.00000000E+00
  0.00000000E+00  0.00000000E+00  0.00000000E+00
  0.00000000E+00  0.00000000E+00  0.00000000E+00
  0.00000000E+00  0.00000000E+00  0.00000000E+00
  0.00000000E+00  0.00000000E+00  0.00000000E+00
  0.00000000E+00  0.00000000E+00  0.00000000E+00
  0.00000000E+00  0.00000000E+00  0.00000000E+00
  0.00000000E+00  0.00000000E+00  0.00000000E+00
  0.00000000E+00  0.00000000E+00  0.00000000E+00
  0.00000000E+00  0.00000000E+00  0.00000000E+00
  0.00000000E+00  0.00000000E+00  0.00000000E+00
  0.00000000E+00  0.00000000E+00  0.00000000E+00
  0.00000000E+00  0.00000000E+00  0.00000000E+00
  0.00000000E+00  0.00000000E+00  0.00000000E+00
  0.00000000E+00  0.00000000E+00  0.00000000E+00
  0.00000000E+00  0.00000000E+00  0.00000000E+00
  0.00000000E+00  0.00000000E+00  0.00000000E+00
  0.00000000E+00  0.00000000E+00  0.00000000E+00
  0.00000000E+00  0.00000000E+00  0.00000000E+00
  0.00000000E+00  0.00000000E+00  0.00000000E+00
  0.00000000E+00  0.00000000E+00  0.00000000E+00
  0.00000000E+00  0.00000000E+00  0.00000000E+00
  0.00000000E+00  0.00000000E+00  0.00000000E+00
  0.00000000E+00  0.00000000E+00  0.00000000E+00
  0.00000000E+00  0.00000000E+00  0.00000000E+00
  0.00000000E+00  0.00000000E+00  0.00000000E+00
  0.00000000E+00  0.00000000E+00  0.00000000E+00
  0.00000000E+00  0.00000000E+00  0.00000000E+00
  0.00000000E+00  0.00000000E+00  0.00000000E+00
  0.00000000E+00  0.00000000E+00  0.00000000E+00
  0.00000000E+00  0.00000000E+00  0.00000000E+00
  0.00000000E+00  0.00000000E+00  0.00000000E+00
  0.00000000E+00  0.00000000E+00  0.00000000E+00
  0.00000000E+00  0.00000000E+00  0.00000000E+00
  0.00000000E+00  0.00000000E+00  0.00000000E+00
  0.00000000E+00  0.00000000E+00  0.00000000E+00
  0.00000000E+00  0.00000000E+00  0.00000000E+00
  0.00000000E+00  0.00000000E+00  0.00000000E+00
  0.00000000E+00  0.00000000E+00  0.00000000E+00
  0.00000000E+00  0.00000000E+00  0.00000000E+00
  0.00000000E+00  0.00000000E+00  0.00000000E+00
  0.00000000E+00  0.00000000E+00  0.00000000E+00
  0.00000000E+00  0.00000000E+00  0.00000000E+00
  0.00000000E+00  0.00000000E+00  0.00000000E+00
  0.00000000E+00  0.00000000E+00  0.00000000E+00
  0.00000000E+00  0.00000000E+00  0.00000000E+00
  0.00000000E+00  0.00000000E+00  0.00000000E+00
  0.00000000E+00  0.00000000E+00  0.00000000E+00
  0.00000000E+00  0.00000000E+00  0.00000000E+00
  0.00000000E+00  0.00000000E+00  0.00000000E+00
  0.00000000E+00  0.00000000E+00  0.00000000E+00
  0.00000000E+00  0.00000000E+00  0.00000000E+00
  0.00000000E+00  0.00000000E+00  0.00000000E+00
  0.00000000E+00  0.00000000E+00  0.00000000E+00
  0.00000000E+00  0.00000000E+00  0.00000000E+00
  0.00000000E+00  0.00000000E+00  0.00000000E+00
  0.00000000E+00  0.00000000E+00  0.00000000E+00
  0.00000000E+00  0.00000000E+00  0.00000000E+00
  0.00000000E+00  0.00000000E+00  0.00000000E+00
  0.00000000E+00  0.00000000E+00  0.00000000E+00
  0.00000000E+00  0.00000000E+00  0.00000000E+00
  0.00000000E+00  0.00000000E+00  0.00000000E+00
  0.00000000E+00  0.00000000E+00  0.00000000E+00
  0.00000000E+00  0.00000000E+00  0.00000000E+00
  0.00000000E+00  0.00000000E+00  0.00000000E+00
  0.00000000E+00  0.00000000E+00  0.00000000E+00
  0.00000000E+00  0.00000000E+00  0.00000000E+00
  0.00000000E+00  0.00000000E+00  0.00000000E+00
  0.00000000E+00  0.00000000E+00  0.00000000E+00
  0.00000000E+00  0.00000000E+00  0.00000000E+00
  0.00000000E+00  0.00000000E+00  0.00000000E+00
  0.00000000E+00  0.00000000E+00  0.00000000E+00
  0.00000000E+00  0.00000000E+00  0.00000000E+00
  0.00000000E+00  0.00000000E+00  0.00000000E+00
  0.00000000E+00  0.00000000E+00  0.00000000E+00
  0.00000000E+00  0.00000000E+00  0.00000000E+00
  0.00000000E+00  0.00000000E+00  0.00000000E+00
  0.00000000E+00  0.00000000E+00  0.00000000E+00
  0.00000000E+00  0.00000000E+00  0.00000000E+00
  0.00000000E+00  0.00000000E+00  0.00000000E+00
  0.00000000E+00  0.00000000E+00  0.00000000E+00
  0.00000000E+00  0.00000000E+00  0.00000000E+00
  0.00000000E+00  0.00000000E+00  0.00000000E+00
  0.00000000E+00  0.00000000E+00  0.00000000E+00
  0.00000000E+00  0.00000000E+00  0.00000000E+00
  0.00000000E+00  0.00000000E+00  0.00000000E+00
  0.00000000E+00  0.00000000E+00  0.00000000E+00
  0.00000000E+00  0.00000000E+00  0.00000000E+00
  0.00000000E+00  0.00000000E+00  0.00000000E+00
  0.00000000E+00  0.00000000E+00  0.00000000E+00
  0.00000000E+00  0.00000000E+00  0.00000000E+00
  0.00000000E+00  0.00000000E+00  0.00000000E+00
  0.00000000E+00  0.00000000E+00  0.00000000E+00
  0.00000000E+00  0.00000000E+00  0.00000000E+00
  0.00000000E+00  0.00000000E+00  0.00000000E+00
  0.00000000E+00  0.00000000E+00  0.00000000E+00
  0.00000000E+00  0.00000000E+00  0.00000000E+00
  0.00000000E+00  0.00000000E+00  0.00000000E+00
  0.00000000E+00  0.00000000E+00  0.00000000E+00
  0.00000000E+00  0.00000000E+00  0.00000000E+00
  0.00000000E+00  0.00000000E+00  0.00000000E+00
  0.00000000E+00  0.00000000E+00  0.00000000E+00
  0.00000000E+00  0.00000000E+00  0.00000000E+00
  0.00000000E+00  0.00000000E+00  0.00000000E+00
  0.00000000E+00  0.00000000E+00  0.00000000E+00
  0.00000000E+00  0.00000000E+00  0.00000000E+00
  0.00000000E+00  0.00000000E+00  0.00000000E+00
  0.00000000E+00  0.00000000E+00  0.00000000E+00
  0.00000000E+00  0.00000000E+00  0.00000000E+00
  0.00000000E+00  0.00000000E+00  0.00000000E+00
  0.00000000E+00  0.00000000E+00  0.00000000E+00
  0.00000000E+00  0.00000000E+00  0.00000000E+00
  0.00000000E+00  0.00000000E+00  0.00000000E+00
  0.00000000E+00  0.00000000E+00  0.00000000E+00
  0.00000000E+00  0.00000000E+00  0.00000000E+00
  0.00000000E+00  0.00000000E+00  0.00000000E+00
  0.00000000E+00  0.00000000E+00  0.00000000E+00
  0.00000000E+00  0.00000000E+00  0.00000000E+00
  0.00000000E+00  0.00000000E+00  0.00000000E+00
  0.00000000E+00  0.00000000E+00  0.00000000E+00
  0.00000000E+00  0.00000000E+00  0.00000000E+00
  0.00000000E+00  0.00000000E+00  0.00000000E+00
  0.00000000E+00  0.00000000E+00  0.00000000E+00
  0.00000000E+00  0.00000000E+00  0.00000000E+00
  0.00000000E+00  0.00000000E+00  0.00000000E+00
  0.00000000E+00  0.00000000E+00  0.00000000E+00
  0.00000000E+00  0.00000000E+00  0.00000000E+00
  0.00000000E+00  0.00000000E+00  0.00000000E+00
  0.00000000E+00  0.00000000E+00  0.00000000E+00
  0.00000000E+00  0.00000000E+00  0.00000000E+00
  0.00000000E+00  0.00000000E+00  0.00000000E+00
  0.00000000E+00  0.00000000E+00  0.00000000E+00
  0.00000000E+00  0.00000000E+00  0.00000000E+00
  0.00000000E+00  0.00000000E+00  0.00000000E+00
  0.00000000E+00  0.00000000E+00  0.00000000E+00
  0.00000000E+00  0.00000000E+00  0.00000000E+00
  0.00000000E+00  0.00000000E+00  0.00000000E+00
  0.00000000E+00  0.00000000E+00  0.00000000E+00
  0.00000000E+00  0.00000000E+00  0.00000000E+00
  0.00000000E+00  0.00000000E+00  0.00000000E+00
  0.00000000E+00  0.00000000E+00  0.00000000E+00
  0.00000000E+00  0.00000000E+00  0.00000000E+00
  0.00000000E+00  0.00000000E+00  0.00000000E+00
  0.00000000E+00  0.00000000E+00  0.00000000E+00
  0.00000000E+00  0.00000000E+00  0.00000000E+00
  0.00000000E+00  0.00000000E+00  0.00000000E+00
  0.00000000E+00  0.00000000E+00  0.00000000E+00
