Ge+Ge
    1.000000000
   17.891534805    0.000000000    0.000000000
  -16.102380753    7.798739433    0.000000000
    0.000000279   -0.000000064   13.628890038
Ge 
96
Direct
    0.812287450    0.187712550    0.476190299
    0.022813324    0.977186680    0.000000010
    0.180708155    0.819291830    0.095238067
    0.338602990    0.661396980    0.190476134
    0.496497810    0.503502190    0.285714209
    0.654392600    0.345607400    0.380952269
    0.101761222    0.898238838    0.499999791
    0.312287062    0.687712908    0.023809545
    0.470181882    0.529818058    0.119047582
    0.628076732    0.371923268    0.214285687
    0.785971582    0.214028403    0.309523731
    0.943866432    0.056133550    0.404761791
    0.312287331    0.687712610    0.476190239
    0.522813261    0.477186650    0.000000000
    0.680708110    0.319291830    0.095238060
    0.838602960    0.161397010    0.190476105
    0.996497810    0.003502154    0.285714149
    0.154392600    0.845607400    0.380952269
    0.601761222    0.398238838    0.499999970
    0.812287092    0.187712908    0.023809718
    0.970181823    0.029818127    0.119047716
    0.128076673    0.871923268    0.214285851
    0.285971522    0.714028358    0.309523880
    0.443866372    0.556133628    0.404761970
    0.312287450    0.187712491    0.476190329
    0.522813261    0.977186680    0.000000011
    0.680708110    0.819291890    0.095238060
    0.838602960    0.661397040    0.190476105
    0.996497750    0.503502250    0.285714149
    0.154392600    0.345607400    0.380952269
    0.601761460    0.898238719    0.499999940
    0.812287271    0.687712848    0.023809688
    0.970182121    0.529818058    0.119047754
    0.128076911    0.371923238    0.214285791
    0.285971761    0.214028388    0.309523880
    0.443866730    0.056133520    0.404761910
    0.812287509    0.687712491    0.476190299
    0.022813387    0.477186650    0.000000014
    0.180708200    0.319291830    0.095238052
    0.338603050    0.161396980    0.190476134
    0.496497840    0.003502190    0.285714149
    0.654392660    0.845607340    0.380952269
    0.101761222    0.398238778    0.499999970
    0.312287062    0.187712878    0.023809703
    0.470181882    0.029818086    0.119047754
    0.628076732    0.871923268    0.214285836
    0.785971522    0.714028418    0.309523880
    0.943866372    0.556133509    0.404761970
    0.812287211    0.187712550    0.976190209
    0.022813318    0.977186680    0.499999970
    0.180708110    0.819291830    0.595238090
    0.338602901    0.661396980    0.690476060
    0.496497661    0.503502131    0.785714149
    0.654392481    0.345607281    0.880952239
    0.101760983    0.898238778    0.999999881
    0.312287062    0.687712908    0.523809552
    0.470181823    0.529818118    0.619047523
    0.628076613    0.371923208    0.714285612
    0.785971463    0.214028373    0.809523702
    0.943866253    0.056133494    0.904761791
    0.312287092    0.687712550    0.976190209
    0.522813261    0.477186650    0.499999970
    0.680708051    0.319291830    0.595237970
    0.838602841    0.161396950    0.690476060
    0.996497631    0.003502136    0.785714149
    0.154392362    0.845607281    0.880952120
    0.601760983    0.398238719    1.000000000
    0.812287033    0.187712938    0.523809671
    0.970181763    0.029818079    0.619047642
    0.128076673    0.871923268    0.714285731
    0.285971403    0.714028418    0.809523940
    0.443866253    0.556133509    0.904761910
    0.812287271    0.687712431    0.976190209
    0.022813389    0.477186620    0.499999970
    0.180708155    0.319291800    0.595237970
    0.338602960    0.161396936    0.690476060
    0.496497720    0.003502136    0.785714149
    0.654392540    0.845607281    0.880952239
    0.101760983    0.398238659    1.000000000
    0.312287062    0.187712878    0.523809671
    0.470181853    0.029818071    0.619047642
    0.628076613    0.871923208    0.714285851
    0.785971403    0.714028418    0.809523821
    0.943866193    0.556133509    0.904761910
    0.312287211    0.187712491    0.976190209
    0.522813261    0.977186680    0.499999970
    0.680708051    0.819291830    0.595238090
    0.838602841    0.661396980    0.690476060
    0.996497571    0.503502250    0.785714149
    0.154392362    0.345607340    0.880952120
    0.601761222    0.898238659    1.000000000
    0.812287331    0.687712848    0.523809671
    0.970182061    0.529817998    0.619047642
    0.128076911    0.371923178    0.714285731
    0.285971642    0.214028358    0.809523821
    0.443866491    0.056133464    0.904761910
