Si+C
    1.000000000
   13.303179741    0.000000000    0.000000000
   -6.651589394   14.873406410    0.000000000
    0.000000000    0.000000000    8.390059471
Si  C  
36     84
Direct
    0.997150958    0.980056584    0.000000000
    0.963817537    0.746723175    0.144743830
    0.930484116    0.513389826    0.289487660
    0.330484211    0.313389868    0.000000000
    0.297150791    0.080056474    0.144743830
    0.263817370    0.846723080    0.289487660
    0.663817465    0.646723151    0.000000000
    0.630484045    0.413389713    0.144743830
    0.597150624    0.180056334    0.289487660
    0.313817531    0.946723342    0.072371759
    0.280484110    0.713389993    0.217115581
    0.247150689    0.480056584    0.361859351
    0.647150815    0.280056566    0.072371759
    0.613817394    0.046723194    0.217115551
    0.580483973    0.813389778    0.361859381
    0.980484426    0.613389850    0.072371788
    0.947151005    0.380056471    0.217115551
    0.913817585    0.146723092    0.361859351
    0.163817570    0.646723092    0.000000002
    0.130484164    0.413389713    0.144743830
    0.097150750    0.180056319    0.289487660
    0.497150898    0.980056643    0.000000005
    0.463817418    0.746723175    0.144743770
    0.430484056    0.513389826    0.289487600
    0.830484152    0.313389868    0.000000005
    0.797150731    0.080056526    0.144743770
    0.763817310    0.846723080    0.289487600
    0.147150904    0.280056566    0.072371773
    0.113817483    0.046723165    0.217115581
    0.080484070    0.813389778    0.361859381
    0.480484217    0.613389909    0.072371773
    0.447150826    0.380056530    0.217115551
    0.413817406    0.146723166    0.361859381
    0.813817501    0.946723282    0.072371759
    0.780484140    0.713389874    0.217115551
    0.747150719    0.480056465    0.361859381
    0.596013784    0.951577306    0.752224863
    0.396013677    0.551577389    0.562104404
    0.496013731    0.251577348    0.657164693
    0.881728113    0.094434440    0.752224863
    0.681727886    0.694434524    0.562104404
    0.781728029    0.394434482    0.657164693
    0.167442322    0.237291515    0.752224863
    0.967442214    0.837291598    0.562104404
    0.067442298    0.537291586    0.657164693
    0.453156680    0.380148768    0.752224863
    0.253156513    0.980148852    0.562104404
    0.353156596    0.680148840    0.657164693
    0.738870978    0.523005903    0.752224863
    0.538870811    0.123006016    0.562104404
    0.638870835    0.823005974    0.657164693
    0.024585247    0.665863037    0.752224863
    0.824585021    0.265863150    0.562104404
    0.924585104    0.965863109    0.657164693
    0.310299397    0.808720112    0.752224863
    0.110299349    0.408720285    0.562104404
    0.210299373    0.108720236    0.657164693
    0.574585259    0.265863121    0.799754858
    0.374585092    0.865863264    0.609634459
    0.474585176    0.565863252    0.704694629
    0.717442334    0.837291658    0.799754858
    0.517442226    0.437291741    0.609634459
    0.617442250    0.137291700    0.704694629
    0.003156662    0.980148971    0.799754858
    0.803156376    0.580149055    0.609634459
    0.903156459    0.280148983    0.704694688
    0.288870931    0.123006068    0.799754798
    0.088870764    0.723006129    0.609634459
    0.188870907    0.423006088    0.704694688
    0.860299528    0.408720195    0.799754858
    0.660299420    0.008720398    0.609634459
    0.760299444    0.708720207    0.704694629
    0.146013737    0.551577508    0.799754858
    0.946013570    0.151577592    0.609634459
    0.046013594    0.851577520    0.704694629
    0.431727886    0.694434524    0.799754858
    0.231727839    0.294434667    0.609634459
    0.331727862    0.994434595    0.704694629
    0.667442441    0.237291485    0.752224863
    0.467442185    0.837291658    0.562104404
    0.567442298    0.537291586    0.657164693
    0.524585247    0.665863037    0.752224863
    0.324585080    0.265863121    0.562104404
    0.424585164    0.965863049    0.657164693
    0.810299456    0.808720112    0.752224863
    0.610299349    0.408720255    0.562104404
    0.710299373    0.108720206    0.657164693
    0.096013784    0.951577246    0.752224863
    0.896013558    0.551577330    0.562104404
    0.996013761    0.251577318    0.657164693
    0.381728053    0.094434373    0.752224863
    0.181727886    0.694434524    0.562104404
    0.281727910    0.394434422    0.657164693
    0.953156590    0.380148768    0.752224863
    0.753156424    0.980148852    0.562104404
    0.853156567    0.680148780    0.657164693
    0.238870859    0.523005843    0.752224863
    0.038870692    0.123005979    0.562104404
    0.138870835    0.823005915    0.657164693
    0.503156662    0.980148971    0.799754858
    0.303156465    0.580149055    0.609634459
    0.403156519    0.280148983    0.704694688
    0.788870931    0.123006053    0.799754858
    0.588870764    0.723006129    0.609634459
    0.688870907    0.423006088    0.704694688
    0.074585199    0.265863180    0.799754858
    0.874585032    0.865863264    0.609634459
    0.974585116    0.565863132    0.704694688
    0.646013796    0.551577568    0.799754858
    0.446013659    0.151577652    0.609634459
    0.546013713    0.851577580    0.704694629
    0.931728065    0.694434643    0.799754798
    0.731727898    0.294434726    0.609634459
    0.831727922    0.994434595    0.704694688
    0.217442274    0.837291598    0.799754798
    0.017441988    0.437291682    0.609634459
    0.117442131    0.137291670    0.704694629
    0.360299468    0.408720195    0.799754918
    0.160299301    0.008720398    0.609634459
    0.260299325    0.708720207    0.704694688
