Ge
 1.0000000000000000
     5.6577999999999999    0.0000000000000000    0.0000000000000000
     0.0000000000000000   17.8915345457006545    0.0000000000000000
     0.0000000000000000    0.0000000000000000   60.5752647275557621
 Ge 
  96
Direct
  0.0000000000000000  0.0000000000000000  0.3301677688071576
  0.2500000000000000  0.7499999999999997  0.3301677688071576
  0.0000000000000000  0.5000000000000000  0.3301677688071576
  0.2500000000000000  0.2500000000000001  0.3301677688071576
  0.5000000000000000  0.6500000000000000  0.3449357889108831
  0.7499999999999999  0.4000000000000000  0.3449357889108830
  0.5000000000000000  0.1500000000000000  0.3449357889108831
  0.7499999999999999  0.8999999999999997  0.3449357889108830
  0.0000000000000000  0.3000000000000000  0.3597038090146085
  0.2500000000000000  0.0499999999999998  0.3597038090146085
  0.0000000000000000  0.8000000000000000  0.3597038090146085
  0.2500000000000000  0.5499999999999999  0.3597038090146084
  0.5000000000000000  0.9499999999999998  0.3744718291183339
  0.7499999999999999  0.7000000000000000  0.3744718291183339
  0.5000000000000000  0.4500000000000000  0.3744718291183339
  0.7499999999999999  0.1999999999999997  0.3744718291183339
  0.0000000000000000  0.6000000000000000  0.3892398492220593
  0.2500000000000000  0.3499999999999996  0.3892398492220593
  0.0000000000000000  0.0999999999999999  0.3892398492220593
  0.2500000000000000  0.8500000000000000  0.3892398492220593
  0.5000000000000000  0.2499999999999998  0.4040078693257847
  0.7499999999999999  0.0000000000000002  0.4040078693257848
  0.5000000000000000  0.7500000000000001  0.4040078693257848
  0.7499999999999999  0.4999999999999998  0.4040078693257847
  0.0000000000000000  0.8999999999999999  0.4187758894295102
  0.2500000000000000  0.6499999999999997  0.4187758894295102
  0.0000000000000000  0.3999999999999999  0.4187758894295101
  0.2500000000000000  0.1499999999999999  0.4187758894295101
  0.5000000000000000  0.5499999999999998  0.4335439095332355
  0.7499999999999999  0.3000000000000000  0.4335439095332355
  0.5000000000000000  0.0500000000000000  0.4335439095332355
  0.7499999999999999  0.7999999999999998  0.4335439095332355
  0.0000000000000000  0.2000000000000000  0.4483119296369610
  0.2500000000000000  0.9499999999999996  0.4483119296369610
  0.0000000000000000  0.7000000000000000  0.4483119296369610
  0.2500000000000000  0.4500000000000002  0.4483119296369609
  0.5000000000000000  0.8499999999999999  0.4630799497406864
  0.7499999999999999  0.6000000000000001  0.4630799497406864
  0.5000000000000000  0.3500000000000000  0.4630799497406864
  0.7499999999999999  0.0999999999999996  0.4630799497406864
  0.0000000000000000  0.5000000000000002  0.4778479698444119
  0.2500000000000000  0.2500000000000000  0.4778479698444119
  0.0000000000000000  0.0000000000000004  0.4778479698444119
  0.2500000000000000  0.7500000000000002  0.4778479698444118
  0.5000000000000000  0.1500000000000008  0.4926159899481372
  0.7499999999999999  0.8999999999999997  0.4926159899481372
  0.5000000000000000  0.6500000000000001  0.4926159899481372
  0.7499999999999999  0.3999999999999999  0.4926159899481372
  0.0000000000000000  0.7999999999999998  0.5073840100518627
  0.2500000000000000  0.5499999999999998  0.5073840100518627
  0.0000000000000000  0.2999999999999998  0.5073840100518627
  0.2500000000000000  0.0499999999999998  0.5073840100518626
  0.5000000000000000  0.4500000000000002  0.5221520301555880
  0.7499999999999999  0.1999999999999997  0.5221520301555880
  0.5000000000000000  0.9499999999999996  0.5221520301555880
  0.7499999999999999  0.6999999999999997  0.5221520301555880
  0.0000000000000000  0.1000000000000001  0.5369200502593134
  0.2500000000000000  0.8499999999999996  0.5369200502593134
  0.0000000000000000  0.6000000000000001  0.5369200502593134
  0.2500000000000000  0.3499999999999996  0.5369200502593134
  0.5000000000000000  0.7500000000000000  0.5516880703630388
  0.7499999999999999  0.4999999999999996  0.5516880703630389
  0.5000000000000000  0.2499999999999995  0.5516880703630389
  0.7499999999999999  0.9999999999999996  0.5516880703630388
  0.0000000000000000  0.3999999999999999  0.5664560904667644
  0.2500000000000000  0.1499999999999999  0.5664560904667644
  0.0000000000000000  0.9000000000000004  0.5664560904667644
  0.2500000000000000  0.6499999999999999  0.5664560904667644
  0.5000000000000000  0.0500000000000007  0.5812241105704898
  0.7499999999999999  0.7999999999999998  0.5812241105704897
  0.5000000000000000  0.5499999999999998  0.5812241105704897
  0.7499999999999999  0.2999999999999998  0.5812241105704898
  0.0000000000000000  0.7000000000000001  0.5959921306742153
  0.2500000000000000  0.4500000000000002  0.5959921306742153
  0.0000000000000000  0.2000000000000002  0.5959921306742153
  0.2500000000000000  0.9499999999999996  0.5959921306742152
  0.5000000000000000  0.3500000000000000  0.6107601507779405
  0.7499999999999999  0.0999999999999996  0.6107601507779405
  0.5000000000000000  0.8500000000000000  0.6107601507779405
  0.7499999999999999  0.6000000000000005  0.6107601507779405
  0.0000000000000000  0.0000000000000004  0.6255281708816660
  0.2500000000000000  0.7500000000000004  0.6255281708816660
  0.0000000000000000  0.5000000000000003  0.6255281708816660
  0.2500000000000000  0.2500000000000000  0.6255281708816659
  0.5000000000000000  0.6500000000000002  0.6402961909853915
  0.7499999999999999  0.3999999999999999  0.6402961909853915
  0.5000000000000000  0.1499999999999999  0.6402961909853915
  0.7499999999999999  0.9000000000000004  0.6402961909853915
  0.0000000000000000  0.2999999999999998  0.6550642110891168
  0.2500000000000000  0.0500000000000007  0.6550642110891168
  0.0000000000000000  0.7999999999999994  0.6550642110891168
  0.2500000000000000  0.5499999999999998  0.6550642110891168
  0.5000000000000000  0.9500000000000001  0.6698322311928424
  0.7499999999999999  0.6999999999999997  0.6698322311928423
  0.5000000000000000  0.4500000000000002  0.6698322311928423
  0.7499999999999999  0.2000000000000002  0.6698322311928423
