Ge+Sn                                   
   1.00000000000000     
    16.0026760099999983    0.0000000000000000    0.0000000000000000
     8.0013380049999991   13.8587245939999999    0.0000000000000000
     0.0000000000000000    0.0000000000000000   20.3040122990000000
   Ge   Sn
    96    72
Direct
  0.3108832240000012  0.3108831640000034  0.3217623529999969
  0.9775500300000033  0.9775500300000033  0.0000000249999985
  0.6442165369999984  0.6442165970000033  0.1608812059999991
  0.8108831640000034  0.3108831640000034  0.3217623529999969
  0.4775500000000008  0.9775500300000033  0.0000000329999992
  0.1442165819999985  0.6442165970000033  0.1608812059999991
  0.3108831640000034  0.8108831640000034  0.3217623529999969
  0.9775500300000033  0.4775500000000008  0.0000000309999990
  0.6442165970000033  0.1442165819999985  0.1608812059999991
  0.8108831640000034  0.8108831640000034  0.3217623529999969
  0.4775500000000008  0.4775500000000008  0.0000000000000000
  0.1442165670000009  0.1442165670000009  0.1608811770000003
  0.4775497910000013  0.4775497319999999  0.3619826730000000
  0.1442166860000000  0.1442166120000010  0.0402203310000004
  0.8108832839999991  0.8108832240000012  0.2011014819999986
  0.9775497910000013  0.4775496720000021  0.3619826730000000
  0.6442166570000012  0.1442166269999987  0.0402203310000004
  0.3108832839999991  0.8108832240000012  0.2011014819999986
  0.4775496720000021  0.9775497910000013  0.3619826730000000
  0.1442166269999987  0.6442166570000012  0.0402203310000004
  0.8108832240000012  0.3108832839999991  0.2011014819999986
  0.9775496720000021  0.9775497910000013  0.3619826440000011
  0.6442165970000033  0.6442166570000012  0.0402203310000004
  0.3108831640000034  0.3108832539999966  0.2011014520000032
  0.5608831640000034  0.5608831640000034  0.3217623829999994
  0.2275500149999985  0.2275500149999985  0.0000000349999993
  0.8942165970000033  0.8942165970000033  0.1608811770000003
  0.0608832129999968  0.5608831640000034  0.3217624130000019
  0.7275500300000033  0.2275500450000010  0.0000000349999993
  0.3942165970000033  0.8942165970000033  0.1608812059999991
  0.5608831640000034  0.0608831759999973  0.3217623529999969
  0.2275500149999985  0.7275499699999983  0.0000000120000010
  0.8942165369999984  0.3942165970000033  0.1608811770000003
  0.0608831899999984  0.0608831050000020  0.3217623529999969
  0.7275500300000033  0.7275499109999970  0.0000000229999984
  0.3942166269999987  0.3942165670000009  0.1608812059999991
  0.7275497910000013  0.7275497910000013  0.3619826440000011
  0.3942166269999987  0.3942166269999987  0.0402202679999988
  0.0608831939999988  0.0608831899999984  0.2011014520000032
  0.2275497910000013  0.7275497910000013  0.3619826440000011
  0.8942165970000033  0.3942166269999987  0.0402202869999968
  0.5608831640000034  0.0608831899999984  0.2011014520000032
  0.7275497910000013  0.2275498509999991  0.3619826440000011
  0.3942166269999987  0.8942166570000012  0.0402202869999968
  0.0608832019999994  0.5608832839999991  0.2011014520000032
  0.2275498509999991  0.2275498509999991  0.3619826440000011
  0.8942167160000025  0.8942166570000012  0.0402202759999994
  0.5608832839999991  0.5608832839999991  0.2011014520000032
  0.3108831640000034  0.5608831640000034  0.3217623529999969
  0.9775500300000033  0.2275500149999985  0.0000000200000017
  0.6442165369999984  0.8942165970000033  0.1608812059999991
  0.8108831640000034  0.5608831640000034  0.3217623829999994
  0.4775500300000033  0.2275500149999985  0.0000000269999987
  0.1442165970000033  0.8942165970000033  0.1608812059999991
  0.3108831640000034  0.0608831759999973  0.3217623529999969
  0.9775500300000033  0.7275499699999983  0.0000000269999987
  0.6442165970000033  0.3942165970000033  0.1608812059999991
  0.8108831640000034  0.0608830899999973  0.3217623529999969
  0.4775500000000008  0.7275499109999970  0.0000000229999984
  0.1442166120000010  0.3942165369999984  0.1608811770000003
  0.4775497910000013  0.7275497910000013  0.3619826440000011
  0.1442166120000010  0.3942165970000033  0.0402202869999968
  0.8108831640000034  0.0608831899999984  0.2011014520000032
  0.9775497319999999  0.7275497910000013  0.3619826440000011
  0.6442165970000033  0.3942166269999987  0.0402202869999968
  0.3108831640000034  0.0608831899999984  0.2011014520000032
  0.4775497319999999  0.2275498509999991  0.3619826139999986
  0.1442166269999987  0.8942166570000012  0.0402202759999994
  0.8108831640000034  0.5608832839999991  0.2011014520000032
  0.9775497910000013  0.2275498509999991  0.3619826139999986
  0.6442166570000012  0.8942166570000012  0.0402202679999988
  0.3108832240000012  0.5608832839999991  0.2011014520000032
  0.5608831050000020  0.3108831640000034  0.3217623529999969
  0.2275500149999985  0.9775500300000033  0.0000000220000018
  0.8942165970000033  0.6442165970000033  0.1608812059999991
  0.0608831830000014  0.3108831640000034  0.3217623829999994
  0.7275499699999983  0.9775500300000033  0.0000000289999988
  0.3942166269999987  0.6442165970000033  0.1608812059999991
  0.5608831640000034  0.8108831640000034  0.3217623829999994
  0.2275500000000008  0.4775500000000008  0.0000000309999990
  0.8942165970000033  0.1442165819999985  0.1608812059999991
  0.0608831790000011  0.8108831050000020  0.3217623529999969
  0.7275499699999983  0.4775499400000029  0.0000000140000012
  0.3942165970000033  0.1442165369999984  0.1608811770000003
  0.7275497910000013  0.4775498509999991  0.3619826730000000
  0.3942166860000000  0.1442167160000025  0.0402203160000028
  0.0608832839999991  0.8108833430000004  0.2011014819999986
  0.2275496720000021  0.4775498509999991  0.3619826730000000
  0.8942166570000012  0.1442167310000002  0.0402203240000034
  0.5608832839999991  0.8108833430000004  0.2011014520000032
  0.7275497910000013  0.9775498509999991  0.3619826440000011
  0.3942166860000000  0.6442167160000025  0.0402203310000004
  0.0608832759999984  0.3108833730000029  0.2011014819999986
  0.2275497319999999  0.9775497910000013  0.3619826730000000
  0.8942166570000012  0.6442166570000012  0.0402203160000028
  0.5608832839999991  0.3108832839999991  0.2011014520000032
  0.7231010790000028  0.3962264059999967  0.8424482349999991
  0.0564343590000007  0.3962264059999967  0.4734038409999997
  0.3897677060000007  0.3962264059999967  0.6579260230000017
  0.0564343670000014  0.7295597789999988  0.8424482349999991
  0.3897677360000031  0.7295597789999988  0.4734038409999997
  0.7231010790000028  0.7295597789999988  0.6579260230000017
  0.3897677360000031  0.0628931520000009  0.8424482349999991
  0.7231010790000028  0.0628931520000009  0.4734038109999972
  0.0564343670000014  0.0628931520000009  0.6579260230000017
  0.0564343670000014  0.3962264059999967  0.8885788919999982
  0.3897677060000007  0.3962264059999967  0.5195344090000020
  0.7231010790000028  0.3962264059999967  0.7040566209999994
  0.3897677360000031  0.7295597789999988  0.8885788919999982
  0.7231011390000006  0.7295597789999988  0.5195344090000020
  0.0564344860000006  0.7295597789999988  0.7040566209999994
  0.7231009010000022  0.0628931520000009  0.8885787729999990
  0.0564343670000014  0.0628931520000009  0.5195343489999971
  0.3897677360000031  0.0628931520000009  0.7040566209999994
  0.8897677659999985  0.5628930929999996  0.8424482349999991
  0.2231010349999991  0.5628930929999996  0.4734038409999997
  0.5564343930000035  0.5628930929999996  0.6579260230000017
  0.2231011089999981  0.8962264059999967  0.8424482349999991
  0.5564343329999986  0.8962264059999967  0.4734038409999997
  0.8897677659999985  0.8962264059999967  0.6579260829999996
  0.5564343930000035  0.2295597789999988  0.8424482349999991
  0.8897677659999985  0.2295597789999988  0.4734038409999997
  0.2231011089999981  0.2295597789999988  0.6579260230000017
  0.2231009899999989  0.5628930929999996  0.8885788919999982
  0.5564343930000035  0.5628930330000017  0.5195343489999971
  0.8897677060000007  0.5628930929999996  0.7040565610000016
  0.5564342739999972  0.8962264059999967  0.8885788919999982
  0.8897676469999993  0.8962264059999967  0.5195343489999971
  0.2231008709999998  0.8962264059999967  0.7040565009999966
  0.8897677060000007  0.2295597789999988  0.8885788320000003
  0.2231010049999966  0.2295597789999988  0.5195342900000028
  0.5564343930000035  0.2295597789999988  0.7040565610000016
  0.2231011089999981  0.3962264059999967  0.8424482349999991
  0.5564343930000035  0.3962264059999967  0.4734038409999997
  0.8897677060000007  0.3962264059999967  0.6579260230000017
  0.5564343930000035  0.7295597789999988  0.8424482349999991
  0.8897677659999985  0.7295597789999988  0.4734038409999997
  0.2231011089999981  0.7295597789999988  0.6579260230000017
  0.8897677659999985  0.0628931520000009  0.8424482349999991
  0.2231010650000016  0.0628931520000009  0.4734038409999997
  0.5564343930000035  0.0628931520000009  0.6579260230000017
  0.5564343930000035  0.3962264059999967  0.8885788320000003
  0.8897677659999985  0.3962264059999967  0.5195343489999971
  0.2231009899999989  0.3962264059999967  0.7040565009999966
  0.8897677060000007  0.7295597789999988  0.8885788919999982
  0.2231010049999966  0.7295597789999988  0.5195343489999971
  0.5564343329999986  0.7295597789999988  0.7040565610000016
  0.2231009899999989  0.0628931520000009  0.8885787729999990
  0.5564343930000035  0.0628931520000009  0.5195342900000028
  0.8897677060000007  0.0628931520000009  0.7040565610000016
  0.3897677360000031  0.5628930929999996  0.8424482349999991
  0.7231010790000028  0.5628930929999996  0.4734038409999997
  0.0564343670000014  0.5628930929999996  0.6579260230000017
  0.7231010790000028  0.8962264059999967  0.8424482349999991
  0.0564343630000010  0.8962264059999967  0.4734038409999997
  0.3897677060000007  0.8962264059999967  0.6579260230000017
  0.0564343670000014  0.2295596599999996  0.8424482940000004
  0.3897676770000018  0.2295596599999996  0.4734038109999972
  0.7231010200000014  0.2295596599999996  0.6579260230000017
  0.7231010200000014  0.5628930929999996  0.8885788919999982
  0.0564343670000014  0.5628930929999996  0.5195343489999971
  0.3897676169999968  0.5628930929999996  0.7040565610000016
  0.0564343670000014  0.8962264059999967  0.8885788919999982
  0.3897677060000007  0.8962264059999967  0.5195344090000020
  0.7231010790000028  0.8962264059999967  0.7040566209999994
  0.3897676169999968  0.2295597789999988  0.8885788919999982
  0.7231010200000014  0.2295597789999988  0.5195344090000020
  0.0564343670000014  0.2295597789999988  0.7040566209999994
 
  0.00000000E+00  0.00000000E+00  0.00000000E+00
  0.00000000E+00  0.00000000E+00  0.00000000E+00
  0.00000000E+00  0.00000000E+00  0.00000000E+00
  0.00000000E+00  0.00000000E+00  0.00000000E+00
  0.00000000E+00  0.00000000E+00  0.00000000E+00
  0.00000000E+00  0.00000000E+00  0.00000000E+00
  0.00000000E+00  0.00000000E+00  0.00000000E+00
  0.00000000E+00  0.00000000E+00  0.00000000E+00
  0.00000000E+00  0.00000000E+00  0.00000000E+00
  0.00000000E+00  0.00000000E+00  0.00000000E+00
  0.00000000E+00  0.00000000E+00  0.00000000E+00
  0.00000000E+00  0.00000000E+00  0.00000000E+00
  0.00000000E+00  0.00000000E+00  0.00000000E+00
  0.00000000E+00  0.00000000E+00  0.00000000E+00
  0.00000000E+00  0.00000000E+00  0.00000000E+00
  0.00000000E+00  0.00000000E+00  0.00000000E+00
  0.00000000E+00  0.00000000E+00  0.00000000E+00
  0.00000000E+00  0.00000000E+00  0.00000000E+00
  0.00000000E+00  0.00000000E+00  0.00000000E+00
  0.00000000E+00  0.00000000E+00  0.00000000E+00
  0.00000000E+00  0.00000000E+00  0.00000000E+00
  0.00000000E+00  0.00000000E+00  0.00000000E+00
  0.00000000E+00  0.00000000E+00  0.00000000E+00
  0.00000000E+00  0.00000000E+00  0.00000000E+00
  0.00000000E+00  0.00000000E+00  0.00000000E+00
  0.00000000E+00  0.00000000E+00  0.00000000E+00
  0.00000000E+00  0.00000000E+00  0.00000000E+00
  0.00000000E+00  0.00000000E+00  0.00000000E+00
  0.00000000E+00  0.00000000E+00  0.00000000E+00
  0.00000000E+00  0.00000000E+00  0.00000000E+00
  0.00000000E+00  0.00000000E+00  0.00000000E+00
  0.00000000E+00  0.00000000E+00  0.00000000E+00
  0.00000000E+00  0.00000000E+00  0.00000000E+00
  0.00000000E+00  0.00000000E+00  0.00000000E+00
  0.00000000E+00  0.00000000E+00  0.00000000E+00
  0.00000000E+00  0.00000000E+00  0.00000000E+00
  0.00000000E+00  0.00000000E+00  0.00000000E+00
  0.00000000E+00  0.00000000E+00  0.00000000E+00
  0.00000000E+00  0.00000000E+00  0.00000000E+00
  0.00000000E+00  0.00000000E+00  0.00000000E+00
  0.00000000E+00  0.00000000E+00  0.00000000E+00
  0.00000000E+00  0.00000000E+00  0.00000000E+00
  0.00000000E+00  0.00000000E+00  0.00000000E+00
  0.00000000E+00  0.00000000E+00  0.00000000E+00
  0.00000000E+00  0.00000000E+00  0.00000000E+00
  0.00000000E+00  0.00000000E+00  0.00000000E+00
  0.00000000E+00  0.00000000E+00  0.00000000E+00
  0.00000000E+00  0.00000000E+00  0.00000000E+00
  0.00000000E+00  0.00000000E+00  0.00000000E+00
  0.00000000E+00  0.00000000E+00  0.00000000E+00
  0.00000000E+00  0.00000000E+00  0.00000000E+00
  0.00000000E+00  0.00000000E+00  0.00000000E+00
  0.00000000E+00  0.00000000E+00  0.00000000E+00
  0.00000000E+00  0.00000000E+00  0.00000000E+00
  0.00000000E+00  0.00000000E+00  0.00000000E+00
  0.00000000E+00  0.00000000E+00  0.00000000E+00
  0.00000000E+00  0.00000000E+00  0.00000000E+00
  0.00000000E+00  0.00000000E+00  0.00000000E+00
  0.00000000E+00  0.00000000E+00  0.00000000E+00
  0.00000000E+00  0.00000000E+00  0.00000000E+00
  0.00000000E+00  0.00000000E+00  0.00000000E+00
  0.00000000E+00  0.00000000E+00  0.00000000E+00
  0.00000000E+00  0.00000000E+00  0.00000000E+00
  0.00000000E+00  0.00000000E+00  0.00000000E+00
  0.00000000E+00  0.00000000E+00  0.00000000E+00
  0.00000000E+00  0.00000000E+00  0.00000000E+00
  0.00000000E+00  0.00000000E+00  0.00000000E+00
  0.00000000E+00  0.00000000E+00  0.00000000E+00
  0.00000000E+00  0.00000000E+00  0.00000000E+00
  0.00000000E+00  0.00000000E+00  0.00000000E+00
  0.00000000E+00  0.00000000E+00  0.00000000E+00
  0.00000000E+00  0.00000000E+00  0.00000000E+00
  0.00000000E+00  0.00000000E+00  0.00000000E+00
  0.00000000E+00  0.00000000E+00  0.00000000E+00
  0.00000000E+00  0.00000000E+00  0.00000000E+00
  0.00000000E+00  0.00000000E+00  0.00000000E+00
  0.00000000E+00  0.00000000E+00  0.00000000E+00
  0.00000000E+00  0.00000000E+00  0.00000000E+00
  0.00000000E+00  0.00000000E+00  0.00000000E+00
  0.00000000E+00  0.00000000E+00  0.00000000E+00
  0.00000000E+00  0.00000000E+00  0.00000000E+00
  0.00000000E+00  0.00000000E+00  0.00000000E+00
  0.00000000E+00  0.00000000E+00  0.00000000E+00
  0.00000000E+00  0.00000000E+00  0.00000000E+00
  0.00000000E+00  0.00000000E+00  0.00000000E+00
  0.00000000E+00  0.00000000E+00  0.00000000E+00
  0.00000000E+00  0.00000000E+00  0.00000000E+00
  0.00000000E+00  0.00000000E+00  0.00000000E+00
  0.00000000E+00  0.00000000E+00  0.00000000E+00
  0.00000000E+00  0.00000000E+00  0.00000000E+00
  0.00000000E+00  0.00000000E+00  0.00000000E+00
  0.00000000E+00  0.00000000E+00  0.00000000E+00
  0.00000000E+00  0.00000000E+00  0.00000000E+00
  0.00000000E+00  0.00000000E+00  0.00000000E+00
  0.00000000E+00  0.00000000E+00  0.00000000E+00
  0.00000000E+00  0.00000000E+00  0.00000000E+00
  0.00000000E+00  0.00000000E+00  0.00000000E+00
  0.00000000E+00  0.00000000E+00  0.00000000E+00
  0.00000000E+00  0.00000000E+00  0.00000000E+00
  0.00000000E+00  0.00000000E+00  0.00000000E+00
  0.00000000E+00  0.00000000E+00  0.00000000E+00
  0.00000000E+00  0.00000000E+00  0.00000000E+00
  0.00000000E+00  0.00000000E+00  0.00000000E+00
  0.00000000E+00  0.00000000E+00  0.00000000E+00
  0.00000000E+00  0.00000000E+00  0.00000000E+00
  0.00000000E+00  0.00000000E+00  0.00000000E+00
  0.00000000E+00  0.00000000E+00  0.00000000E+00
  0.00000000E+00  0.00000000E+00  0.00000000E+00
  0.00000000E+00  0.00000000E+00  0.00000000E+00
  0.00000000E+00  0.00000000E+00  0.00000000E+00
  0.00000000E+00  0.00000000E+00  0.00000000E+00
  0.00000000E+00  0.00000000E+00  0.00000000E+00
  0.00000000E+00  0.00000000E+00  0.00000000E+00
  0.00000000E+00  0.00000000E+00  0.00000000E+00
  0.00000000E+00  0.00000000E+00  0.00000000E+00
  0.00000000E+00  0.00000000E+00  0.00000000E+00
  0.00000000E+00  0.00000000E+00  0.00000000E+00
  0.00000000E+00  0.00000000E+00  0.00000000E+00
  0.00000000E+00  0.00000000E+00  0.00000000E+00
  0.00000000E+00  0.00000000E+00  0.00000000E+00
  0.00000000E+00  0.00000000E+00  0.00000000E+00
  0.00000000E+00  0.00000000E+00  0.00000000E+00
  0.00000000E+00  0.00000000E+00  0.00000000E+00
  0.00000000E+00  0.00000000E+00  0.00000000E+00
  0.00000000E+00  0.00000000E+00  0.00000000E+00
  0.00000000E+00  0.00000000E+00  0.00000000E+00
  0.00000000E+00  0.00000000E+00  0.00000000E+00
  0.00000000E+00  0.00000000E+00  0.00000000E+00
  0.00000000E+00  0.00000000E+00  0.00000000E+00
  0.00000000E+00  0.00000000E+00  0.00000000E+00
  0.00000000E+00  0.00000000E+00  0.00000000E+00
  0.00000000E+00  0.00000000E+00  0.00000000E+00
  0.00000000E+00  0.00000000E+00  0.00000000E+00
  0.00000000E+00  0.00000000E+00  0.00000000E+00
  0.00000000E+00  0.00000000E+00  0.00000000E+00
  0.00000000E+00  0.00000000E+00  0.00000000E+00
  0.00000000E+00  0.00000000E+00  0.00000000E+00
  0.00000000E+00  0.00000000E+00  0.00000000E+00
  0.00000000E+00  0.00000000E+00  0.00000000E+00
  0.00000000E+00  0.00000000E+00  0.00000000E+00
  0.00000000E+00  0.00000000E+00  0.00000000E+00
  0.00000000E+00  0.00000000E+00  0.00000000E+00
  0.00000000E+00  0.00000000E+00  0.00000000E+00
  0.00000000E+00  0.00000000E+00  0.00000000E+00
  0.00000000E+00  0.00000000E+00  0.00000000E+00
  0.00000000E+00  0.00000000E+00  0.00000000E+00
  0.00000000E+00  0.00000000E+00  0.00000000E+00
  0.00000000E+00  0.00000000E+00  0.00000000E+00
  0.00000000E+00  0.00000000E+00  0.00000000E+00
  0.00000000E+00  0.00000000E+00  0.00000000E+00
  0.00000000E+00  0.00000000E+00  0.00000000E+00
  0.00000000E+00  0.00000000E+00  0.00000000E+00
  0.00000000E+00  0.00000000E+00  0.00000000E+00
  0.00000000E+00  0.00000000E+00  0.00000000E+00
  0.00000000E+00  0.00000000E+00  0.00000000E+00
  0.00000000E+00  0.00000000E+00  0.00000000E+00
  0.00000000E+00  0.00000000E+00  0.00000000E+00
  0.00000000E+00  0.00000000E+00  0.00000000E+00
  0.00000000E+00  0.00000000E+00  0.00000000E+00
  0.00000000E+00  0.00000000E+00  0.00000000E+00
  0.00000000E+00  0.00000000E+00  0.00000000E+00
  0.00000000E+00  0.00000000E+00  0.00000000E+00
  0.00000000E+00  0.00000000E+00  0.00000000E+00
  0.00000000E+00  0.00000000E+00  0.00000000E+00
  0.00000000E+00  0.00000000E+00  0.00000000E+00
  0.00000000E+00  0.00000000E+00  0.00000000E+00
  0.00000000E+00  0.00000000E+00  0.00000000E+00
  0.00000000E+00  0.00000000E+00  0.00000000E+00
