Sn+Si                                   
   1.00000000000000     
    19.4675998690000007    0.0000000000000000    0.0000000000000000
     0.0000000000000000   19.4675998690000007    0.0000000000000000
     0.0000000000000000    0.0000000000000000   14.9002513889999992
   Sn   Si
   108   156
Direct
  0.2450350969999988  0.4166667160000017  0.1088773680000017
  0.7843543290000028  0.0604304080000020  0.0000002379999984
  0.2266622779999992  0.8488918540000014  0.5443868039999984
  0.9950351119999965  0.3333333429999996  0.0000000000000000
  0.8283684250000007  0.3333333429999996  0.2177547369999999
  0.6617017390000015  0.3333333429999996  0.4355094430000008
  0.5783684849999986  0.7500000599999979  0.1088773680000017
  0.9117017390000015  0.4166667160000017  0.5443868039999984
  0.6617017390000015  0.0000000000000000  0.4355094430000008
  0.3283684550000032  0.6666666870000029  0.0000000000000000
  0.1617017390000015  0.6666666870000029  0.2177547369999999
  0.7450350519999986  0.9166667459999971  0.5443868039999984
  0.3283684250000007  0.8333333129999971  0.2177547369999999
  0.1617017390000015  0.3333333429999996  0.2177547369999999
  0.5783683659999994  0.4166667160000017  0.5443868039999984
  0.3283684550000032  0.0000000000000000  0.0000000000000000
  0.1617017390000015  0.0000000000000000  0.2177547369999999
  0.9950351119999965  0.0000000000000000  0.4355094430000008
  0.6617017980000028  0.6666666870000029  0.0000000000000000
  0.4950351119999965  0.6666666870000029  0.2177547369999999
  0.3283684550000032  0.6666666870000029  0.4355094430000008
  0.0783684330000014  0.5833334330000000  0.1088773680000017
  0.4950351119999965  0.3333333429999996  0.2177547369999999
  0.7458931210000017  0.2527379989999972  0.6355094310000027
  0.6617017980000028  0.0000000000000000  0.0000000000000000
  0.4950351119999965  0.0000000000000000  0.2177547369999999
  0.7450350519999986  0.2500000000000000  0.5443868039999984
  0.0783684330000014  0.9166667459999971  0.1088773680000017
  0.9382005329999998  0.2911996249999973  0.0000002379999984
  0.9950351119999965  0.6666666870000029  0.4355094430000008
  0.6617017980000028  0.3333333429999996  0.0000000000000000
  0.9117017980000028  0.5833334330000000  0.3266320230000019
  0.7450350519999986  0.5833334330000000  0.5443868039999984
  0.0783684330000014  0.2500000000000000  0.1088773680000017
  0.9117017980000028  0.2500000000000000  0.3266320230000019
  0.3283684550000032  0.0000000000000000  0.4355094430000008
  0.4117017689999969  0.9166667459999971  0.1088773680000017
  0.2450350969999988  0.9166667459999971  0.3266320230000019
  0.0783683809999971  0.9166667459999971  0.5443868039999984
  0.4117017689999969  0.5833334330000000  0.1088773680000017
  0.2450350969999988  0.5833334330000000  0.3266320230000019
  0.0783684330000014  0.0833333429999996  0.3266320230000019
  0.1305082439999978  0.3296611909999996  0.0000002379999984
  0.0535851160000007  0.7142766710000004  0.0000002379999984
  0.0783683809999971  0.2500000000000000  0.5443868039999984
  0.7450351720000015  0.9166667459999971  0.1088773680000017
  0.5343546269999990  0.3104303479999970  0.5443868039999984
  0.4117017980000028  0.9166667459999971  0.5443868039999984
  0.7450351720000015  0.5833334330000000  0.1088773680000017
  0.3612774309999978  0.1758151049999981  0.0000002379999984
  0.8283684250000007  0.8333333129999971  0.4355094430000008
  0.8228158949999980  0.8681227559999982  0.0000002379999984
  0.0343545489999997  0.8104303479999970  0.5443868039999984
  0.4117017980000028  0.2500000000000000  0.5443868039999984
  0.1617017689999969  0.8333333129999971  0.0000000000000000
  0.9950350519999986  0.8333333129999971  0.2177547369999999
  0.4117017980000028  0.5833334330000000  0.5443868039999984
  0.1617017689999969  0.5000000000000000  0.0000000000000000
  0.8035853510000024  0.9642766119999990  0.5443868039999984
  0.8283684250000007  0.5000000000000000  0.4355094430000008
  0.0783684330000014  0.7500000599999979  0.3266320230000019
  0.9950350519999986  0.1666666719999981  0.2177547369999999
  0.8283684250000007  0.1666666719999981  0.4355094430000008
  0.4950351119999965  0.8333333129999971  0.0000000000000000
  0.1112776399999973  0.4258149859999989  0.5443868039999984
  0.1617017539999992  0.8333333129999971  0.4355094430000008
  0.4950351119999965  0.5000000000000000  0.0000000000000000
  0.4189699889999972  0.8873534800000016  0.5443868039999984
  0.8805084820000033  0.5796611909999996  0.5443868039999984
  0.4950351119999965  0.1666666719999981  0.0000000000000000
  0.7458927630000005  0.2527381479999988  0.0000002379999984
  0.1617017539999992  0.1666666719999981  0.4355094430000008
  0.6617018580000007  0.1666666719999981  0.2177547369999999
  0.6617018580000007  0.8333333129999971  0.2177547369999999
  0.4950352010000003  0.8333333129999971  0.4355094430000008
  0.8283685450000036  0.5000000000000000  0.0000000000000000
  0.6617018580000007  0.5000000000000000  0.2177547369999999
  0.5728160740000021  0.1181226369999990  0.5443868039999984
  0.2450350969999988  0.0833333429999996  0.1088773680000017
  0.8283685450000036  0.8333333129999971  0.0000000000000000
  0.4950352010000003  0.1666666719999981  0.4355094430000008
  0.2450350969999988  0.7500000599999979  0.1088773680000017
  0.1617017689999969  0.1666666719999981  0.0000000000000000
  0.9117017390000015  0.7500000599999979  0.5443868039999984
  0.9950351119999965  0.6666666870000029  0.0000000000000000
  0.4958930609999967  0.5027381180000035  0.5443868039999984
  0.8283684250000007  0.0000000000000000  0.2177547369999999
  0.8283685450000036  0.1666666719999981  0.0000000000000000
  0.0783683809999971  0.5833334330000000  0.5443868039999984
  0.9117017390000015  0.0833333429999996  0.5443868039999984
  0.9950351119999965  0.0000000000000000  0.0000000000000000
  0.4117018580000007  0.7500000599999979  0.3266320230000019
  0.2450351270000013  0.7500000599999979  0.5443868039999984
  0.5783684849999986  0.4166667160000017  0.1088773680000017
  0.5783683659999994  0.0833333429999996  0.5443868039999984
  0.2450351270000013  0.4166667160000017  0.5443868039999984
  0.9958928229999984  0.0027381180000035  0.9088773129999979
  0.4117018580000007  0.0833333429999996  0.3266320230000019
  0.2450351270000013  0.0833333429999996  0.5443868039999984
  0.9117017390000015  0.7500000599999979  0.1088773680000017
  0.7450350519999986  0.7500000599999979  0.3266320230000019
  0.5783683659999994  0.7500000599999979  0.5443868039999984
  0.4766621890000025  0.5988919730000006  0.0000002379999984
  0.7450350519999986  0.4166667160000017  0.3266320230000019
  0.9950351119999965  0.3333333429999996  0.4355094430000008
  0.9117017390000015  0.0833333429999996  0.1088773680000017
  0.7450350519999986  0.0833333429999996  0.3266320230000019
  0.4117018580000007  0.4166667160000017  0.3266320230000019
  0.7651239039999993  0.1565841589999977  0.5443868039999984
  0.6497392059999996  0.2335072759999974  0.7266320590000035
  0.5343545079999998  0.3104304370000008  0.9088773129999979
  0.0783684330000014  0.7500000599999979  0.3266320230000019
  0.8035853510000024  0.4642764629999974  0.7266320590000035
  0.6882006530000027  0.5411996249999973  0.9088773129999979
  0.3805084529999974  0.0796610709999968  0.5443868039999984
  0.2651237549999976  0.1565842030000013  0.7266320590000035
  0.1497390569999979  0.2335073349999988  0.9088773129999979
  0.5783685450000036  0.9166667459999971  0.3266320230000019
  0.4189698989999968  0.3873534800000016  0.7266320590000035
  0.3035852020000007  0.4642766119999990  0.9088773129999979
  0.6617018580000007  0.1666666719999981  0.2177547369999999
  0.5728160139999972  0.6181226969999969  0.7266320590000035
  0.4574313159999974  0.6950458290000014  0.9088773129999979
  0.8420468569999997  0.7719689010000010  0.5443868039999984
  0.7266621590000000  0.8488920329999985  0.7266320590000035
  0.6112774610000002  0.9258151650000030  0.9088773129999979
  0.9958930020000025  0.0027379830000029  0.5443868039999984
  0.8805083040000028  0.0796611089999999  0.7266320590000035
  0.7651236060000031  0.1565842480000015  0.9088773129999979
  0.1497391759999971  0.2335072460000021  0.5443868039999984
  0.0343544859999980  0.3104303779999995  0.7266320590000035
  0.9189697500000023  0.3873535099999970  0.9088773129999979
  0.3035853510000024  0.4642765219999987  0.5443868039999984
  0.1882006379999979  0.5411996249999973  0.7266320590000035
  0.0728159250000004  0.6181227559999982  0.9088773129999979
  0.4574315249999970  0.6950456499999973  0.5443868039999984
  0.3420468269999972  0.7719687820000019  0.7266320590000035
  0.2266621139999998  0.8488919139999993  0.9088773129999979
  0.6112776399999973  0.9258150459999968  0.5443868039999984
  0.4958929419999976  0.0027381180000035  0.7266320590000035
  0.3805082439999978  0.0796612500000009  0.9088773129999979
  0.0728160889999998  0.6181226369999990  0.5443868039999984
  0.9574313760000024  0.6950457690000036  0.7266320590000035
  0.8420466780000027  0.7719689609999989  0.9088773129999979
  0.6617017390000015  0.6666666870000029  0.4355094430000008
  0.1112775799999994  0.9258149269999976  0.7266320590000035
  0.5783684849999986  0.0833333429999996  0.1088773680000017
  0.9766622189999978  0.0988918540000014  0.6355094310000027
  0.8612775209999981  0.1758149859999989  0.8177546860000007
  0.3283684250000007  0.1666666719999981  0.2177547369999999
  0.5920468569999997  0.0219688419999997  0.6355094310000027
  0.4766621890000025  0.0988919730000006  0.8177546860000007
  0.5783685450000036  0.5833334330000000  0.3266320230000019
  0.3283684550000032  0.3333333429999996  0.4355094430000008
  0.6305084230000020  0.3296611609999971  0.8177546860000007
  0.5151237250000023  0.4065842930000017  0.0000002379999984
  0.8997392059999996  0.4835072460000021  0.6355094310000027
  0.7843545079999998  0.5604304080000020  0.8177546860000007
  0.5783685450000036  0.2500000000000000  0.3266320230000019
  0.3612776699999998  0.1758149269999976  0.6355094310000027
  0.2458929720000000  0.2527380590000021  0.8177546860000007
  0.4117017689999969  0.2500000000000000  0.1088773680000017
  0.5151237850000001  0.4065842329999967  0.6355094310000027
  0.3997390870000004  0.4835073650000012  0.8177546860000007
  0.8283684250000007  0.0000000000000000  0.2177547369999999
  0.6689699289999993  0.6373534199999966  0.6355094310000027
  0.5535852309999996  0.7142765520000012  0.8177546860000007
  0.4382005040000010  0.7911996839999986  0.0000002379999984
  0.8228160740000021  0.8681226969999969  0.6355094310000027
  0.7074313760000024  0.9450458290000014  0.8177546860000007
  0.5920466780000027  0.0219689609999989  0.0000002379999984
  0.1305084079999972  0.3296611009999992  0.6355094310000027
  0.0151237070000008  0.4065842030000013  0.8177546860000007
  0.8997389669999976  0.4835073650000012  0.0000002379999984
  0.2843545380000023  0.5604304080000020  0.6355094310000027
  0.1689698400000026  0.6373534800000016  0.8177546860000007
  0.2450350969999988  0.2500000000000000  0.3266320230000019
  0.4382006820000015  0.7911995649999994  0.6355094310000027
  0.3228159840000018  0.8681226969999969  0.8177546860000007
  0.2074312720000009  0.9450458290000014  0.0000002379999984
  0.0535853169999996  0.7142764929999998  0.6355094310000027
  0.9382005929999977  0.7911996839999986  0.8177546860000007
  0.7450351720000015  0.2500000000000000  0.1088773680000017
  0.2074314799999968  0.9450457100000023  0.6355094310000027
  0.0920467449999975  0.0219688419999997  0.8177546860000007
  0.9766620400000008  0.0988919730000006  0.0000002379999984
  0.9574314950000016  0.1950457539999988  0.5443868039999984
  0.8420467970000018  0.2719688709999986  0.7266320590000035
  0.7266620990000021  0.3488920329999985  0.9088773129999979
  0.4950352010000003  0.5000000000000000  0.4355094430000008
  0.4574313760000024  0.1950457689999965  0.7266320590000035
  0.3420466780000027  0.2719689010000010  0.9088773129999979
  0.7266623379999970  0.3488919440000018  0.5443868039999984
  0.6112775799999994  0.4258150759999992  0.7266320590000035
  0.4958929120000022  0.5027382370000026  0.9088773129999979
  0.1617017539999992  0.5000000000000000  0.4355094430000008
  0.7651237250000023  0.6565843220000005  0.7266320590000035
  0.6497390270000025  0.7335074539999979  0.9088773129999979
  0.1882007419999994  0.0411995429999976  0.5443868039999984
  0.0728160439999996  0.1181226670000015  0.7266320590000035
  0.9574313159999974  0.1950457989999990  0.9088773129999979
  0.3420469160000010  0.2719688119999972  0.5443868039999984
  0.2266622189999978  0.3488919440000018  0.7266320590000035
  0.1112774979999998  0.4258150759999992  0.9088773129999979
  0.0783684330000014  0.4166667160000017  0.3266320230000019
  0.3805083330000016  0.5796612500000009  0.7266320590000035
  0.2651236359999984  0.6565843819999984  0.9088773129999979
  0.6497391460000017  0.7335072759999974  0.5443868039999984
  0.5343544480000020  0.8104304080000020  0.7266320590000035
  0.4189697500000023  0.8873535390000029  0.9088773129999979
  0.9950350519999986  0.5000000000000000  0.2177547369999999
  0.6882006530000027  0.0411996839999986  0.7266320590000035
  0.5728159550000029  0.1181228160000032  0.9088773129999979
  0.3283684250000007  0.8333333129999971  0.2177547369999999
  0.9958929419999976  0.5027381180000035  0.7266320590000035
  0.8805082439999978  0.5796612500000009  0.9088773129999979
  0.2651238139999990  0.6565842629999992  0.5443868039999984
  0.1497391309999969  0.7335073949999966  0.7266320590000035
  0.0343544190000031  0.8104305270000012  0.9088773129999979
  0.3283684250000007  0.5000000000000000  0.2177547369999999
  0.3035852610000020  0.9642766119999990  0.7266320590000035
  0.1882005630000023  0.0411996839999986  0.9088773129999979
  0.5783685450000036  0.2500000000000000  0.3266320230000019
  0.9189698699999980  0.8873534800000016  0.7266320590000035
  0.8035851120000004  0.9642766119999990  0.9088773129999979
  0.7843546869999969  0.0604303069999972  0.6355094310000027
  0.6689699289999993  0.1373534499999991  0.8177546860000007
  0.5535852309999996  0.2142765819999966  0.0000002379999984
  0.9382006530000027  0.2911995349999970  0.6355094310000027
  0.8228159550000029  0.3681226969999969  0.8177546860000007
  0.7074311969999982  0.4450458290000014  0.0000002379999984
  0.5535854099999966  0.2142764629999974  0.6355094310000027
  0.4382007119999969  0.2911995950000019  0.8177546860000007
  0.3228159840000018  0.3681227559999982  0.0000002379999984
  0.7074316140000008  0.4450457100000023  0.6355094310000027
  0.5920469160000010  0.5219688419999997  0.8177546860000007
  0.9117017390000015  0.4166667160000017  0.1088773680000017
  0.8612778190000014  0.6758149859999989  0.6355094310000027
  0.7458931210000017  0.7527381180000035  0.8177546860000007
  0.6305083629999970  0.8296612500000009  0.0000002379999984
  0.1689699590000018  0.1373533459999976  0.6355094310000027
  0.0535852499999976  0.2142764780000022  0.8177546860000007
  0.9117017980000028  0.9166667459999971  0.3266320230000019
  0.3228161330000034  0.3681226369999990  0.6355094310000027
  0.2074314360000002  0.4450457689999965  0.8177546860000007
  0.0920467150000022  0.5219689010000010  0.0000002379999984
  0.4766622779999992  0.5988918540000014  0.6355094310000027
  0.3612775799999994  0.6758149859999989  0.8177546860000007
  0.2458928380000032  0.7527381180000035  0.0000002379999984
  0.6305084820000033  0.8296611909999996  0.6355094310000027
  0.5151237850000001  0.9065843220000005  0.8177546860000007
  0.3997390270000025  0.9835074539999979  0.0000002379999984
  0.0920468420000020  0.5219687820000019  0.6355094310000027
  0.9766621590000000  0.5988919139999993  0.8177546860000007
  0.8612774010000024  0.6758150459999968  0.0000002379999984
  0.2458930159999966  0.7527379989999972  0.6355094310000027
  0.1305083040000028  0.8296611310000017  0.8177546860000007
  0.0151235789999973  0.9065843220000005  0.0000002379999984
  0.3997392360000021  0.9835073349999988  0.6355094310000027
  0.2843545380000023  0.0604305270000012  0.8177546860000007
  0.3283684250000007  0.5000000000000000  0.2177547369999999
  0.0151237809999998  0.9065841440000000  0.6355094310000027
  0.8997390270000025  0.9835073349999988  0.8177546860000007
  0.8283684250000007  0.6666666870000029  0.2177547369999999
 
  0.00000000E+00  0.00000000E+00  0.00000000E+00
  0.00000000E+00  0.00000000E+00  0.00000000E+00
  0.00000000E+00  0.00000000E+00  0.00000000E+00
  0.00000000E+00  0.00000000E+00  0.00000000E+00
  0.00000000E+00  0.00000000E+00  0.00000000E+00
  0.00000000E+00  0.00000000E+00  0.00000000E+00
  0.00000000E+00  0.00000000E+00  0.00000000E+00
  0.00000000E+00  0.00000000E+00  0.00000000E+00
  0.00000000E+00  0.00000000E+00  0.00000000E+00
  0.00000000E+00  0.00000000E+00  0.00000000E+00
  0.00000000E+00  0.00000000E+00  0.00000000E+00
  0.00000000E+00  0.00000000E+00  0.00000000E+00
  0.00000000E+00  0.00000000E+00  0.00000000E+00
  0.00000000E+00  0.00000000E+00  0.00000000E+00
  0.00000000E+00  0.00000000E+00  0.00000000E+00
  0.00000000E+00  0.00000000E+00  0.00000000E+00
  0.00000000E+00  0.00000000E+00  0.00000000E+00
  0.00000000E+00  0.00000000E+00  0.00000000E+00
  0.00000000E+00  0.00000000E+00  0.00000000E+00
  0.00000000E+00  0.00000000E+00  0.00000000E+00
  0.00000000E+00  0.00000000E+00  0.00000000E+00
  0.00000000E+00  0.00000000E+00  0.00000000E+00
  0.00000000E+00  0.00000000E+00  0.00000000E+00
  0.00000000E+00  0.00000000E+00  0.00000000E+00
  0.00000000E+00  0.00000000E+00  0.00000000E+00
  0.00000000E+00  0.00000000E+00  0.00000000E+00
  0.00000000E+00  0.00000000E+00  0.00000000E+00
  0.00000000E+00  0.00000000E+00  0.00000000E+00
  0.00000000E+00  0.00000000E+00  0.00000000E+00
  0.00000000E+00  0.00000000E+00  0.00000000E+00
  0.00000000E+00  0.00000000E+00  0.00000000E+00
  0.00000000E+00  0.00000000E+00  0.00000000E+00
  0.00000000E+00  0.00000000E+00  0.00000000E+00
  0.00000000E+00  0.00000000E+00  0.00000000E+00
  0.00000000E+00  0.00000000E+00  0.00000000E+00
  0.00000000E+00  0.00000000E+00  0.00000000E+00
  0.00000000E+00  0.00000000E+00  0.00000000E+00
  0.00000000E+00  0.00000000E+00  0.00000000E+00
  0.00000000E+00  0.00000000E+00  0.00000000E+00
  0.00000000E+00  0.00000000E+00  0.00000000E+00
  0.00000000E+00  0.00000000E+00  0.00000000E+00
  0.00000000E+00  0.00000000E+00  0.00000000E+00
  0.00000000E+00  0.00000000E+00  0.00000000E+00
  0.00000000E+00  0.00000000E+00  0.00000000E+00
  0.00000000E+00  0.00000000E+00  0.00000000E+00
  0.00000000E+00  0.00000000E+00  0.00000000E+00
  0.00000000E+00  0.00000000E+00  0.00000000E+00
  0.00000000E+00  0.00000000E+00  0.00000000E+00
  0.00000000E+00  0.00000000E+00  0.00000000E+00
  0.00000000E+00  0.00000000E+00  0.00000000E+00
  0.00000000E+00  0.00000000E+00  0.00000000E+00
  0.00000000E+00  0.00000000E+00  0.00000000E+00
  0.00000000E+00  0.00000000E+00  0.00000000E+00
  0.00000000E+00  0.00000000E+00  0.00000000E+00
  0.00000000E+00  0.00000000E+00  0.00000000E+00
  0.00000000E+00  0.00000000E+00  0.00000000E+00
  0.00000000E+00  0.00000000E+00  0.00000000E+00
  0.00000000E+00  0.00000000E+00  0.00000000E+00
  0.00000000E+00  0.00000000E+00  0.00000000E+00
  0.00000000E+00  0.00000000E+00  0.00000000E+00
  0.00000000E+00  0.00000000E+00  0.00000000E+00
  0.00000000E+00  0.00000000E+00  0.00000000E+00
  0.00000000E+00  0.00000000E+00  0.00000000E+00
  0.00000000E+00  0.00000000E+00  0.00000000E+00
  0.00000000E+00  0.00000000E+00  0.00000000E+00
  0.00000000E+00  0.00000000E+00  0.00000000E+00
  0.00000000E+00  0.00000000E+00  0.00000000E+00
  0.00000000E+00  0.00000000E+00  0.00000000E+00
  0.00000000E+00  0.00000000E+00  0.00000000E+00
  0.00000000E+00  0.00000000E+00  0.00000000E+00
  0.00000000E+00  0.00000000E+00  0.00000000E+00
  0.00000000E+00  0.00000000E+00  0.00000000E+00
  0.00000000E+00  0.00000000E+00  0.00000000E+00
  0.00000000E+00  0.00000000E+00  0.00000000E+00
  0.00000000E+00  0.00000000E+00  0.00000000E+00
  0.00000000E+00  0.00000000E+00  0.00000000E+00
  0.00000000E+00  0.00000000E+00  0.00000000E+00
  0.00000000E+00  0.00000000E+00  0.00000000E+00
  0.00000000E+00  0.00000000E+00  0.00000000E+00
  0.00000000E+00  0.00000000E+00  0.00000000E+00
  0.00000000E+00  0.00000000E+00  0.00000000E+00
  0.00000000E+00  0.00000000E+00  0.00000000E+00
  0.00000000E+00  0.00000000E+00  0.00000000E+00
  0.00000000E+00  0.00000000E+00  0.00000000E+00
  0.00000000E+00  0.00000000E+00  0.00000000E+00
  0.00000000E+00  0.00000000E+00  0.00000000E+00
  0.00000000E+00  0.00000000E+00  0.00000000E+00
  0.00000000E+00  0.00000000E+00  0.00000000E+00
  0.00000000E+00  0.00000000E+00  0.00000000E+00
  0.00000000E+00  0.00000000E+00  0.00000000E+00
  0.00000000E+00  0.00000000E+00  0.00000000E+00
  0.00000000E+00  0.00000000E+00  0.00000000E+00
  0.00000000E+00  0.00000000E+00  0.00000000E+00
  0.00000000E+00  0.00000000E+00  0.00000000E+00
  0.00000000E+00  0.00000000E+00  0.00000000E+00
  0.00000000E+00  0.00000000E+00  0.00000000E+00
  0.00000000E+00  0.00000000E+00  0.00000000E+00
  0.00000000E+00  0.00000000E+00  0.00000000E+00
  0.00000000E+00  0.00000000E+00  0.00000000E+00
  0.00000000E+00  0.00000000E+00  0.00000000E+00
  0.00000000E+00  0.00000000E+00  0.00000000E+00
  0.00000000E+00  0.00000000E+00  0.00000000E+00
  0.00000000E+00  0.00000000E+00  0.00000000E+00
  0.00000000E+00  0.00000000E+00  0.00000000E+00
  0.00000000E+00  0.00000000E+00  0.00000000E+00
  0.00000000E+00  0.00000000E+00  0.00000000E+00
  0.00000000E+00  0.00000000E+00  0.00000000E+00
  0.00000000E+00  0.00000000E+00  0.00000000E+00
  0.00000000E+00  0.00000000E+00  0.00000000E+00
  0.00000000E+00  0.00000000E+00  0.00000000E+00
  0.00000000E+00  0.00000000E+00  0.00000000E+00
  0.00000000E+00  0.00000000E+00  0.00000000E+00
  0.00000000E+00  0.00000000E+00  0.00000000E+00
  0.00000000E+00  0.00000000E+00  0.00000000E+00
  0.00000000E+00  0.00000000E+00  0.00000000E+00
  0.00000000E+00  0.00000000E+00  0.00000000E+00
  0.00000000E+00  0.00000000E+00  0.00000000E+00
  0.00000000E+00  0.00000000E+00  0.00000000E+00
  0.00000000E+00  0.00000000E+00  0.00000000E+00
  0.00000000E+00  0.00000000E+00  0.00000000E+00
  0.00000000E+00  0.00000000E+00  0.00000000E+00
  0.00000000E+00  0.00000000E+00  0.00000000E+00
  0.00000000E+00  0.00000000E+00  0.00000000E+00
  0.00000000E+00  0.00000000E+00  0.00000000E+00
  0.00000000E+00  0.00000000E+00  0.00000000E+00
  0.00000000E+00  0.00000000E+00  0.00000000E+00
  0.00000000E+00  0.00000000E+00  0.00000000E+00
  0.00000000E+00  0.00000000E+00  0.00000000E+00
  0.00000000E+00  0.00000000E+00  0.00000000E+00
  0.00000000E+00  0.00000000E+00  0.00000000E+00
  0.00000000E+00  0.00000000E+00  0.00000000E+00
  0.00000000E+00  0.00000000E+00  0.00000000E+00
  0.00000000E+00  0.00000000E+00  0.00000000E+00
  0.00000000E+00  0.00000000E+00  0.00000000E+00
  0.00000000E+00  0.00000000E+00  0.00000000E+00
  0.00000000E+00  0.00000000E+00  0.00000000E+00
  0.00000000E+00  0.00000000E+00  0.00000000E+00
  0.00000000E+00  0.00000000E+00  0.00000000E+00
  0.00000000E+00  0.00000000E+00  0.00000000E+00
  0.00000000E+00  0.00000000E+00  0.00000000E+00
  0.00000000E+00  0.00000000E+00  0.00000000E+00
  0.00000000E+00  0.00000000E+00  0.00000000E+00
  0.00000000E+00  0.00000000E+00  0.00000000E+00
  0.00000000E+00  0.00000000E+00  0.00000000E+00
  0.00000000E+00  0.00000000E+00  0.00000000E+00
  0.00000000E+00  0.00000000E+00  0.00000000E+00
  0.00000000E+00  0.00000000E+00  0.00000000E+00
  0.00000000E+00  0.00000000E+00  0.00000000E+00
  0.00000000E+00  0.00000000E+00  0.00000000E+00
  0.00000000E+00  0.00000000E+00  0.00000000E+00
  0.00000000E+00  0.00000000E+00  0.00000000E+00
  0.00000000E+00  0.00000000E+00  0.00000000E+00
  0.00000000E+00  0.00000000E+00  0.00000000E+00
  0.00000000E+00  0.00000000E+00  0.00000000E+00
  0.00000000E+00  0.00000000E+00  0.00000000E+00
  0.00000000E+00  0.00000000E+00  0.00000000E+00
  0.00000000E+00  0.00000000E+00  0.00000000E+00
  0.00000000E+00  0.00000000E+00  0.00000000E+00
  0.00000000E+00  0.00000000E+00  0.00000000E+00
  0.00000000E+00  0.00000000E+00  0.00000000E+00
  0.00000000E+00  0.00000000E+00  0.00000000E+00
  0.00000000E+00  0.00000000E+00  0.00000000E+00
  0.00000000E+00  0.00000000E+00  0.00000000E+00
  0.00000000E+00  0.00000000E+00  0.00000000E+00
  0.00000000E+00  0.00000000E+00  0.00000000E+00
  0.00000000E+00  0.00000000E+00  0.00000000E+00
  0.00000000E+00  0.00000000E+00  0.00000000E+00
  0.00000000E+00  0.00000000E+00  0.00000000E+00
  0.00000000E+00  0.00000000E+00  0.00000000E+00
  0.00000000E+00  0.00000000E+00  0.00000000E+00
  0.00000000E+00  0.00000000E+00  0.00000000E+00
  0.00000000E+00  0.00000000E+00  0.00000000E+00
  0.00000000E+00  0.00000000E+00  0.00000000E+00
  0.00000000E+00  0.00000000E+00  0.00000000E+00
  0.00000000E+00  0.00000000E+00  0.00000000E+00
  0.00000000E+00  0.00000000E+00  0.00000000E+00
  0.00000000E+00  0.00000000E+00  0.00000000E+00
  0.00000000E+00  0.00000000E+00  0.00000000E+00
  0.00000000E+00  0.00000000E+00  0.00000000E+00
  0.00000000E+00  0.00000000E+00  0.00000000E+00
  0.00000000E+00  0.00000000E+00  0.00000000E+00
  0.00000000E+00  0.00000000E+00  0.00000000E+00
  0.00000000E+00  0.00000000E+00  0.00000000E+00
  0.00000000E+00  0.00000000E+00  0.00000000E+00
  0.00000000E+00  0.00000000E+00  0.00000000E+00
  0.00000000E+00  0.00000000E+00  0.00000000E+00
  0.00000000E+00  0.00000000E+00  0.00000000E+00
  0.00000000E+00  0.00000000E+00  0.00000000E+00
  0.00000000E+00  0.00000000E+00  0.00000000E+00
  0.00000000E+00  0.00000000E+00  0.00000000E+00
  0.00000000E+00  0.00000000E+00  0.00000000E+00
  0.00000000E+00  0.00000000E+00  0.00000000E+00
  0.00000000E+00  0.00000000E+00  0.00000000E+00
  0.00000000E+00  0.00000000E+00  0.00000000E+00
  0.00000000E+00  0.00000000E+00  0.00000000E+00
  0.00000000E+00  0.00000000E+00  0.00000000E+00
  0.00000000E+00  0.00000000E+00  0.00000000E+00
  0.00000000E+00  0.00000000E+00  0.00000000E+00
  0.00000000E+00  0.00000000E+00  0.00000000E+00
  0.00000000E+00  0.00000000E+00  0.00000000E+00
  0.00000000E+00  0.00000000E+00  0.00000000E+00
  0.00000000E+00  0.00000000E+00  0.00000000E+00
  0.00000000E+00  0.00000000E+00  0.00000000E+00
  0.00000000E+00  0.00000000E+00  0.00000000E+00
  0.00000000E+00  0.00000000E+00  0.00000000E+00
  0.00000000E+00  0.00000000E+00  0.00000000E+00
  0.00000000E+00  0.00000000E+00  0.00000000E+00
  0.00000000E+00  0.00000000E+00  0.00000000E+00
  0.00000000E+00  0.00000000E+00  0.00000000E+00
  0.00000000E+00  0.00000000E+00  0.00000000E+00
  0.00000000E+00  0.00000000E+00  0.00000000E+00
  0.00000000E+00  0.00000000E+00  0.00000000E+00
  0.00000000E+00  0.00000000E+00  0.00000000E+00
  0.00000000E+00  0.00000000E+00  0.00000000E+00
  0.00000000E+00  0.00000000E+00  0.00000000E+00
  0.00000000E+00  0.00000000E+00  0.00000000E+00
  0.00000000E+00  0.00000000E+00  0.00000000E+00
  0.00000000E+00  0.00000000E+00  0.00000000E+00
  0.00000000E+00  0.00000000E+00  0.00000000E+00
  0.00000000E+00  0.00000000E+00  0.00000000E+00
  0.00000000E+00  0.00000000E+00  0.00000000E+00
  0.00000000E+00  0.00000000E+00  0.00000000E+00
  0.00000000E+00  0.00000000E+00  0.00000000E+00
  0.00000000E+00  0.00000000E+00  0.00000000E+00
  0.00000000E+00  0.00000000E+00  0.00000000E+00
  0.00000000E+00  0.00000000E+00  0.00000000E+00
  0.00000000E+00  0.00000000E+00  0.00000000E+00
  0.00000000E+00  0.00000000E+00  0.00000000E+00
  0.00000000E+00  0.00000000E+00  0.00000000E+00
  0.00000000E+00  0.00000000E+00  0.00000000E+00
  0.00000000E+00  0.00000000E+00  0.00000000E+00
  0.00000000E+00  0.00000000E+00  0.00000000E+00
  0.00000000E+00  0.00000000E+00  0.00000000E+00
  0.00000000E+00  0.00000000E+00  0.00000000E+00
  0.00000000E+00  0.00000000E+00  0.00000000E+00
  0.00000000E+00  0.00000000E+00  0.00000000E+00
  0.00000000E+00  0.00000000E+00  0.00000000E+00
  0.00000000E+00  0.00000000E+00  0.00000000E+00
  0.00000000E+00  0.00000000E+00  0.00000000E+00
  0.00000000E+00  0.00000000E+00  0.00000000E+00
  0.00000000E+00  0.00000000E+00  0.00000000E+00
  0.00000000E+00  0.00000000E+00  0.00000000E+00
  0.00000000E+00  0.00000000E+00  0.00000000E+00
  0.00000000E+00  0.00000000E+00  0.00000000E+00
  0.00000000E+00  0.00000000E+00  0.00000000E+00
  0.00000000E+00  0.00000000E+00  0.00000000E+00
  0.00000000E+00  0.00000000E+00  0.00000000E+00
  0.00000000E+00  0.00000000E+00  0.00000000E+00
  0.00000000E+00  0.00000000E+00  0.00000000E+00
  0.00000000E+00  0.00000000E+00  0.00000000E+00
  0.00000000E+00  0.00000000E+00  0.00000000E+00
  0.00000000E+00  0.00000000E+00  0.00000000E+00
  0.00000000E+00  0.00000000E+00  0.00000000E+00
  0.00000000E+00  0.00000000E+00  0.00000000E+00
  0.00000000E+00  0.00000000E+00  0.00000000E+00
  0.00000000E+00  0.00000000E+00  0.00000000E+00
  0.00000000E+00  0.00000000E+00  0.00000000E+00
  0.00000000E+00  0.00000000E+00  0.00000000E+00
  0.00000000E+00  0.00000000E+00  0.00000000E+00
  0.00000000E+00  0.00000000E+00  0.00000000E+00
  0.00000000E+00  0.00000000E+00  0.00000000E+00
  0.00000000E+00  0.00000000E+00  0.00000000E+00
  0.00000000E+00  0.00000000E+00  0.00000000E+00
  0.00000000E+00  0.00000000E+00  0.00000000E+00
