Si
 1.0000000000000000
     7.6805938572482795    0.0000000000000000    0.0000000000000000
    -7.6805938572482795    9.4067679359065739    0.0000000000000000
     0.0000000000000000   -0.0000000000000000   61.0633664223377650
 Si 
  80
Direct
  0.0000000000000000  0.0000000000000000  0.3275286177586786
  0.2499999999999998  0.7499999999999997  0.3275286177586786
  0.9166666666666667  0.6666666666666665  0.3456835000998703
  0.1666666666666665  0.4166666666666665  0.3456835000998703
  0.4166666666666667  0.6666666666666666  0.3456835000998703
  0.6666666666666667  0.4166666666666666  0.3456835000998703
  0.4999999999999996  0.9999999999999998  0.3275286177586786
  0.7499999999999994  0.7499999999999996  0.3275286177586786
  0.8333333333333333  0.3333333333333332  0.3638383824410621
  0.0833333333333333  0.0833333333333330  0.3638383824410621
  0.7499999999999996  0.9999999999999997  0.3819932647822538
  0.0000000000000000  0.7499999999999998  0.3819932647822538
  0.2500000000000000  0.9999999999999998  0.3819932647822538
  0.4999999999999998  0.7499999999999998  0.3819932647822538
  0.3333333333333333  0.3333333333333331  0.3638383824410620
  0.5833333333333330  0.0833333333333330  0.3638383824410620
  0.6666666666666666  0.6666666666666664  0.4001481471234455
  0.9166666666666669  0.4166666666666663  0.4001481471234455
  0.5833333333333330  0.3333333333333328  0.4183030294646372
  0.8333333333333329  0.0833333333333328  0.4183030294646372
  0.0833333333333331  0.3333333333333328  0.4183030294646372
  0.3333333333333331  0.0833333333333330  0.4183030294646372
  0.1666666666666661  0.6666666666666663  0.4001481471234455
  0.4166666666666661  0.4166666666666661  0.4001481471234455
  0.5000000000000000  0.9999999999999997  0.4364579118058289
  0.7499999999999996  0.7499999999999993  0.4364579118058289
  0.4166666666666652  0.6666666666666659  0.4546127941470205
  0.6666666666666666  0.4166666666666661  0.4546127941470207
  0.9166666666666662  0.6666666666666661  0.4546127941470206
  0.1666666666666666  0.4166666666666663  0.4546127941470207
  0.9999999999999991  0.9999999999999994  0.4364579118058289
  0.2499999999999996  0.7499999999999993  0.4364579118058289
  0.3333333333333331  0.3333333333333328  0.4727676764882123
  0.5833333333333330  0.0833333333333326  0.4727676764882123
  0.2499999999999992  0.9999999999999997  0.4909225588294041
  0.5000000000000009  0.7499999999999993  0.4909225588294040
  0.7499999999999994  0.9999999999999992  0.4909225588294040
  0.9999999999999996  0.7499999999999993  0.4909225588294040
  0.8333333333333335  0.3333333333333328  0.4727676764882123
  0.0833333333333331  0.0833333333333326  0.4727676764882123
  0.1666666666666670  0.6666666666666661  0.5090774411705958
  0.4166666666666670  0.4166666666666661  0.5090774411705958
  0.0833333333333331  0.3333333333333326  0.5272323235117875
  0.3333333333333339  0.0833333333333326  0.5272323235117875
  0.5833333333333323  0.3333333333333326  0.5272323235117875
  0.8333333333333330  0.0833333333333326  0.5272323235117875
  0.6666666666666662  0.6666666666666661  0.5090774411705958
  0.9166666666666671  0.4166666666666661  0.5090774411705958
 -0.0000000000000001  0.9999999999999992  0.5453872058529793
  0.2500000000000000  0.7499999999999991  0.5453872058529793
  0.9166666666666662  0.6666666666666656  0.5635420881941710
  0.1666666666666670  0.4166666666666661  0.5635420881941710
  0.4166666666666652  0.6666666666666656  0.5635420881941711
  0.6666666666666671  0.4166666666666661  0.5635420881941710
  0.4999999999999991  0.9999999999999989  0.5453872058529793
  0.7500000000000000  0.7499999999999991  0.5453872058529793
  0.8333333333333330  0.3333333333333326  0.5816969705353627
  0.0833333333333339  0.0833333333333326  0.5816969705353627
  0.7499999999999991  0.9999999999999991  0.5998518528765544
  0.0000000000000000  0.7499999999999991  0.5998518528765544
  0.2500000000000008  0.9999999999999991  0.5998518528765544
  0.5000000000000000  0.7499999999999991  0.5998518528765544
  0.3333333333333331  0.3333333333333326  0.5816969705353627
  0.5833333333333330  0.0833333333333321  0.5816969705353627
  0.6666666666666662  0.6666666666666656  0.6180067352177461
  0.9166666666666662  0.4166666666666652  0.6180067352177462
  0.5833333333333323  0.3333333333333321  0.6361616175589377
  0.8333333333333323  0.0833333333333321  0.6361616175589377
  0.0833333333333331  0.3333333333333321  0.6361616175589379
  0.3333333333333349  0.0833333333333326  0.6361616175589380
  0.1666666666666661  0.6666666666666656  0.6180067352177461
  0.4166666666666661  0.4166666666666652  0.6180067352177461
  0.4999999999999991  0.9999999999999987  0.6543164999001295
  0.7499999999999991  0.7499999999999987  0.6543164999001296
  0.4166666666666661  0.6666666666666652  0.6724713822413213
  0.6666666666666662  0.4166666666666652  0.6724713822413213
  0.9166666666666652  0.6666666666666652  0.6724713822413213
  0.1666666666666661  0.4166666666666652  0.6724713822413213
  0.9999999999999991  0.9999999999999987  0.6543164999001295
  0.2499999999999982  0.7499999999999987  0.6543164999001295
