Sn+Ge
    1.000000000
   15.895228386    0.000000000    0.000000000
  -15.895230293   11.239624977    0.000000000
    0.000000000    0.000000000   25.800943375
Sn  Ge 
72     96
Direct
    0.658140540    0.367438078    0.000000015
    0.574807107    0.700771451    0.088922292
    0.491473675    0.034104943    0.177844629
    0.408140212    0.367438316    0.266766876
    0.324806869    0.700771928    0.355689228
    0.241473302    0.034105301    0.444611490
    0.991473794    0.034104731    0.000000015
    0.908140361    0.367438138    0.088922307
    0.824806929    0.700771630    0.177844629
    0.741473556    0.034104943    0.266766876
    0.658140063    0.367438555    0.355689228
    0.574806690    0.700771928    0.444611490
    0.324807167    0.700771391    0.000000000
    0.241473734    0.034104824    0.088922277
    0.158140317    0.367438316    0.177844569
    0.074806847    0.700771689    0.266766876
    0.991473436    0.034105062    0.355689168
    0.908140063    0.367438555    0.444611460
    0.491473824    0.034104735    0.000000009
    0.408140391    0.367438108    0.088922307
    0.324806958    0.700771630    0.177844599
    0.241473511    0.034104943    0.266766876
    0.158140123    0.367438555    0.355689228
    0.074806623    0.700771928    0.444611490
    0.824807167    0.700771391    0.000000012
    0.741473794    0.034104824    0.088922262
    0.658140302    0.367438197    0.177844599
    0.574806929    0.700771689    0.266766876
    0.491473496    0.034105062    0.355689168
    0.408139914    0.367438555    0.444611460
    0.158140481    0.367438048    0.000000013
    0.074807063    0.700771451    0.088922299
    0.991473556    0.034104824    0.177844599
    0.908140182    0.367438316    0.266766876
    0.824806750    0.700771809    0.355689228
    0.741473317    0.034105301    0.444611460
    0.741473794    0.284104705    0.000000016
    0.658140481    0.617438078    0.088922292
    0.574806988    0.950771570    0.177844599
    0.491473585    0.284105062    0.266766906
    0.408140123    0.617438436    0.355689228
    0.324806690    0.950771928    0.444611430
    0.408140510    0.617438078    0.000000000
    0.324807078    0.950771511    0.088922307
    0.241473645    0.284104943    0.177844629
    0.158140302    0.617438436    0.266766906
    0.074806817    0.950771928    0.355689138
    0.991473317    0.284105301    0.444611520
    0.074807145    0.950771451    0.000000019
    0.991473675    0.284104824    0.088922277
    0.908140302    0.617438316    0.177844629
    0.824806929    0.950771809    0.266766876
    0.741473556    0.284105301    0.355689168
    0.658140182    0.617438793    0.444611549
    0.908140481    0.617438078    0.000000017
    0.824807048    0.950771511    0.088922292
    0.741473615    0.284104943    0.177844599
    0.658140182    0.617438316    0.266766876
    0.574806750    0.950771928    0.355689198
    0.491473258    0.284105301    0.444611430
    0.241473839    0.284104735    0.000000011
    0.158140436    0.617438138    0.088922314
    0.074807018    0.950771630    0.177844629
    0.991473615    0.284105062    0.266766906
    0.908140123    0.617438436    0.355689228
    0.824806690    0.950771928    0.444611460
    0.574807107    0.950771511    0.000000034
    0.491473675    0.284104824    0.088922307
    0.408140212    0.617438316    0.177844599
    0.324806809    0.950771689    0.266766876
    0.241473436    0.284105301    0.355689198
    0.158139959    0.617438793    0.444611490
    0.633624673    0.541234136    0.528481960
    0.258624673    0.291234136    0.606011569
    0.883624613    0.041234016    0.683541059
    0.508624673    0.791234136    0.761070549
    0.133624792    0.541234195    0.838600039
    0.758624673    0.291234136    0.916129589
    0.633624673    0.041234136    0.528481960
    0.258624673    0.791234136    0.606011569
    0.883624613    0.541234076    0.683541000
    0.508624673    0.291234136    0.761070549
    0.133624792    0.041234255    0.838600039
    0.758624673    0.791234136    0.916129589
    0.133624673    0.541234136    0.528481960
    0.758624673    0.291234136    0.606011569
    0.383624554    0.041234016    0.683541000
    0.008624792    0.791234136    0.761070549
    0.633624792    0.541234195    0.838600039
    0.258624673    0.291234136    0.916129589
    0.133624673    0.041234136    0.528481960
    0.758624673    0.791234136    0.606011569
    0.383624554    0.541234076    0.683541000
    0.008624673    0.291234136    0.761070549
    0.633624792    0.041234255    0.838600039
    0.258624673    0.791234136    0.916129529
    0.883624673    0.541234136    0.528481960
    0.508624673    0.291234136    0.606011569
    0.133624554    0.041234016    0.683541000
    0.758624673    0.791234136    0.761070549
    0.383624792    0.541234195    0.838600039
    0.008624673    0.291234136    0.916129529
    0.883624673    0.041234136    0.528481960
    0.508624673    0.791234136    0.606011569
    0.133624554    0.541234076    0.683541000
    0.758624673    0.291234136    0.761070549
    0.383624792    0.041234255    0.838600039
    0.008624673    0.791234136    0.916129589
    0.383624673    0.541234136    0.528481960
    0.008624673    0.291234136    0.606011569
    0.633624554    0.041234016    0.683541000
    0.258624673    0.791234136    0.761070549
    0.883624732    0.541234195    0.838600039
    0.508624673    0.291234136    0.916129529
    0.383624554    0.041234136    0.528481960
    0.008624673    0.791234136    0.606011569
    0.633624554    0.541234076    0.683541000
    0.258624673    0.291234136    0.761070549
    0.883624852    0.041234255    0.838600039
    0.508624673    0.791234136    0.916129589
    0.883624732    0.916234195    0.528481960
    0.508624673    0.666234136    0.606011569
    0.133624673    0.416234136    0.683541000
    0.758624732    0.166234165    0.761070549
    0.383624792    0.916234195    0.838600039
    0.008624673    0.666234195    0.916129589
    0.883624673    0.416234136    0.528481960
    0.508624673    0.166234136    0.606011569
    0.133624554    0.916234076    0.683541000
    0.758624613    0.666234136    0.761070549
    0.383624673    0.416234136    0.838600039
    0.008624554    0.166234076    0.916129529
    0.383624792    0.916234195    0.528481960
    0.008624673    0.666234136    0.606011569
    0.633624554    0.416234136    0.683541000
    0.258624673    0.166234165    0.761070549
    0.883624792    0.916234195    0.838600039
    0.508624673    0.666234195    0.916129529
    0.383624673    0.416234136    0.528481960
    0.008624673    0.166234136    0.606011569
    0.633624554    0.916234076    0.683541059
    0.258624673    0.666234136    0.761070549
    0.883624732    0.416234136    0.838600039
    0.508624554    0.166234076    0.916129589
    0.633624673    0.916234195    0.528481960
    0.258624554    0.666234136    0.606011569
    0.883624613    0.416234136    0.683541000
    0.508624554    0.166234165    0.761070549
    0.133624792    0.916234195    0.838600039
    0.758624673    0.666234195    0.916129589
    0.633624673    0.416234136    0.528481960
    0.258624673    0.166234136    0.606011569
    0.883624613    0.916234076    0.683541000
    0.508624673    0.666234136    0.761070549
    0.133624673    0.416234136    0.838600039
    0.758624673    0.166234076    0.916129529
    0.133624792    0.916234195    0.528481960
    0.758624673    0.666234136    0.606011569
    0.383624673    0.416234136    0.683541000
    0.008624792    0.166234165    0.761070549
    0.633624792    0.916234195    0.838600039
    0.258624792    0.666234195    0.916129529
    0.133624673    0.416234136    0.528481960
    0.758624673    0.166234136    0.606011569
    0.383624554    0.916234076    0.683541000
    0.008624673    0.666234136    0.761070549
    0.633624673    0.416234136    0.838600039
    0.258624673    0.166234076    0.916129529
