Ge+Sn
    1.000000000
   19.599195480    0.000000000    0.000000000
    6.533064842   18.478298187    0.000000000
    0.000000000    0.000000000   25.800945282
Ge  Sn 
192     144
Direct
    0.941464424    0.974913359    0.000000015
    0.503964424    0.787413359    0.077529527
    0.066464484    0.599913359    0.155059054
    0.628964424    0.412413418    0.232588500
    0.191464424    0.224913478    0.310118079
    0.753964186    0.037413359    0.387647510
    0.441464454    0.974913359    0.000000018
    0.003964441    0.787413359    0.077529527
    0.566464424    0.599913359    0.155059040
    0.128964424    0.412413359    0.232588500
    0.691464424    0.224913418    0.310118049
    0.253964305    0.037413359    0.387647599
    0.191464439    0.224913329    0.000000018
    0.753964424    0.037413348    0.077529527
    0.316464424    0.849913359    0.155059040
    0.878964424    0.662413418    0.232588500
    0.441464424    0.474913478    0.310118049
    0.003964305    0.287413359    0.387647599
    0.941464484    0.474913329    0.000000018
    0.503964424    0.287413329    0.077529527
    0.066464424    0.099913359    0.155059040
    0.628964424    0.912413359    0.232588500
    0.191464424    0.724913478    0.310118049
    0.753964186    0.537413359    0.387647599
    0.691464424    0.224913359    0.000000000
    0.253964424    0.037413381    0.077529527
    0.816464424    0.849913359    0.155059040
    0.378964424    0.662413418    0.232588500
    0.941464424    0.474913418    0.310118079
    0.503964186    0.287413359    0.387647629
    0.441464454    0.474913329    0.000000000
    0.003964454    0.287413359    0.077529527
    0.566464424    0.099913374    0.155059040
    0.128964424    0.912413418    0.232588500
    0.691464424    0.724913478    0.310118079
    0.253964305    0.537413359    0.387647629
    0.191464454    0.724913359    0.000000000
    0.753964484    0.537413359    0.077529527
    0.316464484    0.349913388    0.155059040
    0.878964424    0.162413403    0.232588500
    0.441464424    0.974913418    0.310118079
    0.003964186    0.787413359    0.387647629
    0.691464424    0.724913359    0.000000010
    0.253964424    0.537413359    0.077529512
    0.816464424    0.349913359    0.155059040
    0.378964424    0.162413388    0.232588530
    0.941464424    0.974913418    0.310118049
    0.503964305    0.787413299    0.387647569
    0.066464439    0.099913336    0.000000019
    0.628964424    0.912413359    0.077529527
    0.191464424    0.724913359    0.155059025
    0.753964424    0.537413359    0.232588500
    0.316464424    0.349913418    0.310118049
    0.878964424    0.162413359    0.387647599
    0.566464484    0.099913321    0.000000009
    0.128964439    0.912413359    0.077529527
    0.691464424    0.724913359    0.155059040
    0.253964424    0.537413359    0.232588530
    0.816464424    0.349913359    0.310118049
    0.378964305    0.162413299    0.387647569
    0.316464424    0.349913359    0.000000009
    0.878964424    0.162413344    0.077529527
    0.441464424    0.974913359    0.155059040
    0.003964424    0.787413418    0.232588530
    0.566464424    0.599913478    0.310118049
    0.128964186    0.412413299    0.387647569
    0.066464446    0.599913359    0.000000009
    0.628964424    0.412413329    0.077529527
    0.191464484    0.224913359    0.155059040
    0.753964424    0.037413366    0.232588530
    0.316464424    0.849913478    0.310118049
    0.878964186    0.662413359    0.387647569
    0.816464484    0.349913329    0.000000019
    0.378964514    0.162413359    0.077529527
    0.941464484    0.974913359    0.155059040
    0.503964484    0.787413359    0.232588530
    0.066464484    0.599913359    0.310118049
    0.628964305    0.412413359    0.387647599
    0.566464484    0.599913359    0.000000019
    0.128964469    0.412413388    0.077529527
    0.691464484    0.224913374    0.155059040
    0.253964424    0.037413437    0.232588530
    0.816464424    0.849913418    0.310118049
    0.378964305    0.662413359    0.387647599
    0.316464484    0.849913359    0.000000019
    0.878964484    0.662413359    0.077529527
    0.441464484    0.474913418    0.155059040
    0.003964484    0.287413418    0.232588530
    0.566464424    0.099913470    0.310118049
    0.128964186    0.912413359    0.387647599
    0.816464484    0.849913359    0.000000003
    0.378964514    0.662413418    0.077529535
    0.941464484    0.474913388    0.155059025
    0.503964543    0.287413388    0.232588530
    0.066464484    0.099913426    0.310118049
    0.628964305    0.912413359    0.387647569
    0.191464424    0.099913329    0.000000015
    0.753964424    0.912413359    0.077529520
    0.316464424    0.724913359    0.155059040
    0.878964424    0.537413359    0.232588559
    0.441464424    0.349913359    0.310118079
    0.003964305    0.162413299    0.387647629
    0.941464424    0.349913329    0.000000015
    0.503964424    0.162413359    0.077529520
    0.066464424    0.974913359    0.155059040
    0.628964424    0.787413359    0.232588559
    0.191464424    0.599913359    0.310118079
    0.753964186    0.412413299    0.387647629
    0.691464365    0.099913336    0.000000003
    0.253964394    0.912413359    0.077529520
    0.816464424    0.724913359    0.155059040
    0.378964365    0.537413359    0.232588530
    0.941464424    0.349913359    0.310118079
    0.503964305    0.162413359    0.387647539
    0.441464484    0.349913359    0.000000005
    0.003964453    0.162413374    0.077529520
    0.566464484    0.974913418    0.155059040
    0.128964424    0.787413359    0.232588530
    0.691464424    0.599913359    0.310118109
    0.253964305    0.412413359    0.387647599
    0.191464469    0.599913359    0.000000005
    0.753964424    0.412413359    0.077529520
    0.316464484    0.224913403    0.155059040
    0.878964424    0.037413388    0.232588530
    0.441464543    0.849913359    0.310118109
    0.003964305    0.662413359    0.387647599
    0.941464424    0.849913418    0.000000005
    0.503964424    0.662413418    0.077529520
    0.066464484    0.474913418    0.155059040
    0.628964424    0.287413448    0.232588530
    0.191464543    0.099913388    0.310118109
    0.753964186    0.912413478    0.387647599
    0.691464424    0.599913359    0.000000015
    0.253964454    0.412413359    0.077529520
    0.816464424    0.224913374    0.155059025
    0.378964484    0.037413400    0.232588530
    0.941464424    0.849913418    0.310118049
    0.503964305    0.662413359    0.387647599
    0.441464454    0.849913359    0.000000015
    0.003964434    0.662413418    0.077529520
    0.566464424    0.474913388    0.155059025
    0.128964484    0.287413388    0.232588530
    0.691464424    0.099913403    0.310118049
    0.253964305    0.912413299    0.387647599
    0.066464432    0.974913359    0.000000014
    0.628964424    0.787413359    0.077529520
    0.191464424    0.599913359    0.155059040
    0.753964424    0.412413359    0.232588559
    0.316464543    0.224913418    0.310118020
    0.878964186    0.037413299    0.387647569
    0.566464484    0.974913359    0.000000014
    0.128964439    0.787413359    0.077529527
    0.691464424    0.599913359    0.155059025
    0.253964484    0.412413359    0.232588530
    0.816464424    0.224913418    0.310118049
    0.378964305    0.037413359    0.387647510
    0.316464454    0.224913359    0.000000014
    0.878964424    0.037413359    0.077529527
    0.441464424    0.849913359    0.155059025
    0.003964484    0.662413359    0.232588530
    0.566464424    0.474913418    0.310118049
    0.128964424    0.287413359    0.387647510
    0.066464461    0.474913329    0.000000014
    0.628964424    0.287413359    0.077529527
    0.191464484    0.099913374    0.155059025
    0.753964424    0.912413418    0.232588530
    0.316464424    0.724913359    0.310118049
    0.878964424    0.537413359    0.387647510
    0.816464484    0.224913359    0.000000024
    0.378964484    0.037413385    0.077529535
    0.941464484    0.849913359    0.155059040
    0.503964484    0.662413359    0.232588500
    0.066464484    0.474913418    0.310118049
    0.628964305    0.287413359    0.387647569
    0.566464484    0.474913359    0.000000024
    0.128964484    0.287413388    0.077529535
    0.691464424    0.099913396    0.155059040
    0.253964484    0.912413418    0.232588500
    0.816464424    0.724913418    0.310118049
    0.378964305    0.537413359    0.387647569
    0.316464454    0.724913359    0.000000023
    0.878964424    0.537413359    0.077529535
    0.441464424    0.349913359    0.155059040
    0.003964484    0.162413359    0.232588500
    0.566464424    0.974913359    0.310118079
    0.128964305    0.787413359    0.387647569
    0.816464543    0.724913418    0.000000036
    0.378964514    0.537413418    0.077529512
    0.941464543    0.349913388    0.155059040
    0.503964484    0.162413433    0.232588530
    0.066464484    0.974913478    0.310118049
    0.628964305    0.787413359    0.387647569
    0.442292333    0.385882139    0.471518040
    0.317292213    0.260881901    0.560440361
    0.192292213    0.135881901    0.649362683
    0.067292213    0.010881662    0.738284945
    0.942292213    0.885881543    0.827207267
    0.817292213    0.760881424    0.916129589
    0.442292333    0.052548766    0.471518040
    0.317292213    0.927548647    0.560440361
    0.192292213    0.802548468    0.649362683
    0.067292213    0.677548409    0.738284945
    0.942292213    0.552548170    0.827207267
    0.817292213    0.427548170    0.916129589
    0.442292333    0.719215393    0.471518040
    0.317292213    0.594215274    0.560440361
    0.192292213    0.469215155    0.649362683
    0.067292213    0.344214916    0.738284945
    0.942292213    0.219214916    0.827207267
    0.817292213    0.094214678    0.916129589
    0.942292333    0.552548766    0.471518040
    0.817292273    0.427548647    0.560440361
    0.692292273    0.302548409    0.649362683
    0.567292213    0.177548289    0.738285005
    0.442292213    0.052548170    0.827207267
    0.317292213    0.927548051    0.916129529
    0.942292333    0.219215512    0.471518040
    0.817292273    0.094215393    0.560440361
    0.692292273    0.969215155    0.649362683
    0.567292213    0.844215035    0.738285005
    0.442292213    0.719214916    0.827207267
    0.317292213    0.594214916    0.916129529
    0.942292333    0.885882020    0.471518040
    0.817292273    0.760881901    0.560440361
    0.692292273    0.635881782    0.649362683
    0.567292213    0.510881662    0.738285005
    0.442292213    0.385881424    0.827207267
    0.317292213    0.260881424    0.916129529
    0.692292333    0.635882139    0.471518040
    0.567292273    0.510881901    0.560440361
    0.442292213    0.385881782    0.649362683
    0.317292213    0.260881662    0.738284945
    0.192292213    0.135881543    0.827207267
    0.067292213    0.010881424    0.916129589
    0.692292333    0.302548885    0.471518040
    0.567292273    0.177548647    0.560440361
    0.442292213    0.052548528    0.649362683
    0.317292213    0.927548409    0.738284945
    0.192292213    0.802548289    0.827207267
    0.067292213    0.677548170    0.916129589
    0.692292333    0.969215393    0.471518040
    0.567292273    0.844215274    0.560440361
    0.442292213    0.719215155    0.649362683
    0.317292213    0.594214916    0.738284945
    0.192292213    0.469214916    0.827207267
    0.067292213    0.344214678    0.916129589
    0.192292333    0.469215393    0.471518040
    0.067292333    0.344215274    0.560440361
    0.942292273    0.219215155    0.649362683
    0.817292213    0.094215035    0.738285005
    0.692292213    0.969214916    0.827207267
    0.567292213    0.844214737    0.916129529
    0.192292333    0.135882020    0.471518040
    0.067292333    0.010881901    0.560440361
    0.942292273    0.885881782    0.649362683
    0.817292213    0.760881603    0.738285005
    0.692292213    0.635881424    0.827207267
    0.567292213    0.510881424    0.916129529
    0.192292333    0.802548707    0.471518040
    0.067292333    0.677548647    0.560440361
    0.942292273    0.552548409    0.649362683
    0.817292213    0.427548409    0.738285005
    0.692292213    0.302548170    0.827207267
    0.567292213    0.177548051    0.916129529
    0.817292333    0.677548647    0.471518070
    0.692292273    0.552548647    0.560440361
    0.567292273    0.427548409    0.649362683
    0.442292213    0.302548289    0.738285005
    0.317292213    0.177548170    0.827207267
    0.192292213    0.052548051    0.916129529
    0.817292333    0.344215393    0.471518070
    0.692292273    0.219215274    0.560440361
    0.567292273    0.094215155    0.649362683
    0.442292213    0.969215035    0.738285005
    0.317292213    0.844214916    0.827207267
    0.192292213    0.719214797    0.916129529
    0.817292333    0.010882139    0.471518070
    0.692292273    0.885881960    0.560440361
    0.567292273    0.760881841    0.649362683
    0.442292213    0.635881662    0.738285005
    0.317292213    0.510881662    0.827207267
    0.192292213    0.385881424    0.916129529
    0.317292333    0.510882139    0.471518040
    0.192292333    0.385882139    0.560440361
    0.067292333    0.260881901    0.649362683
    0.942292213    0.135881662    0.738285005
    0.817292213    0.010881662    0.827207267
    0.692292213    0.885881484    0.916129529
    0.317292333    0.177548766    0.471518040
    0.192292333    0.052548528    0.560440361
    0.067292333    0.927548409    0.649362683
    0.942292213    0.802548289    0.738285005
    0.817292213    0.677548170    0.827207267
    0.692292213    0.552548051    0.916129529
    0.317292333    0.844215333    0.471518040
    0.192292333    0.719215155    0.560440361
    0.067292333    0.594215155    0.649362683
    0.942292213    0.469214916    0.738285005
    0.817292213    0.344214916    0.827207267
    0.692292213    0.219214678    0.916129529
    0.567292273    0.427548885    0.471518040
    0.442292333    0.302548647    0.560440361
    0.317292213    0.177548528    0.649362683
    0.192292213    0.052548409    0.738285005
    0.067292213    0.927548230    0.827207267
    0.942292213    0.802548110    0.916129529
    0.567292273    0.094215393    0.471518040
    0.442292333    0.969215274    0.560440361
    0.317292213    0.844215155    0.649362683
    0.192292213    0.719215035    0.738285005
    0.067292213    0.594214916    0.827207267
    0.942292213    0.469214797    0.916129529
    0.567292273    0.760882020    0.471518040
    0.442292333    0.635881901    0.560440361
    0.317292213    0.510881782    0.649362683
    0.192292213    0.385881662    0.738285005
    0.067292213    0.260881662    0.827207267
    0.942292213    0.135881424    0.916129529
    0.067292333    0.594215512    0.471518070
    0.942292273    0.469215393    0.560440361
    0.817292273    0.344215155    0.649362683
    0.692292213    0.219215035    0.738285005
    0.567292213    0.094214916    0.827207267
    0.442292213    0.969214797    0.916129529
    0.067292333    0.260882139    0.471518070
    0.942292273    0.135881901    0.560440361
    0.817292273    0.010881901    0.649362683
    0.692292213    0.885881662    0.738285005
    0.567292213    0.760881543    0.827207267
    0.442292213    0.635881424    0.916129529
    0.067292333    0.927548707    0.471518070
    0.942292273    0.802548587    0.560440361
    0.817292273    0.677548409    0.649362683
    0.692292213    0.552548289    0.738285005
    0.567292213    0.427548170    0.827207267
    0.442292213    0.302548170    0.916129529
