Si+Ge
    1.000000000
   16.293001175    0.000000000    0.000000000
    0.000000000   17.174329758    0.000000000
    0.000000000    0.000000253   10.402348518
Si  Ge 
72     48
Direct
    0.130378902    0.826204658    0.412751913
    0.963712454    0.076203912    0.000000057
    0.797045708    0.426204026    0.082550436
    0.630379081    0.776204169    0.165100768
    0.463712275    0.126204491    0.247651175
    0.297045529    0.476204634    0.330201566
    0.463712275    0.826204658    0.412751913
    0.297045797    0.076203912    0.000000057
    0.130379081    0.426204026    0.082550436
    0.963712394    0.776204169    0.165100768
    0.797045588    0.126204491    0.247651175
    0.630378842    0.476204634    0.330201566
    0.797045588    0.826204658    0.412751913
    0.630379140    0.076203912    0.000000057
    0.463712424    0.426204026    0.082550436
    0.297045767    0.776204169    0.165100768
    0.130378976    0.126204491    0.247651175
    0.963712215    0.476204634    0.330201566
    0.213712215    0.576204777    0.412751853
    0.047045767    0.826204002    0.000000000
    0.880379081    0.176204205    0.082550406
    0.713712335    0.526204467    0.165100709
    0.547045588    0.876204610    0.247651130
    0.380378962    0.226204634    0.330201447
    0.547045588    0.576204777    0.412751853
    0.380379081    0.826204002    0.000000000
    0.213712379    0.176204205    0.082550406
    0.047045693    0.526204467    0.165100709
    0.880378962    0.876204610    0.247651130
    0.713712335    0.226204634    0.330201447
    0.880378902    0.576204777    0.412751853
    0.713712394    0.826204002    0.000000000
    0.547045708    0.176204205    0.082550406
    0.380378991    0.526204467    0.165100709
    0.213712230    0.876204610    0.247651130
    0.047045581    0.226204634    0.330201447
    0.130378902    0.326204777    0.412751913
    0.963712394    0.576204002    0.000000023
    0.797045708    0.926204145    0.082550384
    0.630379021    0.276204228    0.165100709
    0.463712275    0.626204491    0.247651175
    0.297045648    0.976204634    0.330201447
    0.463712275    0.326204777    0.412751913
    0.297045767    0.576204002    0.000000023
    0.130379051    0.926204145    0.082550384
    0.963712394    0.276204228    0.165100709
    0.797045588    0.626204491    0.247651175
    0.630378962    0.976204634    0.330201447
    0.797045588    0.326204777    0.412751913
    0.630379140    0.576204002    0.000000023
    0.463712394    0.926204145    0.082550384
    0.297045738    0.276204228    0.165100709
    0.130378976    0.626204491    0.247651175
    0.963712335    0.976204634    0.330201447
    0.213712215    0.076204777    0.412751824
    0.047045767    0.326203912    0.000000057
    0.880379081    0.676204026    0.082550392
    0.713712394    0.026204228    0.165100724
    0.547045588    0.376204491    0.247651130
    0.380378842    0.726204753    0.330201447
    0.547045588    0.076204777    0.412751824
    0.380379111    0.326203912    0.000000057
    0.213712409    0.676204026    0.082550392
    0.047045726    0.026204228    0.165100724
    0.880378962    0.376204491    0.247651130
    0.713712215    0.726204753    0.330201447
    0.880378962    0.076204777    0.412751824
    0.713712454    0.326203912    0.000000057
    0.547045767    0.676204026    0.082550392
    0.380379081    0.026204228    0.165100724
    0.213712290    0.376204491    0.247651130
    0.047045540    0.726204753    0.330201447
    0.209534049    0.681954145    0.546128571
    0.834534049    0.293065190    0.610227466
    0.459534109    0.904176295    0.674326420
    0.084534168    0.515287161    0.738425493
    0.709534109    0.126398325    0.802524388
    0.334533989    0.737509251    0.866623282
    0.709533989    0.681954145    0.546128571
    0.334534019    0.293065071    0.610227466
    0.959534049    0.904176235    0.674326420
    0.584533989    0.515287161    0.738425374
    0.209534168    0.126398325    0.802524388
    0.834534109    0.737509489    0.866623402
    0.334534019    0.431954026    0.546128571
    0.959534049    0.043065071    0.610227466
    0.584534109    0.654176235    0.674326420
    0.209534168    0.265287161    0.738425374
    0.834533989    0.876398206    0.802524328
    0.459533989    0.487509489    0.866623282
    0.834533989    0.431954026    0.546128571
    0.459533989    0.043065071    0.610227466
    0.084534049    0.654176235    0.674326420
    0.709533989    0.265287280    0.738425374
    0.334534049    0.876398265    0.802524388
    0.959533989    0.487509489    0.866623282
    0.584534049    0.431954026    0.546128571
    0.209534049    0.043065071    0.610227466
    0.834534109    0.654176235    0.674326420
    0.459534109    0.265287161    0.738425374
    0.084534168    0.876398265    0.802524328
    0.709534109    0.487509251    0.866623282
    0.084533930    0.431953907    0.546128571
    0.709534049    0.043065071    0.610227466
    0.334534079    0.654176235    0.674326420
    0.959534049    0.265287161    0.738425374
    0.584533989    0.876398265    0.802524328
    0.209534168    0.487509489    0.866623282
    0.459534019    0.681954145    0.546128571
    0.084533930    0.293065071    0.610227466
    0.709534109    0.904176295    0.674326420
    0.334534049    0.515287161    0.738425493
    0.959534109    0.126398325    0.802524209
    0.584533989    0.737509251    0.866623282
    0.959533989    0.681954145    0.546128631
    0.584534049    0.293065071    0.610227466
    0.209534049    0.904176295    0.674326420
    0.834534109    0.515287161    0.738425493
    0.459533989    0.126398325    0.802524209
    0.084534168    0.737509489    0.866623282
