Si+Ge
    1.000000000
    7.680594444    0.000000000    0.000000000
    0.000000000   16.292999268    0.000000000
    0.000000000    0.000000000   16.672992706
Si  Ge 
72     48
Direct
    0.978517294    0.985678196    0.000000001
    0.982742548    0.224113941    0.915165305
    0.478517175    0.652344763    0.230330452
    0.228517234    0.485678136    0.345495641
    0.232742622    0.724113882    0.660660863
    0.478517175    0.985678136    0.460660875
    0.978517294    0.319011539    0.000000001
    0.232742548    0.224113882    1.000000119
    0.478517175    0.985678136    0.230330452
    0.228517234    0.819011509    0.345495641
    0.482742548    0.724113822    0.575826108
    0.478517175    0.652344763    0.460660875
    0.978517294    0.652344942    0.000000001
    0.228517294    0.569011629    0.000000001
    0.478517175    0.319011509    0.230330452
    0.228517234    0.152344868    0.345495641
    0.478517234    0.069011383    0.575826049
    0.728517175    0.819011390    0.575826108
    0.228517249    0.152344853    0.115165226
    0.228517249    0.819011450    0.115165226
    0.978517234    0.652344763    0.230330452
    0.728517294    0.485678136    0.345495611
    0.478517175    0.319011390    0.460660875
    0.228517115    0.152344704    0.575826108
    0.478517294    0.319011539    0.000000000
    0.478517294    0.985678196    0.000000000
    0.978517234    0.985678136    0.230330452
    0.728517294    0.819011509    0.345495611
    0.728517175    0.485678077    0.575826108
    0.228517115    0.485678077    0.575826108
    0.228517249    0.485678196    0.115165226
    0.478517294    0.652344942    0.000000000
    0.978517234    0.319011509    0.230330452
    0.728517294    0.152344868    0.345495611
    0.728517175    0.152344704    0.575826108
    0.228517115    0.819011390    0.575826108
    0.728517354    0.235678196    0.000000000
    0.478517294    0.069011487    0.115165219
    0.228517264    0.902344763    0.230330452
    0.978517294    0.735678136    0.345495641
    0.728517234    0.569011450    0.460660875
    0.478517234    0.402344644    0.575826049
    0.728517354    0.569011629    0.000000000
    0.478517294    0.402344882    0.115165219
    0.228517264    0.235678196    0.230330452
    0.978517294    0.069011539    0.345495641
    0.728517234    0.902344823    0.460660875
    0.478517234    0.735678077    0.575826049
    0.728517354    0.902344942    0.000000000
    0.478517294    0.735678196    0.115165219
    0.228517264    0.569011509    0.230330452
    0.482742578    0.474113852    0.575826108
    0.728517234    0.235678121    0.460660875
    0.978517175    0.985678136    0.460660875
    0.228517294    0.235678196    0.000000001
    0.978517234    0.069011487    0.115165226
    0.232742548    0.974113822    1.000000119
    0.478517294    0.735678136    0.345495611
    0.228517175    0.569011450    0.460660875
    0.978517056    0.402344644    0.575826108
    0.728517234    0.485678196    0.115165226
    0.978517234    0.402344882    0.115165226
    0.728517175    0.235678196    0.230330452
    0.478517294    0.069011539    0.345495611
    0.228517175    0.902344823    0.460660875
    0.978517056    0.735678077    0.575826108
    0.228517294    0.902344942    0.000000001
    0.978517234    0.735678196    0.115165226
    0.728517175    0.569011509    0.230330452
    0.478517294    0.402344853    0.345495611
    0.228517175    0.235678121    0.460660875
    0.978517056    0.069011383    0.575826108
    0.982742548    0.474113822    0.575826108
    0.732742608    0.099113882    0.745495677
    0.482742608    0.724113941    0.915165305
    0.978517175    0.652344763    0.460660875
    0.232742578    0.349113852    0.745495677
    0.982742608    0.974113882    0.915165305
    0.982742608    0.974113882    0.575826108
    0.732742608    0.599113941    0.745495677
    0.482742608    0.224113882    0.915165305
    0.482742518    0.224113837    0.575826108
    0.232742578    0.849113882    0.745495677
    0.982742608    0.474113882    0.915165305
    0.232742533    0.474113822    0.660660863
    0.982742608    0.099113882    0.830330551
    0.732742608    0.724113822    1.000000119
    0.732742548    0.724113822    0.660660863
    0.482742578    0.349113852    0.830330551
    0.728517175    0.902344763    0.230330452
    0.232742593    0.974113882    0.660660863
    0.982742608    0.599113941    0.830330551
    0.732742548    0.224113882    1.000000119
    0.732742488    0.224113837    0.660660863
    0.482742578    0.849113882    0.830330551
    0.232742563    0.474113882    1.000000119
    0.982742608    0.724113882    0.575826108
    0.732742667    0.349113911    0.745495677
    0.482742608    0.974113941    0.915165305
    0.982742608    0.224113852    0.575826108
    0.732742608    0.849113882    0.745495677
    0.482742608    0.474113882    0.915165305
    0.978517294    0.402344853    0.345495641
    0.232742608    0.099113911    0.745495677
    0.982742608    0.724113941    0.915165305
    0.482742548    0.974113882    0.575826108
    0.232742578    0.599113882    0.745495677
    0.728517234    0.819011450    0.115165226
    0.978517175    0.319011390    0.460660875
    0.982742608    0.349113911    0.830330551
    0.732742548    0.974113882    1.000000119
    0.232742578    0.224113867    0.660660863
    0.982742608    0.849113882    0.830330551
    0.732742548    0.474113882    1.000000119
    0.732742548    0.474113822    0.660660863
    0.482742548    0.099113844    0.830330551
    0.232742503    0.724113822    1.000000119
    0.732742548    0.974113882    0.660660863
    0.482742578    0.599113941    0.830330551
    0.728517234    0.152344853    0.115165226
