Ge+Sn                                   
   1.00000000000000     
    16.0026760099999983    0.0000000000000000    0.0000000000000000
   -16.0026760099999983   11.3156013489999996    0.0000000000000000
     0.0000000000000000    0.0000000000000000   25.9976596829999984
   Ge   Sn
    96    72
Direct
  0.9690676929999995  0.4793784920000022  0.0000000069999970
  0.5940676929999995  0.2293784769999974  0.0769428759999968
  0.2190676330000016  0.9793784020000018  0.1538857820000032
  0.8440676929999995  0.7293784619999997  0.2308286430000024
  0.4690678119999987  0.4793785210000010  0.3077715040000015
  0.0940676929999995  0.2293784619999997  0.3847143650000007
  0.9690676929999995  0.9793784619999997  0.0000000109999974
  0.5940676929999995  0.7293784619999997  0.0769428830000010
  0.2190676330000016  0.4793784020000018  0.1538857669999985
  0.8440676929999995  0.2293784619999997  0.2308286430000024
  0.4690678119999987  0.9793785809999989  0.3077714739999990
  0.0940676929999995  0.7293784619999997  0.3847143650000007
  0.4690677230000020  0.4793784920000022  0.0000000109999974
  0.0940677079999972  0.2293784769999974  0.0769428830000010
  0.7190676330000016  0.9793784020000018  0.1538857669999985
  0.3440677520000008  0.7293784619999997  0.2308286430000024
  0.9690678119999987  0.4793785210000010  0.3077714739999990
  0.5940676929999995  0.2293784619999997  0.3847143650000007
  0.4690676929999995  0.9793784619999997  0.0000000009999965
  0.0940676999999965  0.7293784619999997  0.0769428759999968
  0.7190676330000016  0.4793784020000018  0.1538857669999985
  0.3440676929999995  0.2293784619999997  0.2308286430000024
  0.9690678119999987  0.9793785809999989  0.3077715040000015
  0.5940676929999995  0.7293784619999997  0.3847143349999982
  0.2190677079999972  0.4793784920000022  0.0000000120000010
  0.8440676929999995  0.2293784769999974  0.0769428910000016
  0.4690676330000016  0.9793784020000018  0.1538857669999985
  0.0940676929999995  0.7293784619999997  0.2308286430000024
  0.7190678119999987  0.4793785210000010  0.3077715040000015
  0.3440676929999995  0.2293784619999997  0.3847143349999982
  0.2190676780000018  0.9793784619999997  0.0000000089999972
  0.8440676929999995  0.7293784619999997  0.0769428830000010
  0.4690676330000016  0.4793784020000018  0.1538857669999985
  0.0940676929999995  0.2293784619999997  0.2308286430000024
  0.7190678119999987  0.9793785809999989  0.3077715040000015
  0.3440676929999995  0.7293784619999997  0.3847143650000007
  0.7190676929999995  0.4793784920000022  0.0000000089999972
  0.3440677230000020  0.2293784769999974  0.0769428830000010
  0.9690676330000016  0.9793784020000018  0.1538857669999985
  0.5940676929999995  0.7293784619999997  0.2308286430000024
  0.2190677520000008  0.4793785210000010  0.3077715040000015
  0.8440676929999995  0.2293784619999997  0.3847143349999982
  0.7190676330000016  0.9793784619999997  0.0000000129999975
  0.3440676929999995  0.7293784619999997  0.0769428979999986
  0.9690676330000016  0.4793784020000018  0.1538857669999985
  0.5940676929999995  0.2293784619999997  0.2308286430000024
  0.2190678719999966  0.9793785809999989  0.3077715339999969
  0.8440676929999995  0.7293784619999997  0.3847143650000007
  0.2190677370000031  0.8543785210000010  0.0000000009999965
  0.8440676929999995  0.6043784619999997  0.0769428830000010
  0.4690676929999995  0.3543784619999997  0.1538857669999985
  0.0940677520000008  0.1043784989999992  0.2308286430000024
  0.7190678119999987  0.8543785210000010  0.3077714739999990
  0.3440676929999995  0.6043785210000010  0.3847143650000007
  0.2190676780000018  0.3543784619999997  0.0000000120000010
  0.8440676929999995  0.1043784619999997  0.0769428759999968
  0.4690676330000016  0.8543784020000018  0.1538857669999985
  0.0940676330000016  0.6043784619999997  0.2308286430000024
  0.7190676929999995  0.3543784619999997  0.3077715040000015
  0.3440675740000003  0.1043784020000018  0.3847143349999982
  0.7190677520000008  0.8543785210000010  0.0000000109999974
  0.3440676629999970  0.6043784619999997  0.0769428830000010
  0.9690676330000016  0.3543784619999997  0.1538857520000008
  0.5940676929999995  0.1043784989999992  0.2308286430000024
  0.2190678119999987  0.8543785210000010  0.3077715040000015
  0.8440676929999995  0.6043785210000010  0.3847143349999982
  0.7190676929999995  0.3543784619999997  0.0000000089999972
  0.3440676929999995  0.1043784619999997  0.0769428830000010
  0.9690676330000016  0.8543784020000018  0.1538857820000032
  0.5940676929999995  0.6043784619999997  0.2308286430000024
  0.2190677520000008  0.3543784619999997  0.3077715040000015
  0.8440675740000003  0.1043784020000018  0.3847143650000007
  0.9690676929999995  0.8543785210000010  0.0000000160000013
  0.5940676330000016  0.6043784619999997  0.0769428979999986
  0.2190676330000016  0.3543784619999997  0.1538857669999985
  0.8440675740000003  0.1043784989999992  0.2308286729999978
  0.4690678119999987  0.8543785210000010  0.3077715339999969
  0.0940676929999995  0.6043785210000010  0.3847143650000007
  0.9690676929999995  0.3543784619999997  0.0000000000000000
  0.5940676929999995  0.1043784619999997  0.0769428830000010
  0.2190676330000016  0.8543784020000018  0.1538857669999985
  0.8440676929999995  0.6043784619999997  0.2308286430000024
  0.4690676929999995  0.3543784619999997  0.3077714739999990
  0.0940676929999995  0.1043784020000018  0.3847143349999982
  0.4690677520000008  0.8543785210000010  0.0000000000000000
  0.0940676849999988  0.6043784619999997  0.0769428830000010
  0.7190676929999995  0.3543784619999997  0.1538857669999985
  0.3440677520000008  0.1043784989999992  0.2308286430000024
  0.9690678119999987  0.8543785210000010  0.3077714739999990
  0.5940678119999987  0.6043785210000010  0.3847143349999982
  0.4690676929999995  0.3543784619999997  0.0000000100000008
  0.0940676929999995  0.1043784619999997  0.0769428830000010
  0.7190676330000016  0.8543784020000018  0.1538857520000008
  0.3440676929999995  0.6043784619999997  0.2308286430000024
  0.9690676929999995  0.3543784619999997  0.3077715040000015
  0.5940676929999995  0.1043784020000018  0.3847143349999982
  0.9694418910000024  0.9435898070000022  0.4717335699999978
  0.7194418910000024  0.9435898070000022  0.5599829550000024
  0.4694417720000033  0.9435895680000002  0.6482325200000005
  0.2194416520000004  0.9435896869999993  0.7364819049999980
  0.9694416520000004  0.9435894490000010  0.8247312900000026
  0.7194416520000004  0.9435894490000010  0.9129807950000028
  0.9694418910000024  0.6102564330000035  0.4717335699999978
  0.7194418910000024  0.6102564330000035  0.5599829550000024
  0.4694417720000033  0.6102563139999972  0.6482325200000005
  0.2194416520000004  0.6102561949999981  0.7364819049999980
  0.9694416520000004  0.6102560759999989  0.8247312900000026
  0.7194416520000004  0.6102560759999989  0.9129807950000028
  0.9694418910000024  0.2769230899999968  0.4717335699999978
  0.7194418910000024  0.2769230600000014  0.5599829550000024
  0.4694417720000033  0.2769229410000023  0.6482325200000005
  0.2194416520000004  0.2769229410000023  0.7364819049999980
  0.9694416520000004  0.2769228220000031  0.8247312900000026
  0.7194416520000004  0.2769227029999968  0.9129807950000028
  0.4694418910000024  0.9435898070000022  0.4717335699999978
  0.2194418910000024  0.9435898070000022  0.5599829550000024
  0.9694417720000033  0.9435896869999993  0.6482325200000005
  0.7194417720000033  0.9435895680000002  0.7364819049999980
  0.4694416520000004  0.9435894490000010  0.8247312900000026
  0.2194416520000004  0.9435894490000010  0.9129807950000028
  0.4694418910000024  0.6102564330000035  0.4717335699999978
  0.2194418910000024  0.6102563740000022  0.5599829550000024
  0.9694417720000033  0.6102563139999972  0.6482325200000005
  0.7194417720000033  0.6102562550000030  0.7364819049999980
  0.4694416520000004  0.6102561949999981  0.8247312900000026
  0.2194416520000004  0.6102560759999989  0.9129807950000028
  0.4694418910000024  0.2769230600000014  0.4717335699999978
  0.2194418910000024  0.2769230600000014  0.5599829550000024
  0.9694417720000033  0.2769229410000023  0.6482325200000005
  0.7194417720000033  0.2769229410000023  0.7364819049999980
  0.4694416520000004  0.2769228220000031  0.8247312900000026
  0.2194416520000004  0.2769227029999968  0.9129807950000028
  0.7194418910000024  0.1935898070000022  0.4717335699999978
  0.4694418910000024  0.1935898070000022  0.5599830150000003
  0.2194417720000033  0.1935896869999993  0.6482325200000005
  0.9694416520000004  0.1935896869999993  0.7364819049999980
  0.7194416520000004  0.1935894490000010  0.8247313500000004
  0.4694416520000004  0.1935895680000002  0.9129807950000028
  0.7194418910000024  0.8602564330000035  0.4717335699999978
  0.4694418910000024  0.8602564330000035  0.5599830150000003
  0.2194417720000033  0.8602563139999972  0.6482325200000005
  0.9694416520000004  0.8602563139999972  0.7364819049999980
  0.7194416520000004  0.8602561949999981  0.8247313500000004
  0.4694416520000004  0.8602561949999981  0.9129807950000028
  0.7194418910000024  0.5269230600000014  0.4717335699999978
  0.4694418910000024  0.5269230010000001  0.5599830150000003
  0.2194417720000033  0.5269229410000023  0.6482325200000005
  0.9694416520000004  0.5269228820000009  0.7364819049999980
  0.7194416520000004  0.5269228220000031  0.8247313500000004
  0.4694416520000004  0.5269227619999981  0.9129807950000028
  0.2194418910000024  0.1935898070000022  0.4717335699999978
  0.9694418910000024  0.1935898070000022  0.5599830150000003
  0.7194417720000033  0.1935896869999993  0.6482325200000005
  0.4694416520000004  0.1935896869999993  0.7364819049999980
  0.2194416520000004  0.1935895680000002  0.8247312900000026
  0.9694416520000004  0.1935895680000002  0.9129807950000028
  0.2194418910000024  0.8602564330000035  0.4717335699999978
  0.9694418910000024  0.8602564330000035  0.5599830150000003
  0.7194417720000033  0.8602563139999972  0.6482325200000005
  0.4694416520000004  0.8602561949999981  0.7364819049999980
  0.2194416520000004  0.8602561949999981  0.8247312900000026
  0.9694416520000004  0.8602561949999981  0.9129807950000028
  0.2194418910000024  0.5269231199999993  0.4717335699999978
  0.9694418910000024  0.5269230600000014  0.5599830150000003
  0.7194417720000033  0.5269229410000023  0.6482325200000005
  0.4694416520000004  0.5269228220000031  0.7364819049999980
  0.2194416520000004  0.5269228820000009  0.8247312900000026
  0.9694416520000004  0.5269228220000031  0.9129807950000028
 
  0.00000000E+00  0.00000000E+00  0.00000000E+00
  0.00000000E+00  0.00000000E+00  0.00000000E+00
  0.00000000E+00  0.00000000E+00  0.00000000E+00
  0.00000000E+00  0.00000000E+00  0.00000000E+00
  0.00000000E+00  0.00000000E+00  0.00000000E+00
  0.00000000E+00  0.00000000E+00  0.00000000E+00
  0.00000000E+00  0.00000000E+00  0.00000000E+00
  0.00000000E+00  0.00000000E+00  0.00000000E+00
  0.00000000E+00  0.00000000E+00  0.00000000E+00
  0.00000000E+00  0.00000000E+00  0.00000000E+00
  0.00000000E+00  0.00000000E+00  0.00000000E+00
  0.00000000E+00  0.00000000E+00  0.00000000E+00
  0.00000000E+00  0.00000000E+00  0.00000000E+00
  0.00000000E+00  0.00000000E+00  0.00000000E+00
  0.00000000E+00  0.00000000E+00  0.00000000E+00
  0.00000000E+00  0.00000000E+00  0.00000000E+00
  0.00000000E+00  0.00000000E+00  0.00000000E+00
  0.00000000E+00  0.00000000E+00  0.00000000E+00
  0.00000000E+00  0.00000000E+00  0.00000000E+00
  0.00000000E+00  0.00000000E+00  0.00000000E+00
  0.00000000E+00  0.00000000E+00  0.00000000E+00
  0.00000000E+00  0.00000000E+00  0.00000000E+00
  0.00000000E+00  0.00000000E+00  0.00000000E+00
  0.00000000E+00  0.00000000E+00  0.00000000E+00
  0.00000000E+00  0.00000000E+00  0.00000000E+00
  0.00000000E+00  0.00000000E+00  0.00000000E+00
  0.00000000E+00  0.00000000E+00  0.00000000E+00
  0.00000000E+00  0.00000000E+00  0.00000000E+00
  0.00000000E+00  0.00000000E+00  0.00000000E+00
  0.00000000E+00  0.00000000E+00  0.00000000E+00
  0.00000000E+00  0.00000000E+00  0.00000000E+00
  0.00000000E+00  0.00000000E+00  0.00000000E+00
  0.00000000E+00  0.00000000E+00  0.00000000E+00
  0.00000000E+00  0.00000000E+00  0.00000000E+00
  0.00000000E+00  0.00000000E+00  0.00000000E+00
  0.00000000E+00  0.00000000E+00  0.00000000E+00
  0.00000000E+00  0.00000000E+00  0.00000000E+00
  0.00000000E+00  0.00000000E+00  0.00000000E+00
  0.00000000E+00  0.00000000E+00  0.00000000E+00
  0.00000000E+00  0.00000000E+00  0.00000000E+00
  0.00000000E+00  0.00000000E+00  0.00000000E+00
  0.00000000E+00  0.00000000E+00  0.00000000E+00
  0.00000000E+00  0.00000000E+00  0.00000000E+00
  0.00000000E+00  0.00000000E+00  0.00000000E+00
  0.00000000E+00  0.00000000E+00  0.00000000E+00
  0.00000000E+00  0.00000000E+00  0.00000000E+00
  0.00000000E+00  0.00000000E+00  0.00000000E+00
  0.00000000E+00  0.00000000E+00  0.00000000E+00
  0.00000000E+00  0.00000000E+00  0.00000000E+00
  0.00000000E+00  0.00000000E+00  0.00000000E+00
  0.00000000E+00  0.00000000E+00  0.00000000E+00
  0.00000000E+00  0.00000000E+00  0.00000000E+00
  0.00000000E+00  0.00000000E+00  0.00000000E+00
  0.00000000E+00  0.00000000E+00  0.00000000E+00
  0.00000000E+00  0.00000000E+00  0.00000000E+00
  0.00000000E+00  0.00000000E+00  0.00000000E+00
  0.00000000E+00  0.00000000E+00  0.00000000E+00
  0.00000000E+00  0.00000000E+00  0.00000000E+00
  0.00000000E+00  0.00000000E+00  0.00000000E+00
  0.00000000E+00  0.00000000E+00  0.00000000E+00
  0.00000000E+00  0.00000000E+00  0.00000000E+00
  0.00000000E+00  0.00000000E+00  0.00000000E+00
  0.00000000E+00  0.00000000E+00  0.00000000E+00
  0.00000000E+00  0.00000000E+00  0.00000000E+00
  0.00000000E+00  0.00000000E+00  0.00000000E+00
  0.00000000E+00  0.00000000E+00  0.00000000E+00
  0.00000000E+00  0.00000000E+00  0.00000000E+00
  0.00000000E+00  0.00000000E+00  0.00000000E+00
  0.00000000E+00  0.00000000E+00  0.00000000E+00
  0.00000000E+00  0.00000000E+00  0.00000000E+00
  0.00000000E+00  0.00000000E+00  0.00000000E+00
  0.00000000E+00  0.00000000E+00  0.00000000E+00
  0.00000000E+00  0.00000000E+00  0.00000000E+00
  0.00000000E+00  0.00000000E+00  0.00000000E+00
  0.00000000E+00  0.00000000E+00  0.00000000E+00
  0.00000000E+00  0.00000000E+00  0.00000000E+00
  0.00000000E+00  0.00000000E+00  0.00000000E+00
  0.00000000E+00  0.00000000E+00  0.00000000E+00
  0.00000000E+00  0.00000000E+00  0.00000000E+00
  0.00000000E+00  0.00000000E+00  0.00000000E+00
  0.00000000E+00  0.00000000E+00  0.00000000E+00
  0.00000000E+00  0.00000000E+00  0.00000000E+00
  0.00000000E+00  0.00000000E+00  0.00000000E+00
  0.00000000E+00  0.00000000E+00  0.00000000E+00
  0.00000000E+00  0.00000000E+00  0.00000000E+00
  0.00000000E+00  0.00000000E+00  0.00000000E+00
  0.00000000E+00  0.00000000E+00  0.00000000E+00
  0.00000000E+00  0.00000000E+00  0.00000000E+00
  0.00000000E+00  0.00000000E+00  0.00000000E+00
  0.00000000E+00  0.00000000E+00  0.00000000E+00
  0.00000000E+00  0.00000000E+00  0.00000000E+00
  0.00000000E+00  0.00000000E+00  0.00000000E+00
  0.00000000E+00  0.00000000E+00  0.00000000E+00
  0.00000000E+00  0.00000000E+00  0.00000000E+00
  0.00000000E+00  0.00000000E+00  0.00000000E+00
  0.00000000E+00  0.00000000E+00  0.00000000E+00
  0.00000000E+00  0.00000000E+00  0.00000000E+00
  0.00000000E+00  0.00000000E+00  0.00000000E+00
  0.00000000E+00  0.00000000E+00  0.00000000E+00
  0.00000000E+00  0.00000000E+00  0.00000000E+00
  0.00000000E+00  0.00000000E+00  0.00000000E+00
  0.00000000E+00  0.00000000E+00  0.00000000E+00
  0.00000000E+00  0.00000000E+00  0.00000000E+00
  0.00000000E+00  0.00000000E+00  0.00000000E+00
  0.00000000E+00  0.00000000E+00  0.00000000E+00
  0.00000000E+00  0.00000000E+00  0.00000000E+00
  0.00000000E+00  0.00000000E+00  0.00000000E+00
  0.00000000E+00  0.00000000E+00  0.00000000E+00
  0.00000000E+00  0.00000000E+00  0.00000000E+00
  0.00000000E+00  0.00000000E+00  0.00000000E+00
  0.00000000E+00  0.00000000E+00  0.00000000E+00
  0.00000000E+00  0.00000000E+00  0.00000000E+00
  0.00000000E+00  0.00000000E+00  0.00000000E+00
  0.00000000E+00  0.00000000E+00  0.00000000E+00
  0.00000000E+00  0.00000000E+00  0.00000000E+00
  0.00000000E+00  0.00000000E+00  0.00000000E+00
  0.00000000E+00  0.00000000E+00  0.00000000E+00
  0.00000000E+00  0.00000000E+00  0.00000000E+00
  0.00000000E+00  0.00000000E+00  0.00000000E+00
  0.00000000E+00  0.00000000E+00  0.00000000E+00
  0.00000000E+00  0.00000000E+00  0.00000000E+00
  0.00000000E+00  0.00000000E+00  0.00000000E+00
  0.00000000E+00  0.00000000E+00  0.00000000E+00
  0.00000000E+00  0.00000000E+00  0.00000000E+00
  0.00000000E+00  0.00000000E+00  0.00000000E+00
  0.00000000E+00  0.00000000E+00  0.00000000E+00
  0.00000000E+00  0.00000000E+00  0.00000000E+00
  0.00000000E+00  0.00000000E+00  0.00000000E+00
  0.00000000E+00  0.00000000E+00  0.00000000E+00
  0.00000000E+00  0.00000000E+00  0.00000000E+00
  0.00000000E+00  0.00000000E+00  0.00000000E+00
  0.00000000E+00  0.00000000E+00  0.00000000E+00
  0.00000000E+00  0.00000000E+00  0.00000000E+00
  0.00000000E+00  0.00000000E+00  0.00000000E+00
  0.00000000E+00  0.00000000E+00  0.00000000E+00
  0.00000000E+00  0.00000000E+00  0.00000000E+00
  0.00000000E+00  0.00000000E+00  0.00000000E+00
  0.00000000E+00  0.00000000E+00  0.00000000E+00
  0.00000000E+00  0.00000000E+00  0.00000000E+00
  0.00000000E+00  0.00000000E+00  0.00000000E+00
  0.00000000E+00  0.00000000E+00  0.00000000E+00
  0.00000000E+00  0.00000000E+00  0.00000000E+00
  0.00000000E+00  0.00000000E+00  0.00000000E+00
  0.00000000E+00  0.00000000E+00  0.00000000E+00
  0.00000000E+00  0.00000000E+00  0.00000000E+00
  0.00000000E+00  0.00000000E+00  0.00000000E+00
  0.00000000E+00  0.00000000E+00  0.00000000E+00
  0.00000000E+00  0.00000000E+00  0.00000000E+00
  0.00000000E+00  0.00000000E+00  0.00000000E+00
  0.00000000E+00  0.00000000E+00  0.00000000E+00
  0.00000000E+00  0.00000000E+00  0.00000000E+00
  0.00000000E+00  0.00000000E+00  0.00000000E+00
  0.00000000E+00  0.00000000E+00  0.00000000E+00
  0.00000000E+00  0.00000000E+00  0.00000000E+00
  0.00000000E+00  0.00000000E+00  0.00000000E+00
  0.00000000E+00  0.00000000E+00  0.00000000E+00
  0.00000000E+00  0.00000000E+00  0.00000000E+00
  0.00000000E+00  0.00000000E+00  0.00000000E+00
  0.00000000E+00  0.00000000E+00  0.00000000E+00
  0.00000000E+00  0.00000000E+00  0.00000000E+00
  0.00000000E+00  0.00000000E+00  0.00000000E+00
  0.00000000E+00  0.00000000E+00  0.00000000E+00
  0.00000000E+00  0.00000000E+00  0.00000000E+00
  0.00000000E+00  0.00000000E+00  0.00000000E+00
  0.00000000E+00  0.00000000E+00  0.00000000E+00
  0.00000000E+00  0.00000000E+00  0.00000000E+00
  0.00000000E+00  0.00000000E+00  0.00000000E+00
  0.00000000E+00  0.00000000E+00  0.00000000E+00
