Si+Si                                   
   1.00000000000000     
     7.6805944439999996    0.0000000000000000    0.0000000000000000
     3.8402969840000001   11.5208911900000004    0.0000000000000000
     0.0000000000000000    0.0000000000000000    9.0516681670000008
   Si
    48
Direct
  0.6607342960000011  0.6607342960000011  0.0000000000000000
  0.4940675799999994  0.4940676390000007  0.2999999230000014
  0.3274008329999987  0.3274009530000015  0.5999999049999971
  0.3274010120000028  0.3274010120000028  0.0000000000000000
  0.1607342659999986  0.1607343259999965  0.2999999230000014
  0.9940675499999969  0.9940676690000032  0.5999999049999971
  0.9940677290000011  0.9940677290000011  0.0000000000000000
  0.8274009820000003  0.8274010419999982  0.2999999230000014
  0.6607342360000032  0.6607343550000024  0.5999999049999971
  0.4107343259999965  0.6607342960000011  0.1499999759999966
  0.2440675799999994  0.4940676089999982  0.4499998989999980
  0.0774008109999968  0.3274009229999990  0.7499998810000008
  0.7440676089999982  0.9940676690000032  0.1499999759999966
  0.5774008630000012  0.8274010419999982  0.4499998989999980
  0.4107340870000016  0.6607342960000011  0.7499998810000008
  0.0774010200000035  0.3274010120000028  0.1499999759999966
  0.9107342960000011  0.1607343410000013  0.4499998989999980
  0.7440675499999969  0.9940676690000032  0.7499998810000008
  0.8274009820000003  0.3274010120000028  0.0000000000000000
  0.6607342360000032  0.1607343550000024  0.2999999230000014
  0.4940675200000015  0.9940676690000032  0.5999999049999971
  0.1607343550000024  0.6607343550000024  0.0000000000000000
  0.9940676089999982  0.4940676690000032  0.2999999230000014
  0.8274008630000012  0.3274009820000003  0.5999999049999971
  0.4940676690000032  0.9940677290000011  0.0000000000000000
  0.3274009229999990  0.8274010419999982  0.2999999230000014
  0.1607341919999996  0.6607343550000024  0.5999999049999971
  0.9107344749999982  0.6607342360000032  0.1499999759999966
  0.7440677290000011  0.4940675799999994  0.4499998989999980
  0.5774009229999990  0.3274008929999965  0.7499998810000008
  0.5774009820000003  0.3274009820000003  0.1499999759999966
  0.4107342659999986  0.1607343109999988  0.4499998989999980
  0.2440674899999991  0.9940676089999982  0.7499998810000008
  0.2440676690000032  0.9940677290000011  0.1499999759999966
  0.0774009379999967  0.8274010419999982  0.4499998989999980
  0.9107341770000019  0.6607342960000011  0.7499998810000008
  0.9893847700000009  0.9734618660000010  0.7499998810000008
  0.8782736060000005  0.6956840750000026  0.8499997850000014
  0.7671624420000001  0.4179062250000030  0.9499999279999969
  0.4893847410000021  0.9734618660000010  0.7499998810000008
  0.3782735469999992  0.6956840750000026  0.8499997850000014
  0.2671623829999987  0.4179062250000030  0.9499999279999969
  0.6838291290000029  0.0845729259999999  0.7999999520000003
  0.5727179650000025  0.8067951199999968  0.8999999759999966
  0.4616068010000021  0.5290172099999992  0.0000000000000000
  0.1838291440000006  0.0845729340000005  0.7999999520000003
  0.0727179940000013  0.8067951199999968  0.8999999759999966
  0.9616068010000021  0.5290172099999992  0.0000000000000000
 
  0.00000000E+00  0.00000000E+00  0.00000000E+00
  0.00000000E+00  0.00000000E+00  0.00000000E+00
  0.00000000E+00  0.00000000E+00  0.00000000E+00
  0.00000000E+00  0.00000000E+00  0.00000000E+00
  0.00000000E+00  0.00000000E+00  0.00000000E+00
  0.00000000E+00  0.00000000E+00  0.00000000E+00
  0.00000000E+00  0.00000000E+00  0.00000000E+00
  0.00000000E+00  0.00000000E+00  0.00000000E+00
  0.00000000E+00  0.00000000E+00  0.00000000E+00
  0.00000000E+00  0.00000000E+00  0.00000000E+00
  0.00000000E+00  0.00000000E+00  0.00000000E+00
  0.00000000E+00  0.00000000E+00  0.00000000E+00
  0.00000000E+00  0.00000000E+00  0.00000000E+00
  0.00000000E+00  0.00000000E+00  0.00000000E+00
  0.00000000E+00  0.00000000E+00  0.00000000E+00
  0.00000000E+00  0.00000000E+00  0.00000000E+00
  0.00000000E+00  0.00000000E+00  0.00000000E+00
  0.00000000E+00  0.00000000E+00  0.00000000E+00
  0.00000000E+00  0.00000000E+00  0.00000000E+00
  0.00000000E+00  0.00000000E+00  0.00000000E+00
  0.00000000E+00  0.00000000E+00  0.00000000E+00
  0.00000000E+00  0.00000000E+00  0.00000000E+00
  0.00000000E+00  0.00000000E+00  0.00000000E+00
  0.00000000E+00  0.00000000E+00  0.00000000E+00
  0.00000000E+00  0.00000000E+00  0.00000000E+00
  0.00000000E+00  0.00000000E+00  0.00000000E+00
  0.00000000E+00  0.00000000E+00  0.00000000E+00
  0.00000000E+00  0.00000000E+00  0.00000000E+00
  0.00000000E+00  0.00000000E+00  0.00000000E+00
  0.00000000E+00  0.00000000E+00  0.00000000E+00
  0.00000000E+00  0.00000000E+00  0.00000000E+00
  0.00000000E+00  0.00000000E+00  0.00000000E+00
  0.00000000E+00  0.00000000E+00  0.00000000E+00
  0.00000000E+00  0.00000000E+00  0.00000000E+00
  0.00000000E+00  0.00000000E+00  0.00000000E+00
  0.00000000E+00  0.00000000E+00  0.00000000E+00
  0.00000000E+00  0.00000000E+00  0.00000000E+00
  0.00000000E+00  0.00000000E+00  0.00000000E+00
  0.00000000E+00  0.00000000E+00  0.00000000E+00
  0.00000000E+00  0.00000000E+00  0.00000000E+00
  0.00000000E+00  0.00000000E+00  0.00000000E+00
  0.00000000E+00  0.00000000E+00  0.00000000E+00
  0.00000000E+00  0.00000000E+00  0.00000000E+00
  0.00000000E+00  0.00000000E+00  0.00000000E+00
  0.00000000E+00  0.00000000E+00  0.00000000E+00
  0.00000000E+00  0.00000000E+00  0.00000000E+00
  0.00000000E+00  0.00000000E+00  0.00000000E+00
  0.00000000E+00  0.00000000E+00  0.00000000E+00
