Sn+Ge
    1.000000000
   19.467599869    0.000000000    0.000000000
    6.489200115   18.354230881    0.000000000
    0.000000000    0.000000000   25.800943375
Sn  Ge 
144     192
Direct
    0.991010249    0.991010249    0.000000014
    0.866010189    0.866010129    0.088922322
    0.741010189    0.741009951    0.177844614
    0.616010189    0.616009831    0.266766906
    0.491010129    0.491009712    0.355689257
    0.366010129    0.366009593    0.444611579
    0.991010249    0.324343592    0.000000014
    0.866010189    0.199343473    0.088922322
    0.741010189    0.074343339    0.177844614
    0.616010189    0.949343204    0.266766906
    0.491010129    0.824343085    0.355689257
    0.366010129    0.699342966    0.444611579
    0.991010249    0.657676935    0.000000014
    0.866010189    0.532676816    0.088922322
    0.741010189    0.407676697    0.177844614
    0.616010189    0.282676548    0.266766906
    0.491010129    0.157676399    0.355689257
    0.366010129    0.032676294    0.444611579
    0.491010249    0.157676876    0.000000013
    0.366010219    0.032676764    0.088922322
    0.241010219    0.907676637    0.177844614
    0.116010167    0.782676458    0.266766936
    0.991010129    0.657676339    0.355689257
    0.866010129    0.532676280    0.444611549
    0.491010249    0.491010368    0.000000013
    0.366010219    0.366010189    0.088922322
    0.241010219    0.241010040    0.177844614
    0.116010167    0.116009913    0.266766936
    0.991010129    0.991009772    0.355689257
    0.866010129    0.866009712    0.444611549
    0.491010249    0.824343622    0.000000013
    0.366010219    0.699343503    0.088922322
    0.241010219    0.574343324    0.177844614
    0.116010167    0.449343175    0.266766936
    0.991010129    0.324343055    0.355689257
    0.866010129    0.199342936    0.444611549
    0.241010249    0.241010264    0.000000010
    0.116010226    0.116010129    0.088922322
    0.991010189    0.991010010    0.177844614
    0.866010189    0.866009831    0.266766906
    0.741010129    0.741009712    0.355689257
    0.616010129    0.616009593    0.444611579
    0.241010249    0.574343681    0.000000010
    0.116010226    0.449343532    0.088922322
    0.991010189    0.324343383    0.177844614
    0.866010189    0.199343234    0.266766906
    0.741010129    0.074343123    0.355689257
    0.616010129    0.949343026    0.444611579
    0.241010249    0.907676935    0.000000010
    0.116010226    0.782676756    0.088922322
    0.991010189    0.657676637    0.177844614
    0.866010189    0.532676518    0.266766906
    0.741010129    0.407676429    0.355689257
    0.616010129    0.282676280    0.444611579
    0.741010249    0.074343577    0.000000005
    0.616010249    0.949343443    0.088922322
    0.491010219    0.824343324    0.177844614
    0.366010159    0.699343204    0.266766936
    0.241010144    0.574343085    0.355689257
    0.116010129    0.449342906    0.444611549
    0.741010249    0.407676876    0.000000005
    0.616010249    0.282676727    0.088922322
    0.491010219    0.157676622    0.177844614
    0.366010159    0.032676473    0.266766936
    0.241010144    0.907676339    0.355689257
    0.116010129    0.782676220    0.444611549
    0.741010249    0.741010249    0.000000005
    0.616010249    0.616010129    0.088922322
    0.491010219    0.491010010    0.177844614
    0.366010159    0.366009861    0.266766936
    0.241010144    0.241009742    0.355689257
    0.116010129    0.116009608    0.444611549
    0.366010249    0.116010241    0.000000018
    0.241010219    0.991010129    0.088922322
    0.116010211    0.866009951    0.177844614
    0.991010129    0.741009831    0.266766936
    0.866010129    0.616009712    0.355689257
    0.741010129    0.491009593    0.444611549
    0.366010249    0.449343652    0.000000018
    0.241010219    0.324343443    0.088922322
    0.116010211    0.199343339    0.177844614
    0.991010129    0.074343182    0.266766936
    0.866010129    0.949343085    0.355689257
    0.741010129    0.824342906    0.444611549
    0.366010249    0.782676995    0.000000018
    0.241010219    0.657676816    0.088922322
    0.116010211    0.532676697    0.177844614
    0.991010129    0.407676578    0.266766936
    0.866010129    0.282676458    0.355689257
    0.741010129    0.157676324    0.444611549
    0.866010308    0.282676965    0.000000000
    0.741010249    0.157676771    0.088922314
    0.616010249    0.032676667    0.177844614
    0.491010189    0.907676518    0.266766936
    0.366010189    0.782676399    0.355689257
    0.241010174    0.657676220    0.444611549
    0.866010308    0.616010368    0.000000000
    0.741010249    0.491010159    0.088922314
    0.616010249    0.366010010    0.177844614
    0.491010189    0.241009891    0.266766936
    0.366010189    0.116009764    0.355689257
    0.241010174    0.991009653    0.444611549
    0.866010308    0.949343622    0.000000000
    0.741010249    0.824343622    0.088922314
    0.616010249    0.699343443    0.177844614
    0.491010189    0.574343264    0.266766936
    0.366010189    0.449343115    0.355689257
    0.241010174    0.324343026    0.444611549
    0.116010241    0.199343547    0.000000014
    0.991010249    0.074343421    0.088922322
    0.866010189    0.949343324    0.177844614
    0.741010129    0.824343145    0.266766936
    0.616010129    0.699343026    0.355689257
    0.491010129    0.574342966    0.444611549
    0.116010241    0.532676935    0.000000014
    0.991010249    0.407676727    0.088922322
    0.866010189    0.282676637    0.177844614
    0.741010129    0.157676473    0.266766936
    0.616010129    0.032676354    0.355689257
    0.491010129    0.907676220    0.444611549
    0.116010241    0.866010368    0.000000014
    0.991010249    0.741010189    0.088922322
    0.866010189    0.616010070    0.177844614
    0.741010129    0.491009891    0.266766936
    0.616010129    0.366009802    0.355689257
    0.491010129    0.241009653    0.444611549
    0.616010249    0.032676876    0.000000022
    0.491010219    0.907676756    0.088922322
    0.366010219    0.782676637    0.177844614
    0.241010159    0.657676458    0.266766936
    0.116010137    0.532676339    0.355689257
    0.991010129    0.407676280    0.444611549
    0.616010249    0.366010308    0.000000022
    0.491010219    0.241010129    0.088922322
    0.366010219    0.116010010    0.177844614
    0.241010159    0.991009831    0.266766936
    0.116010137    0.866009712    0.355689257
    0.991010129    0.741009593    0.444611549
    0.616010249    0.699343562    0.000000022
    0.491010219    0.574343324    0.088922322
    0.366010219    0.449343294    0.177844614
    0.241010159    0.324343145    0.266766936
    0.116010137    0.199343026    0.355689257
    0.991010129    0.074342884    0.444611549
    0.557387590    0.044557214    0.528481960
    0.369887590    0.607057214    0.606011569
    0.182387590    0.169557273    0.683541059
    0.994887590    0.732057214    0.761070490
    0.807387590    0.294557333    0.838600099
    0.619887531    0.857057214    0.916129470
    0.557387590    0.544557214    0.528481960
    0.369887590    0.107057244    0.606011569
    0.182387590    0.669557214    0.683541059
    0.994887590    0.232057273    0.761070490
    0.807387590    0.794557333    0.838600099
    0.619887471    0.357057214    0.916129589
    0.807387590    0.294557214    0.528481960
    0.619887590    0.857057214    0.606011569
    0.432387590    0.419557214    0.683541059
    0.244887590    0.982057214    0.761070490
    0.057387590    0.544557333    0.838600099
    0.869887531    0.107057087    0.916129589
    0.057387590    0.044557214    0.528481960
    0.869887590    0.607057214    0.606011569
    0.682387590    0.169557214    0.683541059
    0.494887590    0.732057333    0.761070490
    0.307387590    0.294557333    0.838600099
    0.119887471    0.857057214    0.916129589
    0.807387590    0.794557273    0.528481960
    0.619887590    0.357057273    0.606011569
    0.432387590    0.919557273    0.683541059
    0.244887590    0.482057273    0.761070490
    0.057387590    0.044557333    0.838600099
    0.869887471    0.607057095    0.916129589
    0.057387590    0.544557214    0.528481960
    0.869887590    0.107057251    0.606011569
    0.682387590    0.669557214    0.683541059
    0.494887590    0.232057273    0.761070490
    0.307387590    0.794557333    0.838600099
    0.119887471    0.357057095    0.916129589
    0.307387590    0.294557244    0.528481960
    0.119887590    0.857057273    0.606011569
    0.932387531    0.419557333    0.683541059
    0.744887531    0.982057333    0.761070490
    0.557387590    0.544557214    0.838600099
    0.369887471    0.107057206    0.916129589
    0.307387590    0.794557273    0.528481960
    0.119887590    0.357057273    0.606011510
    0.932387590    0.919557214    0.683541059
    0.744887531    0.482057273    0.761070490
    0.557387590    0.044557333    0.838600099
    0.369887471    0.607057095    0.916129529
    0.682387590    0.169557214    0.528481960
    0.494887590    0.732057214    0.606011569
    0.307387590    0.294557273    0.683541059
    0.119887590    0.857057214    0.761070490
    0.932387531    0.419557333    0.838600099
    0.744887531    0.982057214    0.916129589
    0.682387531    0.669557273    0.528481960
    0.494887590    0.232057244    0.606011569
    0.307387590    0.794557214    0.683541059
    0.119887590    0.357057273    0.761070490
    0.932387531    0.919557333    0.838600099
    0.744887471    0.482057095    0.916129529
    0.932387590    0.419557244    0.528481960
    0.744887590    0.982057214    0.606011569
    0.557387590    0.544557273    0.683541059
    0.369887590    0.107057266    0.761070490
    0.182387590    0.669557333    0.838600099
    0.994887471    0.232057095    0.916129529
    0.182387590    0.169557229    0.528481960
    0.994887590    0.732057214    0.606011569
    0.807387590    0.294557273    0.683541059
    0.619887531    0.857057333    0.761070490
    0.432387590    0.419557214    0.838600099
    0.244887471    0.982057214    0.916129529
    0.932387590    0.919557273    0.528481960
    0.744887590    0.482057303    0.606011569
    0.557387590    0.044557214    0.683541059
    0.369887590    0.607057333    0.761070490
    0.182387590    0.169557333    0.838600099
    0.994887471    0.732057214    0.916129589
    0.182387590    0.669557273    0.528481960
    0.994887590    0.232057244    0.606011569
    0.807387590    0.794557273    0.683541059
    0.619887590    0.357057273    0.761070490
    0.432387590    0.919557333    0.838600099
    0.244887471    0.482057095    0.916129589
    0.432387590    0.419557244    0.528481960
    0.244887590    0.982057214    0.606011569
    0.057387590    0.544557273    0.683541059
    0.869887650    0.107057266    0.761070490
    0.682387650    0.669557214    0.838600099
    0.494887471    0.232057095    0.916129589
    0.432387590    0.919557273    0.528481960
    0.244887590    0.482057303    0.606011569
    0.057387590    0.044557214    0.683541059
    0.869887590    0.607057333    0.761070490
    0.682387650    0.169557273    0.838600099
    0.494887590    0.732057095    0.916129529
    0.682387590    0.294557214    0.528481960
    0.494887590    0.857057214    0.606011569
    0.307387590    0.419557273    0.683541059
    0.119887590    0.982057214    0.761070549
    0.932387531    0.544557214    0.838600099
    0.744887471    0.107057087    0.916129589
    0.932387590    0.044557214    0.528481960
    0.744887590    0.607057214    0.606011569
    0.557387590    0.169557273    0.683541059
    0.369887590    0.732057214    0.761070549
    0.182387590    0.294557333    0.838600099
    0.994887412    0.857057214    0.916129589
    0.682387590    0.794557273    0.528481960
    0.494887590    0.357057273    0.606011569
    0.307387590    0.919557273    0.683541059
    0.119887590    0.482057273    0.761070490
    0.932387590    0.044557333    0.838600099
    0.744887531    0.607057214    0.916129589
    0.932387531    0.544557214    0.528481960
    0.744887531    0.107057214    0.606011569
    0.557387590    0.669557214    0.683541059
    0.369887590    0.232057214    0.761070490
    0.182387590    0.794557214    0.838600099
    0.994887531    0.357057095    0.916129470
    0.182387590    0.294557244    0.528481960
    0.994887590    0.857057273    0.606011569
    0.807387590    0.419557273    0.683541059
    0.619887590    0.982057214    0.761070490
    0.432387590    0.544557333    0.838600099
    0.244887471    0.107057206    0.916129589
    0.432387590    0.044557214    0.528481960
    0.244887590    0.607057214    0.606011569
    0.057387590    0.169557273    0.683541059
    0.869887590    0.732057333    0.761070490
    0.682387590    0.294557333    0.838600099
    0.494887590    0.857057214    0.916129589
    0.182387590    0.794557273    0.528481960
    0.994887590    0.357057244    0.606011569
    0.807387590    0.919557273    0.683541059
    0.619887590    0.482057273    0.761070490
    0.432387590    0.044557214    0.838600099
    0.244887471    0.607057095    0.916129589
    0.432387590    0.544557214    0.528481960
    0.244887590    0.107057214    0.606011569
    0.057387590    0.669557214    0.683541059
    0.869887590    0.232057273    0.761070490
    0.682387650    0.794557214    0.838600099
    0.494887590    0.357057095    0.916129589
    0.557387590    0.169557214    0.528481960
    0.369887590    0.732057214    0.606011569
    0.182387590    0.294557214    0.683541059
    0.994887590    0.857057214    0.761070549
    0.807387650    0.419557333    0.838600039
    0.619887471    0.982057214    0.916129529
    0.557387590    0.669557273    0.528481960
    0.369887590    0.232057244    0.606011569
    0.182387590    0.794557273    0.683541059
    0.994887590    0.357057273    0.761070490
    0.807387590    0.919557333    0.838600099
    0.619887531    0.482057214    0.916129470
    0.807387590    0.419557244    0.528481960
    0.619887590    0.982057273    0.606011569
    0.432387590    0.544557273    0.683541059
    0.244887590    0.107057266    0.761070490
    0.057387590    0.669557214    0.838600099
    0.869887531    0.232057214    0.916129470
    0.057387590    0.169557244    0.528481960
    0.869887590    0.732057214    0.606011569
    0.682387590    0.294557273    0.683541059
    0.494887590    0.857057214    0.761070490
    0.307387590    0.419557333    0.838600099
    0.119887471    0.982057214    0.916129470
    0.807387590    0.919557273    0.528481960
    0.619887531    0.482057244    0.606011569
    0.432387590    0.044557214    0.683541059
    0.244887590    0.607057273    0.761070490
    0.057387590    0.169557273    0.838600099
    0.869887531    0.732057095    0.916129529
    0.057387590    0.669557214    0.528481960
    0.869887590    0.232057244    0.606011569
    0.682387590    0.794557214    0.683541059
    0.494887590    0.357057273    0.761070490
    0.307387590    0.919557214    0.838600099
    0.119887590    0.482057095    0.916129529
    0.307387590    0.419557244    0.528481960
    0.119887590    0.982057214    0.606011569
    0.932387590    0.544557273    0.683541059
    0.744887590    0.107057266    0.761070490
    0.557387590    0.669557333    0.838600099
    0.369887471    0.232057214    0.916129529
    0.307387590    0.919557214    0.528482020
    0.119887590    0.482057244    0.606011569
    0.932387531    0.044557214    0.683541059
    0.744887531    0.607057273    0.761070490
    0.557387590    0.169557214    0.838600099
    0.369887471    0.732057095    0.916129529
