Ge+Sn                                   
   1.00000000000000     
    11.3156003950000006    0.0000000000000000    0.0000000000000000
   -11.3156003950000006   16.0026760099999983    0.0000000000000000
     0.0000000000000000    0.0000000000000000   21.4730682369999997
   Ge   Sn
    96    72
Direct
  0.9853314160000011  0.4559941589999994  0.0000000220000018
  0.8603314160000011  0.0809941369999976  0.0931555259999968
  0.7353314160000011  0.7059941289999969  0.1863110509999970
  0.6103314160000011  0.3309942480000032  0.2794664800000035
  0.4853313569999997  0.9559941289999969  0.3726219830000019
  0.3603313569999997  0.5809941289999969  0.4657775459999982
  0.4853313859999986  0.4559941589999994  0.0000000220000018
  0.3603314160000011  0.0809941369999976  0.0931555259999968
  0.2353313569999997  0.7059941289999969  0.1863110509999970
  0.1103313790000016  0.3309942480000032  0.2794664800000035
  0.9853314759999989  0.9559941289999969  0.3726219830000019
  0.8603314160000011  0.5809941289999969  0.4657775459999982
  0.9853313569999997  0.9559941289999969  0.0000000189999980
  0.8603314160000011  0.5809941289999969  0.0931555330000009
  0.7353314160000011  0.2059941289999969  0.1863110359999993
  0.6103314160000011  0.8309943679999989  0.2794664800000035
  0.4853314160000011  0.4559941289999969  0.3726220730000023
  0.3603313569999997  0.0809941289999969  0.4657775160000028
  0.4853313859999986  0.9559941289999969  0.0000000189999980
  0.3603313569999997  0.5809941289999969  0.0931555330000009
  0.2353314460000036  0.2059941289999969  0.1863110359999993
  0.1103314909999966  0.8309943679999989  0.2794664800000035
  0.9853312970000019  0.4559941289999969  0.3726220730000023
  0.8603313569999997  0.0809941289999969  0.4657775160000028
  0.2353313710000009  0.7059941289999969  0.0000000249999985
  0.1103313710000009  0.3309941289999969  0.0931555259999968
  0.9853313569999997  0.9559941289999969  0.1863110359999993
  0.8603313569999997  0.5809942480000032  0.2794665099999989
  0.7353313569999997  0.2059941890000019  0.3726220730000023
  0.6103312970000019  0.8309941289999969  0.4657775459999982
  0.7353313569999997  0.7059941289999969  0.0000000249999985
  0.6103313569999997  0.3309941289999969  0.0931555259999968
  0.4853313269999973  0.9559941289999969  0.1863110359999993
  0.3603313569999997  0.5809942480000032  0.2794665099999989
  0.2353313710000009  0.2059941890000019  0.3726220730000023
  0.1103313639999968  0.8309941289999969  0.4657775459999982
  0.2353313859999986  0.2059941440000017  0.0000000209999982
  0.1103313939999992  0.8309941289999969  0.0931555259999968
  0.9853313569999997  0.4559941289999969  0.1863110359999993
  0.8603313569999997  0.0809942480000032  0.2794665099999989
  0.7353314759999989  0.7059942480000032  0.3726219830000019
  0.6103313569999997  0.3309941289999969  0.4657775160000028
  0.7353312970000019  0.2059941440000017  0.0000000209999982
  0.6103313569999997  0.8309941289999969  0.0931555259999968
  0.4853313859999986  0.4559941289999969  0.1863110359999993
  0.3603312970000019  0.0809942480000032  0.2794665099999989
  0.2353313859999986  0.7059942480000032  0.3726219830000019
  0.1103312600000024  0.3309941289999969  0.4657775160000028
  0.9853314160000011  0.5809941890000019  0.0000000309999990
  0.8603314160000011  0.2059941589999994  0.0931555259999968
  0.7353313569999997  0.8309941289999969  0.1863110359999993
  0.6103314160000011  0.4559942480000032  0.2794664800000035
  0.4853313569999997  0.0809941890000019  0.3726220730000023
  0.3603313569999997  0.7059941289999969  0.4657775459999982
  0.4853314160000011  0.5809941890000019  0.0000000309999990
  0.3603314160000011  0.2059941589999994  0.0931555259999968
  0.2353314010000034  0.8309941289999969  0.1863110359999993
  0.1103314309999988  0.4559942480000032  0.2794664800000035
  0.9853313569999997  0.0809941890000019  0.3726220730000023
  0.8603314160000011  0.7059941289999969  0.4657775459999982
  0.9853313569999997  0.0809941369999976  0.0000000160000013
  0.8603314160000011  0.7059941289999969  0.0931555259999968
  0.7353314160000011  0.3309941289999969  0.1863110359999993
  0.6103314160000011  0.9559942480000032  0.2794665099999989
  0.4853314160000011  0.5809942480000032  0.3726219830000019
  0.3603313569999997  0.2059940099999977  0.4657775160000028
  0.4853313859999986  0.0809941369999976  0.0000000160000013
  0.3603313569999997  0.7059941289999969  0.0931555259999968
  0.2353314010000034  0.3309941289999969  0.1863110359999993
  0.1103314460000036  0.9559942480000032  0.2794665099999989
  0.9853315350000003  0.5809942480000032  0.3726219830000019
  0.8603312369999969  0.2059940099999977  0.4657775160000028
  0.2353314460000036  0.8309941890000019  0.0000000000000000
  0.1103314160000011  0.4559941890000019  0.0931555259999968
  0.9853314160000011  0.0809941739999971  0.1863110359999993
  0.8603314160000011  0.7059943080000011  0.2794664800000035
  0.7353314160000011  0.3309942480000032  0.3726219830000019
  0.6103314160000011  0.9559941289999969  0.4657774869999969
  0.7353314160000011  0.8309941890000019  0.0000000000000000
  0.6103314160000011  0.4559941890000019  0.0931555259999968
  0.4853313859999986  0.0809941739999971  0.1863110359999993
  0.3603314160000011  0.7059943080000011  0.2794664800000035
  0.2353314160000011  0.3309942480000032  0.3726219830000019
  0.1103313569999997  0.9559941289999969  0.4657774869999969
  0.2353313710000009  0.3309941289999969  0.0000000220000018
  0.1103313790000016  0.9559941289999969  0.0931555330000009
  0.9853313569999997  0.5809941289999969  0.1863110359999993
  0.8603314160000011  0.2059942480000032  0.2794665099999989
  0.7353313569999997  0.8309941289999969  0.3726219830000019
  0.6103314160000011  0.4559941289999969  0.4657775160000028
  0.7353313569999997  0.3309941289999969  0.0000000220000018
  0.6103313569999997  0.9559941289999969  0.0931555330000009
  0.4853313859999986  0.5809941289999969  0.1863110359999993
  0.3603314160000011  0.2059942480000032  0.2794665099999989
  0.2353314610000012  0.8309941289999969  0.3726219830000019
  0.1103313039999989  0.4559941289999969  0.4657775160000028
  0.9820204970000006  0.6486871840000035  0.4657775459999982
  0.7320204970000006  0.3986871239999985  0.5726219419999978
  0.4820203780000014  0.1486870049999993  0.6794666050000018
  0.2320203190000001  0.8986868860000001  0.7863110300000002
  0.9820202590000022  0.6486868860000001  0.8931554560000023
  0.7320202590000022  0.3986867670000009  0.0000000000000000
  0.9820204970000006  0.3153538409999967  0.4657775459999982
  0.7320204970000006  0.0653537880000030  0.5726219419999978
  0.4820203780000014  0.8153536319999972  0.6794666050000018
  0.2320203190000001  0.5653535129999980  0.7863110300000002
  0.9820202590000022  0.3153535129999980  0.8931554560000023
  0.7320202590000022  0.0653533939999988  0.0000000000000000
  0.9820204970000006  0.9820204970000006  0.4657775459999982
  0.7320204970000006  0.7320204379999993  0.5726219419999978
  0.4820203780000014  0.4820202590000022  0.6794666050000018
  0.2320203190000001  0.2320201400000030  0.7863110300000002
  0.9820202590000022  0.9820201400000030  0.8931554560000023
  0.7320202590000022  0.7320200200000002  0.0000000000000000
  0.4820204970000006  0.8153538700000027  0.4657775459999982
  0.2320204820000029  0.5653537510000035  0.5726219419999978
  0.9820203780000014  0.3153536920000022  0.6794664860000026
  0.7320203780000014  0.0653535869999970  0.7863110300000002
  0.4820203190000001  0.8153535129999980  0.8931554560000023
  0.2320202590000022  0.5653533939999988  0.0000000000000000
  0.4820204970000006  0.4820204680000018  0.4657775459999982
  0.2320204820000029  0.2320204379999993  0.5726219419999978
  0.9820203780000014  0.9820203190000001  0.6794664860000026
  0.7320203780000014  0.7320201989999973  0.7863110300000002
  0.4820203190000001  0.4820201400000030  0.8931554560000023
  0.2320202590000022  0.2320200799999981  0.0000000000000000
  0.4820204970000006  0.1486871689999987  0.4657775459999982
  0.2320204820000029  0.8986871239999985  0.5726219419999978
  0.9820203780000014  0.6486870049999993  0.6794664860000026
  0.7320203780000014  0.3986868260000023  0.7863110300000002
  0.4820203190000001  0.1486867670000009  0.8931554560000023
  0.2320202590000022  0.8986866469999981  0.0000000000000000
  0.7320204970000006  0.6486872429999977  0.4657775459999982
  0.4820204680000018  0.3986872139999988  0.5726220609999970
  0.2320203929999991  0.1486870800000020  0.6794666050000018
  0.9820203190000001  0.8986869450000015  0.7863110300000002
  0.7320202590000022  0.6486869450000015  0.8931555750000015
  0.4820202590000022  0.3986868260000023  0.0000000000000000
  0.7320204970000006  0.3153538409999967  0.4657775459999982
  0.4820204680000018  0.0653537809999989  0.5726220609999970
  0.2320203929999991  0.8153536319999972  0.6794666050000018
  0.9820203190000001  0.5653535129999980  0.7863110300000002
  0.7320202590000022  0.3153535129999980  0.8931555750000015
  0.4820202590000022  0.0653533939999988  0.0000000000000000
  0.7320204970000006  0.9820204970000006  0.4657775459999982
  0.4820204680000018  0.7320204379999993  0.5726220609999970
  0.2320203929999991  0.4820203190000001  0.6794666050000018
  0.9820203190000001  0.2320201989999973  0.7863110300000002
  0.7320202590000022  0.9820201400000030  0.8931555750000015
  0.4820202590000022  0.7320201400000030  0.0000000000000000
  0.2320204970000006  0.8153538110000014  0.4657775459999982
  0.9820204970000006  0.5653537510000035  0.5726220609999970
  0.7320203780000014  0.3153535719999994  0.6794666050000018
  0.4820202590000022  0.0653534679999979  0.7863110300000002
  0.2320203190000001  0.8153534530000002  0.8931554560000023
  0.9820202590000022  0.5653533340000010  0.0000000000000000
  0.2320204970000006  0.4820204680000018  0.4657775459999982
  0.9820204970000006  0.2320204379999993  0.5726220609999970
  0.7320203780000014  0.9820203190000001  0.6794666050000018
  0.4820202590000022  0.7320201989999973  0.7863110300000002
  0.2320203190000001  0.4820201400000030  0.8931554560000023
  0.9820202590000022  0.2320200799999981  0.0000000000000000
  0.2320204970000006  0.1486871540000010  0.4657775459999982
  0.9820204970000006  0.8986871239999985  0.5726220609999970
  0.7320203780000014  0.6486870049999993  0.6794666050000018
  0.4820202590000022  0.3986868260000023  0.7863110300000002
  0.2320203190000001  0.1486868860000001  0.8931554560000023
  0.9820202590000022  0.8986866469999981  0.0000000000000000
 
  0.00000000E+00  0.00000000E+00  0.00000000E+00
  0.00000000E+00  0.00000000E+00  0.00000000E+00
  0.00000000E+00  0.00000000E+00  0.00000000E+00
  0.00000000E+00  0.00000000E+00  0.00000000E+00
  0.00000000E+00  0.00000000E+00  0.00000000E+00
  0.00000000E+00  0.00000000E+00  0.00000000E+00
  0.00000000E+00  0.00000000E+00  0.00000000E+00
  0.00000000E+00  0.00000000E+00  0.00000000E+00
  0.00000000E+00  0.00000000E+00  0.00000000E+00
  0.00000000E+00  0.00000000E+00  0.00000000E+00
  0.00000000E+00  0.00000000E+00  0.00000000E+00
  0.00000000E+00  0.00000000E+00  0.00000000E+00
  0.00000000E+00  0.00000000E+00  0.00000000E+00
  0.00000000E+00  0.00000000E+00  0.00000000E+00
  0.00000000E+00  0.00000000E+00  0.00000000E+00
  0.00000000E+00  0.00000000E+00  0.00000000E+00
  0.00000000E+00  0.00000000E+00  0.00000000E+00
  0.00000000E+00  0.00000000E+00  0.00000000E+00
  0.00000000E+00  0.00000000E+00  0.00000000E+00
  0.00000000E+00  0.00000000E+00  0.00000000E+00
  0.00000000E+00  0.00000000E+00  0.00000000E+00
  0.00000000E+00  0.00000000E+00  0.00000000E+00
  0.00000000E+00  0.00000000E+00  0.00000000E+00
  0.00000000E+00  0.00000000E+00  0.00000000E+00
  0.00000000E+00  0.00000000E+00  0.00000000E+00
  0.00000000E+00  0.00000000E+00  0.00000000E+00
  0.00000000E+00  0.00000000E+00  0.00000000E+00
  0.00000000E+00  0.00000000E+00  0.00000000E+00
  0.00000000E+00  0.00000000E+00  0.00000000E+00
  0.00000000E+00  0.00000000E+00  0.00000000E+00
  0.00000000E+00  0.00000000E+00  0.00000000E+00
  0.00000000E+00  0.00000000E+00  0.00000000E+00
  0.00000000E+00  0.00000000E+00  0.00000000E+00
  0.00000000E+00  0.00000000E+00  0.00000000E+00
  0.00000000E+00  0.00000000E+00  0.00000000E+00
  0.00000000E+00  0.00000000E+00  0.00000000E+00
  0.00000000E+00  0.00000000E+00  0.00000000E+00
  0.00000000E+00  0.00000000E+00  0.00000000E+00
  0.00000000E+00  0.00000000E+00  0.00000000E+00
  0.00000000E+00  0.00000000E+00  0.00000000E+00
  0.00000000E+00  0.00000000E+00  0.00000000E+00
  0.00000000E+00  0.00000000E+00  0.00000000E+00
  0.00000000E+00  0.00000000E+00  0.00000000E+00
  0.00000000E+00  0.00000000E+00  0.00000000E+00
  0.00000000E+00  0.00000000E+00  0.00000000E+00
  0.00000000E+00  0.00000000E+00  0.00000000E+00
  0.00000000E+00  0.00000000E+00  0.00000000E+00
  0.00000000E+00  0.00000000E+00  0.00000000E+00
  0.00000000E+00  0.00000000E+00  0.00000000E+00
  0.00000000E+00  0.00000000E+00  0.00000000E+00
  0.00000000E+00  0.00000000E+00  0.00000000E+00
  0.00000000E+00  0.00000000E+00  0.00000000E+00
  0.00000000E+00  0.00000000E+00  0.00000000E+00
  0.00000000E+00  0.00000000E+00  0.00000000E+00
  0.00000000E+00  0.00000000E+00  0.00000000E+00
  0.00000000E+00  0.00000000E+00  0.00000000E+00
  0.00000000E+00  0.00000000E+00  0.00000000E+00
  0.00000000E+00  0.00000000E+00  0.00000000E+00
  0.00000000E+00  0.00000000E+00  0.00000000E+00
  0.00000000E+00  0.00000000E+00  0.00000000E+00
  0.00000000E+00  0.00000000E+00  0.00000000E+00
  0.00000000E+00  0.00000000E+00  0.00000000E+00
  0.00000000E+00  0.00000000E+00  0.00000000E+00
  0.00000000E+00  0.00000000E+00  0.00000000E+00
  0.00000000E+00  0.00000000E+00  0.00000000E+00
  0.00000000E+00  0.00000000E+00  0.00000000E+00
  0.00000000E+00  0.00000000E+00  0.00000000E+00
  0.00000000E+00  0.00000000E+00  0.00000000E+00
  0.00000000E+00  0.00000000E+00  0.00000000E+00
  0.00000000E+00  0.00000000E+00  0.00000000E+00
  0.00000000E+00  0.00000000E+00  0.00000000E+00
  0.00000000E+00  0.00000000E+00  0.00000000E+00
  0.00000000E+00  0.00000000E+00  0.00000000E+00
  0.00000000E+00  0.00000000E+00  0.00000000E+00
  0.00000000E+00  0.00000000E+00  0.00000000E+00
  0.00000000E+00  0.00000000E+00  0.00000000E+00
  0.00000000E+00  0.00000000E+00  0.00000000E+00
  0.00000000E+00  0.00000000E+00  0.00000000E+00
  0.00000000E+00  0.00000000E+00  0.00000000E+00
  0.00000000E+00  0.00000000E+00  0.00000000E+00
  0.00000000E+00  0.00000000E+00  0.00000000E+00
  0.00000000E+00  0.00000000E+00  0.00000000E+00
  0.00000000E+00  0.00000000E+00  0.00000000E+00
  0.00000000E+00  0.00000000E+00  0.00000000E+00
  0.00000000E+00  0.00000000E+00  0.00000000E+00
  0.00000000E+00  0.00000000E+00  0.00000000E+00
  0.00000000E+00  0.00000000E+00  0.00000000E+00
  0.00000000E+00  0.00000000E+00  0.00000000E+00
  0.00000000E+00  0.00000000E+00  0.00000000E+00
  0.00000000E+00  0.00000000E+00  0.00000000E+00
  0.00000000E+00  0.00000000E+00  0.00000000E+00
  0.00000000E+00  0.00000000E+00  0.00000000E+00
  0.00000000E+00  0.00000000E+00  0.00000000E+00
  0.00000000E+00  0.00000000E+00  0.00000000E+00
  0.00000000E+00  0.00000000E+00  0.00000000E+00
  0.00000000E+00  0.00000000E+00  0.00000000E+00
  0.00000000E+00  0.00000000E+00  0.00000000E+00
  0.00000000E+00  0.00000000E+00  0.00000000E+00
  0.00000000E+00  0.00000000E+00  0.00000000E+00
  0.00000000E+00  0.00000000E+00  0.00000000E+00
  0.00000000E+00  0.00000000E+00  0.00000000E+00
  0.00000000E+00  0.00000000E+00  0.00000000E+00
  0.00000000E+00  0.00000000E+00  0.00000000E+00
  0.00000000E+00  0.00000000E+00  0.00000000E+00
  0.00000000E+00  0.00000000E+00  0.00000000E+00
  0.00000000E+00  0.00000000E+00  0.00000000E+00
  0.00000000E+00  0.00000000E+00  0.00000000E+00
  0.00000000E+00  0.00000000E+00  0.00000000E+00
  0.00000000E+00  0.00000000E+00  0.00000000E+00
  0.00000000E+00  0.00000000E+00  0.00000000E+00
  0.00000000E+00  0.00000000E+00  0.00000000E+00
  0.00000000E+00  0.00000000E+00  0.00000000E+00
  0.00000000E+00  0.00000000E+00  0.00000000E+00
  0.00000000E+00  0.00000000E+00  0.00000000E+00
  0.00000000E+00  0.00000000E+00  0.00000000E+00
  0.00000000E+00  0.00000000E+00  0.00000000E+00
  0.00000000E+00  0.00000000E+00  0.00000000E+00
  0.00000000E+00  0.00000000E+00  0.00000000E+00
  0.00000000E+00  0.00000000E+00  0.00000000E+00
  0.00000000E+00  0.00000000E+00  0.00000000E+00
  0.00000000E+00  0.00000000E+00  0.00000000E+00
  0.00000000E+00  0.00000000E+00  0.00000000E+00
  0.00000000E+00  0.00000000E+00  0.00000000E+00
  0.00000000E+00  0.00000000E+00  0.00000000E+00
  0.00000000E+00  0.00000000E+00  0.00000000E+00
  0.00000000E+00  0.00000000E+00  0.00000000E+00
  0.00000000E+00  0.00000000E+00  0.00000000E+00
  0.00000000E+00  0.00000000E+00  0.00000000E+00
  0.00000000E+00  0.00000000E+00  0.00000000E+00
  0.00000000E+00  0.00000000E+00  0.00000000E+00
  0.00000000E+00  0.00000000E+00  0.00000000E+00
  0.00000000E+00  0.00000000E+00  0.00000000E+00
  0.00000000E+00  0.00000000E+00  0.00000000E+00
  0.00000000E+00  0.00000000E+00  0.00000000E+00
  0.00000000E+00  0.00000000E+00  0.00000000E+00
  0.00000000E+00  0.00000000E+00  0.00000000E+00
  0.00000000E+00  0.00000000E+00  0.00000000E+00
  0.00000000E+00  0.00000000E+00  0.00000000E+00
  0.00000000E+00  0.00000000E+00  0.00000000E+00
  0.00000000E+00  0.00000000E+00  0.00000000E+00
  0.00000000E+00  0.00000000E+00  0.00000000E+00
  0.00000000E+00  0.00000000E+00  0.00000000E+00
  0.00000000E+00  0.00000000E+00  0.00000000E+00
  0.00000000E+00  0.00000000E+00  0.00000000E+00
  0.00000000E+00  0.00000000E+00  0.00000000E+00
  0.00000000E+00  0.00000000E+00  0.00000000E+00
  0.00000000E+00  0.00000000E+00  0.00000000E+00
  0.00000000E+00  0.00000000E+00  0.00000000E+00
  0.00000000E+00  0.00000000E+00  0.00000000E+00
  0.00000000E+00  0.00000000E+00  0.00000000E+00
  0.00000000E+00  0.00000000E+00  0.00000000E+00
  0.00000000E+00  0.00000000E+00  0.00000000E+00
  0.00000000E+00  0.00000000E+00  0.00000000E+00
  0.00000000E+00  0.00000000E+00  0.00000000E+00
  0.00000000E+00  0.00000000E+00  0.00000000E+00
  0.00000000E+00  0.00000000E+00  0.00000000E+00
  0.00000000E+00  0.00000000E+00  0.00000000E+00
  0.00000000E+00  0.00000000E+00  0.00000000E+00
  0.00000000E+00  0.00000000E+00  0.00000000E+00
  0.00000000E+00  0.00000000E+00  0.00000000E+00
  0.00000000E+00  0.00000000E+00  0.00000000E+00
  0.00000000E+00  0.00000000E+00  0.00000000E+00
  0.00000000E+00  0.00000000E+00  0.00000000E+00
  0.00000000E+00  0.00000000E+00  0.00000000E+00
  0.00000000E+00  0.00000000E+00  0.00000000E+00
  0.00000000E+00  0.00000000E+00  0.00000000E+00
  0.00000000E+00  0.00000000E+00  0.00000000E+00
  0.00000000E+00  0.00000000E+00  0.00000000E+00
