Ge+Sn
    1.000000000
   11.315600395    0.000000000    0.000000000
  -11.315600395   16.002676010    0.000000000
    0.000000000    0.000000000   25.604219437
Ge  Sn 
96     72
Direct
    0.469067723    0.989689231    0.000000017
    0.094067708    0.864689231    0.078125209
    0.719067633    0.739689231    0.156250417
    0.344067693    0.614689231    0.234375581
    0.969067812    0.489689291    0.312500775
    0.594067693    0.364689231    0.390625983
    0.969067693    0.989689231    0.000000017
    0.594067693    0.864689231    0.078125209
    0.219067633    0.739689231    0.156250417
    0.844067693    0.614689231    0.234375581
    0.469067812    0.489689291    0.312500775
    0.094067693    0.364689231    0.390625983
    0.469067693    0.489689231    0.000000009
    0.094067700    0.364689231    0.078125209
    0.719067574    0.239689216    0.156250417
    0.344067693    0.114689231    0.234375581
    0.969067812    0.989689231    0.312500775
    0.594067693    0.864689231    0.390625983
    0.969067693    0.489689231    0.000000009
    0.594067693    0.364689231    0.078125209
    0.219067574    0.239689216    0.156250417
    0.844067693    0.114689231    0.234375581
    0.469067693    0.989689231    0.312500775
    0.094067574    0.864689231    0.390625983
    0.719067693    0.239689231    0.000000017
    0.344067663    0.114689231    0.078125209
    0.969067574    0.989689231    0.156250417
    0.594067693    0.864689231    0.234375581
    0.219067693    0.739689231    0.312500775
    0.844067574    0.614689231    0.390625983
    0.219067678    0.239689231    0.000000017
    0.844067693    0.114689231    0.078125209
    0.469067633    0.989689231    0.156250417
    0.094067693    0.864689231    0.234375581
    0.719067812    0.739689231    0.312500775
    0.344067693    0.614689231    0.390625983
    0.719067633    0.739689231    0.000000021
    0.344067663    0.614689231    0.078125224
    0.969067574    0.489689201    0.156250432
    0.594067633    0.364689231    0.234375611
    0.219067693    0.239689246    0.312500805
    0.844067693    0.114689231    0.390625983
    0.219067693    0.739689231    0.000000021
    0.844067693    0.614689231    0.078125224
    0.469067574    0.489689201    0.156250432
    0.094067693    0.364689231    0.234375611
    0.719067693    0.239689246    0.312500805
    0.344067574    0.114689231    0.390625983
    0.469067663    0.364689231    0.000000016
    0.094067693    0.239689231    0.078125216
    0.719067633    0.114689209    0.156250432
    0.344067693    0.989689231    0.234375611
    0.969067812    0.864689231    0.312500775
    0.594067693    0.739689231    0.390625983
    0.969067693    0.364689231    0.000000016
    0.594067693    0.239689231    0.078125216
    0.219067633    0.114689209    0.156250432
    0.844067693    0.989689231    0.234375611
    0.469067812    0.864689231    0.312500775
    0.094067693    0.739689231    0.390625983
    0.469067752    0.864689291    0.000000000
    0.094067737    0.739689291    0.078125209
    0.719067693    0.614689291    0.156250402
    0.344067693    0.489689291    0.234375581
    0.969067812    0.364689291    0.312500775
    0.594067693    0.239689291    0.390625954
    0.969067693    0.864689291    0.000000000
    0.594067574    0.739689291    0.078125209
    0.219067574    0.614689291    0.156250402
    0.844067574    0.489689291    0.234375581
    0.469067574    0.364689291    0.312500775
    0.094067693    0.239689291    0.390625954
    0.719067693    0.114689223    0.000000017
    0.344067663    0.989689231    0.078125209
    0.969067633    0.864689231    0.156250417
    0.594067693    0.739689231    0.234375611
    0.219067693    0.614689231    0.312500775
    0.844067693    0.489689231    0.390625983
    0.219067678    0.114689223    0.000000017
    0.844067693    0.989689231    0.078125209
    0.469067633    0.864689231    0.156250417
    0.094067693    0.739689231    0.234375611
    0.719067812    0.614689231    0.312500775
    0.344067693    0.489689231    0.390625983
    0.719067693    0.614689231    0.000000015
    0.344067693    0.489689231    0.078125216
    0.969067633    0.364689231    0.156250417
    0.594067693    0.239689231    0.234375611
    0.219067752    0.114689253    0.312500775
    0.844067574    0.989689231    0.390625983
    0.219067723    0.614689231    0.000000015
    0.844067693    0.489689231    0.078125216
    0.469067633    0.364689231    0.156250417
    0.094067693    0.239689231    0.234375611
    0.719067812    0.114689253    0.312500775
    0.344067693    0.989689231    0.390625983
    0.520955741    0.264133453    0.471299201
    0.770955741    0.514133453    0.560904682
    0.020955920    0.764133692    0.650510252
    0.270956218    0.014133811    0.740115762
    0.520956099    0.264133811    0.829721272
    0.770956218    0.514133930    0.919326842
    0.187622368    0.597466707    0.471299201
    0.437622428    0.847466826    0.560904741
    0.687622666    0.097466946    0.650510252
    0.937622845    0.347467065    0.740115821
    0.187622830    0.597467184    0.829721272
    0.437622964    0.847467303    0.919326842
    0.854289114    0.930800080    0.471299201
    0.104289174    0.180800200    0.560904741
    0.354289353    0.430800200    0.650510252
    0.604289591    0.680800438    0.740115762
    0.854289472    0.930800438    0.829721272
    0.104289770    0.180800676    0.919326842
    0.354289055    0.430800200    0.471299171
    0.604288995    0.680800200    0.560904682
    0.854289293    0.930800319    0.650510252
    0.104289532    0.180800438    0.740115762
    0.354289353    0.430800557    0.829721272
    0.604289591    0.680800796    0.919326842
    0.687622488    0.097466707    0.471299201
    0.937622368    0.347466826    0.560904741
    0.187622592    0.597466946    0.650510252
    0.437622845    0.847467184    0.740115762
    0.687622845    0.097467065    0.829721272
    0.937622726    0.347467303    0.919326842
    0.020955801    0.764133394    0.471299201
    0.270955980    0.014133453    0.560904741
    0.520956099    0.264133692    0.650510252
    0.770956218    0.514133811    0.740115762
    0.020956039    0.764133811    0.829721272
    0.270956457    0.014134049    0.919326842
    0.270955741    0.264133453    0.471299171
    0.520955801    0.514133453    0.560904741
    0.770955861    0.764133573    0.650510252
    0.020956039    0.014133692    0.740115762
    0.270956099    0.264133692    0.829721272
    0.520956099    0.514133930    0.919326842
    0.604289114    0.930800080    0.471299201
    0.854289114    0.180800080    0.560904741
    0.104289293    0.430800200    0.650510252
    0.354289472    0.680800319    0.740115762
    0.604289353    0.930800438    0.829721272
    0.854289472    0.180800557    0.919326842
    0.937622428    0.597466707    0.471299201
    0.187622473    0.847466826    0.560904741
    0.437622607    0.097466946    0.650510252
    0.687622845    0.347467065    0.740115821
    0.937622964    0.597467184    0.829721272
    0.187622949    0.847467184    0.919326842
    0.437622368    0.097466826    0.471299201
    0.687622488    0.347466707    0.560904741
    0.937622547    0.597466946    0.650510252
    0.187622711    0.847467065    0.740115821
    0.437622726    0.097467065    0.829721272
    0.687622845    0.347467303    0.919326782
    0.104289055    0.430800080    0.471299201
    0.354289234    0.680800200    0.560904741
    0.604289353    0.930800319    0.650510252
    0.854289591    0.180800438    0.740115821
    0.104289412    0.430800438    0.829721272
    0.354289949    0.680800796    0.919326782
    0.770955801    0.764133453    0.471299201
    0.020955682    0.014133453    0.560904741
    0.270955861    0.264133692    0.650510252
    0.520955980    0.514133692    0.740115762
    0.770955980    0.764133811    0.829721272
    0.020955920    0.014133930    0.919326842
