Ge+Si
    1.000000000
    8.001338005    0.000000000    0.000000000
    0.000000000   16.002676010    0.000000000
    0.000000000    0.000000000   13.264322281
Ge  Si 
48     24
Direct
    0.008541727    0.995729148    0.000000000
    0.258541703    0.870729148    0.213271350
    0.508541703    0.745729148    0.426542759
    0.508541703    0.245729119    0.000000000
    0.758541644    0.120729133    0.213271350
    0.008541584    0.995729148    0.426542759
    0.008541740    0.495729089    0.000000000
    0.258541703    0.370729119    0.213271350
    0.508541703    0.245729119    0.426542759
    0.508541703    0.745729089    0.000000000
    0.758541644    0.620729089    0.213271350
    0.008541703    0.495729119    0.426542759
    0.008541703    0.120729156    0.106635675
    0.258541703    0.995729148    0.319907069
    0.508541703    0.870729148    0.533178449
    0.508541763    0.370729119    0.106635675
    0.758541703    0.245729148    0.319907069
    0.008541703    0.120729133    0.533178449
    0.008541584    0.620729089    0.106635675
    0.258541584    0.495729089    0.319907069
    0.508541584    0.370729059    0.533178449
    0.508541703    0.870729148    0.106635675
    0.758541703    0.745729148    0.319907069
    0.008541703    0.620729148    0.533178449
    0.508541703    0.995729148    0.000000000
    0.758541644    0.870729148    0.213271350
    0.008541584    0.745729208    0.426542759
    0.008541717    0.245729133    0.000000000
    0.258541703    0.120729133    0.213271350
    0.508541703    0.995729148    0.426542759
    0.508541703    0.495729148    0.000000000
    0.758541703    0.370729148    0.213271350
    0.008541703    0.245729163    0.426542759
    0.008541742    0.745729148    0.000000000
    0.258541673    0.620729148    0.213271350
    0.508541703    0.495729148    0.426542759
    0.508541703    0.120729133    0.106635675
    0.758541703    0.995729148    0.319907069
    0.008541703    0.870729148    0.533178449
    0.008541703    0.370729119    0.106635675
    0.258541584    0.245729119    0.319907069
    0.508541703    0.120729111    0.533178449
    0.508541703    0.620729089    0.106635675
    0.758541644    0.495729119    0.319907069
    0.008541703    0.370729089    0.533178449
    0.008541584    0.870729089    0.106635675
    0.258541584    0.745729089    0.319907069
    0.508541584    0.620729089    0.533178449
    0.385599881    0.226598382    0.645955443
    0.635599971    0.837709427    0.694208980
    0.885599971    0.448820531    0.742462516
    0.135599971    0.059931517    0.790715992
    0.385600060    0.671042562    0.838969529
    0.635600209    0.282153249    0.887222886
    0.135599971    0.976598442    0.645955443
    0.385599941    0.587709427    0.694208980
    0.635599971    0.198820591    0.742462456
    0.885600209    0.809931457    0.790715992
    0.135600090    0.421042442    0.838969409
    0.385600299    0.032153368    0.887222946
    0.635599971    0.976598442    0.645955443
    0.885599971    0.587709427    0.694208980
    0.135599971    0.198820591    0.742462456
    0.385600060    0.809931457    0.790715992
    0.635600090    0.421042442    0.838969409
    0.885600209    0.032153368    0.887222946
    0.885599852    0.226598382    0.645955443
    0.135599852    0.837709427    0.694208980
    0.385599941    0.448820531    0.742462516
    0.635599971    0.059931517    0.790715992
    0.885600328    0.671042442    0.838969409
    0.135600209    0.282153487    0.887222886
