C+Si
    1.000000000
   16.345130920    0.000000000    0.000000000
  -10.896755219   12.182942390    0.000000000
    0.000000000    0.000000000    8.192402840
C   Si 
84     36
Direct
    0.615538597    0.710903406    0.194707409
    0.844110012    0.768046021    0.000000000
    0.729824305    0.239474773    0.097353727
    0.472681403    0.425189137    0.194707409
    0.701252878    0.482331723    0.000000003
    0.586967111    0.953760505    0.097353719
    0.329824239    0.139474869    0.194707409
    0.558395684    0.196617484    0.000000006
    0.444109917    0.668046236    0.097353727
    0.186967164    0.853760600    0.194707409
    0.415538609    0.910903156    0.000000020
    0.301252872    0.382331967    0.097353734
    0.044110037    0.568046331    0.194707409
    0.272681475    0.625188887    0.000000022
    0.158395737    0.096617699    0.097353734
    0.901252866    0.282332063    0.194707409
    0.129824311    0.339474618    0.000000023
    0.015538570    0.810903370    0.097353749
    0.758395791    0.996617734    0.194707409
    0.986967206    0.053760353    0.000000024
    0.872681499    0.525189102    0.097353719
    0.665538669    0.160903454    0.243384182
    0.894110084    0.218045950    0.048676796
    0.779824436    0.689474821    0.146030501
    0.522681475    0.875189185    0.243384168
    0.751252830    0.932331800    0.048676796
    0.636967123    0.403760433    0.146030501
    0.379824400    0.589474440    0.243384168
    0.608395755    0.646617174    0.048676800
    0.494110107    0.118045926    0.146030501
    0.236967221    0.303760409    0.243384182
    0.465538621    0.360903025    0.048676800
    0.351252884    0.832331717    0.146030501
    0.094110020    0.018046141    0.243384182
    0.322681487    0.075188875    0.048676793
    0.208395705    0.546617508    0.146030530
    0.951252997    0.732332110    0.243384138
    0.179824427    0.789474726    0.048676789
    0.065538712    0.260903358    0.146030501
    0.808395743    0.446617365    0.243384182
    0.036967218    0.503760099    0.048676781
    0.922681451    0.975188792    0.146030515
    0.686967075    0.353760600    0.194707423
    0.915538609    0.410903215    0.000000030
    0.801252782    0.882331908    0.097353734
    0.544109881    0.068046331    0.194707423
    0.772681355    0.125188932    0.000000035
    0.658395588    0.596617639    0.097353742
    0.401252806    0.782331944    0.194707423
    0.629824281    0.839474559    0.000000015
    0.515538573    0.310903430    0.097353734
    0.258395672    0.496617675    0.194707438
    0.486967176    0.553760350    0.000000014
    0.372681409    0.025189042    0.097353734
    0.115538605    0.210903525    0.194707438
    0.344110042    0.268046051    0.000000014
    0.229824275    0.739474773    0.097353734
    0.972681403    0.925189018    0.194707423
    0.201252878    0.982331693    0.000000038
    0.086967200    0.453760505    0.097353727
    0.829824328    0.639474750    0.194707423
    0.058395743    0.696617424    0.000000038
    0.944110155    0.168046355    0.097353727
    0.736967206    0.803760409    0.243384138
    0.965538681    0.860903084    0.048676781
    0.851252913    0.332331657    0.146030501
    0.594110072    0.518046379    0.243384168
    0.822681367    0.575188816    0.048676770
    0.708395720    0.046617627    0.146030486
    0.451252908    0.232331634    0.243384168
    0.679824293    0.289474279    0.048676752
    0.565538585    0.760902941    0.146030486
    0.308395773    0.946617484    0.243384168
    0.536967218    0.003760099    0.048676789
    0.422681540    0.475188851    0.146030501
    0.165538624    0.660903335    0.243384168
    0.394110084    0.718045950    0.048676789
    0.279824376    0.189474583    0.146030486
    0.022681480    0.375189185    0.243384168
    0.251252919    0.432331830    0.048676789
    0.136967212    0.903760552    0.146030501
    0.879824460    0.089474678    0.243384182
    0.108395860    0.146617174    0.048676778
    0.994110227    0.618046045    0.146030426
    0.048432589    0.902658701    0.436397195
    0.748432517    0.702658653    0.584633172
    0.448432505    0.502658606    0.732869148
    0.381765842    0.902658701    0.436397195
    0.081765801    0.702658653    0.584633172
    0.781765759    0.502658606    0.732869148
    0.715099156    0.902658701    0.436397195
    0.415099084    0.702658653    0.584633172
    0.115099058    0.502658606    0.732869148
    0.231766045    0.552658677    0.510515034
    0.931766033    0.352658629    0.658751011
    0.631766021    0.152658582    0.806987047
    0.565099299    0.552658677    0.510515034
    0.265099227    0.352658629    0.658751011
    0.965099275    0.152658582    0.806987047
    0.898432553    0.552658677    0.510515034
    0.598432481    0.352658629    0.658751011
    0.298432589    0.152658582    0.806987047
    0.215099230    0.402658701    0.436397195
    0.915099204    0.202658534    0.584633172
    0.615099192    0.002658486    0.732869148
    0.548432529    0.402658701    0.436397195
    0.248432457    0.202658534    0.584633172
    0.948432446    0.002658486    0.732869148
    0.881765783    0.402658701    0.436397195
    0.581765771    0.202658534    0.584633172
    0.281765699    0.002658486    0.732869148
    0.065099239    0.052658796    0.510515034
    0.765099227    0.852658749    0.658751011
    0.465099275    0.652658701    0.806987047
    0.398432553    0.052658796    0.510515034
    0.098432489    0.852658749    0.658751011
    0.798432529    0.652658701    0.806987047
    0.731765747    0.052658796    0.510515034
    0.431765676    0.852658749    0.658751011
    0.131765723    0.652658701    0.806987047
