Sn+Si                                   
   1.00000000000000     
    19.4675998690000007    0.0000000000000000    0.0000000000000000
     0.0000000000000000   19.4675998690000007    0.0000000000000000
     0.0000000000000000    0.0000000000000000   19.3002529140000014
   Sn   Si
   108   156
Direct
  0.5353457929999976  0.5244228840000034  0.8860117790000004
  0.8283684250000007  0.6666666870000029  0.1681117859999972
  0.6617017390000015  0.6666666870000029  0.3362235430000027
  0.4584227799999994  0.1398074780000016  0.8860117790000004
  0.9584227200000015  0.6398075219999981  0.8860117790000004
  0.6617017390000015  0.3333333429999996  0.3362235430000027
  0.9950351119999965  0.0000000000000000  0.0000000000000000
  0.2661150690000014  0.1782690140000014  0.8860117790000004
  0.4391920569999996  0.5436537269999988  0.5342675449999987
  0.3283684550000032  0.6666666870000029  0.0000000000000000
  0.1617017390000015  0.6666666870000029  0.1681117859999972
  0.9950351119999965  0.6666666870000029  0.3362235430000027
  0.3283684550000032  0.3333333429999996  0.0000000000000000
  0.3814997670000011  0.7551922199999979  0.8860117790000004
  0.9950351119999965  0.3333333429999996  0.3362235430000027
  0.3283684550000032  0.0000000000000000  0.0000000000000000
  0.2276535029999991  0.9859612580000032  0.8860117790000004
  0.9950351119999965  0.0000000000000000  0.3362235430000027
  0.6617017980000028  0.6666666870000029  0.0000000000000000
  0.4199612139999971  0.9474997519999988  0.8860117790000004
  0.3283684550000032  0.6666666870000029  0.3362235430000027
  0.6507303710000016  0.1013459560000030  0.8860117790000004
  0.0353457929999976  0.0244228840000034  0.8860117790000004
  0.3283684550000032  0.3333333429999996  0.3362235430000027
  0.6617017980000028  0.0000000000000000  0.0000000000000000
  0.7661149500000022  0.6782690289999991  0.8860117790000004
  0.3283684550000032  0.0000000000000000  0.3362235430000027
  0.0783684330000014  0.9166667459999971  0.0840558929999986
  0.9117017980000028  0.9166667459999971  0.2521676120000009
  0.2853459119999968  0.7744230030000026  0.5342675449999987
  0.0783684330000014  0.5833334330000000  0.0840558929999986
  0.1314997670000011  0.0051921609999965  0.5342675449999987
  0.2084228989999986  0.3898076709999998  0.5342675449999987
  0.0783684330000014  0.2500000000000000  0.0840558929999986
  0.9776535629999970  0.2359614969999981  0.5342675449999987
  0.7450350519999986  0.2500000000000000  0.4202794429999983
  0.4117017689999969  0.9166667459999971  0.0840558929999986
  0.1699612139999971  0.1974999310000030  0.5342675449999987
  0.0783683809999971  0.9166667459999971  0.4202794429999983
  0.4117017689999969  0.5833334330000000  0.0840558929999986
  0.7853459119999968  0.2744229440000012  0.5342675449999987
  0.0783683809999971  0.5833334330000000  0.4202794429999983
  0.4117017689999969  0.2500000000000000  0.0840558929999986
  0.5161151889999971  0.9282690880000004  0.5342675449999987
  0.0783683809999971  0.2500000000000000  0.4202794429999983
  0.7450351720000015  0.9166667459999971  0.0840558929999986
  0.5783685450000036  0.9166667459999971  0.2521676120000009
  0.4117017980000028  0.9166667459999971  0.4202794429999983
  0.7450351720000015  0.5833334330000000  0.0840558929999986
  0.7084228989999986  0.8898075820000031  0.5342675449999987
  0.4007306099999965  0.3513461049999975  0.5342675449999987
  0.7450351720000015  0.2500000000000000  0.0840558929999986
  0.0161150690000014  0.4282692069999996  0.5342675449999987
  0.4117017980000028  0.2500000000000000  0.4202794429999983
  0.1617017689999969  0.8333333129999971  0.0000000000000000
  0.5738074779999991  0.7167305349999964  0.8860117790000004
  0.8283684250000007  0.8333333129999971  0.3362235430000027
  0.8814995290000027  0.2551921310000012  0.8860117790000004
  0.1507303710000016  0.6013460160000008  0.8860117790000004
  0.8283684250000007  0.5000000000000000  0.3362235430000027
  0.0738073589999999  0.2167306099999990  0.8860117790000004
  0.9391919369999968  0.0436537269999988  0.8156629200000012
  0.8283684250000007  0.1666666719999981  0.3362235430000027
  0.4950351119999965  0.8333333129999971  0.0000000000000000
  0.3283684250000007  0.8333333129999971  0.1681117859999972
  0.1617017539999992  0.8333333129999971  0.3362235430000027
  0.4950351119999965  0.5000000000000000  0.0000000000000000
  0.3283684250000007  0.5000000000000000  0.1681117859999972
  0.1617017539999992  0.5000000000000000  0.3362235430000027
  0.1891920569999996  0.7936536670000010  0.8860117790000004
  0.3283684250000007  0.1666666719999981  0.1681117859999972
  0.1617017539999992  0.1666666719999981  0.3362235430000027
  0.8283685450000036  0.8333333129999971  0.0000000000000000
  0.9968842859999967  0.8321152330000032  0.8860117790000004
  0.4950352010000003  0.8333333129999971  0.3362235430000027
  0.8283685450000036  0.5000000000000000  0.0000000000000000
  0.6617018580000007  0.5000000000000000  0.1681117859999972
  0.4950352010000003  0.5000000000000000  0.3362235430000027
  0.8283685450000036  0.1666666719999981  0.0000000000000000
  0.3622689250000022  0.1590382750000003  0.8156629200000012
  0.4950352010000003  0.1666666719999981  0.3362235430000027
  0.2450350969999988  0.7500000599999979  0.0840558929999986
  0.0783684330000014  0.7500000599999979  0.2521676120000009
  0.6314997670000011  0.5051922199999979  0.5342675449999987
  0.2450350969999988  0.4166667160000017  0.0840558929999986
  0.0783684330000014  0.4166667160000017  0.2521676120000009
  0.8238074779999991  0.4667307440000030  0.5342675449999987
  0.2450350969999988  0.0833333429999996  0.0840558929999986
  0.0783684330000014  0.0833333429999996  0.2521676120000009
  0.9117017390000015  0.0833333429999996  0.4202794429999983
  0.5783684849999986  0.7500000599999979  0.0840558929999986
  0.4117018580000007  0.7500000599999979  0.2521676120000009
  0.2450351270000013  0.7500000599999979  0.4202794429999983
  0.5783684849999986  0.4166667160000017  0.0840558929999986
  0.1122689250000022  0.4090384240000020  0.6046164039999979
  0.9391920569999996  0.0436537269999988  0.5342675449999987
  0.5783684849999986  0.0833333429999996  0.0840558929999986
  0.7468843460000016  0.0821153219999999  0.5342675449999987
  0.2450351270000013  0.0833333429999996  0.4202794429999983
  0.6891918179999976  0.2936536670000010  0.8860117790000004
  0.9007306099999965  0.8513460160000008  0.5342675449999987
  0.5783683659999994  0.7500000599999979  0.4202794429999983
  0.9117017390000015  0.4166667160000017  0.0840558929999986
  0.6891920569999996  0.2936537559999977  0.6046164039999979
  0.5783683659999994  0.4166667160000017  0.4202794429999983
  0.9117017390000015  0.0833333429999996  0.0840558929999986
  0.3238074779999991  0.9667307730000019  0.5342675449999987
  0.5783683659999994  0.0833333429999996  0.4202794429999983
  0.2450351270000013  0.4166667160000017  0.4202794429999983
  0.8238073589999999  0.9667305950000014  0.6749652029999993
  0.7084226610000002  0.8898074629999968  0.8156629200000012
  0.5783685450000036  0.2500000000000000  0.2521676120000009
  0.9007303710000016  0.3513460460000033  0.6749652029999993
  0.7853457929999976  0.2744229139999987  0.8156629200000012
  0.2450350969999988  0.9166667459999971  0.2521676120000009
  0.0545766349999965  0.1205767989999984  0.6749652029999993
  0.9950350519999986  0.1666666719999981  0.1681117859999972
  0.0930382009999988  0.8128845689999977  0.5342675449999987
  0.9776535029999991  0.7359614370000003  0.6749652029999993
  0.8622689250000022  0.6590383050000028  0.8156629200000012
  0.2468843460000016  0.5821152930000011  0.5342675449999987
  0.1314997670000011  0.5051921609999965  0.6749652029999993
  0.0161150690000014  0.4282690579999979  0.8156629200000012
  0.4117017980000028  0.5833334330000000  0.4202794429999983
  0.2853457929999976  0.2744229440000012  0.6749652029999993
  0.1699612139999971  0.1974998270000015  0.8156629200000012
  0.5545766349999965  0.1205768590000034  0.5342675449999987
  0.4391920569999996  0.0436537269999988  0.6749652029999993
  0.3238073589999999  0.9667305349999964  0.8156629200000012
  0.7450350519999986  0.0833333429999996  0.2521676120000009
  0.2084228989999986  0.8898076420000010  0.6749652029999993
  0.0930382009999988  0.8128844499999985  0.8156629200000012
  0.4776536230000019  0.7359614370000003  0.5342675449999987
  0.3622689250000022  0.6590383050000028  0.6749652029999993
  0.2468842270000025  0.5821151729999983  0.8156629200000012
  0.9117017390000015  0.7500000599999979  0.4202794429999983
  0.5161150690000014  0.4282691180000029  0.6749652029999993
  0.4007303710000016  0.3513459859999983  0.8156629200000012
  0.2450350969999988  0.5833334330000000  0.2521676120000009
  0.6699612139999971  0.1974997969999990  0.6749652029999993
  0.5545766349999965  0.1205766650000015  0.8156629200000012
  0.5783685450000036  0.5833334330000000  0.2521676120000009
  0.5930383210000016  0.8128844499999985  0.6749652029999993
  0.4776535029999991  0.7359613180000011  0.8156629200000012
  0.8622690440000014  0.6590383650000007  0.5342675449999987
  0.7468843460000016  0.5821152330000032  0.6749652029999993
  0.6314997670000011  0.5051921009999987  0.8156629200000012
  0.9584228399999972  0.6398075820000031  0.6046164039999979
  0.8430382009999988  0.5628844499999985  0.7453140619999985
  0.7276535029999991  0.4859613779999989  0.8860117790000004
  0.4117018580000007  0.4166667160000017  0.2521676120000009
  0.9968842859999967  0.3321152930000011  0.7453140619999985
  0.1617017689999969  0.5000000000000000  0.0000000000000000
  0.2661151889999971  0.1782691630000031  0.6046164039999979
  0.1507304909999974  0.1013460160000008  0.7453140619999985
  0.4950351119999965  0.3333333429999996  0.1681117859999972
  0.0353459119999968  0.0244230030000026  0.6046164039999979
  0.9199612139999971  0.9474998709999980  0.7453140619999985
  0.8045765159999974  0.8705767390000005  0.8860117790000004
  0.1891920569999996  0.7936537860000001  0.6046164039999979
  0.0738073589999999  0.7167306540000027  0.7453140619999985
  0.8283684250000007  0.3333333429999996  0.1681117859999972
  0.3430383210000016  0.5628845689999977  0.6046164039999979
  0.2276536230000019  0.4859614370000003  0.7453140619999985
  0.1122689250000022  0.4090383050000028  0.8860117790000004
  0.4968843460000016  0.3321152930000011  0.6046164039999979
  0.3814997670000011  0.2551921310000012  0.7453140619999985
  0.8283684250000007  0.0000000000000000  0.1681117859999972
  0.6507306099999965  0.1013460530000003  0.6046164039999979
  0.5353457929999976  0.0244228840000034  0.7453140619999985
  0.4950351119999965  0.6666666870000029  0.1681117859999972
  0.4199614520000026  0.9474999310000030  0.6046164039999979
  0.3045766349999965  0.8705767989999984  0.7453140619999985
  0.4950351119999965  0.1666666719999981  0.0000000000000000
  0.5738074779999991  0.7167307140000005  0.6046164039999979
  0.4584228989999986  0.6398075219999981  0.7453140619999985
  0.3430380819999996  0.5628843900000007  0.8860117790000004
  0.7276537420000011  0.4859614670000028  0.6046164039999979
  0.6122689250000022  0.4090383050000028  0.7453140619999985
  0.4968843460000016  0.3321151729999983  0.8860117790000004
  0.8814997670000011  0.2551922500000003  0.6046164039999979
  0.7661151889999971  0.1782691029999981  0.7453140619999985
  0.6617017980000028  0.3333333429999996  0.0000000000000000
  0.8045768739999986  0.8705768590000034  0.6046164039999979
  0.6891921759999988  0.7936537269999988  0.7453140619999985
  0.9950350519999986  0.8333333129999971  0.1681117859999972
  0.9117017980000028  0.2500000000000000  0.2521676120000009
  0.8622689250000022  0.1590383500000030  0.6749652029999993
  0.7468842270000025  0.0821152179999984  0.8156629200000012
  0.0545766349999965  0.6205767989999984  0.5342675449999987
  0.9391920569999996  0.5436537269999988  0.6749652029999993
  0.8238072400000007  0.4667305950000014  0.8156629200000012
  0.7450350519999986  0.5833334330000000  0.4202794429999983
  0.0930382009999988  0.3128845390000023  0.6749652029999993
  0.9776535029999991  0.2359614069999978  0.8156629200000012
  0.3622689250000022  0.1590383500000030  0.5342675449999987
  0.2468843460000016  0.0821152250000026  0.6749652029999993
  0.1314996480000019  0.0051920410000008  0.8156629200000012
  0.9117017980000028  0.5833334330000000  0.2521676120000009
  0.0161150690000014  0.9282690289999991  0.6749652029999993
  0.9007303710000016  0.8513459560000030  0.8156629200000012
  0.7450350519999986  0.9166667459999971  0.4202794429999983
  0.1699612139999971  0.6974998709999980  0.6749652029999993
  0.0545765159999974  0.6205767390000005  0.8156629200000012
  0.6617017390000015  0.0000000000000000  0.3362235430000027
  0.3238074779999991  0.4667306240000002  0.6749652029999993
  0.2084226610000002  0.3898074920000028  0.8156629200000012
  0.5930383210000016  0.3128845390000023  0.5342675449999987
  0.4776536230000019  0.2359614069999978  0.6749652029999993
  0.6617018580000007  0.1666666719999981  0.1681117859999972
  0.4117018580000007  0.0833333429999996  0.2521676120000009
  0.6314997670000011  0.0051921609999965  0.6749652029999993
  0.5161150690000014  0.9282690289999991  0.8156629200000012
  0.2450350969999988  0.2500000000000000  0.2521676120000009
  0.4007303710000016  0.8513460160000008  0.6749652029999993
  0.2853457929999976  0.7744228239999984  0.8156629200000012
  0.6699613330000034  0.6974998709999980  0.5342675449999987
  0.5545766349999965  0.6205767390000005  0.6749652029999993
  0.4391919369999968  0.5436536070000031  0.8156629200000012
  0.9117017390000015  0.4166667160000017  0.4202794429999983
  0.7084228989999986  0.3898076119999985  0.6749652029999993
  0.5930380819999996  0.3128844800000010  0.8156629200000012
  0.7450350519999986  0.7500000599999979  0.2521676120000009
  0.7853459119999968  0.7744228840000034  0.6749652029999993
  0.6699612139999971  0.6974997519999988  0.8156629200000012
  0.0738074779999991  0.2167307140000005  0.6046164039999979
  0.9584227799999994  0.1398075820000031  0.7453140619999985
  0.8430380819999996  0.0628844430000015  0.8860117790000004
  0.9968843460000016  0.8321153520000024  0.6046164039999979
  0.8814997670000011  0.7551921609999965  0.7453140619999985
  0.4950351119999965  0.0000000000000000  0.1681117859999972
  0.1507304909999974  0.6013461350000000  0.6046164039999979
  0.0353459119999968  0.5244230030000026  0.7453140619999985
  0.9199612139999971  0.4474998410000026  0.8860117790000004
  0.3045766349999965  0.3705768880000022  0.6046164039999979
  0.1891920569999996  0.2936537559999977  0.7453140619999985
  0.1617017689999969  0.1666666719999981  0.0000000000000000
  0.4584228989999986  0.1398075970000008  0.6046164039999979
  0.3430382009999988  0.0628844800000010  0.7453140619999985
  0.1617017390000015  0.0000000000000000  0.1681117859999972
  0.2276536230000019  0.9859615559999995  0.6046164039999979
  0.1122689250000022  0.9090383650000007  0.7453140619999985
  0.6617018580000007  0.8333333129999971  0.1681117859999972
  0.3814997670000011  0.7551923389999970  0.6046164039999979
  0.2661150690000014  0.6782691479999983  0.7453140619999985
  0.9950350519999986  0.5000000000000000  0.1681117859999972
  0.5353460310000031  0.5244230030000026  0.6046164039999979
  0.4199612139999971  0.4474999010000005  0.7453140619999985
  0.3045766349999965  0.3705767690000030  0.8860117790000004
  0.7450350519999986  0.4166667160000017  0.2521676120000009
  0.5738074779999991  0.2167306240000002  0.7453140619999985
  0.9950351119999965  0.3333333429999996  0.0000000000000000
  0.8430383210000016  0.0628845390000023  0.6046164039999979
  0.7276535029999991  0.9859613779999989  0.7453140619999985
  0.6122689250000022  0.9090382460000015  0.8860117790000004
  0.6122691630000006  0.9090384839999999  0.6046164039999979
  0.4968843460000016  0.8321153520000024  0.7453140619999985
  0.1617017390000015  0.3333333429999996  0.1681117859999972
  0.7661151889999971  0.6782691479999983  0.6046164039999979
  0.6507306099999965  0.6013460160000008  0.7453140619999985
  0.9950351119999965  0.6666666870000029  0.0000000000000000
  0.9199612139999971  0.4474999899999972  0.6046164039999979
  0.8045766349999965  0.3705768290000009  0.7453140619999985
  0.9117017390000015  0.7500000599999979  0.0840558929999986
 
  0.00000000E+00  0.00000000E+00  0.00000000E+00
  0.00000000E+00  0.00000000E+00  0.00000000E+00
  0.00000000E+00  0.00000000E+00  0.00000000E+00
  0.00000000E+00  0.00000000E+00  0.00000000E+00
  0.00000000E+00  0.00000000E+00  0.00000000E+00
  0.00000000E+00  0.00000000E+00  0.00000000E+00
  0.00000000E+00  0.00000000E+00  0.00000000E+00
  0.00000000E+00  0.00000000E+00  0.00000000E+00
  0.00000000E+00  0.00000000E+00  0.00000000E+00
  0.00000000E+00  0.00000000E+00  0.00000000E+00
  0.00000000E+00  0.00000000E+00  0.00000000E+00
  0.00000000E+00  0.00000000E+00  0.00000000E+00
  0.00000000E+00  0.00000000E+00  0.00000000E+00
  0.00000000E+00  0.00000000E+00  0.00000000E+00
  0.00000000E+00  0.00000000E+00  0.00000000E+00
  0.00000000E+00  0.00000000E+00  0.00000000E+00
  0.00000000E+00  0.00000000E+00  0.00000000E+00
  0.00000000E+00  0.00000000E+00  0.00000000E+00
  0.00000000E+00  0.00000000E+00  0.00000000E+00
  0.00000000E+00  0.00000000E+00  0.00000000E+00
  0.00000000E+00  0.00000000E+00  0.00000000E+00
  0.00000000E+00  0.00000000E+00  0.00000000E+00
  0.00000000E+00  0.00000000E+00  0.00000000E+00
  0.00000000E+00  0.00000000E+00  0.00000000E+00
  0.00000000E+00  0.00000000E+00  0.00000000E+00
  0.00000000E+00  0.00000000E+00  0.00000000E+00
  0.00000000E+00  0.00000000E+00  0.00000000E+00
  0.00000000E+00  0.00000000E+00  0.00000000E+00
  0.00000000E+00  0.00000000E+00  0.00000000E+00
  0.00000000E+00  0.00000000E+00  0.00000000E+00
  0.00000000E+00  0.00000000E+00  0.00000000E+00
  0.00000000E+00  0.00000000E+00  0.00000000E+00
  0.00000000E+00  0.00000000E+00  0.00000000E+00
  0.00000000E+00  0.00000000E+00  0.00000000E+00
  0.00000000E+00  0.00000000E+00  0.00000000E+00
  0.00000000E+00  0.00000000E+00  0.00000000E+00
  0.00000000E+00  0.00000000E+00  0.00000000E+00
  0.00000000E+00  0.00000000E+00  0.00000000E+00
  0.00000000E+00  0.00000000E+00  0.00000000E+00
  0.00000000E+00  0.00000000E+00  0.00000000E+00
  0.00000000E+00  0.00000000E+00  0.00000000E+00
  0.00000000E+00  0.00000000E+00  0.00000000E+00
  0.00000000E+00  0.00000000E+00  0.00000000E+00
  0.00000000E+00  0.00000000E+00  0.00000000E+00
  0.00000000E+00  0.00000000E+00  0.00000000E+00
  0.00000000E+00  0.00000000E+00  0.00000000E+00
  0.00000000E+00  0.00000000E+00  0.00000000E+00
  0.00000000E+00  0.00000000E+00  0.00000000E+00
  0.00000000E+00  0.00000000E+00  0.00000000E+00
  0.00000000E+00  0.00000000E+00  0.00000000E+00
  0.00000000E+00  0.00000000E+00  0.00000000E+00
  0.00000000E+00  0.00000000E+00  0.00000000E+00
  0.00000000E+00  0.00000000E+00  0.00000000E+00
  0.00000000E+00  0.00000000E+00  0.00000000E+00
  0.00000000E+00  0.00000000E+00  0.00000000E+00
  0.00000000E+00  0.00000000E+00  0.00000000E+00
  0.00000000E+00  0.00000000E+00  0.00000000E+00
  0.00000000E+00  0.00000000E+00  0.00000000E+00
  0.00000000E+00  0.00000000E+00  0.00000000E+00
  0.00000000E+00  0.00000000E+00  0.00000000E+00
  0.00000000E+00  0.00000000E+00  0.00000000E+00
  0.00000000E+00  0.00000000E+00  0.00000000E+00
  0.00000000E+00  0.00000000E+00  0.00000000E+00
  0.00000000E+00  0.00000000E+00  0.00000000E+00
  0.00000000E+00  0.00000000E+00  0.00000000E+00
  0.00000000E+00  0.00000000E+00  0.00000000E+00
  0.00000000E+00  0.00000000E+00  0.00000000E+00
  0.00000000E+00  0.00000000E+00  0.00000000E+00
  0.00000000E+00  0.00000000E+00  0.00000000E+00
  0.00000000E+00  0.00000000E+00  0.00000000E+00
  0.00000000E+00  0.00000000E+00  0.00000000E+00
  0.00000000E+00  0.00000000E+00  0.00000000E+00
  0.00000000E+00  0.00000000E+00  0.00000000E+00
  0.00000000E+00  0.00000000E+00  0.00000000E+00
  0.00000000E+00  0.00000000E+00  0.00000000E+00
  0.00000000E+00  0.00000000E+00  0.00000000E+00
  0.00000000E+00  0.00000000E+00  0.00000000E+00
  0.00000000E+00  0.00000000E+00  0.00000000E+00
  0.00000000E+00  0.00000000E+00  0.00000000E+00
  0.00000000E+00  0.00000000E+00  0.00000000E+00
  0.00000000E+00  0.00000000E+00  0.00000000E+00
  0.00000000E+00  0.00000000E+00  0.00000000E+00
  0.00000000E+00  0.00000000E+00  0.00000000E+00
  0.00000000E+00  0.00000000E+00  0.00000000E+00
  0.00000000E+00  0.00000000E+00  0.00000000E+00
  0.00000000E+00  0.00000000E+00  0.00000000E+00
  0.00000000E+00  0.00000000E+00  0.00000000E+00
  0.00000000E+00  0.00000000E+00  0.00000000E+00
  0.00000000E+00  0.00000000E+00  0.00000000E+00
  0.00000000E+00  0.00000000E+00  0.00000000E+00
  0.00000000E+00  0.00000000E+00  0.00000000E+00
  0.00000000E+00  0.00000000E+00  0.00000000E+00
  0.00000000E+00  0.00000000E+00  0.00000000E+00
  0.00000000E+00  0.00000000E+00  0.00000000E+00
  0.00000000E+00  0.00000000E+00  0.00000000E+00
  0.00000000E+00  0.00000000E+00  0.00000000E+00
  0.00000000E+00  0.00000000E+00  0.00000000E+00
  0.00000000E+00  0.00000000E+00  0.00000000E+00
  0.00000000E+00  0.00000000E+00  0.00000000E+00
  0.00000000E+00  0.00000000E+00  0.00000000E+00
  0.00000000E+00  0.00000000E+00  0.00000000E+00
  0.00000000E+00  0.00000000E+00  0.00000000E+00
  0.00000000E+00  0.00000000E+00  0.00000000E+00
  0.00000000E+00  0.00000000E+00  0.00000000E+00
  0.00000000E+00  0.00000000E+00  0.00000000E+00
  0.00000000E+00  0.00000000E+00  0.00000000E+00
  0.00000000E+00  0.00000000E+00  0.00000000E+00
  0.00000000E+00  0.00000000E+00  0.00000000E+00
  0.00000000E+00  0.00000000E+00  0.00000000E+00
  0.00000000E+00  0.00000000E+00  0.00000000E+00
  0.00000000E+00  0.00000000E+00  0.00000000E+00
  0.00000000E+00  0.00000000E+00  0.00000000E+00
  0.00000000E+00  0.00000000E+00  0.00000000E+00
  0.00000000E+00  0.00000000E+00  0.00000000E+00
  0.00000000E+00  0.00000000E+00  0.00000000E+00
  0.00000000E+00  0.00000000E+00  0.00000000E+00
  0.00000000E+00  0.00000000E+00  0.00000000E+00
  0.00000000E+00  0.00000000E+00  0.00000000E+00
  0.00000000E+00  0.00000000E+00  0.00000000E+00
  0.00000000E+00  0.00000000E+00  0.00000000E+00
  0.00000000E+00  0.00000000E+00  0.00000000E+00
  0.00000000E+00  0.00000000E+00  0.00000000E+00
  0.00000000E+00  0.00000000E+00  0.00000000E+00
  0.00000000E+00  0.00000000E+00  0.00000000E+00
  0.00000000E+00  0.00000000E+00  0.00000000E+00
  0.00000000E+00  0.00000000E+00  0.00000000E+00
  0.00000000E+00  0.00000000E+00  0.00000000E+00
  0.00000000E+00  0.00000000E+00  0.00000000E+00
  0.00000000E+00  0.00000000E+00  0.00000000E+00
  0.00000000E+00  0.00000000E+00  0.00000000E+00
  0.00000000E+00  0.00000000E+00  0.00000000E+00
  0.00000000E+00  0.00000000E+00  0.00000000E+00
  0.00000000E+00  0.00000000E+00  0.00000000E+00
  0.00000000E+00  0.00000000E+00  0.00000000E+00
  0.00000000E+00  0.00000000E+00  0.00000000E+00
  0.00000000E+00  0.00000000E+00  0.00000000E+00
  0.00000000E+00  0.00000000E+00  0.00000000E+00
  0.00000000E+00  0.00000000E+00  0.00000000E+00
  0.00000000E+00  0.00000000E+00  0.00000000E+00
  0.00000000E+00  0.00000000E+00  0.00000000E+00
  0.00000000E+00  0.00000000E+00  0.00000000E+00
  0.00000000E+00  0.00000000E+00  0.00000000E+00
  0.00000000E+00  0.00000000E+00  0.00000000E+00
  0.00000000E+00  0.00000000E+00  0.00000000E+00
  0.00000000E+00  0.00000000E+00  0.00000000E+00
  0.00000000E+00  0.00000000E+00  0.00000000E+00
  0.00000000E+00  0.00000000E+00  0.00000000E+00
  0.00000000E+00  0.00000000E+00  0.00000000E+00
  0.00000000E+00  0.00000000E+00  0.00000000E+00
  0.00000000E+00  0.00000000E+00  0.00000000E+00
  0.00000000E+00  0.00000000E+00  0.00000000E+00
  0.00000000E+00  0.00000000E+00  0.00000000E+00
  0.00000000E+00  0.00000000E+00  0.00000000E+00
  0.00000000E+00  0.00000000E+00  0.00000000E+00
  0.00000000E+00  0.00000000E+00  0.00000000E+00
  0.00000000E+00  0.00000000E+00  0.00000000E+00
  0.00000000E+00  0.00000000E+00  0.00000000E+00
  0.00000000E+00  0.00000000E+00  0.00000000E+00
  0.00000000E+00  0.00000000E+00  0.00000000E+00
  0.00000000E+00  0.00000000E+00  0.00000000E+00
  0.00000000E+00  0.00000000E+00  0.00000000E+00
  0.00000000E+00  0.00000000E+00  0.00000000E+00
  0.00000000E+00  0.00000000E+00  0.00000000E+00
  0.00000000E+00  0.00000000E+00  0.00000000E+00
  0.00000000E+00  0.00000000E+00  0.00000000E+00
  0.00000000E+00  0.00000000E+00  0.00000000E+00
  0.00000000E+00  0.00000000E+00  0.00000000E+00
  0.00000000E+00  0.00000000E+00  0.00000000E+00
  0.00000000E+00  0.00000000E+00  0.00000000E+00
  0.00000000E+00  0.00000000E+00  0.00000000E+00
  0.00000000E+00  0.00000000E+00  0.00000000E+00
  0.00000000E+00  0.00000000E+00  0.00000000E+00
  0.00000000E+00  0.00000000E+00  0.00000000E+00
  0.00000000E+00  0.00000000E+00  0.00000000E+00
  0.00000000E+00  0.00000000E+00  0.00000000E+00
  0.00000000E+00  0.00000000E+00  0.00000000E+00
  0.00000000E+00  0.00000000E+00  0.00000000E+00
  0.00000000E+00  0.00000000E+00  0.00000000E+00
  0.00000000E+00  0.00000000E+00  0.00000000E+00
  0.00000000E+00  0.00000000E+00  0.00000000E+00
  0.00000000E+00  0.00000000E+00  0.00000000E+00
  0.00000000E+00  0.00000000E+00  0.00000000E+00
  0.00000000E+00  0.00000000E+00  0.00000000E+00
  0.00000000E+00  0.00000000E+00  0.00000000E+00
  0.00000000E+00  0.00000000E+00  0.00000000E+00
  0.00000000E+00  0.00000000E+00  0.00000000E+00
  0.00000000E+00  0.00000000E+00  0.00000000E+00
  0.00000000E+00  0.00000000E+00  0.00000000E+00
  0.00000000E+00  0.00000000E+00  0.00000000E+00
  0.00000000E+00  0.00000000E+00  0.00000000E+00
  0.00000000E+00  0.00000000E+00  0.00000000E+00
  0.00000000E+00  0.00000000E+00  0.00000000E+00
  0.00000000E+00  0.00000000E+00  0.00000000E+00
  0.00000000E+00  0.00000000E+00  0.00000000E+00
  0.00000000E+00  0.00000000E+00  0.00000000E+00
  0.00000000E+00  0.00000000E+00  0.00000000E+00
  0.00000000E+00  0.00000000E+00  0.00000000E+00
  0.00000000E+00  0.00000000E+00  0.00000000E+00
  0.00000000E+00  0.00000000E+00  0.00000000E+00
  0.00000000E+00  0.00000000E+00  0.00000000E+00
  0.00000000E+00  0.00000000E+00  0.00000000E+00
  0.00000000E+00  0.00000000E+00  0.00000000E+00
  0.00000000E+00  0.00000000E+00  0.00000000E+00
  0.00000000E+00  0.00000000E+00  0.00000000E+00
  0.00000000E+00  0.00000000E+00  0.00000000E+00
  0.00000000E+00  0.00000000E+00  0.00000000E+00
  0.00000000E+00  0.00000000E+00  0.00000000E+00
  0.00000000E+00  0.00000000E+00  0.00000000E+00
  0.00000000E+00  0.00000000E+00  0.00000000E+00
  0.00000000E+00  0.00000000E+00  0.00000000E+00
  0.00000000E+00  0.00000000E+00  0.00000000E+00
  0.00000000E+00  0.00000000E+00  0.00000000E+00
  0.00000000E+00  0.00000000E+00  0.00000000E+00
  0.00000000E+00  0.00000000E+00  0.00000000E+00
  0.00000000E+00  0.00000000E+00  0.00000000E+00
  0.00000000E+00  0.00000000E+00  0.00000000E+00
  0.00000000E+00  0.00000000E+00  0.00000000E+00
  0.00000000E+00  0.00000000E+00  0.00000000E+00
  0.00000000E+00  0.00000000E+00  0.00000000E+00
  0.00000000E+00  0.00000000E+00  0.00000000E+00
  0.00000000E+00  0.00000000E+00  0.00000000E+00
  0.00000000E+00  0.00000000E+00  0.00000000E+00
  0.00000000E+00  0.00000000E+00  0.00000000E+00
  0.00000000E+00  0.00000000E+00  0.00000000E+00
  0.00000000E+00  0.00000000E+00  0.00000000E+00
  0.00000000E+00  0.00000000E+00  0.00000000E+00
  0.00000000E+00  0.00000000E+00  0.00000000E+00
  0.00000000E+00  0.00000000E+00  0.00000000E+00
  0.00000000E+00  0.00000000E+00  0.00000000E+00
  0.00000000E+00  0.00000000E+00  0.00000000E+00
  0.00000000E+00  0.00000000E+00  0.00000000E+00
  0.00000000E+00  0.00000000E+00  0.00000000E+00
  0.00000000E+00  0.00000000E+00  0.00000000E+00
  0.00000000E+00  0.00000000E+00  0.00000000E+00
  0.00000000E+00  0.00000000E+00  0.00000000E+00
  0.00000000E+00  0.00000000E+00  0.00000000E+00
  0.00000000E+00  0.00000000E+00  0.00000000E+00
  0.00000000E+00  0.00000000E+00  0.00000000E+00
  0.00000000E+00  0.00000000E+00  0.00000000E+00
  0.00000000E+00  0.00000000E+00  0.00000000E+00
  0.00000000E+00  0.00000000E+00  0.00000000E+00
  0.00000000E+00  0.00000000E+00  0.00000000E+00
  0.00000000E+00  0.00000000E+00  0.00000000E+00
  0.00000000E+00  0.00000000E+00  0.00000000E+00
  0.00000000E+00  0.00000000E+00  0.00000000E+00
  0.00000000E+00  0.00000000E+00  0.00000000E+00
  0.00000000E+00  0.00000000E+00  0.00000000E+00
  0.00000000E+00  0.00000000E+00  0.00000000E+00
  0.00000000E+00  0.00000000E+00  0.00000000E+00
  0.00000000E+00  0.00000000E+00  0.00000000E+00
  0.00000000E+00  0.00000000E+00  0.00000000E+00
  0.00000000E+00  0.00000000E+00  0.00000000E+00
  0.00000000E+00  0.00000000E+00  0.00000000E+00
  0.00000000E+00  0.00000000E+00  0.00000000E+00
  0.00000000E+00  0.00000000E+00  0.00000000E+00
  0.00000000E+00  0.00000000E+00  0.00000000E+00
  0.00000000E+00  0.00000000E+00  0.00000000E+00
  0.00000000E+00  0.00000000E+00  0.00000000E+00
  0.00000000E+00  0.00000000E+00  0.00000000E+00
  0.00000000E+00  0.00000000E+00  0.00000000E+00
  0.00000000E+00  0.00000000E+00  0.00000000E+00
  0.00000000E+00  0.00000000E+00  0.00000000E+00
  0.00000000E+00  0.00000000E+00  0.00000000E+00
  0.00000000E+00  0.00000000E+00  0.00000000E+00
