Automatic KPOINTS generated
0
Gamma
2 2 3
0 0 0
