Si+C
    1.000000000
   13.303179741    0.000000000    0.000000000
   -6.651589394   11.520891190    0.000000000
    0.000000000    0.000000000   21.679418564
Si  C  
72     308
Direct
    0.348160356    0.681493700    0.000000013
    0.681493759    0.014827132    0.144634396
    0.014827251    0.348160625    0.289268821
    0.014827028    0.014827028    0.000000014
    0.348160386    0.348160386    0.144634396
    0.681493878    0.681493878    0.289268821
    0.681493700    0.348160356    0.000000000
    0.014827132    0.681493759    0.144634381
    0.348160625    0.014827251    0.289268792
    0.014827013    0.681493759    0.036158606
    0.348160386    0.014827132    0.180793002
    0.681493878    0.348160625    0.325427443
    0.348160416    0.348160416    0.036158621
    0.681493759    0.681493819    0.180793017
    0.014827251    0.014827251    0.325427443
    0.681493759    0.014827013    0.036158606
    0.014827132    0.348160386    0.180793002
    0.348160625    0.681493878    0.325427413
    0.014827028    0.514827013    0.000000017
    0.348160416    0.848160446    0.144634411
    0.681493819    0.181493878    0.289268821
    0.681493759    0.848160386    0.000000038
    0.014827132    0.181493759    0.144634396
    0.348160625    0.514827251    0.289268821
    0.348160386    0.181493685    0.000000008
    0.681493759    0.514827073    0.144634381
    0.014827132    0.848160505    0.289268792
    0.348160416    0.848160267    0.036158569
    0.681493878    0.181493759    0.180792972
    0.014827132    0.514827013    0.325427353
    0.014827132    0.181493700    0.036158592
    0.348160505    0.514827132    0.180792972
    0.681493759    0.848160446    0.325427324
    0.681493819    0.514827073    0.036158577
    0.014827251    0.848160505    0.180793002
    0.348160625    0.181493878    0.325427383
    0.181493700    0.848160386    0.000000024
    0.514827073    0.181493759    0.144634396
    0.848160565    0.514827251    0.289268821
    0.514827013    0.514827013    0.000000014
    0.848160446    0.848160386    0.144634396
    0.181493878    0.181493878    0.289268821
    0.848160386    0.181493700    0.000000005
    0.181493759    0.514827073    0.144634381
    0.514827251    0.848160565    0.289268821
    0.181493685    0.514827013    0.036158577
    0.514827132    0.848160505    0.180793002
    0.848160446    0.181493759    0.325427353
    0.848160386    0.848160386    0.036158558
    0.181493878    0.181493878    0.180793002
    0.514827251    0.514827251    0.325427383
    0.514827073    0.181493670    0.036158577
    0.848160505    0.514827132    0.180793002
    0.181493759    0.848160446    0.325427383
    0.181493700    0.348160356    0.000000013
    0.514827073    0.681493759    0.144634396
    0.848160505    0.014827132    0.289268821
    0.848160386    0.681493759    0.000000027
    0.181493759    0.014827132    0.144634396
    0.514827251    0.348160625    0.289268821
    0.514827013    0.014827021    0.000000013
    0.848160386    0.348160416    0.144634396
    0.181493878    0.681493819    0.289268821
    0.514827013    0.681493640    0.036158621
    0.848160386    0.014827013    0.180793002
    0.181493878    0.348160505    0.325427443
    0.181493655    0.014827013    0.036158614
    0.514827013    0.348160386    0.180793002
    0.848160446    0.681493878    0.325427443
    0.848160446    0.348160386    0.036158606
    0.181493878    0.681493759    0.180793002
    0.514827251    0.014827251    0.325427413
    0.756872892    0.233969927    0.900184751
    0.709254205    0.424446464    0.425242633
    0.518777907    0.186351180    0.520231068
    0.328301668    0.948255897    0.615219474
    0.137825355    0.710160494    0.710207880
    0.947349191    0.472065240    0.805196285
    0.899730027    0.662541389    0.900184751
    0.852111340    0.853017926    0.425242662
    0.661635041    0.614922643    0.520231068
    0.471158803    0.376827359    0.615219533
    0.280682504    0.138731956    0.710207939
    0.090206273    0.900636673    0.805196345
    0.471158564    0.376827091    0.900184751
    0.423539877    0.567303658    0.425242633
    0.233063608    0.329208314    0.520231068
    0.042587359    0.091112971    0.615219474
    0.852110982    0.853017569    0.710207939
    0.661634803    0.614922404    0.805196345
    0.614015698    0.805398583    0.900184751
    0.566397011    0.995875001    0.425242633
    0.375920773    0.757779717    0.520231068
    0.185444534    0.519684434    0.615219474
    0.994968176    0.281589031    0.710207880
    0.804491997    0.043493867    0.805196345
    0.042587161    0.091112733    0.900184751
    0.994968414    0.281589389    0.425242633
    0.804492176    0.043493986    0.520231068
    0.614015937    0.805398703    0.615219474
    0.423539579    0.567303419    0.710207880
    0.233063400    0.329208106    0.805196285
    0.185444295    0.519684196    0.900184751
    0.137825593    0.710160732    0.425242633
    0.947349310    0.472065449    0.520231068
    0.756873071    0.233970165    0.615219474
    0.566396713    0.995874763    0.710207939
    0.375920534    0.757779598    0.805196285
    0.328301430    0.948255658    0.900184751
    0.280682713    0.138732195    0.425242633
    0.090206467    0.900636911    0.520231068
    0.899730206    0.662541628    0.615219474
    0.709253907    0.424446225    0.710207939
    0.518777728    0.186350942    0.805196285
    0.947349370    0.472065479    0.448989779
    0.756873131    0.233970165    0.543978214
    0.566396892    0.995874882    0.638966620
    0.375920534    0.757779479    0.733955085
    0.185444236    0.519684196    0.828943491
    0.661635101    0.614922643    0.448989749
    0.471158862    0.376827389    0.543978155
    0.280682623    0.138732076    0.638966560
    0.090206333    0.900636792    0.733955026
    0.899729967    0.662541270    0.828943491
    0.804492295    0.043494105    0.448989749
    0.614016056    0.805398822    0.543978155
    0.423539788    0.567303538    0.638966620
    0.233063504    0.329208195    0.733955026
    0.042587169    0.091112733    0.828943491
    0.233063668    0.329208374    0.448989779
    0.042587414    0.091113091    0.543978214
    0.852111161    0.853017807    0.638966620
    0.661634803    0.614922404    0.733955085
    0.471158504    0.376827031    0.828943491
    0.375920832    0.757779837    0.448989779
    0.185444579    0.519684494    0.543978214
    0.994968355    0.281589150    0.638966620
    0.804491997    0.043493867    0.733955026
    0.614015698    0.805398464    0.828943491
    0.518777966    0.186351299    0.448989779
    0.328301758    0.948256016    0.543978214
    0.137825489    0.710160732    0.638966620
    0.947349191    0.472065330    0.733955026
    0.756872833    0.233969927    0.828943491
    0.090206496    0.900636911    0.448989779
    0.899730265    0.662541628    0.543978214
    0.709254026    0.424446344    0.638966620
    0.518777728    0.186350942    0.733955085
    0.328301370    0.948255539    0.828943491
    0.971158683    0.376827151    0.900184751
    0.923539937    0.567303658    0.425242633
    0.733063698    0.329208344    0.520231068
    0.542587459    0.091113091    0.615219474
    0.352111101    0.853017569    0.710207880
    0.161634922    0.614922404    0.805196345
    0.542587161    0.091112733    0.900184751
    0.494968474    0.281589389    0.425242633
    0.304492205    0.043493986    0.520231068
    0.114015952    0.805398703    0.615219474
    0.923539639    0.567303300    0.710207939
    0.733063400    0.329208046    0.805196345
    0.685444355    0.519684196    0.900184751
    0.637825608    0.710160792    0.425242662
    0.447349370    0.472065449    0.520231068
    0.256873131    0.233970165    0.615219533
    0.066396803    0.995874763    0.710207939
    0.875920534    0.757779598    0.805196345
    0.828301430    0.948255658    0.900184751
    0.780682743    0.138732195    0.425242633
    0.590206444    0.900636911    0.520231068
    0.399730206    0.662541628    0.615219533
    0.209253892    0.424446195    0.710207939
    0.018777668    0.186350942    0.805196345
    0.256872833    0.233969927    0.900184751
    0.209254161    0.424446493    0.425242633
    0.018777886    0.186351180    0.520231068
    0.828301668    0.948255897    0.615219474
    0.637825310    0.710160494    0.710207880
    0.447349131    0.472065181    0.805196345
    0.399729967    0.662541389    0.900184751
    0.352111280    0.853017926    0.425242633
    0.161635026    0.614922643    0.520231068
    0.971158803    0.376827329    0.615219474
    0.780682445    0.138731956    0.710207939
    0.590206265    0.900636673    0.805196345
    0.114015698    0.805398464    0.900184751
    0.066397004    0.995875001    0.425242633
    0.875920713    0.757779717    0.520231068
    0.685444474    0.519684434    0.615219474
    0.494968176    0.281589031    0.710207939
    0.304491937    0.043493748    0.805196345
    0.733063757    0.329208404    0.448989749
    0.542587519    0.091113091    0.543978214
    0.352111220    0.853017807    0.638966560
    0.161634907    0.614922404    0.733955026
    0.971158624    0.376827091    0.828943491
    0.875920892    0.757779777    0.448989749
    0.685444653    0.519684494    0.543978214
    0.494968355    0.281589150    0.638966620
    0.304492086    0.043493867    0.733955026
    0.114015721    0.805398464    0.828943491
    0.447349399    0.472065508    0.448989719
    0.256873101    0.233970165    0.543978155
    0.066396870    0.995874882    0.638966560
    0.875920653    0.757779598    0.733955026
    0.685444295    0.519684315    0.828943431
    0.590206563    0.900637031    0.448989719
    0.399730265    0.662541628    0.543978155
    0.209254056    0.424446374    0.638966560
    0.018777782    0.186351061    0.733955026
    0.828301549    0.948255658    0.828943372
    0.161635101    0.614922643    0.448989749
    0.971158803    0.376827329    0.543978214
    0.780682564    0.138732076    0.638966620
    0.590206325    0.900636792    0.733955026
    0.399730027    0.662541389    0.828943431
    0.304492235    0.043494105    0.448989749
    0.114015967    0.805398822    0.543978214
    0.923539758    0.567303538    0.638966560
    0.733063459    0.329208195    0.733955026
    0.542587221    0.091112852    0.828943491
    0.018777935    0.186351299    0.448989749
    0.828301668    0.948256016    0.543978214
    0.637825370    0.710160673    0.638966560
    0.447349131    0.472065330    0.733955026
    0.256872833    0.233970046    0.828943491
    0.899730086    0.162541389    0.900184751
    0.852111340    0.353017926    0.425242662
    0.661635101    0.114922523    0.520231068
    0.471158892    0.876827359    0.615219533
    0.280682504    0.638731956    0.710207939
    0.090206318    0.400636703    0.805196345
    0.614015818    0.305398554    0.900184751
    0.566397071    0.495875090    0.425242662
    0.375920802    0.257779717    0.520231068
    0.185444564    0.019684434    0.615219533
    0.994968235    0.781589150    0.710207939
    0.804491997    0.543493867    0.805196345
    0.756872892    0.733969927    0.900184751
    0.709254205    0.924446464    0.425242633
    0.518777907    0.686351180    0.520231068
    0.328301668    0.448255897    0.615219474
    0.137825355    0.210160494    0.710207880
    0.947349131    0.972065210    0.805196285
    0.328301489    0.448255628    0.900184751
    0.280682743    0.638732195    0.425242633
    0.090206467    0.400636882    0.520231068
    0.899730206    0.162541628    0.615219474
    0.709253907    0.924446225    0.710207939
    0.518777728    0.686350942    0.805196345
    0.471158624    0.876827121    0.900184751
    0.423539877    0.067303658    0.425242633
    0.233063623    0.829208374    0.520231068
    0.042587388    0.591113031    0.615219474
    0.852111042    0.353017628    0.710207880
    0.661634862    0.114922404    0.805196285
    0.042587101    0.591112852    0.900184751
    0.994968414    0.781589329    0.425242633
    0.804492176    0.543493986    0.520231068
    0.614015937    0.305398732    0.615219474
    0.423539579    0.067303300    0.710207939
    0.233063400    0.829208136    0.805196285
    0.185444295    0.019684196    0.900184751
    0.137825578    0.210160851    0.425242633
    0.947349310    0.972065449    0.520231068
    0.756873012    0.733970165    0.615219474
    0.566396832    0.495874941    0.710207820
    0.375920534    0.257779598    0.805196345
    0.804492295    0.543493986    0.448989779
    0.614016056    0.305398732    0.543978214
    0.423539758    0.067303419    0.638966620
    0.233063474    0.829208136    0.733955085
    0.042587120    0.591112614    0.828943491
    0.947349429    0.972065568    0.448989779
    0.756873131    0.733970225    0.543978214
    0.566396892    0.495874941    0.638966620
    0.375920594    0.257779598    0.733955085
    0.185444295    0.019684196    0.828943491
    0.518777966    0.686351299    0.448989749
    0.328301698    0.448255897    0.543978214
    0.137825489    0.210160613    0.638966620
    0.947349191    0.972065330    0.733955085
    0.756872892    0.733970046    0.828943491
    0.661635160    0.114922643    0.448989749
    0.471158832    0.876827359    0.543978214
    0.280682623    0.638732076    0.638966560
    0.090206385    0.400636733    0.733955026
    0.899730086    0.162541389    0.828943431
    0.090206534    0.400636911    0.448989749
    0.899730206    0.162541509    0.543978214
    0.709254026    0.924446225    0.638966560
    0.518777728    0.686351061    0.733955026
    0.328301489    0.448255688    0.828943431
    0.233063698    0.829208374    0.448989749
    0.042587407    0.591113031    0.543978214
    0.852111161    0.353017777    0.638966560
    0.661634922    0.114922404    0.733955026
    0.471158624    0.876827121    0.828943431
    0.375920832    0.257779717    0.448989719
    0.185444534    0.019684434    0.543978155
    0.994968295    0.781589150    0.638966560
    0.804492056    0.543493867    0.733955026
    0.614015758    0.305398494    0.828943372
    0.828301549    0.448255628    0.900184751
    0.780682802    0.638732195    0.425242662
    0.590206563    0.400636882    0.520231068
    0.399730325    0.162541628    0.615219533
    0.209253982    0.924446225    0.710207939
    0.018777743    0.686350942    0.805196404
    0.971158683    0.876827121    0.900184751
    0.923539996    0.067303658    0.425242633
    0.733063698    0.829208374    0.520231068
    0.542587459    0.591113091    0.615219474
    0.352111131    0.353017658    0.710207880
    0.161634937    0.114922404    0.805196285
    0.399729967    0.162541270    0.900184751
    0.352111310    0.353017896    0.425242633
    0.161635041    0.114922523    0.520231068
    0.971158803    0.876827240    0.615219474
    0.780682445    0.638731837    0.710207880
    0.590206265    0.400636643    0.805196345
    0.542587101    0.591112733    0.900184751
    0.494968444    0.781589329    0.425242633
    0.304492176    0.543493986    0.520231068
    0.114015944    0.305398732    0.615219474
    0.923539639    0.067303300    0.710207939
    0.733063340    0.829208136    0.805196345
    0.685444355    0.019684315    0.900184751
    0.637825668    0.210160851    0.425242633
    0.447349370    0.972065449    0.520231068
    0.256873131    0.733970225    0.615219474
    0.066396810    0.495874822    0.710207880
    0.875920594    0.257779598    0.805196285
    0.114015698    0.305398494    0.900184751
    0.066397011    0.495875061    0.425242633
    0.875920713    0.257779717    0.520231068
    0.685444474    0.019684434    0.615219474
    0.494968116    0.781589031    0.710207880
    0.304491937    0.543493867    0.805196345
    0.256872892    0.733970046    0.900184751
    0.209254146    0.924446583    0.425242633
    0.018777898    0.686351240    0.520231068
    0.828301668    0.448255956    0.615219474
    0.637825310    0.210160494    0.710207880
    0.447349131    0.972065330    0.805196285
    0.590206623    0.400636971    0.448989779
    0.399730325    0.162541628    0.543978214
    0.209254101    0.924446344    0.638966620
    0.018777797    0.686351061    0.733955085
    0.828301489    0.448255628    0.828943491
    0.733063757    0.829208374    0.448989749
    0.542587519    0.591113091    0.543978155
    0.352111250    0.353017807    0.638966620
    0.161634997    0.114922404    0.733955026
    0.971158624    0.876827002    0.828943491
    0.875920892    0.257779837    0.448989749
    0.685444653    0.019684434    0.543978214
    0.494968325    0.781589150    0.638966560
    0.304492056    0.543493867    0.733955026
    0.114015728    0.305398494    0.828943491
    0.304492295    0.543494105    0.448989749
    0.114016034    0.305398792    0.543978214
    0.923539758    0.067303538    0.638966620
    0.733063459    0.829208136    0.733955085
    0.542587161    0.591112733    0.828943491
    0.447349370    0.972065449    0.448989749
    0.256873131    0.733970225    0.543978214
    0.066396877    0.495874912    0.638966620
    0.875920594    0.257779598    0.733955026
    0.685444236    0.019684076    0.828943491
    0.018777980    0.686351299    0.448989749
    0.828301728    0.448255956    0.543978214
    0.637825489    0.210160613    0.638966620
    0.447349131    0.972065330    0.733955085
    0.256872833    0.733969927    0.828943491
    0.161635131    0.114922643    0.448989749
    0.971158862    0.876827359    0.543978214
    0.780682623    0.638732076    0.638966620
    0.590206385    0.400636733    0.733955026
    0.399730027    0.162541389    0.828943491
