Ge+Si
    1.000000000
   16.973400116    0.000000000    0.000000000
    0.000000000   16.973400116    0.000000000
    0.000000000    0.000000000   17.861000061
Ge  Si 
108     120
Direct
    0.994305491    0.666666567    0.000000000
    0.827638865    0.666666567    0.158384174
    0.660972118    0.666666567    0.316768378
    0.994305491    0.333333284    0.000000000
    0.827638865    0.333333284    0.158384174
    0.660972118    0.333333284    0.316768378
    0.994305491    0.000000000    0.000000000
    0.827638865    0.000000000    0.158384174
    0.660972118    0.000000000    0.316768378
    0.327638805    0.666666567    0.000000000
    0.160972148    0.666666567    0.158384174
    0.994305432    0.666666567    0.316768378
    0.327638805    0.333333284    0.000000000
    0.160972148    0.333333284    0.158384174
    0.994305432    0.333333284    0.316768378
    0.327638805    0.000000000    0.000000000
    0.160972148    0.000000000    0.158384174
    0.994305432    0.000000000    0.316768378
    0.660972118    0.666666567    0.000000000
    0.494305432    0.666666567    0.158384174
    0.327638745    0.666666567    0.316768378
    0.660972118    0.333333284    0.000000000
    0.494305432    0.333333284    0.158384174
    0.327638745    0.333333284    0.316768378
    0.660972118    0.000000000    0.000000000
    0.494305432    0.000000000    0.158384174
    0.327638745    0.000000000    0.316768378
    0.077638842    0.916666567    0.079192095
    0.910972118    0.916666567    0.237576291
    0.744305491    0.916666567    0.395960480
    0.077638842    0.583333313    0.079192095
    0.910972118    0.583333313    0.237576291
    0.744305491    0.583333313    0.395960480
    0.077638842    0.249999955    0.079192095
    0.910972118    0.249999955    0.237576291
    0.744305491    0.249999955    0.395960480
    0.410972089    0.916666567    0.079192095
    0.244305417    0.916666567    0.237576291
    0.077638723    0.916666567    0.395960480
    0.410972089    0.583333313    0.079192095
    0.244305417    0.583333313    0.237576291
    0.077638723    0.583333313    0.395960480
    0.410972089    0.249999955    0.079192095
    0.244305417    0.249999955    0.237576291
    0.077638723    0.249999955    0.395960480
    0.744305491    0.916666567    0.079192095
    0.577638745    0.916666567    0.237576291
    0.410972059    0.916666567    0.395960480
    0.744305491    0.583333313    0.079192095
    0.577638745    0.583333313    0.237576291
    0.410972059    0.583333313    0.395960480
    0.744305491    0.249999955    0.079192095
    0.577638745    0.249999955    0.237576291
    0.410972059    0.249999955    0.395960480
    0.160972163    0.833333194    0.000000000
    0.994305491    0.833333194    0.158384174
    0.827638805    0.833333194    0.316768378
    0.160972163    0.499999911    0.000000000
    0.994305491    0.499999911    0.158384174
    0.827638805    0.499999911    0.316768378
    0.160972163    0.166666642    0.000000000
    0.994305491    0.166666642    0.158384174
    0.827638805    0.166666642    0.316768378
    0.494305432    0.833333194    0.000000000
    0.327638745    0.833333194    0.158384174
    0.160972074    0.833333194    0.316768378
    0.494305432    0.499999911    0.000000000
    0.327638745    0.499999911    0.158384174
    0.160972074    0.499999911    0.316768378
    0.494305432    0.166666642    0.000000000
    0.327638745    0.166666642    0.158384174
    0.160972074    0.166666642    0.316768378
    0.827638805    0.833333194    0.000000000
    0.660972118    0.833333194    0.158384174
    0.494305432    0.833333194    0.316768378
    0.827638805    0.499999911    0.000000000
    0.660972118    0.499999911    0.158384174
    0.494305432    0.499999911    0.316768378
    0.827638805    0.166666642    0.000000000
    0.660972118    0.166666642    0.158384174
    0.494305432    0.166666642    0.316768378
    0.244305462    0.749999881    0.079192095
    0.077638783    0.749999881    0.237576291
    0.910972118    0.749999881    0.395960480
    0.244305462    0.416666627    0.079192095
    0.077638783    0.416666627    0.237576291
    0.910972118    0.416666627    0.395960480
    0.244305462    0.083333328    0.079192095
    0.077638783    0.083333328    0.237576291
    0.910972118    0.083333328    0.395960480
    0.577638865    0.749999881    0.079192095
    0.410972148    0.749999881    0.237576291
    0.244305447    0.749999881    0.395960480
    0.577638865    0.416666627    0.079192095
    0.410972148    0.416666627    0.237576291
    0.244305447    0.416666627    0.395960480
    0.577638865    0.083333328    0.079192095
    0.410972148    0.083333328    0.237576291
    0.244305447    0.083333328    0.395960480
    0.910972178    0.749999881    0.079192095
    0.744305491    0.749999881    0.237576291
    0.577638745    0.749999881    0.395960480
    0.910972178    0.416666627    0.079192095
    0.744305491    0.416666627    0.237576291
    0.577638745    0.416666627    0.395960480
    0.910972178    0.083333328    0.079192095
    0.744305491    0.083333328    0.237576291
    0.577638745    0.083333328    0.395960480
    0.605903625    0.184619963    0.507936299
    0.455903530    0.234620020    0.659971476
    0.305903435    0.284620047    0.812006652
    0.705903530    0.484620005    0.507936299
    0.555903435    0.534620106    0.659971476
    0.405903459    0.584620118    0.812006652
    0.805903554    0.784619927    0.507936299
    0.655903459    0.834619999    0.659971476
    0.505903482    0.884620070    0.812006652
    0.305903554    0.284619987    0.507936299
    0.155903459    0.334620029    0.659971476
    0.005903363    0.384620070    0.812006652
    0.405903578    0.584619999    0.507936299
    0.255903482    0.634620070    0.659971476
    0.105903387    0.684620142    0.812006652
    0.505903482    0.884619951    0.507936299
    0.355903387    0.934620023    0.659971476
    0.205903411    0.984620094    0.812006652
    0.905903578    0.084619924    0.507936299
    0.755903482    0.134619996    0.659971476
    0.605903387    0.184620053    0.812006652
    0.005903482    0.384619951    0.507936299
    0.855903506    0.434620023    0.659971476
    0.705903411    0.484620064    0.812006652
    0.105903506    0.684620023    0.507936299
    0.955903471    0.734620094    0.659971476
    0.805903435    0.784620166    0.812006652
    0.205903530    0.984619975    0.507936299
    0.055903435    0.034619927    0.659971476
    0.905903339    0.084620148    0.812006652
    0.855903506    0.184619933    0.583953917
    0.705903411    0.234620005    0.735989094
    0.555903316    0.284620106    0.888024211
    0.555903673    0.284619987    0.583953917
    0.405903578    0.334620029    0.735989094
    0.255903482    0.384620100    0.888024211
    0.655903578    0.584619999    0.583953917
    0.505903482    0.634620070    0.735989094
    0.355903387    0.684620142    0.888024211
    0.755903482    0.884619951    0.583953917
    0.605903506    0.934620142    0.735989094
    0.455903411    0.984620094    0.888024211
    0.155903578    0.084619910    0.583953917
    0.005903482    0.134620100    0.735989094
    0.855903387    0.184620172    0.888024211
    0.255903482    0.384619951    0.583953917
    0.105903506    0.434620053    0.735989094
    0.955903351    0.484620064    0.888024211
    0.355903506    0.684619904    0.583953917
    0.205903530    0.734619975    0.735989094
    0.055903435    0.784620166    0.888024211
    0.455903530    0.984619975    0.583953917
    0.305903435    0.034620047    0.735989094
    0.155903339    0.084620148    0.888024211
    0.955903530    0.484619945    0.583953917
    0.805903435    0.534620047    0.735989094
    0.655903339    0.584620118    0.888024211
    0.055903554    0.784620047    0.583953917
    0.905903459    0.834620118    0.735989094
    0.755903363    0.884620070    0.888024211
    0.805903554    0.284619927    0.507936299
    0.655903578    0.334620029    0.659971476
    0.505903482    0.384620130    0.812006652
    0.405903578    0.084619932    0.507936299
    0.255903482    0.134619996    0.659971476
    0.105903387    0.184620082    0.812006652
    0.505903482    0.384619951    0.507936299
    0.355903506    0.434620023    0.659971476
    0.205903411    0.484620124    0.812006652
    0.605903625    0.684620023    0.507936299
    0.455903530    0.734620094    0.659971476
    0.305903435    0.784620166    0.812006652
    0.705903530    0.984620094    0.507936299
    0.555903435    0.034620166    0.659971476
    0.405903459    0.084620148    0.812006652
    0.105903506    0.184619948    0.507936299
    0.955903471    0.234620020    0.659971476
    0.805903435    0.284620106    0.812006652
    0.205903530    0.484620005    0.507936299
    0.055903435    0.534620047    0.659971476
    0.905903339    0.584620118    0.812006652
    0.305903554    0.784619927    0.507936299
    0.155903459    0.834619999    0.659971476
    0.005903363    0.884620070    0.812006652
    0.905903578    0.584619880    0.507936299
    0.755903482    0.634620070    0.659971476
    0.605903387    0.684620142    0.812006652
    0.005903482    0.884619951    0.507936299
    0.855903506    0.934620023    0.659971476
    0.705903411    0.984620094    0.812006652
    0.655903578    0.084619910    0.583953917
    0.505903482    0.134620100    0.735989094
    0.355903387    0.184620053    0.888024211
    0.755903602    0.384619951    0.583953917
    0.605903506    0.434620053    0.735989094
    0.455903411    0.484620064    0.888024211
    0.855903625    0.684619904    0.583953917
    0.705903530    0.734619975    0.735989094
    0.555903435    0.784620047    0.888024211
    0.355903625    0.184619933    0.583953917
    0.205903530    0.234620020    0.735989094
    0.055903435    0.284620047    0.888024211
    0.455903649    0.484620005    0.583953917
    0.305903554    0.534620047    0.735989094
    0.155903459    0.584620118    0.888024211
    0.555903554    0.784619927    0.583953917
    0.405903459    0.834619999    0.735989094
    0.255903482    0.884620190    0.888024211
    0.055903554    0.284619957    0.583953917
    0.905903578    0.334620029    0.735989094
    0.755903363    0.384620100    0.888024211
    0.155903578    0.584619999    0.583953917
    0.005903482    0.634620070    0.735989094
    0.855903387    0.684620023    0.888024211
    0.255903482    0.884619951    0.583953917
    0.105903387    0.934620023    0.735989094
    0.955903351    0.984620094    0.888024211
    0.955903530    0.984619975    0.583953917
    0.805903435    0.034620047    0.735989094
    0.655903339    0.084620148    0.888024211
