C+Si
    1.000000000
   13.345744133    0.000000000    0.000000000
    6.672872066   11.557753563    0.000000000
    0.000000408   -0.000000236   17.351549149
C   Si 
308     72
Direct
    0.401211977    0.401212335    0.563733280
    0.734545588    0.734545708    0.089010589
    0.401212335    0.401212394    0.207691237
    0.067878723    0.067878902    0.326371968
    0.734545469    0.734545588    0.445052594
    0.686926365    0.544069409    0.563733280
    0.020259926    0.877402782    0.089010589
    0.686926603    0.544069529    0.207691267
    0.353593051    0.210736036    0.326371968
    0.020259678    0.877402663    0.445052624
    0.544069171    0.972640753    0.563733339
    0.877402782    0.305974215    0.089010574
    0.544069409    0.972640932    0.207691237
    0.210735857    0.639307439    0.326371968
    0.877402544    0.305974066    0.445052624
    0.972640514    0.686926484    0.563733339
    0.305974185    0.020259930    0.089010596
    0.972640872    0.686926603    0.207691267
    0.639307380    0.353593171    0.326371968
    0.305973947    0.020259798    0.445052654
    0.829783320    0.115497887    0.563733280
    0.163117096    0.448831409    0.089010559
    0.829783678    0.115498066    0.207691237
    0.496450305    0.782164693    0.326371938
    0.163116753    0.448831260    0.445052594
    0.258354843    0.829783559    0.563733280
    0.591688514    0.163117111    0.089010559
    0.258355141    0.829783738    0.207691237
    0.925021768    0.496450424    0.326371908
    0.591688216    0.163116992    0.445052594
    0.115497708    0.258355081    0.563733280
    0.448831320    0.591688454    0.089010589
    0.115497999    0.258355170    0.207691237
    0.782164454    0.925021708    0.326371968
    0.448831081    0.591688335    0.445052624
    0.496450186    0.782164693    0.593403399
    0.163117111    0.448831350    0.000000086
    0.829783738    0.115498036    0.118680745
    0.496450245    0.782164633    0.237361446
    0.163116813    0.448831141    0.356042117
    0.829783440    0.115497828    0.474722803
    0.925021648    0.496450424    0.593403399
    0.591688514    0.163117126    0.000000070
    0.258355170    0.829783797    0.118680730
    0.925021708    0.496450424    0.237361431
    0.591688156    0.163116872    0.356042117
    0.258354843    0.829783559    0.474722773
    0.782164454    0.925021768    0.593403399
    0.448831350    0.591688514    0.000000060
    0.115498006    0.258355170    0.118680730
    0.782164574    0.925021768    0.237361431
    0.448831022    0.591688275    0.356042117
    0.115497649    0.258354962    0.474722773
    0.210735798    0.639307499    0.593403399
    0.877402782    0.305974245    0.000000060
    0.544069409    0.972640872    0.118680730
    0.210735977    0.639307499    0.237361431
    0.877402425    0.305974007    0.356042117
    0.544069052    0.972640753    0.474722773
    0.639307261    0.353593349    0.593403339
    0.305974245    0.020259961    0.000000078
    0.972640872    0.686926603    0.118680730
    0.639307380    0.353593230    0.237361446
    0.305973887    0.020259738    0.356042117
    0.972640514    0.686926365    0.474722773
    0.067878783    0.067878902    0.593403339
    0.734545708    0.734545648    0.000000117
    0.401212335    0.401212305    0.118680768
    0.067878902    0.067878895    0.237361446
    0.734545350    0.734545410    0.356042117
    0.401212037    0.401212096    0.474722803
    0.353592873    0.210736096    0.593403339
    0.020260012    0.877402782    0.000000029
    0.686926603    0.544069469    0.118680716
    0.353593290    0.210736170    0.237361357
    0.020259678    0.877402663    0.356042087
    0.686926246    0.544069290    0.474722713
    0.615497708    0.758355141    0.563733280
    0.948831320    0.091688499    0.089010574
    0.615497947    0.758355200    0.207691237
    0.282164454    0.425021708    0.326371968
    0.948831081    0.091688395    0.445052624
    0.044069171    0.472640753    0.563733280
    0.377402753    0.805974245    0.089010559
    0.044069424    0.472640932    0.207691237
    0.710735917    0.139307439    0.326371968
    0.377402544    0.805974126    0.445052624
    0.472640634    0.186926425    0.563733280
    0.805974245    0.520259917    0.089010552
    0.472640812    0.186926574    0.207691252
    0.139307439    0.853593230    0.326371938
    0.805973887    0.520259738    0.445052624
    0.901211977    0.901212215    0.563733280
    0.234545648    0.234545678    0.089010566
    0.901212215    0.901212335    0.207691252
    0.567878842    0.567878962    0.326371938
    0.234545290    0.234545469    0.445052624
    0.329783380    0.615497828    0.563733280
    0.663117111    0.948831439    0.089010537
    0.329783708    0.615498066    0.207691208
    0.996450305    0.282164752    0.326371908
    0.663116813    0.948831320    0.445052534
    0.758354902    0.329783618    0.563733280
    0.091688484    0.663117051    0.089010574
    0.758355141    0.329783797    0.207691237
    0.425021589    0.996450305    0.326371968
    0.091688275    0.663116932    0.445052624
    0.186926365    0.044069350    0.563733339
    0.520259917    0.377402782    0.089010626
    0.186926618    0.044069488    0.207691252
    0.853593051    0.710736036    0.326371968
    0.520259678    0.377402663    0.445052624
    0.567878604    0.567878842    0.593403399
    0.234545678    0.234545663    0.000000052
    0.901212275    0.901212335    0.118680716
    0.567878962    0.567879021    0.237361386
    0.234545350    0.234545469    0.356042087
    0.901211977    0.901212215    0.474722773
    0.425021529    0.996450305    0.593403399
    0.091688558    0.663117051    0.000000047
    0.758355141    0.329783738    0.118680723
    0.425021827    0.996450424    0.237361357
    0.091688216    0.663116932    0.356042087
    0.758354902    0.329783559    0.474722773
    0.853592992    0.710735917    0.593403399
    0.520259976    0.377402812    0.000000047
    0.186926559    0.044069443    0.118680716
    0.853593230    0.710736156    0.237361357
    0.520259619    0.377402604    0.356042087
    0.186926246    0.044069290    0.474722713
    0.282164335    0.425021648    0.593403339
    0.948831379    0.091688514    0.000000047
    0.615497947    0.758355141    0.118680723
    0.282164663    0.425021887    0.237361357
    0.948831081    0.091688335    0.356042087
    0.615497708    0.758355021    0.474722773
    0.710735798    0.139307439    0.593403399
    0.377402842    0.805974245    0.000000042
    0.044069409    0.472640872    0.118680716
    0.710736096    0.139307573    0.237361357
    0.377402484    0.805974066    0.356042087
    0.044069111    0.472640753    0.474722683
    0.139307261    0.853593111    0.593403399
    0.805974305    0.520259917    0.000000083
    0.472640902    0.186926559    0.118680753
    0.139307573    0.853593290    0.237361401
    0.805974007    0.520259738    0.356042087
    0.472640634    0.186926425    0.474722773
    0.996450067    0.282164514    0.593403399
    0.663117111    0.948831320    0.000000068
    0.329783678    0.615497947    0.118680768
    0.996450365    0.282164663    0.237361386
    0.663116813    0.948831141    0.356042117
    0.329783380    0.615497768    0.474722773
    0.544069171    0.472640753    0.563733339
    0.877402782    0.805974245    0.089010589
    0.544069409    0.472640932    0.207691252
    0.210735857    0.139307439    0.326371968
    0.877402544    0.805974126    0.445052624
    0.401212096    0.901212215    0.563733339
    0.734545648    0.234545648    0.089010589
    0.401212275    0.901212335    0.207691252
    0.067878723    0.567878842    0.326371998
    0.734545350    0.234545529    0.445052624
    0.829783440    0.615497947    0.563733339
    0.163117066    0.948831379    0.089010574
    0.829783738    0.615498066    0.207691252
    0.496450186    0.282164574    0.326371968
    0.163116813    0.948831201    0.445052624
    0.686926246    0.044069350    0.563733339
    0.020259935    0.377402902    0.089010537
    0.686926484    0.044069521    0.207691237
    0.353593171    0.710736156    0.326371908
    0.020259619    0.377402782    0.445052594
    0.115497649    0.758355021    0.563733280
    0.448831409    0.091688573    0.089010537
    0.115498006    0.758355200    0.207691237
    0.782164633    0.425021887    0.326371938
    0.448831141    0.091688454    0.445052594
    0.972640514    0.186926544    0.563733280
    0.305974185    0.520259917    0.089010596
    0.972640872    0.186926633    0.207691237
    0.639307320    0.853593171    0.326371968
    0.305973947    0.520259857    0.445052624
    0.258354902    0.329783618    0.563733339
    0.591688454    0.663117051    0.089010589
    0.258355141    0.329783767    0.207691252
    0.925021589    0.996450305    0.326371968
    0.591688275    0.663116932    0.445052624
    0.782164216    0.425021648    0.593403459
    0.448831350    0.091688514    0.000000057
    0.115497947    0.758355141    0.118680730
    0.782164633    0.425021887    0.237361386
    0.448831022    0.091688335    0.356042087
    0.115497649    0.758354902    0.474722803
    0.639307261    0.853593111    0.593403399
    0.305974275    0.520259917    0.000000047
    0.972640872    0.186926559    0.118680723
    0.639307559    0.853593290    0.237361386
    0.305973947    0.520259738    0.356042087
    0.972640634    0.186926365    0.474722773
    0.067878664    0.567878842    0.593403459
    0.734545708    0.234545663    0.000000068
    0.401212305    0.901212275    0.118680730
    0.067878962    0.567879021    0.237361386
    0.734545350    0.234545469    0.356042087
    0.401211977    0.901212096    0.474722773
    0.496450067    0.282164574    0.593403459
    0.163117126    0.948831439    0.000000083
    0.829783738    0.615498066    0.118680753
    0.496450365    0.282164752    0.237361386
    0.163116753    0.948831201    0.356042117
    0.829783440    0.615497947    0.474722773
    0.925021529    0.996450305    0.593403339
    0.591688514    0.663117111    0.000000000
    0.258355111    0.329783708    0.118680693
    0.925021768    0.996450424    0.237361342
    0.591688156    0.663116932    0.356041998
    0.258354783    0.329783618    0.474722683
    0.353592992    0.710735917    0.593403399
    0.020260066    0.377402812    0.000000047
    0.686926663    0.044069428    0.118680716
    0.353593349    0.710736156    0.237361357
    0.020259738    0.377402604    0.356042087
    0.686926365    0.044069290    0.474722773
    0.210735798    0.139307380    0.593403399
    0.877402842    0.805974245    0.000000078
    0.544069409    0.472640872    0.118680730
    0.210736111    0.139307573    0.237361401
    0.877402484    0.805974007    0.356042117
    0.544069171    0.472640693    0.474722773
    0.472640753    0.686926603    0.563733280
    0.805974185    0.020259941    0.089010574
    0.472640872    0.686926603    0.207691252
    0.139307261    0.353593171    0.326371968
    0.805974007    0.020259857    0.445052624
    0.901211977    0.401212215    0.563733280
    0.234545603    0.734545708    0.089010574
    0.901212275    0.401212335    0.207691252
    0.567878723    0.067878902    0.326371968
    0.234545350    0.734545588    0.445052624
    0.758354783    0.829783678    0.563733280
    0.091688506    0.163117155    0.089010552
    0.758355081    0.829783797    0.207691252
    0.425021708    0.496450424    0.326371938
    0.091688156    0.163116992    0.445052624
    0.186926186    0.544069409    0.563733280
    0.520259857    0.877402842    0.089010559
    0.186926484    0.544069409    0.207691252
    0.853593111    0.210736156    0.326371938
    0.520259619    0.877402663    0.445052594
    0.615497708    0.258354962    0.563733280
    0.948831379    0.591688395    0.089010574
    0.615498006    0.258355170    0.207691252
    0.282164454    0.925021648    0.326371968
    0.948831081    0.591688395    0.445052594
    0.044069111    0.972640872    0.563733280
    0.377402753    0.305974215    0.089010566
    0.044069450    0.972640932    0.207691208
    0.710735917    0.639307380    0.326371968
    0.377402544    0.305974126    0.445052594
    0.329783499    0.115497887    0.563733280
    0.663117051    0.448831290    0.089010634
    0.329783708    0.115498021    0.207691267
    0.996450186    0.782164574    0.326371968
    0.663116813    0.448831201    0.445052624
    0.425021768    0.496450424    0.593403339
    0.091688566    0.163117170    0.000000072
    0.758355200    0.829783857    0.118680730
    0.425021768    0.496450424    0.237361446
    0.091688216    0.163116992    0.356042087
    0.758354783    0.829783559    0.474722803
    0.710735917    0.639307499    0.593403399
    0.377402872    0.305974305    0.000000076
    0.044069469    0.972640991    0.118680730
    0.710736036    0.639307559    0.237361446
    0.377402484    0.305974066    0.356042117
    0.044069171    0.972640753    0.474722803
    0.567878842    0.067879021    0.593403399
    0.234545738    0.734545708    0.000000050
    0.901212335    0.401212364    0.118680723
    0.567878902    0.067878962    0.237361431
    0.234545350    0.734545469    0.356042117
    0.901211977    0.401212096    0.474722803
    0.996450186    0.782164693    0.593403339
    0.663117111    0.448831439    0.000000070
    0.329783708    0.115498096    0.118680723
    0.996450245    0.782164693    0.237361431
    0.663116753    0.448831201    0.356042117
    0.329783380    0.115497828    0.474722803
    0.853592992    0.210736096    0.593403339
    0.520259917    0.877402782    0.000000034
    0.186926529    0.544069469    0.118680701
    0.853593111    0.210736051    0.237361386
    0.520259559    0.877402604    0.356042117
    0.186926246    0.544069290    0.474722773
    0.282164335    0.925021768    0.593403399
    0.948831320    0.591688454    0.000000066
    0.615498006    0.258355141    0.118680753
    0.282164514    0.925021768    0.237361446
    0.948830962    0.591688275    0.356042117
    0.615497589    0.258354962    0.474722803
    0.139307320    0.353593349    0.593403459
    0.805974245    0.020260081    0.000000101
    0.472640902    0.686926723    0.118680753
    0.139307454    0.353593349    0.237361446
    0.805973887    0.020259798    0.356042147
    0.472640514    0.686926484    0.474722803
    0.000000000    0.318506181    0.954822361
    0.000000000    0.985172927    0.593403459
    0.000000000    0.651839554    0.774112940
    0.333333343    0.651839614    0.954822361
    0.333333343    0.318506300    0.593403459
    0.333333343    0.985172868    0.774112940
    0.666666687    0.985172927    0.954822361
    0.666666687    0.651839614    0.593403459
    0.666666687    0.318506241    0.774112940
    0.333333343    0.318506062    0.999999940
    0.333333343    0.985172868    0.638580859
    0.333333343    0.651839495    0.819290280
    0.000000000    0.985172808    0.999999940
    0.000000000    0.651839614    0.638580859
    0.000000000    0.318506271    0.819290280
    0.666666746    0.651839375    0.999999940
    0.666666746    0.318506211    0.638580918
    0.666666746    0.985172868    0.819290280
    0.500000000    0.318506241    0.954822361
    0.500000000    0.985172927    0.593403459
    0.500000000    0.651839554    0.774112940
    0.166666672    0.985172927    0.954822361
    0.166666672    0.651839674    0.593403459
    0.166666672    0.318506241    0.774112940
    0.833333373    0.651839614    0.954822361
    0.833333373    0.318506300    0.593403459
    0.833333373    0.985172927    0.774112940
    0.166666657    0.651839554    0.999999821
    0.166666657    0.318506300    0.638580859
    0.166666657    0.985172868    0.819290280
    0.833333433    0.318506181    0.999999821
    0.833333433    0.985172927    0.638580859
    0.833333433    0.651839495    0.819290280
    0.500000060    0.985172868    0.999999821
    0.500000060    0.651839614    0.638580859
    0.500000060    0.318506211    0.819290280
    0.166666672    0.485172927    0.954822361
    0.166666672    0.151839614    0.593403459
    0.166666672    0.818506241    0.774112940
    0.500000000    0.818506241    0.954822361
    0.500000000    0.485172987    0.593403459
    0.500000000    0.151839584    0.774112940
    0.833333373    0.151839629    0.954822361
    0.833333373    0.818506360    0.593403459
    0.833333373    0.485173017    0.774112940
    0.500000000    0.485172868    0.999999821
    0.500000000    0.151839614    0.638580859
    0.500000000    0.818506241    0.819290280
    0.166666672    0.151839569    0.999999821
    0.166666672    0.818506360    0.638580859
    0.166666672    0.485172927    0.819290280
    0.833333373    0.818506181    0.999999821
    0.833333373    0.485172927    0.638580859
    0.833333373    0.151839525    0.819290280
    0.000000000    0.818506241    0.954822361
    0.000000000    0.485172957    0.593403459
    0.000000000    0.151839554    0.774112940
    0.666666687    0.485172868    0.954822361
    0.666666687    0.151839599    0.593403459
    0.666666687    0.818506181    0.774112940
    0.333333313    0.151839495    0.954822361
    0.333333313    0.818506241    0.593403459
    0.333333313    0.485172868    0.774112940
    0.000000000    0.485172808    0.999999940
    0.000000000    0.151839659    0.638580859
    0.000000000    0.818506300    0.819290280
    0.333333343    0.818506122    0.999999940
    0.333333343    0.485172957    0.638580859
    0.333333343    0.151839599    0.819290280
    0.666666687    0.151839525    0.999999821
    0.666666687    0.818506300    0.638580859
    0.666666687    0.485172957    0.819290280
