fcc Si+fcc Ge
    1.000000000
   16.440000000    0.000000000    0.000000000
    0.000000000   16.440000000    0.000000000
    0.000000000    0.000000000   25.400000000
Si    Ge   
108     176
Direct
    0.000000000    0.000000000    0.000000000
    0.833333333    0.000000000    0.107874016
    0.666666667    0.000000000    0.215748031
    0.000000000    0.333333333    0.000000000
    0.833333333    0.333333333    0.107874016
    0.666666667    0.333333333    0.215748031
    0.000000000    0.666666667    0.000000000
    0.833333333    0.666666667    0.107874016
    0.666666667    0.666666667    0.215748031
    0.333333333    0.000000000    0.000000000
    0.166666667    0.000000000    0.107874016
    0.000000000    0.000000000    0.215748031
    0.333333333    0.333333333    0.000000000
    0.166666667    0.333333333    0.107874016
    0.000000000    0.333333333    0.215748031
    0.333333333    0.666666667    0.000000000
    0.166666667    0.666666667    0.107874016
    0.000000000    0.666666667    0.215748031
    0.666666667    0.000000000    0.000000000
    0.500000000    0.000000000    0.107874016
    0.333333333    0.000000000    0.215748031
    0.666666667    0.333333333    0.000000000
    0.500000000    0.333333333    0.107874016
    0.333333333    0.333333333    0.215748031
    0.666666667    0.666666667    0.000000000
    0.500000000    0.666666667    0.107874016
    0.333333333    0.666666667    0.215748031
    0.166666667    0.166666667    0.000000000
    0.000000000    0.166666667    0.107874016
    0.833333333    0.166666667    0.215748031
    0.166666667    0.500000000    0.000000000
    0.000000000    0.500000000    0.107874016
    0.833333333    0.500000000    0.215748031
    0.166666667    0.833333333    0.000000000
    0.000000000    0.833333333    0.107874016
    0.833333333    0.833333333    0.215748031
    0.500000000    0.166666667    0.000000000
    0.333333333    0.166666667    0.107874016
    0.166666667    0.166666667    0.215748031
    0.500000000    0.500000000    0.000000000
    0.333333333    0.500000000    0.107874016
    0.166666667    0.500000000    0.215748031
    0.500000000    0.833333333    0.000000000
    0.333333333    0.833333333    0.107874016
    0.166666667    0.833333333    0.215748031
    0.833333333    0.166666667    0.000000000
    0.666666667    0.166666667    0.107874016
    0.500000000    0.166666667    0.215748031
    0.833333333    0.500000000    0.000000000
    0.666666667    0.500000000    0.107874016
    0.500000000    0.500000000    0.215748031
    0.833333333    0.833333333    0.000000000
    0.666666667    0.833333333    0.107874016
    0.500000000    0.833333333    0.215748031
    0.083333333    0.083333333    0.053937008
    0.916666667    0.083333333    0.161811024
    0.750000000    0.083333333    0.269685039
    0.083333333    0.416666667    0.053937008
    0.916666667    0.416666667    0.161811024
    0.750000000    0.416666667    0.269685039
    0.083333333    0.750000000    0.053937008
    0.916666667    0.750000000    0.161811024
    0.750000000    0.750000000    0.269685039
    0.416666667    0.083333333    0.053937008
    0.250000000    0.083333333    0.161811024
    0.083333333    0.083333333    0.269685039
    0.416666667    0.416666667    0.053937008
    0.250000000    0.416666667    0.161811024
    0.083333333    0.416666667    0.269685039
    0.416666667    0.750000000    0.053937008
    0.250000000    0.750000000    0.161811024
    0.083333333    0.750000000    0.269685039
    0.750000000    0.083333333    0.053937008
    0.583333333    0.083333333    0.161811024
    0.416666667    0.083333333    0.269685039
    0.750000000    0.416666667    0.053937008
    0.583333333    0.416666667    0.161811024
    0.416666667    0.416666667    0.269685039
    0.750000000    0.750000000    0.053937008
    0.583333333    0.750000000    0.161811024
    0.416666667    0.750000000    0.269685039
    0.250000000    0.250000000    0.053937008
    0.083333333    0.250000000    0.161811024
    0.916666667    0.250000000    0.269685039
    0.250000000    0.583333333    0.053937008
    0.083333333    0.583333333    0.161811024
    0.916666667    0.583333333    0.269685039
    0.250000000    0.916666667    0.053937008
    0.083333333    0.916666667    0.161811024
    0.916666667    0.916666667    0.269685039
    0.583333333    0.250000000    0.053937008
    0.416666667    0.250000000    0.161811024
    0.250000000    0.250000000    0.269685039
    0.583333333    0.583333333    0.053937008
    0.416666667    0.583333333    0.161811024
    0.250000000    0.583333333    0.269685039
    0.583333333    0.916666667    0.053937008
    0.416666667    0.916666667    0.161811024
    0.250000000    0.916666667    0.269685039
    0.916666667    0.250000000    0.053937008
    0.750000000    0.250000000    0.161811024
    0.583333333    0.250000000    0.269685039
    0.916666667    0.583333333    0.053937008
    0.750000000    0.583333333    0.161811024
    0.583333333    0.583333333    0.269685039
    0.916666667    0.916666667    0.053937008
    0.750000000    0.916666667    0.161811024
    0.583333333    0.916666667    0.269685039
    0.379217791    0.502684049    0.412007874
    0.254217791    0.127684049    0.523425197
    0.129217791    0.752684049    0.634842520
    0.004217791    0.377684049    0.746259843
    0.879217791    0.002684049    0.857677165
    0.629217791    0.752684049    0.412007874
    0.504217791    0.377684049    0.523425197
    0.379217791    0.002684049    0.634842520
    0.254217791    0.627684049    0.746259843
    0.129217791    0.252684049    0.857677165
    0.379217791    0.002684049    0.412007874
    0.254217791    0.627684049    0.523425197
    0.129217791    0.252684049    0.634842520
    0.004217791    0.877684049    0.746259843
    0.879217791    0.502684049    0.857677165
    0.629217791    0.252684049    0.412007874
    0.504217791    0.877684049    0.523425197
    0.379217791    0.502684049    0.634842520
    0.254217791    0.127684049    0.746259843
    0.129217791    0.752684049    0.857677165
    0.879217791    0.502684049    0.412007874
    0.754217791    0.127684049    0.523425197
    0.629217791    0.752684049    0.634842520
    0.504217791    0.377684049    0.746259843
    0.379217791    0.002684049    0.857677165
    0.129217791    0.752684049    0.412007874
    0.004217791    0.377684049    0.523425197
    0.879217791    0.002684049    0.634842520
    0.754217791    0.627684049    0.746259843
    0.629217791    0.252684049    0.857677165
    0.879217791    0.002684049    0.412007874
    0.754217791    0.627684049    0.523425197
    0.629217791    0.252684049    0.634842520
    0.504217791    0.877684049    0.746259843
    0.379217791    0.502684049    0.857677165
    0.129217791    0.252684049    0.412007874
    0.004217791    0.877684049    0.523425197
    0.879217791    0.502684049    0.634842520
    0.754217791    0.127684049    0.746259843
    0.629217791    0.752684049    0.857677165
    0.379217791    0.752684049    0.412007874
    0.254217791    0.377684049    0.523425197
    0.129217791    0.002684049    0.634842520
    0.004217791    0.627684049    0.746259843
    0.879217791    0.252684049    0.857677165
    0.379217791    0.252684049    0.412007874
    0.254217791    0.877684049    0.523425197
    0.129217791    0.502684049    0.634842520
    0.004217791    0.127684049    0.746259843
    0.879217791    0.752684049    0.857677165
    0.629217791    0.502684049    0.412007874
    0.504217791    0.127684049    0.523425197
    0.379217791    0.752684049    0.634842520
    0.254217791    0.377684049    0.746259843
    0.129217791    0.002684049    0.857677165
    0.879217791    0.752684049    0.412007874
    0.754217791    0.377684049    0.523425197
    0.629217791    0.002684049    0.634842520
    0.504217791    0.627684049    0.746259843
    0.379217791    0.252684049    0.857677165
    0.629217791    0.002684049    0.412007874
    0.504217791    0.627684049    0.523425197
    0.379217791    0.252684049    0.634842520
    0.254217791    0.877684049    0.746259843
    0.129217791    0.502684049    0.857677165
    0.879217791    0.252684049    0.412007874
    0.754217791    0.877684049    0.523425197
    0.629217791    0.502684049    0.634842520
    0.504217791    0.127684049    0.746259843
    0.379217791    0.752684049    0.857677165
    0.129217791    0.502684049    0.412007874
    0.004217791    0.127684049    0.523425197
    0.879217791    0.752684049    0.634842520
    0.754217791    0.377684049    0.746259843
    0.629217791    0.002684049    0.857677165
    0.129217791    0.002684049    0.412007874
    0.004217791    0.627684049    0.523425197
    0.879217791    0.252684049    0.634842520
    0.754217791    0.877684049    0.746259843
    0.629217791    0.502684049    0.857677165
    0.629217791    0.877684049    0.356299213
    0.504217791    0.502684049    0.467716535
    0.379217791    0.127684049    0.579133858
    0.254217791    0.752684049    0.690551181
    0.129217791    0.377684049    0.801968504
    0.004217791    0.002684049    0.913385827
    0.879217791    0.127684049    0.356299213
    0.754217791    0.752684049    0.467716535
    0.629217791    0.377684049    0.579133858
    0.504217791    0.002684049    0.690551181
    0.379217791    0.627684049    0.801968504
    0.254217791    0.252684049    0.913385827
    0.629217791    0.377684049    0.356299213
    0.504217791    0.002684049    0.467716535
    0.379217791    0.627684049    0.579133858
    0.254217791    0.252684049    0.690551181
    0.129217791    0.877684049    0.801968504
    0.004217791    0.502684049    0.913385827
    0.879217791    0.627684049    0.356299213
    0.754217791    0.252684049    0.467716535
    0.629217791    0.877684049    0.579133858
    0.504217791    0.502684049    0.690551181
    0.379217791    0.127684049    0.801968504
    0.254217791    0.752684049    0.913385827
    0.129217791    0.877684049    0.356299213
    0.004217791    0.502684049    0.467716535
    0.879217791    0.127684049    0.579133858
    0.754217791    0.752684049    0.690551181
    0.629217791    0.377684049    0.801968504
    0.504217791    0.002684049    0.913385827
    0.379217791    0.127684049    0.356299213
    0.254217791    0.752684049    0.467716535
    0.129217791    0.377684049    0.579133858
    0.004217791    0.002684049    0.690551181
    0.879217791    0.627684049    0.801968504
    0.754217791    0.252684049    0.913385827
    0.129217791    0.377684049    0.356299213
    0.004217791    0.002684049    0.467716535
    0.879217791    0.627684049    0.579133858
    0.754217791    0.252684049    0.690551181
    0.629217791    0.877684049    0.801968504
    0.504217791    0.502684049    0.913385827
    0.379217791    0.627684049    0.356299213
    0.254217791    0.252684049    0.467716535
    0.129217791    0.877684049    0.579133858
    0.004217791    0.502684049    0.690551181
    0.879217791    0.127684049    0.801968504
    0.754217791    0.752684049    0.913385827
    0.629217791    0.127684049    0.356299213
    0.504217791    0.752684049    0.467716535
    0.379217791    0.377684049    0.579133858
    0.254217791    0.002684049    0.690551181
    0.129217791    0.627684049    0.801968504
    0.004217791    0.252684049    0.913385827
    0.629217791    0.627684049    0.356299213
    0.504217791    0.252684049    0.467716535
    0.379217791    0.877684049    0.579133858
    0.254217791    0.502684049    0.690551181
    0.129217791    0.127684049    0.801968504
    0.004217791    0.752684049    0.913385827
    0.879217791    0.877684049    0.356299213
    0.754217791    0.502684049    0.467716535
    0.629217791    0.127684049    0.579133858
    0.504217791    0.752684049    0.690551181
    0.379217791    0.377684049    0.801968504
    0.254217791    0.002684049    0.913385827
    0.129217791    0.127684049    0.356299213
    0.004217791    0.752684049    0.467716535
    0.879217791    0.377684049    0.579133858
    0.754217791    0.002684049    0.690551181
    0.629217791    0.627684049    0.801968504
    0.504217791    0.252684049    0.913385827
    0.879217791    0.377684049    0.356299213
    0.754217791    0.002684049    0.467716535
    0.629217791    0.627684049    0.579133858
    0.504217791    0.252684049    0.690551181
    0.379217791    0.877684049    0.801968504
    0.254217791    0.502684049    0.913385827
    0.129217791    0.627684049    0.356299213
    0.004217791    0.252684049    0.467716535
    0.879217791    0.877684049    0.579133858
    0.754217791    0.502684049    0.690551181
    0.629217791    0.127684049    0.801968504
    0.504217791    0.752684049    0.913385827
    0.379217791    0.877684049    0.356299213
    0.254217791    0.502684049    0.467716535
    0.129217791    0.127684049    0.579133858
    0.004217791    0.752684049    0.690551181
    0.879217791    0.377684049    0.801968504
    0.754217791    0.002684049    0.913385827
    0.379217791    0.377684049    0.356299213
    0.254217791    0.002684049    0.467716535
    0.129217791    0.627684049    0.579133858
    0.004217791    0.252684049    0.690551181
    0.879217791    0.877684049    0.801968504
    0.754217791    0.502684049    0.913385827
