Ge+Ge
    1.000000000
   17.891534805    0.000000000    0.000000000
  -16.102380753    7.798739433    0.000000000
    0.000000316   -0.000000073   15.428396225
Ge 
96
Direct
    0.550903141    0.612018108    0.499999911
    0.022813324    0.977186680    0.000000009
    0.180708155    0.819291830    0.084129885
    0.338602990    0.661396980    0.168259770
    0.496497810    0.503502190    0.252389640
    0.654392600    0.345607400    0.336519539
    0.840377212    0.822544336    0.521032691
    0.312287062    0.687712908    0.021032497
    0.470181882    0.529818058    0.105162360
    0.628076732    0.371923268    0.189292267
    0.785971582    0.214028403    0.273422152
    0.340376943    0.822544336    0.521032453
    0.366692841    0.296228409    0.668259740
    0.522813261    0.477186650    0.000000000
    0.680708110    0.319291830    0.084129877
    0.838602960    0.161397010    0.168259740
    0.996497810    0.003502154    0.252389610
    0.154392600    0.845607400    0.336519539
    0.340376943    0.822544336    0.521032453
    0.812287092    0.187712908    0.021032648
    0.970181823    0.029818127    0.105162479
    0.128076673    0.871923268    0.189292416
    0.285971522    0.714028358    0.273422271
    0.443866372    0.556133628    0.357552141
    0.156166792    0.506754637    0.689292312
    0.522813261    0.977186680    0.000000010
    0.680708110    0.819291890    0.084129877
    0.838602960    0.661397040    0.168259740
    0.840377212    0.822544336    0.521032691
    0.154392600    0.345607400    0.336519539
    0.050903276    0.612018108    0.499999911
    0.812287271    0.687712848    0.021032622
    0.970182121    0.529818058    0.105162501
    0.128076911    0.371923238    0.189292341
    0.285971761    0.214028388    0.273422271
    0.443866730    0.056133520    0.357552111
    0.656166494    0.006754637    0.689292431
    0.022813387    0.477186650    0.000000013
    0.180708200    0.319291830    0.084129870
    0.338603050    0.161396980    0.168259770
    0.340376943    0.322544336    0.521032691
    0.654392660    0.845607340    0.336519539
    0.550903141    0.112018108    0.499999911
    0.312287062    0.187712878    0.021032635
    0.470181882    0.029818086    0.105162501
    0.628076732    0.871923268    0.189292401
    0.840376914    0.322544396    0.521032691
    0.943866372    0.556133509    0.357552141
    0.840377092    0.322544008    0.920649409
    0.312287450    0.187712491    0.420649439
    0.812287450    0.187712550    0.420649409
    0.366692781    0.796228409    0.668259740
    0.524587572    0.638333559    0.752389550
    0.682482362    0.480438739    0.836519480
    0.129850864    0.033070207    0.941681862
    0.601761222    0.398238838    0.441682011
    0.498271704    0.664649606    0.605162263
    0.656166494    0.506754637    0.689292192
    0.814061344    0.348859847    0.773422122
    0.971956134    0.190964952    0.857552052
    0.340376973    0.822543979    0.920649409
    0.812287450    0.187712550    0.420649409
    0.708797932    0.454123288    0.584129810
    0.866692722    0.296228409    0.668259740
    0.024587512    0.138333589    0.752389550
    0.182482243    0.980438709    0.836519480
    0.629850864    0.533070207    0.941681981
    0.785971522    0.714028418    0.273422271
    0.998271644    0.164649531    0.605162501
    0.156166553    0.006754756    0.689292312
    0.314061284    0.848859906    0.773422360
    0.471956134    0.690964937    0.857552052
    0.840377152    0.822543859    0.920649290
    0.601761460    0.898238719    0.441681981
    0.208798051    0.454123259    0.584129810
    0.312287331    0.687712610    0.420649379
    0.524587631    0.138333589    0.752389550
    0.682482421    0.980438709    0.836519480
    0.129850864    0.533070087    0.941681981
    0.496497840    0.003502190    0.252389610
    0.498271734    0.164649531    0.605162501
    0.812287509    0.687712491    0.420649409
    0.814061284    0.848859906    0.773422122
    0.971956074    0.690964937    0.857552052
    0.340377092    0.322543949    0.920649290
    0.101761222    0.398238778    0.441682011
    0.708797932    0.954123259    0.584129810
    0.866692722    0.796228409    0.668259740
    0.024587512    0.638333678    0.752389550
    0.182482243    0.480438799    0.836519480
    0.629851103    0.033070087    0.941681981
    0.996497750    0.503502250    0.252389610
    0.998271942    0.664649487    0.605162501
    0.312287450    0.187712491    0.420649439
    0.314061522    0.348859817    0.773422122
    0.471956372    0.190964922    0.857552052
