Si+C
    1.000000000
   13.303179741    0.000000000    0.000000000
    6.651589394   11.520891190    0.000000000
    0.000000000    0.000000000   21.679416656
Si  C  
72     308
Direct
    0.000000000    0.318506181    0.289268821
    0.000000000    0.985172927    0.000000014
    0.000000000    0.651839554    0.144634426
    0.333333343    0.651839614    0.289268792
    0.333333343    0.318506300    0.000000009
    0.333333343    0.985172868    0.144634411
    0.666666687    0.985172927    0.289268792
    0.666666687    0.651839614    0.000000006
    0.666666687    0.318506241    0.144634411
    0.333333343    0.318506062    0.325427473
    0.333333343    0.985172868    0.036158625
    0.333333343    0.651839495    0.180793017
    1.000000000    0.985172808    0.325427473
    1.000000000    0.651839614    0.036158621
    1.000000000    0.318506271    0.180793017
    0.666666746    0.651839375    0.325427473
    0.666666746    0.318506211    0.036158632
    0.666666746    0.985172868    0.180793017
    0.500000000    0.318506241    0.289268792
    0.500000000    0.985172927    0.000000010
    0.500000000    0.651839554    0.144634411
    0.166666672    0.985172927    0.289268792
    0.166666672    0.651839674    0.000000001
    0.166666672    0.318506241    0.144634411
    0.833333373    0.651839614    0.289268792
    0.833333373    0.318506300    0.000000001
    0.833333373    0.985172927    0.144634411
    0.166666657    0.651839554    0.325427383
    0.166666657    0.318506300    0.036158580
    0.166666657    0.985172868    0.180792972
    0.833333433    0.318506181    0.325427413
    0.833333433    0.985172927    0.036158595
    0.833333433    0.651839495    0.180792987
    0.500000060    0.985172868    0.325427413
    0.500000060    0.651839614    0.036158599
    0.500000060    0.318506211    0.180793017
    0.166666672    0.485172927    0.289268792
    0.166666672    0.151839614    0.000000010
    0.166666672    0.818506241    0.144634411
    0.500000000    0.818506241    0.289268821
    0.500000000    0.485172987    0.000000016
    0.500000000    0.151839584    0.144634426
    0.833333373    0.151839629    0.289268792
    0.833333373    0.818506360    0.000000000
    0.833333373    0.485173017    0.144634381
    0.500000000    0.485172868    0.325427413
    0.500000000    0.151839614    0.036158595
    0.500000000    0.818506241    0.180792987
    0.166666672    0.151839569    0.325427383
    0.166666672    0.818506360    0.036158573
    0.166666672    0.485172927    0.180792972
    0.833333373    0.818506181    0.325427383
    0.833333373    0.485172927    0.036158573
    0.833333373    0.151839525    0.180792972
    0.000000000    0.818506241    0.289268792
    0.000000000    0.485172957    0.000000009
    0.000000000    0.151839554    0.144634411
    0.666666687    0.485172868    0.289268792
    0.666666687    0.151839599    0.000000009
    0.666666687    0.818506181    0.144634411
    0.333333313    0.151839495    0.289268792
    0.333333313    0.818506241    0.000000002
    0.333333313    0.485172868    0.144634381
    0.000000000    0.485172808    0.325427473
    0.000000000    0.151839659    0.036158618
    0.000000000    0.818506300    0.180793017
    0.333333343    0.818506122    0.325427473
    0.333333343    0.485172957    0.036158621
    0.333333343    0.151839599    0.180793017
    0.666666687    0.151839525    0.325427443
    0.666666687    0.818506300    0.036158618
    0.666666687    0.485172957    0.180792987
    0.590605915    0.537575960    0.876437724
    0.923939526    0.870909333    0.496484071
    0.590606272    0.537576020    0.591472447
    0.257272661    0.204242542    0.686460912
    0.923939407    0.870909214    0.781449258
    0.876320302    0.680433035    0.876437724
    0.209653869    0.013766408    0.496484071
    0.876320541    0.680433154    0.591472447
    0.542986989    0.347099662    0.686460912
    0.209653616    0.013766289    0.781449258
    0.733463109    0.109004378    0.876437783
    0.066796780    0.442337871    0.496484041
    0.733463347    0.109004617    0.591472447
    0.400129795    0.775671065    0.686460912
    0.066796541    0.442337692    0.781449258
    0.162034512    0.823290110    0.876437783
    0.495368123    0.156623572    0.496484071
    0.162034750    0.823290229    0.591472447
    0.828701317    0.489956796    0.686460912
    0.495367885    0.156623438    0.781449258
    0.019177198    0.251861513    0.876437724
    0.352511048    0.585195065    0.496484011
    0.019177675    0.251861691    0.591472447
    0.685844243    0.918528318    0.686460853
    0.352510691    0.585194886    0.781449258
    0.447748780    0.966147184    0.876437724
    0.781082451    0.299480736    0.496484011
    0.447749078    0.966147363    0.591472447
    0.114415646    0.632814050    0.686460793
    0.781082153    0.299480617    0.781449258
    0.304891646    0.394718707    0.876437724
    0.638225257    0.728052080    0.496484071
    0.304891944    0.394718826    0.591472447
    0.971558392    0.061385393    0.686460912
    0.638225019    0.728051960    0.781449258
    0.685844123    0.918528318    0.900184751
    0.352511048    0.585195005    0.425242722
    0.019177675    0.251861691    0.520231128
    0.685844183    0.918528259    0.615219593
    0.352510750    0.585194767    0.710207999
    0.019177437    0.251861453    0.805196404
    0.114415646    0.632814050    0.900184751
    0.781082451    0.299480766    0.425242722
    0.447749108    0.966147423    0.520231128
    0.114415646    0.632814050    0.615219533
    0.781082094    0.299480498    0.710207999
    0.447748780    0.966147184    0.805196404
    0.971558392    0.061385393    0.900184751
    0.638225317    0.728052139    0.425242722
    0.304891944    0.394718826    0.520231128
    0.971558511    0.061385393    0.615219533
    0.638224959    0.728051901    0.710207999
    0.304891586    0.394718587    0.805196404
    0.400129735    0.775671124    0.900184751
    0.066796780    0.442337871    0.425242722
    0.733463347    0.109004498    0.520231128
    0.400129914    0.775671124    0.615219533
    0.066796303    0.442337632    0.710207999
    0.733462989    0.109004378    0.805196404
    0.828701198    0.489956975    0.900184751
    0.495368183    0.156623602    0.425242722
    0.162034750    0.823290229    0.520231128
    0.828701317    0.489956856    0.615219593
    0.495367825    0.156623378    0.710207999
    0.162034512    0.823289990    0.805196404
    0.257272720    0.204242542    0.900184751
    0.923939645    0.870909274    0.425242752
    0.590606272    0.537575960    0.520231128
    0.257272840    0.204242527    0.615219593
    0.923939288    0.870909035    0.710207999
    0.590605974    0.537575722    0.805196404
    0.542986810    0.347099721    0.900184751
    0.209653944    0.013766408    0.425242692
    0.876320541    0.680433095    0.520231068
    0.542987227    0.347099811    0.615219533
    0.209653616    0.013766289    0.710207939
    0.876320183    0.680432916    0.805196404
    0.804891646    0.894718766    0.876437724
    0.138225317    0.228052139    0.496484041
    0.804891884    0.894718826    0.591472447
    0.471558392    0.561385334    0.686460912
    0.138225079    0.228052035    0.781449258
    0.233463109    0.609004378    0.876437724
    0.566796660    0.942337871    0.496484011
    0.233463362    0.609004557    0.591472447
    0.900129855    0.275671065    0.686460912
    0.566796482    0.942337751    0.781449258
    0.662034571    0.323290050    0.876437724
    0.995368183    0.656623542    0.496484011
    0.662034750    0.323290229    0.591472447
    0.328701377    0.989956856    0.686460853
    0.995367825    0.656623363    0.781449258
    0.090605974    0.037575841    0.876437724
    0.423939586    0.370909333    0.496484041
    0.090606213    0.037575960    0.591472447
    0.757272780    0.704242587    0.686460853
    0.423939228    0.370909095    0.781449258
    0.519177318    0.751861453    0.876437724
    0.852511048    0.085195065    0.496484011
    0.519177675    0.751861691    0.591472447
    0.185844183    0.418528378    0.686460793
    0.852510750    0.085194945    0.781449199
    0.947748840    0.466147244    0.876437724
    0.281082422    0.799480677    0.496484041
    0.947749078    0.466147423    0.591472447
    0.614415526    0.132813931    0.686460912
    0.281082213    0.799480557    0.781449258
    0.376320302    0.180432990    0.876437783
    0.709653854    0.513766408    0.496484071
    0.376320541    0.180433124    0.591472447
    0.042986989    0.847099662    0.686460912
    0.709653616    0.513766289    0.781449258
    0.757272542    0.704242468    0.900184751
    0.423939615    0.370909303    0.425242692
    0.090606213    0.037575960    0.520231068
    0.757272899    0.704242647    0.615219533
    0.423939288    0.370909095    0.710207939
    0.090605974    0.037575841    0.805196404
    0.614415467    0.132813931    0.900184751
    0.281082511    0.799480677    0.425242692
    0.947749078    0.466147363    0.520231068
    0.614415765    0.132814050    0.615219533
    0.281082153    0.799480557    0.710207939
    0.947748840    0.466147184    0.805196404
    0.042986870    0.847099543    0.900184751
    0.709653914    0.513766468    0.425242692
    0.376320481    0.180433080    0.520231068
    0.042987108    0.847099781    0.615219533
    0.709653556    0.513766229    0.710207939
    0.376320183    0.180432931    0.805196404
    0.471558273    0.561385274    0.900184751
    0.138225317    0.228052154    0.425242692
    0.804891884    0.894718766    0.520231068
    0.471558601    0.561385512    0.615219533
    0.138225079    0.228051975    0.710207939
    0.804891646    0.894718647    0.805196404
    0.900129735    0.275671065    0.900184751
    0.566796780    0.942337871    0.425242692
    0.233463347    0.609004498    0.520231068
    0.900130033    0.275671214    0.615219533
    0.566796422    0.942337692    0.710207939
    0.233463049    0.609004378    0.805196345
    0.328701198    0.989956737    0.900184751
    0.995368242    0.656623542    0.425242722
    0.662034869    0.323290199    0.520231128
    0.328701496    0.989956915    0.615219533
    0.995367944    0.656623363    0.710207939
    0.662034571    0.323290050    0.805196404
    0.185843945    0.418528140    0.900184751
    0.852511048    0.085194945    0.425242722
    0.519177616    0.751861572    0.520231128
    0.185844302    0.418528318    0.615219533
    0.852510750    0.085194826    0.710207999
    0.519177318    0.751861393    0.805196404
    0.733463109    0.609004378    0.876437783
    0.066796780    0.942337871    0.496484071
    0.733463347    0.609004557    0.591472447
    0.400129795    0.275671065    0.686460912
    0.066796541    0.942337751    0.781449258
    0.590606034    0.037575841    0.876437783
    0.923939586    0.370909274    0.496484071
    0.590606213    0.037575960    0.591472447
    0.257272661    0.704242468    0.686460912
    0.923939288    0.370909154    0.781449258
    0.019177437    0.751861572    0.876437783
    0.352510989    0.085195065    0.496484041
    0.019177675    0.751861691    0.591472447
    0.685844123    0.418528199    0.686460912
    0.352510750    0.085194826    0.781449258
    0.876320183    0.180432990    0.876437783
    0.209653869    0.513766527    0.496484011
    0.876320422    0.180433154    0.591472447
    0.542987108    0.847099781    0.686460793
    0.209653556    0.513766408    0.781449258
    0.304891586    0.894718647    0.876437724
    0.638225317    0.228052214    0.496484011
    0.304891944    0.894718826    0.591472447
    0.971558571    0.561385512    0.686460853
    0.638225079    0.228052095    0.781449258
    0.162034512    0.323290169    0.876437724
    0.495368123    0.656623542    0.496484071
    0.162034750    0.323290288    0.591472447
    0.828701258    0.989956796    0.686460912
    0.495367885    0.656623483    0.781449258
    0.447748840    0.466147244    0.876437783
    0.781082392    0.799480677    0.496484071
    0.447749078    0.466147423    0.591472447
    0.114415526    0.132813931    0.686460912
    0.781082213    0.799480557    0.781449258
    0.971558154    0.561385274    0.900184751
    0.638225317    0.228052154    0.425242722
    0.304891884    0.894718766    0.520231128
    0.971558571    0.561385512    0.615219533
    0.638224959    0.228051975    0.710207939
    0.304891586    0.894718528    0.805196404
    0.828701198    0.989956737    0.900184751
    0.495368212    0.656623542    0.425242692
    0.162034750    0.323290199    0.520231068
    0.828701496    0.989956915    0.615219533
    0.495367885    0.656623363    0.710207939
    0.162034512    0.323289990    0.805196404
    0.257272601    0.704242468    0.900184751
    0.923939645    0.370909303    0.425242722
    0.590606213    0.037575960    0.520231128
    0.257272899    0.704242647    0.615219533
    0.923939288    0.370909095    0.710207939
    0.590605915    0.037575722    0.805196404
    0.685844004    0.418528199    0.900184751
    0.352511048    0.085195065    0.425242722
    0.019177675    0.751861691    0.520231128
    0.685844302    0.418528378    0.615219533
    0.352510691    0.085194826    0.710207999
    0.019177437    0.751861572    0.805196404
    0.114415407    0.132813931    0.900184751
    0.781082451    0.799480736    0.425242662
    0.447749048    0.466147363    0.520231068
    0.114415646    0.132814050    0.615219533
    0.781082094    0.799480557    0.710207880
    0.447748721    0.466147244    0.805196345
    0.542986929    0.847099543    0.900184751
    0.209654003    0.513766468    0.425242692
    0.876320601    0.180433065    0.520231068
    0.542987287    0.847099781    0.615219533
    0.209653676    0.513766229    0.710207939
    0.876320302    0.180432931    0.805196404
    0.400129735    0.275671005    0.900184751
    0.066796780    0.942337871    0.425242722
    0.733463347    0.609004498    0.520231128
    0.400130033    0.275671214    0.615219533
    0.066796422    0.942337632    0.710207999
    0.733463109    0.609004319    0.805196404
    0.662034690    0.823290229    0.876437724
    0.995368123    0.156623587    0.496484041
    0.662034810    0.823290229    0.591472447
    0.328701198    0.489956796    0.686460912
    0.995367944    0.156623498    0.781449258
    0.090605974    0.537575841    0.876437724
    0.423939526    0.870909333    0.496484041
    0.090606213    0.537575960    0.591472447
    0.757272661    0.204242542    0.686460912
    0.423939288    0.870909214    0.781449258
    0.947748721    0.966147304    0.876437724
    0.281082451    0.299480796    0.496484011
    0.947749019    0.966147423    0.591472447
    0.614415646    0.632814050    0.686460853
    0.281082094    0.299480617    0.781449258
    0.376320124    0.680433035    0.876437724
    0.709653795    0.013766527    0.496484011
    0.376320422    0.680433035    0.591472447
    0.042987108    0.347099781    0.686460853
    0.709653556    0.013766289    0.781449258
    0.804891646    0.394718587    0.876437724
    0.138225317    0.728052020    0.496484041
    0.804891944    0.394718826    0.591472447
    0.471558392    0.061385274    0.686460912
    0.138225079    0.728052020    0.781449258
    0.233463049    0.109004498    0.876437724
    0.566796660    0.442337871    0.496484041
    0.233463392    0.109004617    0.591472447
    0.900129855    0.775671005    0.686460912
    0.566796482    0.442337751    0.781449258
    0.519177437    0.251861513    0.876437724
    0.852510989    0.585194945    0.496484071
    0.519177675    0.251861662    0.591472447
    0.185844183    0.918528199    0.686460912
    0.852510750    0.585194826    0.781449258
    0.614415705    0.632814050    0.900184751
    0.281082511    0.299480796    0.425242722
    0.947749138    0.966147482    0.520231128
    0.614415705    0.632814050    0.615219593
    0.281082153    0.299480617    0.710207939
    0.947748721    0.966147184    0.805196404
    0.900129855    0.775671124    0.900184751
    0.566796780    0.442337930    0.425242722
    0.233463407    0.109004617    0.520231128
    0.900129974    0.775671184    0.615219593
    0.566796422    0.442337692    0.710207999
    0.233463109    0.109004378    0.805196404
    0.757272780    0.204242662    0.900184751
    0.423939675    0.870909333    0.425242692
    0.090606213    0.537576020    0.520231068
    0.757272840    0.204242602    0.615219533
    0.423939288    0.870909095    0.710207999
    0.090605974    0.537575722    0.805196404
    0.185844183    0.918528318    0.900184751
    0.852511048    0.585195065    0.425242722
    0.519177675    0.251861751    0.520231068
    0.185844183    0.918528318    0.615219533
    0.852510691    0.585194826    0.710207999
    0.519177318    0.251861453    0.805196404
    0.042986870    0.347099721    0.900184751
    0.709653854    0.013766408    0.425242692
    0.376320481    0.680433095    0.520231068
    0.042987108    0.347099692    0.615219533
    0.709653497    0.013766289    0.710207999
    0.376320183    0.680432916    0.805196404
    0.471558273    0.061385393    0.900184751
    0.138225317    0.728052080    0.425242722
    0.804891944    0.394718766    0.520231128
    0.471558452    0.061385393    0.615219593
    0.138224840    0.728051901    0.710207999
    0.804891527    0.394718587    0.805196404
    0.328701258    0.489956975    0.900184751
    0.995368183    0.156623721    0.425242752
    0.662034869    0.823290348    0.520231128
    0.328701377    0.489956975    0.615219593
    0.995367825    0.156623438    0.710207999
    0.662034452    0.823290110    0.805196404
