Si+C
    1.000000000
   13.303179741    0.000000000    0.000000000
    6.651589394   11.520891190    0.000000000
    0.000000000    0.000000000   21.679414749
Si  C  
72     308
Direct
    0.000000000    0.681493819    0.289268851
    0.000000000    0.014827055    0.000000008
    0.000000000    0.348160446    0.144634441
    0.333333343    0.014827132    0.289268851
    0.333333343    0.348160386    0.000000009
    0.333333343    0.681493819    0.144634441
    0.666666687    0.348160386    0.289268821
    0.666666687    0.681493759    0.000000006
    0.666666687    0.014827132    0.144634441
    0.000000000    0.014827251    0.325427473
    0.000000000    0.348160416    0.036158621
    0.000000000    0.681493819    0.180793047
    0.333333343    0.348160505    0.325427443
    0.333333343    0.681493819    0.036158621
    0.333333343    0.014827132    0.180793032
    0.666666746    0.681493998    0.325427473
    0.666666746    0.014827132    0.036158621
    0.666666746    0.348160505    0.180793062
    0.166666672    0.848160446    0.289268821
    0.166666672    0.181493714    0.000000004
    0.166666672    0.514827132    0.144634441
    0.500000060    0.181493759    0.289268821
    0.500000000    0.514827073    0.000000001
    0.500000000    0.848160505    0.144634441
    0.833333373    0.514827251    0.289268851
    0.833333373    0.848160446    0.000000000
    0.833333373    0.181493759    0.144634411
    0.166666687    0.181493759    0.325427383
    0.166666687    0.514827073    0.036158580
    0.166666687    0.848160505    0.180793002
    0.500000000    0.514827132    0.325427383
    0.500000000    0.848160326    0.036158577
    0.500000000    0.181493759    0.180793017
    0.833333313    0.848160446    0.325427383
    0.833333313    0.181493714    0.036158577
    0.833333313    0.514827132    0.180793047
    0.000000000    0.181493759    0.289268821
    0.000000000    0.514827073    0.000000011
    0.000000000    0.848160446    0.144634441
    0.333333343    0.514827251    0.289268851
    0.333333343    0.848160505    0.000000016
    0.333333343    0.181493878    0.144634470
    0.666666687    0.848160446    0.289268821
    0.666666687    0.181493714    0.000000001
    0.666666687    0.514827132    0.144634441
    0.000000014    0.514827251    0.325427443
    0.000000014    0.848160446    0.036158580
    0.000000014    0.181493878    0.180793032
    0.333333373    0.848160446    0.325427443
    0.333333373    0.181493714    0.036158580
    0.333333373    0.514827073    0.180793002
    0.666666746    0.181493878    0.325427443
    0.666666746    0.514827073    0.036158580
    0.666666746    0.848160505    0.180793017
    0.166666672    0.348160386    0.289268821
    0.166666672    0.681493759    0.000000009
    0.166666672    0.014827132    0.144634470
    0.500000000    0.681493759    0.289268851
    0.500000000    0.014827051    0.000000009
    0.500000000    0.348160475    0.144634441
    0.833333313    0.014827132    0.289268821
    0.833333313    0.348160416    0.000000006
    0.833333313    0.681493759    0.144634426
    0.166666687    0.681493878    0.325427473
    0.166666687    0.014827132    0.036158640
    0.166666687    0.348160386    0.180793032
    0.500000000    0.014827251    0.325427473
    0.500000000    0.348160416    0.036158610
    0.500000000    0.681493759    0.180793032
    0.833333373    0.348160505    0.325427443
    0.833333373    0.681493700    0.036158621
    0.833333373    0.014827013    0.180793032
    0.158388078    0.022551179    0.876437724
    0.920293033    0.213027716    0.496484041
    0.729816854    0.165408611    0.591472507
    0.539340496    0.117789507    0.686460912
    0.348864257    0.070170403    0.781449318
    0.301245272    0.308265537    0.876437724
    0.063150167    0.498742044    0.496484011
    0.872673929    0.451122940    0.591472507
    0.682197630    0.403503776    0.686460912
    0.491721392    0.355884641    0.781449318
    0.444102407    0.593979836    0.876437724
    0.206007302    0.784456313    0.496484011
    0.015531182    0.736837268    0.591472507
    0.825054824    0.689218104    0.686460912
    0.634578526    0.641598940    0.781449378
    0.729816735    0.165408373    0.876437724
    0.491721600    0.355884910    0.496484011
    0.301245421    0.308265775    0.591472447
    0.110769108    0.260646611    0.686460912
    0.920292854    0.213027477    0.781449318
    0.586959541    0.879694045    0.876437724
    0.348864466    0.070170641    0.496484011
    0.158388227    0.022551537    0.591472447
    0.967912078    0.974932373    0.686460793
    0.777435601    0.927313149    0.781449318
    0.872673810    0.451122642    0.876437724
    0.634578764    0.641599178    0.496484011
    0.444102556    0.593980074    0.591472507
    0.253626376    0.546360970    0.686460853
    0.063149929    0.498741776    0.781449318
    0.015530944    0.736836910    0.876437724
    0.777435839    0.927313507    0.496484011
    0.586959660    0.879694343    0.591472447
    0.396483362    0.832075238    0.686460912
    0.206007063    0.784456074    0.781449318
    0.253626168    0.546360731    0.900184810
    0.206007332    0.784456432    0.425242722
    0.015531182    0.736837268    0.520231128
    0.825054824    0.689218163    0.615219593
    0.634578526    0.641599000    0.710208058
    0.444102347    0.593979836    0.805196404
    0.539340436    0.117789268    0.900184810
    0.491721630    0.355884999    0.425242752
    0.301245421    0.308265865    0.520231128
    0.110769138    0.260646731    0.615219593
    0.920292795    0.213027477    0.710208058
    0.729816616    0.165408373    0.805196404
    0.396483243    0.832075059    0.900184810
    0.348864496    0.070170760    0.425242722
    0.158388227    0.022551537    0.520231128
    0.967912018    0.974932432    0.615219593
    0.777435660    0.927313268    0.710208058
    0.586959422    0.879694164    0.805196404
    0.682197571    0.403503597    0.900184810
    0.634578824    0.641599298    0.425242722
    0.444102556    0.593980134    0.520231128
    0.253626287    0.546361029    0.615219593
    0.063150048    0.498741865    0.710208058
    0.872673750    0.451122731    0.805196404
    0.825054705    0.689217865    0.900184810
    0.777435958    0.927313626    0.425242722
    0.586959660    0.879694402    0.520231187
    0.396483421    0.832075298    0.615219593
    0.206007123    0.784456134    0.710208058
    0.015530944    0.736837029    0.805196404
    0.110768981    0.260646403    0.900184870
    0.063150287    0.498742104    0.425242752
    0.872673929    0.451122969    0.520231128
    0.682197750    0.403503835    0.615219593
    0.491721392    0.355884671    0.710208058
    0.301245213    0.308265537    0.805196464
    0.967911839    0.974932194    0.900184810
    0.920293033    0.213027954    0.425242722
    0.729816794    0.165408731    0.520231128
    0.539340615    0.117789626    0.615219593
    0.348864287    0.070170403    0.710208058
    0.158388063    0.022551298    0.805196404
    0.229816675    0.165408373    0.876437724
    0.991721570    0.355884880    0.496484011
    0.801245391    0.308265746    0.591472507
    0.610769093    0.260646582    0.686460912
    0.420292795    0.213027477    0.781449378
    0.372673810    0.451122701    0.876437724
    0.134578735    0.641599178    0.496484011
    0.944102526    0.593980134    0.591472507
    0.753626227    0.546360970    0.686460912
    0.563149929    0.498741806    0.781449318
    0.658388078    0.022551298    0.876437724
    0.420293003    0.213027716    0.496484011
    0.229816824    0.165408611    0.591472507
    0.039340496    0.117789507    0.686460912
    0.848864198    0.070170403    0.781449378
    0.515530884    0.736836910    0.876437724
    0.277435869    0.927313507    0.496484011
    0.086959615    0.879694402    0.591472507
    0.896483481    0.832075298    0.686460853
    0.706007063    0.784456074    0.781449378
    0.801245272    0.308265507    0.876437724
    0.563150227    0.498742044    0.496483982
    0.372673988    0.451122940    0.591472507
    0.182197839    0.403503805    0.686460853
    0.991721451    0.355884612    0.781449318
    0.944102466    0.593979836    0.876437724
    0.706007361    0.784456372    0.496484011
    0.515531182    0.736837268    0.591472447
    0.325054884    0.689218044    0.686460912
    0.134578615    0.641598940    0.781449318
    0.086959630    0.879694104    0.876437724
    0.848864555    0.070170641    0.496484011
    0.658388317    0.022551537    0.591472507
    0.467912048    0.974932313    0.686460912
    0.277435750    0.927313209    0.781449318
    0.182197630    0.403503567    0.900184810
    0.134578794    0.641599238    0.425242722
    0.944102526    0.593980074    0.520231128
    0.753626347    0.546360970    0.615219533
    0.563149989    0.498741806    0.710208058
    0.372673810    0.451122701    0.805196404
    0.325054705    0.689217925    0.900184810
    0.277435929    0.927313566    0.425242692
    0.086959675    0.879694462    0.520231128
    0.896483481    0.832075298    0.615219533
    0.706007183    0.784456134    0.710208058
    0.515530944    0.736837029    0.805196404
    0.610769033    0.260646433    0.900184810
    0.563150227    0.498742104    0.425242722
    0.372673959    0.451122969    0.520231128
    0.182197779    0.403503835    0.615219533
    0.991721451    0.355884671    0.710208058
    0.801245213    0.308265567    0.805196404
    0.467911899    0.974932253    0.900184810
    0.420293063    0.213027954    0.425242722
    0.229816794    0.165408850    0.520231128
    0.039340615    0.117789745    0.615219533
    0.848864257    0.070170522    0.710208058
    0.658388078    0.022551298    0.805196404
    0.753626168    0.546360850    0.900184810
    0.706007361    0.784456491    0.425242722
    0.515531123    0.736837387    0.520231128
    0.325054884    0.689218223    0.615219533
    0.134578586    0.641599059    0.710208058
    0.944102347    0.593979955    0.805196404
    0.039340496    0.117789268    0.900184810
    0.991721749    0.355884999    0.425242692
    0.801245451    0.308265865    0.520231128
    0.610769272    0.260646701    0.615219533
    0.420292974    0.213027477    0.710208058
    0.229816735    0.165408373    0.805196404
    0.896483302    0.832075000    0.900184810
    0.848864496    0.070170641    0.425242692
    0.658388257    0.022551537    0.520231128
    0.467912078    0.974932492    0.615219533
    0.277435720    0.927313268    0.710208058
    0.086959526    0.879694164    0.805196345
    0.229816675    0.665408373    0.876437724
    0.991721570    0.855884910    0.496484011
    0.801245391    0.808265865    0.591472507
    0.610769093    0.760646641    0.686460912
    0.420292795    0.713027477    0.781449318
    0.515530944    0.236836910    0.876437724
    0.277435869    0.427313447    0.496484041
    0.086959675    0.379694343    0.591472507
    0.896483362    0.332075179    0.686460912
    0.706007063    0.284456015    0.781449378
    0.372673810    0.951122642    0.876437724
    0.134578794    0.141599178    0.496483982
    0.944102526    0.093980074    0.591472447
    0.753626347    0.046360970    0.686460793
    0.563149929    0.998741806    0.781449318
    0.658388078    0.522551179    0.876437724
    0.420293033    0.713027716    0.496484011
    0.229816765    0.665408611    0.591472507
    0.039340615    0.617789507    0.686460853
    0.848864198    0.570170283    0.781449318
    0.944102347    0.093979836    0.876437724
    0.706007302    0.284456342    0.496484011
    0.515531123    0.236837149    0.591472507
    0.325054884    0.189218044    0.686460853
    0.134578511    0.141598940    0.781449318
    0.801245272    0.808265567    0.876437724
    0.563150227    0.998742104    0.496484011
    0.372674018    0.951122999    0.591472447
    0.182197705    0.903503835    0.686460912
    0.991721451    0.855884671    0.781449318
    0.086959571    0.379694104    0.876437724
    0.848864496    0.570170641    0.496484011
    0.658388257    0.522551537    0.591472507
    0.467911988    0.474932373    0.686460912
    0.277435690    0.427313209    0.781449318
    0.325054765    0.189217806    0.900184810
    0.277435929    0.427313566    0.425242722
    0.086959675    0.379694432    0.520231128
    0.896483481    0.332075298    0.615219533
    0.706007183    0.284456134    0.710208058
    0.515530944    0.236837029    0.805196404
    0.182197571    0.903503597    0.900184810
    0.134578764    0.141599298    0.425242722
    0.944102526    0.093980193    0.520231128
    0.753626347    0.046361089    0.615219533
    0.563149989    0.998741865    0.710208058
    0.372673810    0.951122761    0.805196404
    0.467911899    0.474932194    0.900184810
    0.420293063    0.713027835    0.425242722
    0.229816824    0.665408731    0.520231128
    0.039340615    0.617789626    0.615219533
    0.848864317    0.570170403    0.710208058
    0.658388078    0.522551298    0.805196404
    0.753626168    0.046360731    0.900184810
    0.706007302    0.284456402    0.425242722
    0.515531123    0.236837268    0.520231128
    0.325054914    0.189218163    0.615219533
    0.134578586    0.141598940    0.710208058
    0.944102347    0.093979836    0.805196404
    0.610769033    0.760646522    0.900184810
    0.563150227    0.998742163    0.425242692
    0.372673959    0.951123059    0.520231128
    0.182197765    0.903503954    0.615219533
    0.991721451    0.855884731    0.710208058
    0.801245213    0.808265626    0.805196404
    0.896483302    0.332075059    0.900184810
    0.848864555    0.570170760    0.425242692
    0.658388257    0.522551596    0.520231128
    0.467912078    0.474932432    0.615219533
    0.277435750    0.427313298    0.710208058
    0.086959526    0.379694194    0.805196404
    0.039340377    0.617789388    0.900184810
    0.991721570    0.855885029    0.425242722
    0.801245332    0.808265924    0.520231128
    0.610769153    0.760646760    0.615219533
    0.420292795    0.713027596    0.710208058
    0.229816586    0.665408492    0.805196404
    0.158388078    0.522551179    0.876437724
    0.920293033    0.713027716    0.496484011
    0.729816794    0.665408611    0.591472507
    0.539340496    0.617789507    0.686460912
    0.348864198    0.570170343    0.781449378
    0.444102407    0.093979836    0.876437724
    0.206007302    0.284456313    0.496484011
    0.015531182    0.236837149    0.591472507
    0.825054824    0.189218044    0.686460912
    0.634578526    0.141598940    0.781449318
    0.301245213    0.808265448    0.876437724
    0.063150167    0.998741984    0.496484011
    0.872673929    0.951122880    0.591472507
    0.682197750    0.903503776    0.686460853
    0.491721332    0.855884552    0.781449318
    0.586959541    0.379694045    0.876437724
    0.348864496    0.570170581    0.496483982
    0.158388242    0.522551417    0.591472507
    0.967912078    0.474932343    0.686460853
    0.777435660    0.427313209    0.781449318
    0.729816735    0.665408373    0.876437724
    0.491721600    0.855884969    0.496484011
    0.301245421    0.808265805    0.591472447
    0.110769108    0.760646641    0.686460912
    0.920292795    0.713027537    0.781449318
    0.015530944    0.236836910    0.876437724
    0.777435839    0.427313477    0.496484011
    0.586959720    0.379694343    0.591472507
    0.396483362    0.332075208    0.686460912
    0.206007063    0.284456074    0.781449318
    0.872673810    0.951122642    0.876437724
    0.634578764    0.141599178    0.496484011
    0.444102526    0.093980074    0.591472507
    0.253626198    0.046360970    0.686460912
    0.063149929    0.998741746    0.781449318
    0.253626108    0.046360731    0.900184870
    0.206007361    0.284456432    0.425242752
    0.015531182    0.236837268    0.520231128
    0.825054884    0.189218163    0.615219593
    0.634578586    0.141598940    0.710208058
    0.444102407    0.093979836    0.805196404
    0.396483302    0.332075000    0.900184870
    0.348864496    0.570170701    0.425242752
    0.158388287    0.522551537    0.520231128
    0.967912018    0.474932432    0.615219653
    0.777435720    0.427313268    0.710208058
    0.586959541    0.379694134    0.805196404
    0.539340436    0.617789388    0.900184810
    0.491721630    0.855885029    0.425242722
    0.301245362    0.808265924    0.520231128
    0.110769130    0.760646760    0.615219653
    0.920292795    0.713027596    0.710208058
    0.729816616    0.665408492    0.805196404
    0.825054705    0.189217806    0.900184810
    0.777435958    0.427313566    0.425242722
    0.586959720    0.379694402    0.520231128
    0.396483451    0.332075268    0.615219653
    0.206007153    0.284456104    0.710208058
    0.015530944    0.236836910    0.805196404
    0.682197571    0.903503656    0.900184810
    0.634578764    0.141599417    0.425242722
    0.444102496    0.093980193    0.520231187
    0.253626287    0.046360970    0.615219593
    0.063150048    0.998741865    0.710208058
    0.872673750    0.951122761    0.805196464
    0.967911839    0.474932134    0.900184810
    0.920293093    0.713027835    0.425242722
    0.729816794    0.665408731    0.520231128
    0.539340615    0.617789567    0.615219533
    0.348864257    0.570170403    0.710208058
    0.158388048    0.522551298    0.805196404
    0.110769100    0.760646462    0.900184810
    0.063150287    0.998742163    0.425242722
    0.872674048    0.951122999    0.520231128
    0.682197750    0.903503895    0.615219593
    0.491721451    0.855884671    0.710208058
    0.301245272    0.808265567    0.805196404
