Automatic KPOINTS generated
0
Gamma
4 3 1
0 0 0
