fcc Si+fcc Ge                           
   1.00000000000000     
     9.4916384249999997    0.0000000000000000    0.0000000000000000
     0.0000000000000000   13.4232037900000005    0.0000000000000000
     0.0000000000000000    0.0000000000000000   24.0929238559999988
   Si   Ge
    72    72
Direct
  0.0000000000000000  0.0000000000000000  0.0000000000000000
  0.0000000000000000  0.7500000000000000  0.0804166650000013
  0.0000000000000000  0.5000000000000000  0.1608333289999990
  0.0000000000000000  0.2500000000000000  0.2412499940000004
  0.0000000000000000  0.0000000000000000  0.3216666590000017
  0.0000000000000000  0.7500000000000000  0.4020833240000030
  0.3333333329999988  0.3333333329999988  0.0000000000000000
  0.3333333329999988  0.0833333329999988  0.0804166650000013
  0.3333333329999988  0.8333333329999988  0.1608333289999990
  0.3333333329999988  0.5833333329999988  0.2412499940000004
  0.3333333329999988  0.3333333329999988  0.3216666590000017
  0.3333333329999988  0.0833333329999988  0.4020833240000030
  0.1152482270000021  0.0670426069999976  0.9086868819999978
  0.6666666670000012  0.4166666670000012  0.0804166650000013
  0.6666666670000012  0.1666666670000012  0.1608333289999990
  0.6666666670000012  0.9166666670000012  0.2412499940000004
  0.6666666670000012  0.6666666670000012  0.3216666590000017
  0.1152482270000021  0.8170426069999976  0.4933964419999981
  0.3652482270000021  0.0670426069999976  0.9086868819999978
  0.0000000000000000  0.2500000000000000  0.0804166650000013
  0.0000000000000000  0.0000000000000000  0.1608333289999990
  0.0000000000000000  0.7500000000000000  0.2412499940000004
  0.0000000000000000  0.5000000000000000  0.3216666590000017
  0.3652482270000021  0.8170426069999976  0.4933964419999981
  0.7819148940000034  0.1503759400000035  0.8256287939999964
  0.3333333329999988  0.5833333329999988  0.0804166650000013
  0.3333333329999988  0.3333333329999988  0.1608333289999990
  0.3333333329999988  0.0833333329999988  0.2412499940000004
  0.3333333329999988  0.8333333329999988  0.3216666590000017
  0.7819148940000034  0.9003759400000035  0.5764545299999995
  0.7819148940000034  0.4003759400000035  0.9086868819999978
  0.6666666670000012  0.9166666670000012  0.0804166650000013
  0.6666666670000012  0.6666666670000012  0.1608333289999990
  0.6666666670000012  0.4166666670000012  0.2412499940000004
  0.6666666670000012  0.1666666670000012  0.3216666590000017
  0.7819148940000034  0.1503759400000035  0.4933964419999981
  0.0833333329999988  0.3333333329999988  0.0000000000000000
  0.0833333329999988  0.0833333329999988  0.0804166650000013
  0.0833333329999988  0.8333333329999988  0.1608333289999990
  0.0833333329999988  0.5833333329999988  0.2412499940000004
  0.0833333329999988  0.3333333329999988  0.3216666590000017
  0.0833333329999988  0.0833333329999988  0.4020833240000030
  0.4166666670000012  0.6666666670000012  0.0000000000000000
  0.4166666670000012  0.4166666670000012  0.0804166650000013
  0.4166666670000012  0.1666666670000012  0.1608333289999990
  0.4166666670000012  0.9166666670000012  0.2412499940000004
  0.0319148940000034  0.1503759400000035  0.4933964419999981
  0.4166666670000012  0.4166666670000012  0.4020833240000030
  0.7500000000000000  0.0000000000000000  0.0000000000000000
  0.7500000000000000  0.7500000000000000  0.0804166650000013
  0.7500000000000000  0.5000000000000000  0.1608333289999990
  0.7500000000000000  0.2500000000000000  0.2412499940000004
  0.7500000000000000  0.0000000000000000  0.3216666590000017
  0.7500000000000000  0.7500000000000000  0.4020833240000030
  0.0833333329999988  0.8333333329999988  0.0000000000000000
  0.0833333329999988  0.5833333329999988  0.0804166650000013
  0.1152482270000021  0.5670426069999976  0.9086868819999978
  0.1152482270000021  0.3170426069999976  0.4933964419999981
  0.0833333329999988  0.8333333329999988  0.3216666590000017
  0.0833333329999988  0.5833333329999988  0.4020833240000030
  0.4166666670000012  0.1666666670000012  0.0000000000000000
  0.0319148940000034  0.4003759400000035  0.9086868819999978
  0.4166666670000012  0.6666666670000012  0.1608333289999990
  0.4166666670000012  0.4166666670000012  0.2412499940000004
  0.4166666670000012  0.1666666670000012  0.3216666590000017
  0.4166666670000012  0.9166666670000012  0.4020833240000030
  0.7500000000000000  0.5000000000000000  0.0000000000000000
  0.7500000000000000  0.2500000000000000  0.0804166650000013
  0.7500000000000000  0.0000000000000000  0.1608333289999990
  0.7500000000000000  0.7500000000000000  0.2412499940000004
  0.7500000000000000  0.5000000000000000  0.3216666590000017
  0.7500000000000000  0.2500000000000000  0.4020833240000030
  0.4166666670000012  0.6666666670000012  0.3216666590000017
  0.0319148940000034  0.4003759400000035  0.5764545299999995
  0.0319148940000034  0.6503759400000035  0.6595126180000008
  0.0319148940000034  0.9003759400000035  0.7425707060000022
  0.0319148940000034  0.1503759400000035  0.8256287939999964
  0.4166666670000012  0.9166666670000012  0.0804166650000013
  0.0000000000000000  0.2500000000000000  0.4020833240000030
  0.3652482270000021  0.0670426069999976  0.5764545299999995
  0.3652482270000021  0.3170426069999976  0.6595126180000008
  0.3652482270000021  0.5670426069999976  0.7425707060000022
  0.3652482270000021  0.8170426069999976  0.8256287939999964
  0.0000000000000000  0.5000000000000000  0.0000000000000000
  0.6985815600000009  0.4837092730000023  0.4933964419999981
  0.6985815600000009  0.7337092730000023  0.5764545299999995
  0.6985815600000009  0.9837092730000023  0.6595126180000008
  0.6985815600000009  0.2337092730000023  0.7425707060000022
  0.6985815600000009  0.4837092730000023  0.8256287939999964
  0.6985815600000009  0.7337092730000023  0.9086868819999978
  0.0319148940000034  0.6503759400000035  0.4933964419999981
  0.0319148940000034  0.9003759400000035  0.5764545299999995
  0.0319148940000034  0.1503759400000035  0.6595126180000008
  0.0319148940000034  0.4003759400000035  0.7425707060000022
  0.0319148940000034  0.6503759400000035  0.8256287939999964
  0.0319148940000034  0.9003759400000035  0.9086868819999978
  0.3652482270000021  0.3170426069999976  0.4933964419999981
  0.3652482270000021  0.5670426069999976  0.5764545299999995
  0.3652482270000021  0.8170426069999976  0.6595126180000008
  0.3652482270000021  0.0670426069999976  0.7425707060000022
  0.3652482270000021  0.3170426069999976  0.8256287939999964
  0.3652482270000021  0.5670426069999976  0.9086868819999978
  0.6985815600000009  0.9837092730000023  0.4933964419999981
  0.6985815600000009  0.2337092730000023  0.5764545299999995
  0.6985815600000009  0.4837092730000023  0.6595126180000008
  0.6985815600000009  0.7337092730000023  0.7425707060000022
  0.6985815600000009  0.9837092730000023  0.8256287939999964
  0.6985815600000009  0.2337092730000023  0.9086868819999978
  0.6666666670000012  0.4166666670000012  0.4020833240000030
  0.1152482270000021  0.0670426069999976  0.5764545299999995
  0.1152482270000021  0.3170426069999976  0.6595126180000008
  0.1152482270000021  0.5670426069999976  0.7425707060000022
  0.1152482270000021  0.8170426069999976  0.8256287939999964
  0.6666666670000012  0.6666666670000012  0.0000000000000000
  0.4485815600000009  0.4837092730000023  0.4933964419999981
  0.4485815600000009  0.7337092730000023  0.5764545299999995
  0.4485815600000009  0.9837092730000023  0.6595126180000008
  0.4485815600000009  0.2337092730000023  0.7425707060000022
  0.4485815600000009  0.4837092730000023  0.8256287939999964
  0.4485815600000009  0.7337092730000023  0.9086868819999978
  0.6666666670000012  0.9166666670000012  0.4020833240000030
  0.7819148940000034  0.4003759400000035  0.5764545299999995
  0.7819148940000034  0.6503759400000035  0.6595126180000008
  0.7819148940000034  0.9003759400000035  0.7425707060000022
  0.3333333329999988  0.8333333329999988  0.0000000000000000
  0.6666666670000012  0.1666666670000012  0.0000000000000000
  0.0833333329999988  0.0833333329999988  0.2412499940000004
  0.1152482270000021  0.5670426069999976  0.5764545299999995
  0.1152482270000021  0.8170426069999976  0.6595126180000008
  0.1152482270000021  0.0670426069999976  0.7425707060000022
  0.1152482270000021  0.3170426069999976  0.8256287939999964
  0.0833333329999988  0.3333333329999988  0.1608333289999990
  0.4485815600000009  0.9837092730000023  0.4933964419999981
  0.4485815600000009  0.2337092730000023  0.5764545299999995
  0.4485815600000009  0.4837092730000023  0.6595126180000008
  0.4485815600000009  0.7337092730000023  0.7425707060000022
  0.4485815600000009  0.9837092730000023  0.8256287939999964
  0.4485815600000009  0.2337092730000023  0.9086868819999978
  0.7819148940000034  0.6503759400000035  0.4933964419999981
  0.3333333329999988  0.5833333329999988  0.4020833240000030
  0.7819148940000034  0.1503759400000035  0.6595126180000008
  0.7819148940000034  0.4003759400000035  0.7425707060000022
  0.7819148940000034  0.6503759400000035  0.8256287939999964
  0.7819148940000034  0.9003759400000035  0.9086868819999978
 
  0.00000000E+00  0.00000000E+00  0.00000000E+00
  0.00000000E+00  0.00000000E+00  0.00000000E+00
  0.00000000E+00  0.00000000E+00  0.00000000E+00
  0.00000000E+00  0.00000000E+00  0.00000000E+00
  0.00000000E+00  0.00000000E+00  0.00000000E+00
  0.00000000E+00  0.00000000E+00  0.00000000E+00
  0.00000000E+00  0.00000000E+00  0.00000000E+00
  0.00000000E+00  0.00000000E+00  0.00000000E+00
  0.00000000E+00  0.00000000E+00  0.00000000E+00
  0.00000000E+00  0.00000000E+00  0.00000000E+00
  0.00000000E+00  0.00000000E+00  0.00000000E+00
  0.00000000E+00  0.00000000E+00  0.00000000E+00
  0.00000000E+00  0.00000000E+00  0.00000000E+00
  0.00000000E+00  0.00000000E+00  0.00000000E+00
  0.00000000E+00  0.00000000E+00  0.00000000E+00
  0.00000000E+00  0.00000000E+00  0.00000000E+00
  0.00000000E+00  0.00000000E+00  0.00000000E+00
  0.00000000E+00  0.00000000E+00  0.00000000E+00
  0.00000000E+00  0.00000000E+00  0.00000000E+00
  0.00000000E+00  0.00000000E+00  0.00000000E+00
  0.00000000E+00  0.00000000E+00  0.00000000E+00
  0.00000000E+00  0.00000000E+00  0.00000000E+00
  0.00000000E+00  0.00000000E+00  0.00000000E+00
  0.00000000E+00  0.00000000E+00  0.00000000E+00
  0.00000000E+00  0.00000000E+00  0.00000000E+00
  0.00000000E+00  0.00000000E+00  0.00000000E+00
  0.00000000E+00  0.00000000E+00  0.00000000E+00
  0.00000000E+00  0.00000000E+00  0.00000000E+00
  0.00000000E+00  0.00000000E+00  0.00000000E+00
  0.00000000E+00  0.00000000E+00  0.00000000E+00
  0.00000000E+00  0.00000000E+00  0.00000000E+00
  0.00000000E+00  0.00000000E+00  0.00000000E+00
  0.00000000E+00  0.00000000E+00  0.00000000E+00
  0.00000000E+00  0.00000000E+00  0.00000000E+00
  0.00000000E+00  0.00000000E+00  0.00000000E+00
  0.00000000E+00  0.00000000E+00  0.00000000E+00
  0.00000000E+00  0.00000000E+00  0.00000000E+00
  0.00000000E+00  0.00000000E+00  0.00000000E+00
  0.00000000E+00  0.00000000E+00  0.00000000E+00
  0.00000000E+00  0.00000000E+00  0.00000000E+00
  0.00000000E+00  0.00000000E+00  0.00000000E+00
  0.00000000E+00  0.00000000E+00  0.00000000E+00
  0.00000000E+00  0.00000000E+00  0.00000000E+00
  0.00000000E+00  0.00000000E+00  0.00000000E+00
  0.00000000E+00  0.00000000E+00  0.00000000E+00
  0.00000000E+00  0.00000000E+00  0.00000000E+00
  0.00000000E+00  0.00000000E+00  0.00000000E+00
  0.00000000E+00  0.00000000E+00  0.00000000E+00
  0.00000000E+00  0.00000000E+00  0.00000000E+00
  0.00000000E+00  0.00000000E+00  0.00000000E+00
  0.00000000E+00  0.00000000E+00  0.00000000E+00
  0.00000000E+00  0.00000000E+00  0.00000000E+00
  0.00000000E+00  0.00000000E+00  0.00000000E+00
  0.00000000E+00  0.00000000E+00  0.00000000E+00
  0.00000000E+00  0.00000000E+00  0.00000000E+00
  0.00000000E+00  0.00000000E+00  0.00000000E+00
  0.00000000E+00  0.00000000E+00  0.00000000E+00
  0.00000000E+00  0.00000000E+00  0.00000000E+00
  0.00000000E+00  0.00000000E+00  0.00000000E+00
  0.00000000E+00  0.00000000E+00  0.00000000E+00
  0.00000000E+00  0.00000000E+00  0.00000000E+00
  0.00000000E+00  0.00000000E+00  0.00000000E+00
  0.00000000E+00  0.00000000E+00  0.00000000E+00
  0.00000000E+00  0.00000000E+00  0.00000000E+00
  0.00000000E+00  0.00000000E+00  0.00000000E+00
  0.00000000E+00  0.00000000E+00  0.00000000E+00
  0.00000000E+00  0.00000000E+00  0.00000000E+00
  0.00000000E+00  0.00000000E+00  0.00000000E+00
  0.00000000E+00  0.00000000E+00  0.00000000E+00
  0.00000000E+00  0.00000000E+00  0.00000000E+00
  0.00000000E+00  0.00000000E+00  0.00000000E+00
  0.00000000E+00  0.00000000E+00  0.00000000E+00
  0.00000000E+00  0.00000000E+00  0.00000000E+00
  0.00000000E+00  0.00000000E+00  0.00000000E+00
  0.00000000E+00  0.00000000E+00  0.00000000E+00
  0.00000000E+00  0.00000000E+00  0.00000000E+00
  0.00000000E+00  0.00000000E+00  0.00000000E+00
  0.00000000E+00  0.00000000E+00  0.00000000E+00
  0.00000000E+00  0.00000000E+00  0.00000000E+00
  0.00000000E+00  0.00000000E+00  0.00000000E+00
  0.00000000E+00  0.00000000E+00  0.00000000E+00
  0.00000000E+00  0.00000000E+00  0.00000000E+00
  0.00000000E+00  0.00000000E+00  0.00000000E+00
  0.00000000E+00  0.00000000E+00  0.00000000E+00
  0.00000000E+00  0.00000000E+00  0.00000000E+00
  0.00000000E+00  0.00000000E+00  0.00000000E+00
  0.00000000E+00  0.00000000E+00  0.00000000E+00
  0.00000000E+00  0.00000000E+00  0.00000000E+00
  0.00000000E+00  0.00000000E+00  0.00000000E+00
  0.00000000E+00  0.00000000E+00  0.00000000E+00
  0.00000000E+00  0.00000000E+00  0.00000000E+00
  0.00000000E+00  0.00000000E+00  0.00000000E+00
  0.00000000E+00  0.00000000E+00  0.00000000E+00
  0.00000000E+00  0.00000000E+00  0.00000000E+00
  0.00000000E+00  0.00000000E+00  0.00000000E+00
  0.00000000E+00  0.00000000E+00  0.00000000E+00
  0.00000000E+00  0.00000000E+00  0.00000000E+00
  0.00000000E+00  0.00000000E+00  0.00000000E+00
  0.00000000E+00  0.00000000E+00  0.00000000E+00
  0.00000000E+00  0.00000000E+00  0.00000000E+00
  0.00000000E+00  0.00000000E+00  0.00000000E+00
  0.00000000E+00  0.00000000E+00  0.00000000E+00
  0.00000000E+00  0.00000000E+00  0.00000000E+00
  0.00000000E+00  0.00000000E+00  0.00000000E+00
  0.00000000E+00  0.00000000E+00  0.00000000E+00
  0.00000000E+00  0.00000000E+00  0.00000000E+00
  0.00000000E+00  0.00000000E+00  0.00000000E+00
  0.00000000E+00  0.00000000E+00  0.00000000E+00
  0.00000000E+00  0.00000000E+00  0.00000000E+00
  0.00000000E+00  0.00000000E+00  0.00000000E+00
  0.00000000E+00  0.00000000E+00  0.00000000E+00
  0.00000000E+00  0.00000000E+00  0.00000000E+00
  0.00000000E+00  0.00000000E+00  0.00000000E+00
  0.00000000E+00  0.00000000E+00  0.00000000E+00
  0.00000000E+00  0.00000000E+00  0.00000000E+00
  0.00000000E+00  0.00000000E+00  0.00000000E+00
  0.00000000E+00  0.00000000E+00  0.00000000E+00
  0.00000000E+00  0.00000000E+00  0.00000000E+00
  0.00000000E+00  0.00000000E+00  0.00000000E+00
  0.00000000E+00  0.00000000E+00  0.00000000E+00
  0.00000000E+00  0.00000000E+00  0.00000000E+00
  0.00000000E+00  0.00000000E+00  0.00000000E+00
  0.00000000E+00  0.00000000E+00  0.00000000E+00
  0.00000000E+00  0.00000000E+00  0.00000000E+00
  0.00000000E+00  0.00000000E+00  0.00000000E+00
  0.00000000E+00  0.00000000E+00  0.00000000E+00
  0.00000000E+00  0.00000000E+00  0.00000000E+00
  0.00000000E+00  0.00000000E+00  0.00000000E+00
  0.00000000E+00  0.00000000E+00  0.00000000E+00
  0.00000000E+00  0.00000000E+00  0.00000000E+00
  0.00000000E+00  0.00000000E+00  0.00000000E+00
  0.00000000E+00  0.00000000E+00  0.00000000E+00
  0.00000000E+00  0.00000000E+00  0.00000000E+00
  0.00000000E+00  0.00000000E+00  0.00000000E+00
  0.00000000E+00  0.00000000E+00  0.00000000E+00
  0.00000000E+00  0.00000000E+00  0.00000000E+00
  0.00000000E+00  0.00000000E+00  0.00000000E+00
  0.00000000E+00  0.00000000E+00  0.00000000E+00
  0.00000000E+00  0.00000000E+00  0.00000000E+00
  0.00000000E+00  0.00000000E+00  0.00000000E+00
  0.00000000E+00  0.00000000E+00  0.00000000E+00
  0.00000000E+00  0.00000000E+00  0.00000000E+00
  0.00000000E+00  0.00000000E+00  0.00000000E+00
  0.00000000E+00  0.00000000E+00  0.00000000E+00
