fcc Si+fcc Ge
    1.000000000
   17.329281578    0.000000000    0.000000000
    0.000000000   17.329281578    0.000000000
    0.000000000    0.000000000   21.574622889
Si    Ge   
220     72
Direct
    0.100000000    0.700000000    0.000000000
    0.150000000    0.550000000    0.127001061
    0.200000000    0.400000000    0.254002122
    0.250000000    0.250000000    0.381003183
    0.300000000    0.100000000    0.508004244
    0.350000000    0.950000000    0.635005306
    0.400000000    0.800000000    0.000000000
    0.450000000    0.650000000    0.127001061
    0.500000000    0.500000000    0.254002122
    0.550000000    0.350000000    0.381003183
    0.600000000    0.200000000    0.508004244
    0.650000000    0.050000000    0.635005306
    0.700000000    0.900000000    0.000000000
    0.750000000    0.750000000    0.127001061
    0.800000000    0.600000000    0.254002122
    0.850000000    0.450000000    0.381003183
    0.900000000    0.300000000    0.508004244
    0.950000000    0.150000000    0.635005306
    0.200000000    0.400000000    0.000000000
    0.250000000    0.250000000    0.127001061
    0.300000000    0.100000000    0.254002122
    0.350000000    0.950000000    0.381003183
    0.400000000    0.800000000    0.508004244
    0.450000000    0.650000000    0.635005306
    0.500000000    0.500000000    0.000000000
    0.550000000    0.350000000    0.127001061
    0.600000000    0.200000000    0.254002122
    0.650000000    0.050000000    0.381003183
    0.700000000    0.900000000    0.508004244
    0.750000000    0.750000000    0.635005306
    0.800000000    0.600000000    0.000000000
    0.850000000    0.450000000    0.127001061
    0.900000000    0.300000000    0.254002122
    0.950000000    0.150000000    0.381003183
    0.000000000    0.000000000    0.508004244
    0.050000000    0.850000000    0.635005306
    0.000000000    0.000000000    0.000000000
    0.050000000    0.850000000    0.127001061
    0.100000000    0.700000000    0.254002122
    0.150000000    0.550000000    0.381003183
    0.200000000    0.400000000    0.508004244
    0.250000000    0.250000000    0.635005306
    0.300000000    0.100000000    0.000000000
    0.350000000    0.950000000    0.127001061
    0.400000000    0.800000000    0.254002122
    0.450000000    0.650000000    0.381003183
    0.500000000    0.500000000    0.508004244
    0.550000000    0.350000000    0.635005306
    0.600000000    0.200000000    0.000000000
    0.650000000    0.050000000    0.127001061
    0.700000000    0.900000000    0.254002122
    0.750000000    0.750000000    0.381003183
    0.800000000    0.600000000    0.508004244
    0.850000000    0.450000000    0.635005306
    0.900000000    0.300000000    0.000000000
    0.950000000    0.150000000    0.127001061
    0.000000000    0.000000000    0.254002122
    0.050000000    0.850000000    0.381003183
    0.100000000    0.700000000    0.508004244
    0.150000000    0.550000000    0.635005306
    0.200000000    0.900000000    0.000000000
    0.250000000    0.750000000    0.127001061
    0.300000000    0.600000000    0.254002122
    0.350000000    0.450000000    0.381003183
    0.400000000    0.300000000    0.508004244
    0.450000000    0.150000000    0.635005306
    0.000000000    0.500000000    0.000000000
    0.050000000    0.350000000    0.127001061
    0.100000000    0.200000000    0.254002122
    0.150000000    0.050000000    0.381003183
    0.200000000    0.900000000    0.508004244
    0.250000000    0.750000000    0.635005306
    0.300000000    0.600000000    0.000000000
    0.350000000    0.450000000    0.127001061
    0.400000000    0.300000000    0.254002122
    0.450000000    0.150000000    0.381003183
    0.500000000    0.000000000    0.508004244
    0.550000000    0.850000000    0.635005306
    0.600000000    0.700000000    0.000000000
    0.650000000    0.550000000    0.127001061
    0.700000000    0.400000000    0.254002122
    0.750000000    0.250000000    0.381003183
    0.800000000    0.100000000    0.508004244
    0.850000000    0.950000000    0.635005306
    0.900000000    0.800000000    0.000000000
    0.950000000    0.650000000    0.127001061
    0.000000000    0.500000000    0.254002122
    0.050000000    0.350000000    0.381003183
    0.100000000    0.200000000    0.508004244
    0.150000000    0.050000000    0.635005306
    0.100000000    0.200000000    0.000000000
    0.150000000    0.050000000    0.127001061
    0.200000000    0.900000000    0.254002122
    0.250000000    0.750000000    0.381003183
    0.300000000    0.600000000    0.508004244
    0.350000000    0.450000000    0.635005306
    0.400000000    0.300000000    0.000000000
    0.450000000    0.150000000    0.127001061
    0.500000000    0.000000000    0.254002122
    0.550000000    0.850000000    0.381003183
    0.600000000    0.700000000    0.508004244
    0.650000000    0.550000000    0.635005306
    0.700000000    0.400000000    0.000000000
    0.750000000    0.250000000    0.127001061
    0.800000000    0.100000000    0.254002122
    0.850000000    0.950000000    0.381003183
    0.900000000    0.800000000    0.508004244
    0.950000000    0.650000000    0.635005306
    0.500000000    0.000000000    0.000000000
    0.550000000    0.850000000    0.127001061
    0.600000000    0.700000000    0.254002122
    0.650000000    0.550000000    0.381003183
    0.700000000    0.400000000    0.508004244
    0.750000000    0.250000000    0.635005306
    0.800000000    0.100000000    0.000000000
    0.850000000    0.950000000    0.127001061
    0.900000000    0.800000000    0.254002122
    0.950000000    0.650000000    0.381003183
    0.000000000    0.500000000    0.508004244
    0.050000000    0.350000000    0.635005306
    0.100000000    0.950000000    0.063500531
    0.150000000    0.800000000    0.190501592
    0.200000000    0.650000000    0.317502653
    0.250000000    0.500000000    0.444503714
    0.300000000    0.350000000    0.571504775
    0.200000000    0.650000000    0.063500531
    0.250000000    0.500000000    0.190501592
    0.300000000    0.350000000    0.317502653
    0.350000000    0.200000000    0.444503714
    0.400000000    0.050000000    0.571504775
    0.500000000    0.750000000    0.063500531
    0.550000000    0.600000000    0.190501592
    0.600000000    0.450000000    0.317502653
    0.650000000    0.300000000    0.444503714
    0.700000000    0.150000000    0.571504775
    0.800000000    0.850000000    0.063500531
    0.850000000    0.700000000    0.190501592
    0.900000000    0.550000000    0.317502653
    0.950000000    0.400000000    0.444503714
    0.000000000    0.250000000    0.571504775
    0.000000000    0.250000000    0.063500531
    0.050000000    0.100000000    0.190501592
    0.100000000    0.950000000    0.317502653
    0.150000000    0.800000000    0.444503714
    0.200000000    0.650000000    0.571504775
    0.300000000    0.350000000    0.063500531
    0.350000000    0.200000000    0.190501592
    0.400000000    0.050000000    0.317502653
    0.450000000    0.900000000    0.444503714
    0.500000000    0.750000000    0.571504775
    0.600000000    0.450000000    0.063500531
    0.650000000    0.300000000    0.190501592
    0.700000000    0.150000000    0.317502653
    0.750000000    0.000000000    0.444503714
    0.800000000    0.850000000    0.571504775
    0.900000000    0.550000000    0.063500531
    0.950000000    0.400000000    0.190501592
    0.000000000    0.250000000    0.317502653
    0.050000000    0.100000000    0.444503714
    0.100000000    0.950000000    0.571504775
    0.400000000    0.050000000    0.063500531
    0.450000000    0.900000000    0.190501592
    0.500000000    0.750000000    0.317502653
    0.550000000    0.600000000    0.444503714
    0.600000000    0.450000000    0.571504775
    0.700000000    0.150000000    0.063500531
    0.750000000    0.000000000    0.190501592
    0.800000000    0.850000000    0.317502653
    0.850000000    0.700000000    0.444503714
    0.900000000    0.550000000    0.571504775
    0.000000000    0.750000000    0.063500531
    0.050000000    0.600000000    0.190501592
    0.100000000    0.450000000    0.317502653
    0.150000000    0.300000000    0.444503714
    0.200000000    0.150000000    0.571504775
    0.300000000    0.850000000    0.063500531
    0.350000000    0.700000000    0.190501592
    0.400000000    0.550000000    0.317502653
    0.450000000    0.400000000    0.444503714
    0.500000000    0.250000000    0.571504775
    0.600000000    0.950000000    0.063500531
    0.650000000    0.800000000    0.190501592
    0.700000000    0.650000000    0.317502653
    0.750000000    0.500000000    0.444503714
    0.800000000    0.350000000    0.571504775
    0.100000000    0.450000000    0.063500531
    0.150000000    0.300000000    0.190501592
    0.200000000    0.150000000    0.317502653
    0.250000000    0.000000000    0.444503714
    0.300000000    0.850000000    0.571504775
    0.400000000    0.550000000    0.063500531
    0.450000000    0.400000000    0.190501592
    0.500000000    0.250000000    0.317502653
    0.550000000    0.100000000    0.444503714
    0.600000000    0.950000000    0.571504775
    0.700000000    0.650000000    0.063500531
    0.750000000    0.500000000    0.190501592
    0.800000000    0.350000000    0.317502653
    0.850000000    0.200000000    0.444503714
    0.900000000    0.050000000    0.571504775
    0.200000000    0.150000000    0.063500531
    0.250000000    0.000000000    0.190501592
    0.300000000    0.850000000    0.317502653
    0.350000000    0.700000000    0.444503714
    0.400000000    0.550000000    0.571504775
    0.500000000    0.250000000    0.063500531
    0.550000000    0.100000000    0.190501592
    0.600000000    0.950000000    0.317502653
    0.650000000    0.800000000    0.444503714
    0.700000000    0.650000000    0.571504775
    0.800000000    0.350000000    0.063500531
    0.850000000    0.200000000    0.190501592
    0.900000000    0.050000000    0.317502653
    0.950000000    0.900000000    0.444503714
    0.000000000    0.750000000    0.571504775
    0.900000000    0.050000000    0.063500531
    0.950000000    0.900000000    0.190501592
    0.000000000    0.750000000    0.317502653
    0.050000000    0.600000000    0.444503714
    0.100000000    0.450000000    0.571504775
    0.451550388    0.651162791    0.921203721
    0.284883721    0.401162791    0.713801584
    0.118217054    0.251162791    0.755282012
    0.951550388    0.101162791    0.796762439
    0.784883721    0.951162791    0.838242866
    0.618217054    0.801162791    0.879723294
    0.784883721    0.651162791    0.921203721
    0.618217054    0.401162791    0.713801584
    0.451550388    0.251162791    0.755282012
    0.284883721    0.101162791    0.796762439
    0.118217054    0.951162791    0.838242866
    0.951550388    0.801162791    0.879723294
    0.118217054    0.651162791    0.921203721
    0.951550388    0.401162791    0.713801584
    0.784883721    0.251162791    0.755282012
    0.618217054    0.101162791    0.796762439
    0.451550388    0.951162791    0.838242866
    0.284883721    0.801162791    0.879723294
    0.451550388    0.151162791    0.921203721
    0.284883721    0.901162791    0.713801584
    0.118217054    0.751162791    0.755282012
    0.951550388    0.601162791    0.796762439
    0.784883721    0.451162791    0.838242866
    0.618217054    0.301162791    0.879723294
    0.784883721    0.151162791    0.921203721
    0.618217054    0.901162791    0.713801584
    0.451550388    0.751162791    0.755282012
    0.284883721    0.601162791    0.796762439
    0.118217054    0.451162791    0.838242866
    0.951550388    0.301162791    0.879723294
    0.118217054    0.151162791    0.921203721
    0.951550388    0.901162791    0.713801584
    0.784883721    0.751162791    0.755282012
    0.618217054    0.601162791    0.796762439
    0.451550388    0.451162791    0.838242866
    0.284883721    0.301162791    0.879723294
    0.534883721    0.401162791    0.921203721
    0.368217054    0.151162791    0.713801584
    0.201550388    0.001162791    0.755282012
    0.034883721    0.851162791    0.796762439
    0.868217054    0.701162791    0.838242866
    0.701550388    0.551162791    0.879723294
    0.868217054    0.401162791    0.921203721
    0.701550388    0.151162791    0.713801584
    0.534883721    0.001162791    0.755282012
    0.368217054    0.851162791    0.796762439
    0.201550388    0.701162791    0.838242866
    0.034883721    0.551162791    0.879723294
    0.201550388    0.401162791    0.921203721
    0.034883721    0.151162791    0.713801584
    0.868217054    0.001162791    0.755282012
    0.701550388    0.851162791    0.796762439
    0.534883721    0.701162791    0.838242866
    0.368217054    0.551162791    0.879723294
    0.534883721    0.901162791    0.921203721
    0.368217054    0.651162791    0.713801584
    0.201550388    0.501162791    0.755282012
    0.034883721    0.351162791    0.796762439
    0.868217054    0.201162791    0.838242866
    0.701550388    0.051162791    0.879723294
    0.868217054    0.901162791    0.921203721
    0.701550388    0.651162791    0.713801584
    0.534883721    0.501162791    0.755282012
    0.368217054    0.351162791    0.796762439
    0.201550388    0.201162791    0.838242866
    0.034883721    0.051162791    0.879723294
    0.201550388    0.901162791    0.921203721
    0.034883721    0.651162791    0.713801584
    0.868217054    0.501162791    0.755282012
    0.701550388    0.351162791    0.796762439
    0.534883721    0.201162791    0.838242866
    0.368217054    0.051162791    0.879723294
