Si+C                                    
   1.00000000000000     
    13.3031797409999992    0.0000000000000000    0.0000000000000000
     6.6515893940000002   14.8734064099999994    0.0000000000000000
     0.0000000000000000    0.0000000000000000    8.3900594710000007
   Si   C 
    36    84
Direct
  0.9829056259999973  0.6581194999999980  0.0000000049999969
  0.7829055790000012  0.5581192969999975  0.1447438000000005
  0.5829054120000023  0.4581190939999971  0.2894876000000011
  0.9829056259999973  0.3247861270000030  0.0000000049999969
  0.7829055790000012  0.2247859690000027  0.1447438000000005
  0.5829054120000023  0.1247858030000017  0.2894876000000011
  0.9829056259999973  0.9914528130000022  0.0000000049999969
  0.7829055790000012  0.8914526699999996  0.1447438000000005
  0.5829054120000023  0.7914525269999970  0.2894876000000011
  0.6329056619999989  0.6914526819999978  0.0723717440000016
  0.4329055850000003  0.5914524789999973  0.2171155509999991
  0.2329055220000029  0.4914524260000022  0.3618593509999997
  0.6329056619999989  0.3581194280000020  0.0723717440000016
  0.4329055850000003  0.2581192849999994  0.2171155509999991
  0.2329055220000029  0.1581191419999968  0.3618593509999997
  0.6329056619999989  0.0247861369999995  0.0723717440000016
  0.4329055850000003  0.9247859720000022  0.2171155509999991
  0.2329055220000029  0.8247858289999996  0.3618593509999997
  0.4829056259999973  0.6581194999999980  0.0000000000000000
  0.2829055489999988  0.5581192969999975  0.1447438000000005
  0.0829054419999977  0.4581190939999971  0.2894876000000011
  0.4829056259999973  0.3247861270000030  0.0000000000000000
  0.2829055489999988  0.2247859539999979  0.1447438000000005
  0.0829054419999977  0.1247858110000024  0.2894876000000011
  0.4829056259999973  0.9914528130000022  0.0000000000000000
  0.2829055489999988  0.8914526699999996  0.1447438000000005
  0.0829054419999977  0.7914525269999970  0.2894876000000011
  0.1329056769999966  0.6914527420000027  0.0723717589999993
  0.9329055549999978  0.5914524789999973  0.2171155509999991
  0.7329055069999981  0.4914523959999997  0.3618593509999997
  0.1329056769999966  0.3581194879999998  0.0723717589999993
  0.9329055549999978  0.2581192849999994  0.2171155509999991
  0.7329055069999981  0.1581191269999991  0.3618593509999997
  0.1329056769999966  0.0247861369999995  0.0723717589999993
  0.9329055549999978  0.9247859720000022  0.2171155509999991
  0.7329055069999981  0.8247858289999996  0.3618593509999997
  0.4288988110000034  0.0462526680000011  0.5621044040000029
  0.4003272060000000  0.3176812829999989  0.6571646929999986
  0.3717556000000002  0.5891098979999967  0.7522249220000035
  0.5717559460000032  0.1891098170000021  0.5621044040000029
  0.5431844000000012  0.4605384170000022  0.6571646929999986
  0.5146128539999992  0.7319670919999979  0.7522249220000035
  0.7146130799999995  0.3319669660000031  0.5621044040000029
  0.6860414739999996  0.6033955810000009  0.6571646929999986
  0.6574699880000026  0.8748242859999991  0.7522249220000035
  0.8574702140000028  0.4748241010000029  0.5621044040000029
  0.8288986680000008  0.7462527750000021  0.6571646929999986
  0.8003271219999988  0.0176814789999966  0.7522249220000035
  0.0003273490000026  0.6176812650000016  0.5621044040000029
  0.9717557430000028  0.8891098499999970  0.6571646929999986
  0.9431841970000008  0.1605385089999984  0.7522249220000035
  0.1431844230000010  0.7605383399999965  0.5621044040000029
  0.1146129369999969  0.0319669949999977  0.6571646929999986
  0.0860414509999998  0.3033955690000028  0.7522249220000035
  0.2860417369999979  0.9033955929999991  0.5621044040000029
  0.2574701309999980  0.1748241929999992  0.6571646929999986
  0.2288985249999982  0.4462527629999968  0.7522249220000035
  0.5217559929999993  0.7891096469999965  0.6096344589999987
  0.4931844170000019  0.0605382440000000  0.7046946880000036
  0.4646129309999978  0.3319669369999971  0.7997549179999979
  0.6646130680000013  0.9319669010000027  0.6096344589999987
  0.6360415219999993  0.2033955599999970  0.7046946880000036
  0.6074699759999973  0.4748242499999975  0.7997549179999979
  0.8074702019999975  0.0748240499999966  0.6096344589999987
  0.7788986560000026  0.3462527390000005  0.7046946880000036
  0.7503270509999993  0.6176813240000030  0.7997548580000000
  0.9503273369999974  0.2176811100000009  0.6096344589999987
  0.9217557910000025  0.4891097550000012  0.7046946880000036
  0.8931841850000026  0.7605382799999987  0.7997548580000000
  0.0931844710000007  0.3605383929999988  0.6096344589999987
  0.0646128650000009  0.6319670079999966  0.7046946880000036
  0.0360413789999967  0.9033956529999969  0.7997548580000000
  0.2360415460000027  0.5033954980000033  0.6096344589999987
  0.2074700590000020  0.7748241419999999  0.7046946880000036
  0.1788985729999979  0.0462527979999976  0.7997549179999979
  0.3788988590000031  0.6462526319999995  0.6096344589999987
  0.3503272530000032  0.9176812769999998  0.7046946880000036
  0.3217556479999999  0.1891097580000007  0.7997548580000000
  0.5003273490000026  0.6176812049999967  0.5621044040000029
  0.4717558030000006  0.8891098499999970  0.6571646929999986
  0.4431842270000033  0.1605385089999984  0.7522249220000035
  0.6431844829999989  0.7605383399999965  0.5621044040000029
  0.6146129369999969  0.0319669949999977  0.6571646929999986
  0.5860414509999998  0.3033956889999985  0.7522249220000035
  0.7860416770000000  0.9033954739999999  0.5621044040000029
  0.7574701309999980  0.1748241929999992  0.6571646929999986
  0.7288985249999982  0.4462527629999968  0.7522248630000021
  0.9288988110000034  0.0462526680000011  0.5621044040000029
  0.9003272060000000  0.3176812829999989  0.6571646929999986
  0.8717557189999994  0.5891098979999967  0.7522249220000035
  0.0717558859999983  0.1891097580000007  0.5621044040000029
  0.0431844000000012  0.4605383869999997  0.6571646929999986
  0.0146129130000006  0.7319670320000000  0.7522249220000035
  0.2146131989999986  0.3319669660000031  0.5621044040000029
  0.1860415940000024  0.6033955810000009  0.6571646929999986
  0.1574699880000026  0.8748242260000012  0.7522249220000035
  0.3574702740000006  0.4748240710000005  0.5621044040000029
  0.3288986680000008  0.7462527160000008  0.6571646929999986
  0.3003270629999975  0.0176813599999974  0.7522249220000035
  0.4503273669999999  0.2176811400000034  0.6096344589999987
  0.4217557910000025  0.4891097550000012  0.7046946880000036
  0.3931841850000026  0.7605383989999979  0.7997548580000000
  0.5931845309999986  0.3605381850000029  0.6096344589999987
  0.5646129849999966  0.6319668289999996  0.7046946880000036
  0.5360414390000017  0.9033954140000020  0.7997548580000000
  0.7360416650000019  0.5033954980000033  0.6096344589999987
  0.7074700590000020  0.7748240829999986  0.7046946880000036
  0.6788985130000000  0.0462526789999984  0.7997549179999979
  0.8788987989999981  0.6462525729999982  0.6096344589999987
  0.8503272530000032  0.9176811580000006  0.7046946880000036
  0.8217557070000012  0.1891097580000007  0.7997549179999979
  0.0217559339999980  0.7891095880000023  0.6096344589999987
  0.9931843880000031  0.0605382440000000  0.7046946880000036
  0.9646128420000011  0.3319669369999971  0.7997549179999979
  0.1646130080000034  0.9319668409999977  0.6096344589999987
  0.1360414030000001  0.2033955599999970  0.7046946880000036
  0.1074699159999994  0.4748240110000026  0.7997549179999979
  0.3074702019999975  0.0748239309999974  0.6096344589999987
  0.2788985970000013  0.3462525010000022  0.7046946880000036
  0.2503269910000014  0.6176810859999975  0.7997548580000000
 
  0.00000000E+00  0.00000000E+00  0.00000000E+00
  0.00000000E+00  0.00000000E+00  0.00000000E+00
  0.00000000E+00  0.00000000E+00  0.00000000E+00
  0.00000000E+00  0.00000000E+00  0.00000000E+00
  0.00000000E+00  0.00000000E+00  0.00000000E+00
  0.00000000E+00  0.00000000E+00  0.00000000E+00
  0.00000000E+00  0.00000000E+00  0.00000000E+00
  0.00000000E+00  0.00000000E+00  0.00000000E+00
  0.00000000E+00  0.00000000E+00  0.00000000E+00
  0.00000000E+00  0.00000000E+00  0.00000000E+00
  0.00000000E+00  0.00000000E+00  0.00000000E+00
  0.00000000E+00  0.00000000E+00  0.00000000E+00
  0.00000000E+00  0.00000000E+00  0.00000000E+00
  0.00000000E+00  0.00000000E+00  0.00000000E+00
  0.00000000E+00  0.00000000E+00  0.00000000E+00
  0.00000000E+00  0.00000000E+00  0.00000000E+00
  0.00000000E+00  0.00000000E+00  0.00000000E+00
  0.00000000E+00  0.00000000E+00  0.00000000E+00
  0.00000000E+00  0.00000000E+00  0.00000000E+00
  0.00000000E+00  0.00000000E+00  0.00000000E+00
  0.00000000E+00  0.00000000E+00  0.00000000E+00
  0.00000000E+00  0.00000000E+00  0.00000000E+00
  0.00000000E+00  0.00000000E+00  0.00000000E+00
  0.00000000E+00  0.00000000E+00  0.00000000E+00
  0.00000000E+00  0.00000000E+00  0.00000000E+00
  0.00000000E+00  0.00000000E+00  0.00000000E+00
  0.00000000E+00  0.00000000E+00  0.00000000E+00
  0.00000000E+00  0.00000000E+00  0.00000000E+00
  0.00000000E+00  0.00000000E+00  0.00000000E+00
  0.00000000E+00  0.00000000E+00  0.00000000E+00
  0.00000000E+00  0.00000000E+00  0.00000000E+00
  0.00000000E+00  0.00000000E+00  0.00000000E+00
  0.00000000E+00  0.00000000E+00  0.00000000E+00
  0.00000000E+00  0.00000000E+00  0.00000000E+00
  0.00000000E+00  0.00000000E+00  0.00000000E+00
  0.00000000E+00  0.00000000E+00  0.00000000E+00
  0.00000000E+00  0.00000000E+00  0.00000000E+00
  0.00000000E+00  0.00000000E+00  0.00000000E+00
  0.00000000E+00  0.00000000E+00  0.00000000E+00
  0.00000000E+00  0.00000000E+00  0.00000000E+00
  0.00000000E+00  0.00000000E+00  0.00000000E+00
  0.00000000E+00  0.00000000E+00  0.00000000E+00
  0.00000000E+00  0.00000000E+00  0.00000000E+00
  0.00000000E+00  0.00000000E+00  0.00000000E+00
  0.00000000E+00  0.00000000E+00  0.00000000E+00
  0.00000000E+00  0.00000000E+00  0.00000000E+00
  0.00000000E+00  0.00000000E+00  0.00000000E+00
  0.00000000E+00  0.00000000E+00  0.00000000E+00
  0.00000000E+00  0.00000000E+00  0.00000000E+00
  0.00000000E+00  0.00000000E+00  0.00000000E+00
  0.00000000E+00  0.00000000E+00  0.00000000E+00
  0.00000000E+00  0.00000000E+00  0.00000000E+00
  0.00000000E+00  0.00000000E+00  0.00000000E+00
  0.00000000E+00  0.00000000E+00  0.00000000E+00
  0.00000000E+00  0.00000000E+00  0.00000000E+00
  0.00000000E+00  0.00000000E+00  0.00000000E+00
  0.00000000E+00  0.00000000E+00  0.00000000E+00
  0.00000000E+00  0.00000000E+00  0.00000000E+00
  0.00000000E+00  0.00000000E+00  0.00000000E+00
  0.00000000E+00  0.00000000E+00  0.00000000E+00
  0.00000000E+00  0.00000000E+00  0.00000000E+00
  0.00000000E+00  0.00000000E+00  0.00000000E+00
  0.00000000E+00  0.00000000E+00  0.00000000E+00
  0.00000000E+00  0.00000000E+00  0.00000000E+00
  0.00000000E+00  0.00000000E+00  0.00000000E+00
  0.00000000E+00  0.00000000E+00  0.00000000E+00
  0.00000000E+00  0.00000000E+00  0.00000000E+00
  0.00000000E+00  0.00000000E+00  0.00000000E+00
  0.00000000E+00  0.00000000E+00  0.00000000E+00
  0.00000000E+00  0.00000000E+00  0.00000000E+00
  0.00000000E+00  0.00000000E+00  0.00000000E+00
  0.00000000E+00  0.00000000E+00  0.00000000E+00
  0.00000000E+00  0.00000000E+00  0.00000000E+00
  0.00000000E+00  0.00000000E+00  0.00000000E+00
  0.00000000E+00  0.00000000E+00  0.00000000E+00
  0.00000000E+00  0.00000000E+00  0.00000000E+00
  0.00000000E+00  0.00000000E+00  0.00000000E+00
  0.00000000E+00  0.00000000E+00  0.00000000E+00
  0.00000000E+00  0.00000000E+00  0.00000000E+00
  0.00000000E+00  0.00000000E+00  0.00000000E+00
  0.00000000E+00  0.00000000E+00  0.00000000E+00
  0.00000000E+00  0.00000000E+00  0.00000000E+00
  0.00000000E+00  0.00000000E+00  0.00000000E+00
  0.00000000E+00  0.00000000E+00  0.00000000E+00
  0.00000000E+00  0.00000000E+00  0.00000000E+00
  0.00000000E+00  0.00000000E+00  0.00000000E+00
  0.00000000E+00  0.00000000E+00  0.00000000E+00
  0.00000000E+00  0.00000000E+00  0.00000000E+00
  0.00000000E+00  0.00000000E+00  0.00000000E+00
  0.00000000E+00  0.00000000E+00  0.00000000E+00
  0.00000000E+00  0.00000000E+00  0.00000000E+00
  0.00000000E+00  0.00000000E+00  0.00000000E+00
  0.00000000E+00  0.00000000E+00  0.00000000E+00
  0.00000000E+00  0.00000000E+00  0.00000000E+00
  0.00000000E+00  0.00000000E+00  0.00000000E+00
  0.00000000E+00  0.00000000E+00  0.00000000E+00
  0.00000000E+00  0.00000000E+00  0.00000000E+00
  0.00000000E+00  0.00000000E+00  0.00000000E+00
  0.00000000E+00  0.00000000E+00  0.00000000E+00
  0.00000000E+00  0.00000000E+00  0.00000000E+00
  0.00000000E+00  0.00000000E+00  0.00000000E+00
  0.00000000E+00  0.00000000E+00  0.00000000E+00
  0.00000000E+00  0.00000000E+00  0.00000000E+00
  0.00000000E+00  0.00000000E+00  0.00000000E+00
  0.00000000E+00  0.00000000E+00  0.00000000E+00
  0.00000000E+00  0.00000000E+00  0.00000000E+00
  0.00000000E+00  0.00000000E+00  0.00000000E+00
  0.00000000E+00  0.00000000E+00  0.00000000E+00
  0.00000000E+00  0.00000000E+00  0.00000000E+00
  0.00000000E+00  0.00000000E+00  0.00000000E+00
  0.00000000E+00  0.00000000E+00  0.00000000E+00
  0.00000000E+00  0.00000000E+00  0.00000000E+00
  0.00000000E+00  0.00000000E+00  0.00000000E+00
  0.00000000E+00  0.00000000E+00  0.00000000E+00
  0.00000000E+00  0.00000000E+00  0.00000000E+00
  0.00000000E+00  0.00000000E+00  0.00000000E+00
  0.00000000E+00  0.00000000E+00  0.00000000E+00
  0.00000000E+00  0.00000000E+00  0.00000000E+00
  0.00000000E+00  0.00000000E+00  0.00000000E+00
  0.00000000E+00  0.00000000E+00  0.00000000E+00
