Si+C                                    
   1.00000000000000     
    13.3031797409999992    0.0000000000000000    0.0000000000000000
     6.6515893940000002   14.8734064099999994    0.0000000000000000
     0.0000000000000000    0.0000000000000000    5.0299248700000003
   Si   C 
    36    84
Direct
  0.2832494969999999  0.6416247490000018  0.0000000739999990
  0.8165827990000025  0.4082912800000003  0.2414368990000000
  0.3499159810000023  0.1749577670000022  0.4828737970000034
  0.6165827510000028  0.3082913759999997  0.0000000900000003
  0.1499160529999983  0.0749579299999965  0.2414368990000000
  0.6832492349999981  0.8416244390000003  0.4828737679999975
  0.9499161239999978  0.9749580619999989  0.0000000630000017
  0.4832494850000018  0.7416245940000010  0.2414368990000000
  0.0165826679999981  0.5082911249999995  0.4828737679999975
  0.7999162670000004  0.7749580139999992  0.1207182560000035
  0.3332495089999981  0.5416245460000013  0.3621551390000022
  0.8665827510000028  0.3082910780000034  0.6035920380000022
  0.1332496850000027  0.4416247609999999  0.1207182779999982
  0.6665829419999980  0.2082912770000007  0.3621551390000022
  0.1999162440000006  0.9749577640000027  0.6035920380000022
  0.4665828939999983  0.1082915369999995  0.1207182779999982
  0.9999161360000031  0.8749580380000026  0.3621551390000022
  0.5332493780000007  0.6416245699999976  0.6035920380000022
  0.7832495569999978  0.6416247490000018  0.0000000000000000
  0.3165828289999979  0.4082912800000003  0.2414368840000023
  0.8499160410000002  0.1749577819999999  0.4828737970000034
  0.1165827960000030  0.3082914049999985  0.0000000900000003
  0.6499160529999983  0.0749579519999983  0.2414369429999965
  0.1832492950000031  0.8416244980000016  0.4828737970000034
  0.4499161239999978  0.9749580619999989  0.0000000900000003
  0.9832494260000004  0.7416245940000010  0.2414369429999965
  0.5165826679999981  0.5082911249999995  0.4828737970000034
  0.2999161779999966  0.7749581340000020  0.1207182779999982
  0.8332494499999967  0.5416246650000005  0.3621551990000000
  0.3665826920000015  0.3082911970000026  0.6035919790000008
  0.6332494019999970  0.4416247309999974  0.1207183080000007
  0.1665826440000018  0.2082912620000030  0.3621551990000000
  0.6999159459999973  0.9749578240000005  0.6035919190000030
  0.9665827159999978  0.1082915510000007  0.1207182779999982
  0.4999159569999989  0.8749580380000026  0.3621551990000000
  0.0332492590000015  0.6416246289999989  0.6035920380000022
  0.9970806239999987  0.0277341489999969  0.6035920380000022
  0.9685090179999989  0.2991627749999992  0.7621554139999986
  0.9399374719999969  0.5705913899999970  0.9207185510000002
  0.1399377440000009  0.1705912950000013  0.6035920380000022
  0.1113661899999983  0.4420199099999991  0.7621554139999986
  0.0827946590000010  0.7134485839999982  0.9207185510000002
  0.2827948930000019  0.3134484590000000  0.6035920380000022
  0.2542233169999975  0.5848770739999978  0.7621554139999986
  0.2256518009999979  0.8563057779999994  0.9207186699999994
  0.4256520269999982  0.4563055930000033  0.6035920380000022
  0.3970804810000033  0.7277342679999990  0.7621554139999986
  0.3685089350000013  0.9991629120000027  0.9207186699999994
  0.5685091610000015  0.5991627570000020  0.6035920380000022
  0.5399375559999982  0.8705913419999973  0.7621554139999986
  0.5113660100000033  0.1420199869999976  0.9207186699999994
  0.7113662960000013  0.7420198319999969  0.6035920380000022
  0.6827947499999993  0.0134484769999972  0.7621554139999986
  0.6542232039999973  0.2848770619999996  0.9207185510000002
  0.8542234900000025  0.8848770860000030  0.6035920380000022
  0.8256519440000005  0.1563056709999984  0.7621554139999986
  0.7970802780000028  0.4277342560000008  0.9207186699999994
  0.0899377840000000  0.7705911400000005  0.6828736069999977
  0.0613662410000018  0.0420197250000029  0.8414368629999984
  0.0327947440000003  0.3134484289999975  0.0000000000000000
  0.2327948809999967  0.9134483930000030  0.6828736069999977
  0.2042233350000018  0.1848770380000033  0.8414367439999992
  0.1756517740000021  0.4563057419999978  0.0000000000000000
  0.3756520450000025  0.0563055280000029  0.6828736069999977
  0.3470804689999980  0.3277342319999974  0.8414367439999992
  0.3185088629999981  0.5991628169999998  0.0000000000000000
  0.5185091499999999  0.1991625880000001  0.6828736069999977
  0.4899376329999967  0.4705912470000015  0.8414368629999984
  0.4613659979999980  0.7420197730000027  0.0000000000000000
  0.6613662840000032  0.3420198860000028  0.6828736069999977
  0.6327947380000012  0.6134485010000006  0.8414368629999984
  0.6042231919999992  0.8848771449999973  0.0000000000000000
  0.8042234179999994  0.4848769899999965  0.6828736069999977
  0.7756518719999974  0.7563056349999968  0.8414368629999984
  0.7470803860000004  0.0277342799999971  0.0000000000000000
  0.9470806120000006  0.6277341250000035  0.6828736069999977
  0.9185091260000036  0.8991627690000001  0.8414368629999984
  0.8899374599999987  0.1705912350000034  0.0000000000000000
  0.0685091389999997  0.5991626980000007  0.6035920380000022
  0.0399376189999998  0.8705913419999973  0.7621554139999986
  0.0113660370000019  0.1420199869999976  0.9207185510000002
  0.2113662809999965  0.7420198319999969  0.6035920380000022
  0.1827947499999993  0.0134484769999972  0.7621554139999986
  0.1542232629999987  0.2848771809999988  0.9207186699999994
  0.3542234900000025  0.8848769660000002  0.6035920380000022
  0.3256519729999994  0.1563056709999984  0.7621554139999986
  0.2970803380000007  0.4277342560000008  0.9207185510000002
  0.4970806239999987  0.0277341489999969  0.6035920380000022
  0.4685090179999989  0.2991627749999992  0.7621554139999986
  0.4399375019999994  0.5705913899999970  0.9207186699999994
  0.6399377580000021  0.1705912350000034  0.6035920380000022
  0.6113662120000001  0.4420198799999966  0.7621554139999986
  0.5827946659999981  0.7134485240000004  0.9207186699999994
  0.7827949520000033  0.3134484590000000  0.6035920380000022
  0.7542233469999999  0.5848770739999978  0.7621554139999986
  0.7256518599999993  0.8563057180000015  0.9207186699999994
  0.9256520870000031  0.4563055630000008  0.6035920380000022
  0.8970804810000033  0.7277342080000011  0.7621554139999986
  0.8685089350000013  0.9991627929999964  0.9207186699999994
  0.0185091720000017  0.1991626169999989  0.6828736069999977
  0.9899376629999992  0.4705912470000015  0.8414367439999992
  0.9613660569999993  0.7420198920000018  0.0000000000000000
  0.1613663290000034  0.3420196770000032  0.6828736069999977
  0.1327947830000014  0.6134483219999964  0.8414368629999984
  0.1042232440000035  0.8848769069999989  0.0000000000000000
  0.3042234480000019  0.4848769609999977  0.6828736069999977
  0.2756519019999999  0.7563055749999990  0.8414368629999984
  0.2470803260000025  0.0277341600000014  0.0000000000000000
  0.4470806120000006  0.6277340649999985  0.6828736069999977
  0.4185090360000032  0.8991626500000010  0.8414367439999992
  0.3899375199999966  0.1705912350000034  0.0000000000000000
  0.5899376870000026  0.7705910800000026  0.6828736069999977
  0.5613662000000019  0.0420197250000029  0.8414367439999992
  0.5327946539999999  0.3134484289999975  0.0000000000000000
  0.7327948209999988  0.9134483340000017  0.6828736069999977
  0.7042232749999968  0.1848770380000033  0.8414368629999984
  0.6756517290000019  0.4563055039999995  0.0000000000000000
  0.8756520150000000  0.0563054080000001  0.6828736069999977
  0.8470804099999967  0.3277339939999990  0.8414367439999992
  0.8185088039999968  0.5991625790000015  0.0000000000000000
 
  0.00000000E+00  0.00000000E+00  0.00000000E+00
  0.00000000E+00  0.00000000E+00  0.00000000E+00
  0.00000000E+00  0.00000000E+00  0.00000000E+00
  0.00000000E+00  0.00000000E+00  0.00000000E+00
  0.00000000E+00  0.00000000E+00  0.00000000E+00
  0.00000000E+00  0.00000000E+00  0.00000000E+00
  0.00000000E+00  0.00000000E+00  0.00000000E+00
  0.00000000E+00  0.00000000E+00  0.00000000E+00
  0.00000000E+00  0.00000000E+00  0.00000000E+00
  0.00000000E+00  0.00000000E+00  0.00000000E+00
  0.00000000E+00  0.00000000E+00  0.00000000E+00
  0.00000000E+00  0.00000000E+00  0.00000000E+00
  0.00000000E+00  0.00000000E+00  0.00000000E+00
  0.00000000E+00  0.00000000E+00  0.00000000E+00
  0.00000000E+00  0.00000000E+00  0.00000000E+00
  0.00000000E+00  0.00000000E+00  0.00000000E+00
  0.00000000E+00  0.00000000E+00  0.00000000E+00
  0.00000000E+00  0.00000000E+00  0.00000000E+00
  0.00000000E+00  0.00000000E+00  0.00000000E+00
  0.00000000E+00  0.00000000E+00  0.00000000E+00
  0.00000000E+00  0.00000000E+00  0.00000000E+00
  0.00000000E+00  0.00000000E+00  0.00000000E+00
  0.00000000E+00  0.00000000E+00  0.00000000E+00
  0.00000000E+00  0.00000000E+00  0.00000000E+00
  0.00000000E+00  0.00000000E+00  0.00000000E+00
  0.00000000E+00  0.00000000E+00  0.00000000E+00
  0.00000000E+00  0.00000000E+00  0.00000000E+00
  0.00000000E+00  0.00000000E+00  0.00000000E+00
  0.00000000E+00  0.00000000E+00  0.00000000E+00
  0.00000000E+00  0.00000000E+00  0.00000000E+00
  0.00000000E+00  0.00000000E+00  0.00000000E+00
  0.00000000E+00  0.00000000E+00  0.00000000E+00
  0.00000000E+00  0.00000000E+00  0.00000000E+00
  0.00000000E+00  0.00000000E+00  0.00000000E+00
  0.00000000E+00  0.00000000E+00  0.00000000E+00
  0.00000000E+00  0.00000000E+00  0.00000000E+00
  0.00000000E+00  0.00000000E+00  0.00000000E+00
  0.00000000E+00  0.00000000E+00  0.00000000E+00
  0.00000000E+00  0.00000000E+00  0.00000000E+00
  0.00000000E+00  0.00000000E+00  0.00000000E+00
  0.00000000E+00  0.00000000E+00  0.00000000E+00
  0.00000000E+00  0.00000000E+00  0.00000000E+00
  0.00000000E+00  0.00000000E+00  0.00000000E+00
  0.00000000E+00  0.00000000E+00  0.00000000E+00
  0.00000000E+00  0.00000000E+00  0.00000000E+00
  0.00000000E+00  0.00000000E+00  0.00000000E+00
  0.00000000E+00  0.00000000E+00  0.00000000E+00
  0.00000000E+00  0.00000000E+00  0.00000000E+00
  0.00000000E+00  0.00000000E+00  0.00000000E+00
  0.00000000E+00  0.00000000E+00  0.00000000E+00
  0.00000000E+00  0.00000000E+00  0.00000000E+00
  0.00000000E+00  0.00000000E+00  0.00000000E+00
  0.00000000E+00  0.00000000E+00  0.00000000E+00
  0.00000000E+00  0.00000000E+00  0.00000000E+00
  0.00000000E+00  0.00000000E+00  0.00000000E+00
  0.00000000E+00  0.00000000E+00  0.00000000E+00
  0.00000000E+00  0.00000000E+00  0.00000000E+00
  0.00000000E+00  0.00000000E+00  0.00000000E+00
  0.00000000E+00  0.00000000E+00  0.00000000E+00
  0.00000000E+00  0.00000000E+00  0.00000000E+00
  0.00000000E+00  0.00000000E+00  0.00000000E+00
  0.00000000E+00  0.00000000E+00  0.00000000E+00
  0.00000000E+00  0.00000000E+00  0.00000000E+00
  0.00000000E+00  0.00000000E+00  0.00000000E+00
  0.00000000E+00  0.00000000E+00  0.00000000E+00
  0.00000000E+00  0.00000000E+00  0.00000000E+00
  0.00000000E+00  0.00000000E+00  0.00000000E+00
  0.00000000E+00  0.00000000E+00  0.00000000E+00
  0.00000000E+00  0.00000000E+00  0.00000000E+00
  0.00000000E+00  0.00000000E+00  0.00000000E+00
  0.00000000E+00  0.00000000E+00  0.00000000E+00
  0.00000000E+00  0.00000000E+00  0.00000000E+00
  0.00000000E+00  0.00000000E+00  0.00000000E+00
  0.00000000E+00  0.00000000E+00  0.00000000E+00
  0.00000000E+00  0.00000000E+00  0.00000000E+00
  0.00000000E+00  0.00000000E+00  0.00000000E+00
  0.00000000E+00  0.00000000E+00  0.00000000E+00
  0.00000000E+00  0.00000000E+00  0.00000000E+00
  0.00000000E+00  0.00000000E+00  0.00000000E+00
  0.00000000E+00  0.00000000E+00  0.00000000E+00
  0.00000000E+00  0.00000000E+00  0.00000000E+00
  0.00000000E+00  0.00000000E+00  0.00000000E+00
  0.00000000E+00  0.00000000E+00  0.00000000E+00
  0.00000000E+00  0.00000000E+00  0.00000000E+00
  0.00000000E+00  0.00000000E+00  0.00000000E+00
  0.00000000E+00  0.00000000E+00  0.00000000E+00
  0.00000000E+00  0.00000000E+00  0.00000000E+00
  0.00000000E+00  0.00000000E+00  0.00000000E+00
  0.00000000E+00  0.00000000E+00  0.00000000E+00
  0.00000000E+00  0.00000000E+00  0.00000000E+00
  0.00000000E+00  0.00000000E+00  0.00000000E+00
  0.00000000E+00  0.00000000E+00  0.00000000E+00
  0.00000000E+00  0.00000000E+00  0.00000000E+00
  0.00000000E+00  0.00000000E+00  0.00000000E+00
  0.00000000E+00  0.00000000E+00  0.00000000E+00
  0.00000000E+00  0.00000000E+00  0.00000000E+00
  0.00000000E+00  0.00000000E+00  0.00000000E+00
  0.00000000E+00  0.00000000E+00  0.00000000E+00
  0.00000000E+00  0.00000000E+00  0.00000000E+00
  0.00000000E+00  0.00000000E+00  0.00000000E+00
  0.00000000E+00  0.00000000E+00  0.00000000E+00
  0.00000000E+00  0.00000000E+00  0.00000000E+00
  0.00000000E+00  0.00000000E+00  0.00000000E+00
  0.00000000E+00  0.00000000E+00  0.00000000E+00
  0.00000000E+00  0.00000000E+00  0.00000000E+00
  0.00000000E+00  0.00000000E+00  0.00000000E+00
  0.00000000E+00  0.00000000E+00  0.00000000E+00
  0.00000000E+00  0.00000000E+00  0.00000000E+00
  0.00000000E+00  0.00000000E+00  0.00000000E+00
  0.00000000E+00  0.00000000E+00  0.00000000E+00
  0.00000000E+00  0.00000000E+00  0.00000000E+00
  0.00000000E+00  0.00000000E+00  0.00000000E+00
  0.00000000E+00  0.00000000E+00  0.00000000E+00
  0.00000000E+00  0.00000000E+00  0.00000000E+00
  0.00000000E+00  0.00000000E+00  0.00000000E+00
  0.00000000E+00  0.00000000E+00  0.00000000E+00
  0.00000000E+00  0.00000000E+00  0.00000000E+00
  0.00000000E+00  0.00000000E+00  0.00000000E+00
  0.00000000E+00  0.00000000E+00  0.00000000E+00
  0.00000000E+00  0.00000000E+00  0.00000000E+00
