Ge+Si
    1.000000000
   16.973400116    0.000000000    0.000000000
    0.000000000   16.973400116    0.000000000
    0.000000000    0.000000000   17.861000061
Ge  Si 
108     120
Direct
    0.994305491    0.666666567    0.000000000
    0.827638865    0.666666567    0.158384174
    0.660972118    0.666666567    0.316768378
    0.994305491    0.333333284    0.000000000
    0.827638865    0.333333284    0.158384174
    0.660972118    0.333333284    0.316768378
    0.994305491    0.000000000    0.000000000
    0.827638865    0.000000000    0.158384174
    0.660972118    0.000000000    0.316768378
    0.327638805    0.666666567    0.000000000
    0.160972148    0.666666567    0.158384174
    0.994305432    0.666666567    0.316768378
    0.327638805    0.333333284    0.000000000
    0.160972148    0.333333284    0.158384174
    0.994305432    0.333333284    0.316768378
    0.327638805    0.000000000    0.000000000
    0.160972148    0.000000000    0.158384174
    0.994305432    0.000000000    0.316768378
    0.660972118    0.666666567    0.000000000
    0.494305432    0.666666567    0.158384174
    0.327638745    0.666666567    0.316768378
    0.660972118    0.333333284    0.000000000
    0.494305432    0.333333284    0.158384174
    0.327638745    0.333333284    0.316768378
    0.660972118    0.000000000    0.000000000
    0.494305432    0.000000000    0.158384174
    0.327638745    0.000000000    0.316768378
    0.077638842    0.916666567    0.079192095
    0.910972118    0.916666567    0.237576291
    0.744305491    0.916666567    0.395960480
    0.077638842    0.583333313    0.079192095
    0.910972118    0.583333313    0.237576291
    0.744305491    0.583333313    0.395960480
    0.077638842    0.249999955    0.079192095
    0.910972118    0.249999955    0.237576291
    0.744305491    0.249999955    0.395960480
    0.410972089    0.916666567    0.079192095
    0.244305417    0.916666567    0.237576291
    0.077638723    0.916666567    0.395960480
    0.410972089    0.583333313    0.079192095
    0.244305417    0.583333313    0.237576291
    0.077638723    0.583333313    0.395960480
    0.410972089    0.249999955    0.079192095
    0.244305417    0.249999955    0.237576291
    0.077638723    0.249999955    0.395960480
    0.744305491    0.916666567    0.079192095
    0.577638745    0.916666567    0.237576291
    0.410972059    0.916666567    0.395960480
    0.744305491    0.583333313    0.079192095
    0.577638745    0.583333313    0.237576291
    0.410972059    0.583333313    0.395960480
    0.744305491    0.249999955    0.079192095
    0.577638745    0.249999955    0.237576291
    0.410972059    0.249999955    0.395960480
    0.160972163    0.833333194    0.000000000
    0.994305491    0.833333194    0.158384174
    0.827638805    0.833333194    0.316768378
    0.160972163    0.499999911    0.000000000
    0.994305491    0.499999911    0.158384174
    0.827638805    0.499999911    0.316768378
    0.160972163    0.166666642    0.000000000
    0.994305491    0.166666642    0.158384174
    0.827638805    0.166666642    0.316768378
    0.494305432    0.833333194    0.000000000
    0.327638745    0.833333194    0.158384174
    0.160972074    0.833333194    0.316768378
    0.494305432    0.499999911    0.000000000
    0.327638745    0.499999911    0.158384174
    0.160972074    0.499999911    0.316768378
    0.494305432    0.166666642    0.000000000
    0.327638745    0.166666642    0.158384174
    0.160972074    0.166666642    0.316768378
    0.827638805    0.833333194    0.000000000
    0.660972118    0.833333194    0.158384174
    0.494305432    0.833333194    0.316768378
    0.827638805    0.499999911    0.000000000
    0.660972118    0.499999911    0.158384174
    0.494305432    0.499999911    0.316768378
    0.827638805    0.166666642    0.000000000
    0.660972118    0.166666642    0.158384174
    0.494305432    0.166666642    0.316768378
    0.244305462    0.749999881    0.079192095
    0.077638783    0.749999881    0.237576291
    0.910972118    0.749999881    0.395960480
    0.244305462    0.416666627    0.079192095
    0.077638783    0.416666627    0.237576291
    0.910972118    0.416666627    0.395960480
    0.244305462    0.083333328    0.079192095
    0.077638783    0.083333328    0.237576291
    0.910972118    0.083333328    0.395960480
    0.577638865    0.749999881    0.079192095
    0.410972148    0.749999881    0.237576291
    0.244305447    0.749999881    0.395960480
    0.577638865    0.416666627    0.079192095
    0.410972148    0.416666627    0.237576291
    0.244305447    0.416666627    0.395960480
    0.577638865    0.083333328    0.079192095
    0.410972148    0.083333328    0.237576291
    0.244305447    0.083333328    0.395960480
    0.910972178    0.749999881    0.079192095
    0.744305491    0.749999881    0.237576291
    0.577638745    0.749999881    0.395960480
    0.910972178    0.416666627    0.079192095
    0.744305491    0.416666627    0.237576291
    0.577638745    0.416666627    0.395960480
    0.910972178    0.083333328    0.079192095
    0.744305491    0.083333328    0.237576291
    0.577638745    0.083333328    0.395960480
    0.741966486    0.252937198    0.507936299
    0.691966534    0.902937114    0.659971476
    0.641966343    0.552936971    0.812006712
    0.841966510    0.952937245    0.507936299
    0.791966498    0.602937162    0.659971476
    0.741966367    0.252937078    0.812006712
    0.941966534    0.652937174    0.507936299
    0.891966462    0.302937120    0.659971476
    0.841966391    0.952936947    0.812006712
    0.041966558    0.352937162    0.507936299
    0.991966426    0.002937078    0.659971476
    0.941966355    0.652936935    0.812006712
    0.141966581    0.052937269    0.507936299
    0.091966510    0.702937126    0.659971476
    0.041966438    0.352936983    0.812006712
    0.241966486    0.752937198    0.507936299
    0.191966414    0.402937114    0.659971476
    0.141966343    0.052937031    0.812006712
    0.341966510    0.452937156    0.507936299
    0.291966438    0.102937102    0.659971476
    0.241966367    0.752936959    0.812006712
    0.441966653    0.152937293    0.507936299
    0.391966581    0.802937150    0.659971476
    0.341966510    0.452937067    0.812006712
    0.541966558    0.852937222    0.507936299
    0.491966486    0.502937138    0.659971476
    0.441966414    0.152936935    0.812006712
    0.641966581    0.552937210    0.507936299
    0.591966629    0.202937126    0.659971476
    0.541966438    0.852936983    0.812006712
    0.741966486    0.502937198    0.583953917
    0.691966414    0.152937055    0.735989094
    0.641966343    0.802936971    0.888024211
    0.841966510    0.202937126    0.583953917
    0.791966438    0.852937043    0.735989094
    0.741966367    0.502936900    0.888024211
    0.941966534    0.902937174    0.583953917
    0.891966462    0.552937031    0.735989094
    0.841966391    0.202937007    0.888024211
    0.041966558    0.602937102    0.583953917
    0.991966486    0.252937078    0.735989094
    0.941966414    0.902936995    0.888024211
    0.141966581    0.302937150    0.583953917
    0.091966391    0.952937067    0.735989094
    0.041966438    0.602936983    0.888024211
    0.241966605    0.002937198    0.583953917
    0.191966534    0.652937055    0.735989094
    0.141966462    0.302937031    0.888024211
    0.341966510    0.702937126    0.583953917
    0.291966438    0.352937013    0.735989094
    0.241966367    0.002936959    0.888024211
    0.441966653    0.402937174    0.583953917
    0.391966581    0.052937031    0.735989094
    0.341966510    0.702937007    0.888024211
    0.541966677    0.102937222    0.583953917
    0.491966486    0.752937078    0.735989094
    0.441966534    0.402936995    0.888024211
    0.641966581    0.802937150    0.583953917
    0.591966510    0.452937067    0.735989094
    0.541966438    0.102936983    0.888024211
    0.741966486    0.752937198    0.507936299
    0.691966534    0.402937114    0.659971476
    0.641966343    0.052937031    0.812006712
    0.841966510    0.452937186    0.507936299
    0.791966438    0.102937102    0.659971476
    0.741966367    0.752936959    0.812006712
    0.941966534    0.152937174    0.507936299
    0.891966462    0.802937090    0.659971476
    0.841966391    0.452936947    0.812006712
    0.041966558    0.852937162    0.507936299
    0.991966486    0.502937078    0.659971476
    0.941966414    0.152936935    0.812006712
    0.141966581    0.552937150    0.507936299
    0.091966510    0.202937126    0.659971476
    0.041966438    0.852936983    0.812006712
    0.241966486    0.252937078    0.507936299
    0.191966534    0.902937055    0.659971476
    0.141966343    0.552936912    0.812006712
    0.341966510    0.952937186    0.507936299
    0.291966438    0.602937102    0.659971476
    0.241966367    0.252936959    0.812006712
    0.441966534    0.652937174    0.507936299
    0.391966462    0.302937061    0.659971476
    0.341966391    0.952936947    0.812006712
    0.541966558    0.352937162    0.507936299
    0.491966486    0.002937078    0.659971476
    0.441966414    0.652936935    0.812006712
    0.641966581    0.052937269    0.507936299
    0.591966629    0.702937126    0.659971476
    0.541966438    0.352936983    0.812006712
    0.741966486    0.002937317    0.583953917
    0.691966414    0.652937114    0.735989094
    0.641966343    0.302937061    0.888024211
    0.841966510    0.702937186    0.583953917
    0.791966438    0.352937073    0.735989094
    0.741966367    0.002937078    0.888024211
    0.941966534    0.402937174    0.583953917
    0.891966462    0.052937031    0.735989094
    0.841966391    0.702937007    0.888024211
    0.041966558    0.102937222    0.583953917
    0.991966486    0.752937078    0.735989094
    0.941966414    0.402936995    0.888024211
    0.141966581    0.802937269    0.583953917
    0.091966510    0.452937156    0.735989094
    0.041966438    0.102937102    0.888024211
    0.241966486    0.502937138    0.583953917
    0.191966534    0.152937055    0.735989094
    0.141966343    0.802936971    0.888024211
    0.341966629    0.202937126    0.583953917
    0.291966438    0.852937102    0.735989094
    0.241966486    0.502937019    0.888024211
    0.441966534    0.902937233    0.583953917
    0.391966581    0.552937090    0.735989094
    0.341966391    0.202937126    0.888024211
    0.541966438    0.602937102    0.583953917
    0.491966486    0.252937078    0.735989094
    0.441966295    0.902936995    0.888024211
    0.641966581    0.302937150    0.583953917
    0.591966391    0.952937067    0.735989094
    0.541966438    0.602936924    0.888024211
