fcc Si+fcc Ge                           
   1.00000000000000     
    12.2536525170000008    0.0000000000000000    0.0000000000000000
   -14.7043830199999999    9.1697938909999994    0.0000000000000000
     0.0000000000000000    0.0000000000000000    8.0432255870000002
   Si   Ge
    24    24
Direct
  0.0000000000000000  0.0000000000000000  0.0000000000000000
  0.4285714290000016  0.6071428569999995  0.0910450410000010
  0.8571428569999995  0.2142857139999990  0.1820900820000020
  0.2857142860000010  0.8214285709999984  0.2731351230000030
  0.7142857139999990  0.4285714290000016  0.3641801639999969
  0.1428571430000005  0.0357142860000010  0.4552252049999979
  0.0000000000000000  0.5000000000000000  0.0000000000000000
  0.4285714290000016  0.1071428569999995  0.0910450410000010
  0.8571428569999995  0.7142857139999990  0.1820900820000020
  0.2857142860000010  0.3214285709999984  0.2731351230000030
  0.7142857139999990  0.9285714290000016  0.3641801639999969
  0.1428571430000005  0.5357142860000010  0.4552252049999979
  0.2500000000000000  0.7500000000000000  0.0000000000000000
  0.6785714290000016  0.3571428569999995  0.0910450410000010
  0.1071428569999995  0.9642857139999990  0.1820900820000020
  0.5357142860000010  0.5714285709999984  0.2731351230000030
  0.9642857139999990  0.1785714290000016  0.3641801639999969
  0.3928571430000005  0.7857142860000010  0.4552252049999979
  0.2500000000000000  0.2500000000000000  0.0000000000000000
  0.6785714290000016  0.8571428569999995  0.0910450410000010
  0.1071428569999995  0.4642857139999990  0.1820900820000020
  0.5357142860000010  0.0714285709999984  0.2731351230000030
  0.9642857139999990  0.6785714290000016  0.3641801639999969
  0.3928571430000005  0.2857142860000010  0.4552252049999979
  0.8770491800000002  0.2558139530000005  0.4925236739999974
  0.4484777520000023  0.6486710960000011  0.5865592449999966
  0.0199063230000007  0.0415282390000016  0.6805948169999994
  0.5913348950000028  0.4343853820000021  0.7746303879999985
  0.1627634660000012  0.8272425250000026  0.8686659600000013
  0.7341920369999997  0.2200996680000031  0.9627015310000004
  0.8770491800000002  0.7558139530000005  0.4925236739999974
  0.4484777520000023  0.1486710960000011  0.5865592449999966
  0.0199063230000007  0.5415282390000016  0.6805948169999994
  0.5913348950000028  0.9343853820000021  0.7746303879999985
  0.1627634660000012  0.3272425250000026  0.8686659600000013
  0.7341920369999997  0.7200996680000031  0.9627015310000004
  0.6270491800000002  0.5058139530000005  0.4925236739999974
  0.1984777520000023  0.8986710960000011  0.5865592449999966
  0.7699063230000007  0.2915282390000016  0.6805948169999994
  0.3413348950000028  0.6843853820000021  0.7746303879999985
  0.9127634660000012  0.0772425250000026  0.8686659600000013
  0.4841920369999997  0.4700996680000031  0.9627015310000004
  0.6270491800000002  0.0058139530000005  0.4925236739999974
  0.1984777520000023  0.3986710960000011  0.5865592449999966
  0.7699063230000007  0.7915282390000016  0.6805948169999994
  0.3413348950000028  0.1843853820000021  0.7746303879999985
  0.9127634660000012  0.5772425250000026  0.8686659600000013
  0.4841920369999997  0.9700996680000031  0.9627015310000004
 
  0.00000000E+00  0.00000000E+00  0.00000000E+00
  0.00000000E+00  0.00000000E+00  0.00000000E+00
  0.00000000E+00  0.00000000E+00  0.00000000E+00
  0.00000000E+00  0.00000000E+00  0.00000000E+00
  0.00000000E+00  0.00000000E+00  0.00000000E+00
  0.00000000E+00  0.00000000E+00  0.00000000E+00
  0.00000000E+00  0.00000000E+00  0.00000000E+00
  0.00000000E+00  0.00000000E+00  0.00000000E+00
  0.00000000E+00  0.00000000E+00  0.00000000E+00
  0.00000000E+00  0.00000000E+00  0.00000000E+00
  0.00000000E+00  0.00000000E+00  0.00000000E+00
  0.00000000E+00  0.00000000E+00  0.00000000E+00
  0.00000000E+00  0.00000000E+00  0.00000000E+00
  0.00000000E+00  0.00000000E+00  0.00000000E+00
  0.00000000E+00  0.00000000E+00  0.00000000E+00
  0.00000000E+00  0.00000000E+00  0.00000000E+00
  0.00000000E+00  0.00000000E+00  0.00000000E+00
  0.00000000E+00  0.00000000E+00  0.00000000E+00
  0.00000000E+00  0.00000000E+00  0.00000000E+00
  0.00000000E+00  0.00000000E+00  0.00000000E+00
  0.00000000E+00  0.00000000E+00  0.00000000E+00
  0.00000000E+00  0.00000000E+00  0.00000000E+00
  0.00000000E+00  0.00000000E+00  0.00000000E+00
  0.00000000E+00  0.00000000E+00  0.00000000E+00
  0.00000000E+00  0.00000000E+00  0.00000000E+00
  0.00000000E+00  0.00000000E+00  0.00000000E+00
  0.00000000E+00  0.00000000E+00  0.00000000E+00
  0.00000000E+00  0.00000000E+00  0.00000000E+00
  0.00000000E+00  0.00000000E+00  0.00000000E+00
  0.00000000E+00  0.00000000E+00  0.00000000E+00
  0.00000000E+00  0.00000000E+00  0.00000000E+00
  0.00000000E+00  0.00000000E+00  0.00000000E+00
  0.00000000E+00  0.00000000E+00  0.00000000E+00
  0.00000000E+00  0.00000000E+00  0.00000000E+00
  0.00000000E+00  0.00000000E+00  0.00000000E+00
  0.00000000E+00  0.00000000E+00  0.00000000E+00
  0.00000000E+00  0.00000000E+00  0.00000000E+00
  0.00000000E+00  0.00000000E+00  0.00000000E+00
  0.00000000E+00  0.00000000E+00  0.00000000E+00
  0.00000000E+00  0.00000000E+00  0.00000000E+00
  0.00000000E+00  0.00000000E+00  0.00000000E+00
  0.00000000E+00  0.00000000E+00  0.00000000E+00
  0.00000000E+00  0.00000000E+00  0.00000000E+00
  0.00000000E+00  0.00000000E+00  0.00000000E+00
  0.00000000E+00  0.00000000E+00  0.00000000E+00
  0.00000000E+00  0.00000000E+00  0.00000000E+00
  0.00000000E+00  0.00000000E+00  0.00000000E+00
  0.00000000E+00  0.00000000E+00  0.00000000E+00
