Si+Ge
    1.000000000
   16.293001175    0.000000000    0.000000000
    0.000000000   17.174329758    0.000000000
    0.000000000    0.000000439   18.072528839
Si  Ge 
72     144
Direct
    0.130378902    0.826204658    0.237575471
    0.963712454    0.076203912    0.000000033
    0.797045708    0.426204026    0.047515120
    0.630379081    0.776204169    0.095030189
    0.463712275    0.126204491    0.142545298
    0.297045529    0.476204634    0.190060392
    0.463712275    0.826204658    0.237575471
    0.297045797    0.076203912    0.000000033
    0.130379081    0.426204026    0.047515120
    0.963712394    0.776204169    0.095030189
    0.797045588    0.126204491    0.142545298
    0.630378842    0.476204634    0.190060392
    0.797045588    0.826204658    0.237575471
    0.630379140    0.076203912    0.000000033
    0.463712424    0.426204026    0.047515120
    0.297045767    0.776204169    0.095030189
    0.130378976    0.126204491    0.142545298
    0.963712215    0.476204634    0.190060392
    0.213712215    0.576204777    0.237575427
    0.047045767    0.826204002    0.000000000
    0.880379081    0.176204205    0.047515109
    0.713712335    0.526204467    0.095030159
    0.547045588    0.876204610    0.142545268
    0.380378962    0.226204634    0.190060332
    0.547045588    0.576204777    0.237575427
    0.380379081    0.826204002    0.000000000
    0.213712379    0.176204205    0.047515109
    0.047045693    0.526204467    0.095030159
    0.880378962    0.876204610    0.142545268
    0.713712335    0.226204634    0.190060332
    0.880378902    0.576204777    0.237575427
    0.713712394    0.826204002    0.000000000
    0.547045708    0.176204205    0.047515109
    0.380378991    0.526204467    0.095030159
    0.213712230    0.876204610    0.142545268
    0.047045581    0.226204634    0.190060332
    0.130378902    0.326204777    0.237575471
    0.963712394    0.576204002    0.000000013
    0.797045708    0.926204145    0.047515094
    0.630379021    0.276204228    0.095030159
    0.463712275    0.626204491    0.142545298
    0.297045648    0.976204634    0.190060332
    0.463712275    0.326204777    0.237575471
    0.297045767    0.576204002    0.000000013
    0.130379051    0.926204145    0.047515094
    0.963712394    0.276204228    0.095030159
    0.797045588    0.626204491    0.142545298
    0.630378962    0.976204634    0.190060332
    0.797045588    0.326204777    0.237575471
    0.630379140    0.576204002    0.000000013
    0.463712394    0.926204145    0.047515094
    0.297045738    0.276204228    0.095030159
    0.130378976    0.626204491    0.142545298
    0.963712335    0.976204634    0.190060332
    0.213712215    0.076204777    0.237575412
    0.047045767    0.326203912    0.000000033
    0.880379081    0.676204026    0.047515098
    0.713712394    0.026204228    0.095030166
    0.547045588    0.376204491    0.142545268
    0.380378842    0.726204753    0.190060332
    0.547045588    0.076204777    0.237575412
    0.380379111    0.326203912    0.000000033
    0.213712409    0.676204026    0.047515098
    0.047045726    0.026204228    0.095030166
    0.880378962    0.376204491    0.142545268
    0.713712215    0.726204753    0.190060332
    0.880378962    0.076204777    0.237575412
    0.713712454    0.326203912    0.000000033
    0.547045767    0.676204026    0.047515098
    0.380379081    0.026204228    0.095030166
    0.213712290    0.376204491    0.142545268
    0.047045540    0.726204753    0.190060332
    0.446479321    0.331281543    0.342078477
    0.321479321    0.164614916    0.452762157
    0.196479321    0.997948170    0.563445926
    0.071479321    0.831281483    0.674129546
    0.946479440    0.664614797    0.784813225
    0.821479321    0.497948110    0.895497024
    0.446479321    0.664614916    0.342078477
    0.321479321    0.497948170    0.452762157
    0.196479321    0.331281424    0.563445926
    0.071479321    0.164614797    0.674129546
    0.946479440    0.997948170    0.784813225
    0.821479321    0.831281424    0.895497024
    0.446479321    0.997948229    0.342078477
    0.321479321    0.831281543    0.452762157
    0.196479321    0.664614797    0.563445926
    0.071479321    0.497948170    0.674129546
    0.946479440    0.331281424    0.784813225
    0.821479321    0.164614797    0.895497024
    0.946479321    0.331281543    0.342078477
    0.821479321    0.164614916    0.452762187
    0.696479321    0.997948170    0.563445926
    0.571479321    0.831281483    0.674129605
    0.446479321    0.664614797    0.784813225
    0.321479321    0.497948110    0.895496905
    0.946479321    0.664614916    0.342078477
    0.821479321    0.497948170    0.452762187
    0.696479321    0.331281424    0.563445926
    0.571479321    0.164614797    0.674129605
    0.446479321    0.997948170    0.784813225
    0.321479321    0.831281424    0.895496905
    0.946479321    0.997948229    0.342078477
    0.821479321    0.831281543    0.452762187
    0.696479321    0.664614797    0.563445926
    0.571479321    0.497948170    0.674129605
    0.446479321    0.331281424    0.784813225
    0.321479321    0.164614797    0.895496905
    0.696479321    0.331281543    0.342078477
    0.571479321    0.164614916    0.452762187
    0.446479321    0.997948170    0.563445926
    0.321479321    0.831281483    0.674129605
    0.196479321    0.664614797    0.784813225
    0.071479321    0.497948110    0.895497024
    0.696479321    0.664614916    0.342078477
    0.571479321    0.497948170    0.452762187
    0.446479321    0.331281424    0.563445926
    0.321479321    0.164614797    0.674129605
    0.196479321    0.997948170    0.784813225
    0.071479321    0.831281424    0.895497024
    0.696479321    0.997948229    0.342078477
    0.571479321    0.831281543    0.452762187
    0.446479321    0.664614797    0.563445926
    0.321479321    0.497948170    0.674129605
    0.196479321    0.331281424    0.784813225
    0.071479321    0.164614797    0.895497024
    0.196479321    0.331281543    0.342078447
    0.071479321    0.164614916    0.452762187
    0.946479321    0.997948170    0.563445866
    0.821479321    0.831281483    0.674129605
    0.696479380    0.664614797    0.784813225
    0.571479321    0.497948110    0.895496905
    0.196479321    0.664614916    0.342078447
    0.071479321    0.497948170    0.452762187
    0.946479321    0.331281424    0.563445866
    0.821479321    0.164614797    0.674129605
    0.696479380    0.997948170    0.784813225
    0.571479321    0.831281424    0.895496905
    0.196479321    0.997948229    0.342078447
    0.071479321    0.831281543    0.452762187
    0.946479321    0.664614797    0.563445866
    0.821479321    0.497948170    0.674129605
    0.696479380    0.331281424    0.784813225
    0.571479321    0.164614797    0.895496905
    0.821479321    0.581281543    0.342078447
    0.696479321    0.414614856    0.452762157
    0.571479321    0.247948170    0.563445866
    0.446479321    0.081281424    0.674129605
    0.321479321    0.914614797    0.784813225
    0.196479321    0.747948110    0.895497024
    0.821479321    0.914614916    0.342078447
    0.696479321    0.747948229    0.452762157
    0.571479321    0.581281543    0.563445866
    0.446479321    0.414614856    0.674129605
    0.321479321    0.247948170    0.784813225
    0.196479321    0.081281424    0.895497024
    0.821479321    0.247948170    0.342078447
    0.696479321    0.081281543    0.452762157
    0.571479321    0.914614797    0.563445866
    0.446479321    0.747948170    0.674129605
    0.321479321    0.581281483    0.784813225
    0.196479321    0.414614797    0.895497024
    0.321479440    0.581281543    0.342078447
    0.196479440    0.414614856    0.452762157
    0.071479440    0.247948170    0.563445866
    0.946479440    0.081281424    0.674129546
    0.821479440    0.914614797    0.784813225
    0.696479440    0.747948110    0.895496905
    0.321479440    0.914614916    0.342078447
    0.196479440    0.747948229    0.452762157
    0.071479440    0.581281543    0.563445866
    0.946479440    0.414614856    0.674129546
    0.821479440    0.247948170    0.784813225
    0.696479440    0.081281424    0.895496905
    0.321479440    0.247948170    0.342078447
    0.196479440    0.081281543    0.452762157
    0.071479440    0.914614797    0.563445866
    0.946479440    0.747948170    0.674129546
    0.821479440    0.581281483    0.784813225
    0.696479440    0.414614797    0.895496905
    0.571479321    0.581281543    0.342078477
    0.446479321    0.414614856    0.452762187
    0.321479321    0.247948170    0.563445866
    0.196479321    0.081281424    0.674129605
    0.071479321    0.914614797    0.784813225
    0.946479321    0.747948110    0.895496905
    0.571479321    0.914614916    0.342078477
    0.446479321    0.747948229    0.452762187
    0.321479321    0.581281543    0.563445866
    0.196479321    0.414614856    0.674129605
    0.071479321    0.247948170    0.784813225
    0.946479321    0.081281424    0.895496905
    0.571479321    0.247948170    0.342078477
    0.446479321    0.081281543    0.452762187
    0.321479321    0.914614797    0.563445866
    0.196479321    0.747948170    0.674129605
    0.071479321    0.581281483    0.784813225
    0.946479321    0.414614797    0.895496905
    0.071479321    0.581281543    0.342078447
    0.946479321    0.414614856    0.452762187
    0.821479321    0.247948170    0.563445866
    0.696479321    0.081281424    0.674129605
    0.571479380    0.914614797    0.784813225
    0.446479321    0.747948110    0.895496905
    0.071479321    0.914614916    0.342078447
    0.946479321    0.747948229    0.452762187
    0.821479321    0.581281543    0.563445866
    0.696479321    0.414614856    0.674129605
    0.571479380    0.247948170    0.784813225
    0.446479321    0.081281424    0.895496905
    0.071479321    0.247948170    0.342078447
    0.946479321    0.081281543    0.452762187
    0.821479321    0.914614797    0.563445866
    0.696479321    0.747948170    0.674129605
    0.571479380    0.581281483    0.784813225
    0.446479321    0.414614797    0.895496905
