Sn+Ge
    1.000000000
   11.239624023    0.000000000    0.000000000
    0.000000000   15.895229340    0.000000000
    0.000000000    0.000000000   25.800941467
Sn  Ge 
72     96
Direct
    0.000000000    0.017979516    0.000000001
    0.999999940    0.267979592    0.088922292
    0.999999881    0.517979741    0.177844599
    0.999999821    0.767979920    0.266766906
    0.999999821    0.017979980    0.355689198
    0.999999762    0.267980099    0.444611549
    0.333333373    0.351312876    0.000000001
    0.333333313    0.601312876    0.088922292
    0.333333313    0.851313055    0.177844599
    0.333333224    0.101313233    0.266766906
    0.333333224    0.351313353    0.355689198
    0.333333164    0.601313472    0.444611549
    0.666666746    0.684646249    0.000000001
    0.666666687    0.934646249    0.088922292
    0.666666806    0.184646487    0.177844599
    0.666666508    0.434646487    0.266766906
    0.666666567    0.684646606    0.355689198
    0.666666567    0.934646845    0.444611549
    0.000000030    0.517979562    0.000000002
    0.999999940    0.767979622    0.088922285
    0.999999881    0.017979741    0.177844599
    0.999999881    0.267979860    0.266766876
    0.999999821    0.517979980    0.355689198
    0.999999762    0.767980099    0.444611549
    0.333333373    0.851312876    0.000000002
    0.333333343    0.101312995    0.088922285
    0.333333373    0.351313233    0.177844599
    0.333333254    0.601313233    0.266766876
    0.333333284    0.851313353    0.355689198
    0.333333105    0.101313591    0.444611549
    0.666666806    0.184646204    0.000000000
    0.666666627    0.434646249    0.088922285
    0.666666687    0.684646428    0.177844599
    0.666666627    0.934646487    0.266766876
    0.666666508    0.184646606    0.355689198
    0.666666567    0.434646726    0.444611520
    0.083333321    0.351312846    0.000000005
    0.083333246    0.601312876    0.088922285
    0.083333291    0.851313055    0.177844599
    0.083333127    0.101313114    0.266766906
    0.083333127    0.351313233    0.355689198
    0.083333135    0.601313353    0.444611520
    0.416666716    0.684646189    0.000000005
    0.416666627    0.934646249    0.088922292
    0.416666657    0.184646487    0.177844599
    0.416666597    0.434646606    0.266766876
    0.416666389    0.684646606    0.355689198
    0.416666508    0.934646726    0.444611520
    0.750000000    0.017979547    0.000000012
    0.750000000    0.267979592    0.088922299
    0.749999940    0.517979741    0.177844599
    0.749999821    0.767979860    0.266766876
    0.749999821    0.017979980    0.355689198
    0.749999821    0.267980099    0.444611520
    0.083333336    0.851312935    0.000000000
    0.083333276    0.101312995    0.088922307
    0.083333224    0.351313114    0.177844584
    0.083333246    0.601313472    0.266766906
    0.083333135    0.851313353    0.355689228
    0.083333075    0.101313591    0.444611520
    0.416666716    0.184646204    0.000000004
    0.416666657    0.434646249    0.088922292
    0.416666567    0.684646428    0.177844599
    0.416666567    0.934646547    0.266766906
    0.416666567    0.184646606    0.355689198
    0.416666448    0.434646726    0.444611520
    0.750000000    0.517979503    0.000000003
    0.749999940    0.767979622    0.088922292
    0.750000000    0.017979741    0.177844599
    0.749999881    0.267979860    0.266766906
    0.749999821    0.517979860    0.355689198
    0.749999762    0.767980099    0.444611520
    0.087779880    0.493968844    0.528481960
    0.837779820    0.118968815    0.606011569
    0.587779880    0.743968785    0.683541059
    0.337779999    0.368968934    0.761070490
    0.087779880    0.993968785    0.838600039
    0.837779820    0.618968785    0.916129529
    0.587779880    0.493968844    0.528481960
    0.337779880    0.118968815    0.606011569
    0.087779880    0.743968785    0.683541059
    0.837779939    0.368968934    0.761070490
    0.587779939    0.993968785    0.838600039
    0.337779880    0.618968785    0.916129529
    0.087779880    0.993968785    0.528481960
    0.837779820    0.618968785    0.606011569
    0.587779880    0.243968815    0.683541059
    0.337779999    0.868969023    0.761070490
    0.087779880    0.493968815    0.838600099
    0.837779820    0.118968815    0.916129529
    0.587779880    0.993968785    0.528481960
    0.337779880    0.618968785    0.606011569
    0.087779880    0.243968815    0.683541059
    0.837779939    0.868969023    0.761070490
    0.587779939    0.493968815    0.838600099
    0.337779880    0.118968815    0.916129529
    0.087779880    0.743968785    0.528481960
    0.837779820    0.368968815    0.606011569
    0.587779880    0.993968785    0.683541059
    0.337779999    0.618968904    0.761070490
    0.087779880    0.243968874    0.838600099
    0.837779820    0.868968785    0.916129529
    0.587779880    0.743968785    0.528481960
    0.337779880    0.368968815    0.606011569
    0.087779880    0.993968785    0.683541059
    0.837779939    0.618968904    0.761070490
    0.587779939    0.243968874    0.838600099
    0.337779880    0.868968785    0.916129529
    0.087779880    0.243968830    0.528481960
    0.837779820    0.868968785    0.606011569
    0.587779880    0.493968815    0.683541059
    0.337779999    0.118968934    0.761070490
    0.087779880    0.743968904    0.838600039
    0.837779820    0.368968815    0.916129529
    0.587779880    0.243968830    0.528481960
    0.337779880    0.868968785    0.606011569
    0.087779880    0.493968815    0.683541059
    0.837779939    0.118968934    0.761070490
    0.587779939    0.743968904    0.838600039
    0.337779880    0.368968815    0.916129529
    0.462779850    0.618968844    0.528481960
    0.212779880    0.243968844    0.606011569
    0.962779880    0.868968785    0.683541059
    0.712779939    0.493968934    0.761070490
    0.462779880    0.118968874    0.838600099
    0.212779820    0.743968785    0.916129529
    0.962779939    0.618968844    0.528481960
    0.712779880    0.243968844    0.606011569
    0.462779909    0.868968785    0.683541059
    0.212779999    0.493968934    0.761070490
    0.962779939    0.118968874    0.838600099
    0.712779880    0.743968785    0.916129529
    0.462779850    0.118968815    0.528481960
    0.212779880    0.743968785    0.606011569
    0.962779880    0.368968815    0.683541059
    0.712779939    0.993968904    0.761070490
    0.462779880    0.618968904    0.838600039
    0.212779820    0.243968695    0.916129529
    0.962779939    0.118968815    0.528481960
    0.712779880    0.743968785    0.606011569
    0.462779909    0.368968815    0.683541059
    0.212779999    0.993968904    0.761070490
    0.962779939    0.618968904    0.838600039
    0.712779880    0.243968695    0.916129529
    0.462779850    0.868968844    0.528481960
    0.212779880    0.493968874    0.606011569
    0.962779880    0.118968859    0.683541059
    0.712779939    0.743968964    0.761070490
    0.462779880    0.368968934    0.838600039
    0.212779820    0.993968785    0.916129529
    0.962779939    0.868968844    0.528481960
    0.712779880    0.493968874    0.606011569
    0.462779909    0.118968859    0.683541059
    0.212779999    0.743968964    0.761070490
    0.962779939    0.368968934    0.838600039
    0.712779880    0.993968785    0.916129529
    0.462779850    0.368968815    0.528481960
    0.212779880    0.993968785    0.606011569
    0.962779880    0.618968785    0.683541059
    0.712779939    0.243968934    0.761070490
    0.462779880    0.868968785    0.838600039
    0.212779820    0.493968815    0.916129529
    0.962779939    0.368968815    0.528481960
    0.712779880    0.993968785    0.606011569
    0.462779909    0.618968785    0.683541059
    0.212779999    0.243968934    0.761070490
    0.962779939    0.868968785    0.838600039
    0.712779880    0.493968815    0.916129529
