Si+C
    1.000000000
   13.303179741    0.000000000    0.000000000
    6.651589394   11.520891190    0.000000000
    0.000000000    0.000000000   21.679416656
Si  C  
72     308
Direct
    0.000000000    0.318506181    0.289268821
    0.000000000    0.985172927    0.000000014
    0.000000000    0.651839554    0.144634426
    0.333333343    0.651839614    0.289268792
    0.333333343    0.318506300    0.000000009
    0.333333343    0.985172868    0.144634411
    0.666666687    0.985172927    0.289268792
    0.666666687    0.651839614    0.000000006
    0.666666687    0.318506241    0.144634411
    0.333333343    0.318506062    0.325427473
    0.333333343    0.985172868    0.036158625
    0.333333343    0.651839495    0.180793017
    1.000000000    0.985172808    0.325427473
    1.000000000    0.651839614    0.036158621
    1.000000000    0.318506271    0.180793017
    0.666666746    0.651839375    0.325427473
    0.666666746    0.318506211    0.036158632
    0.666666746    0.985172868    0.180793017
    0.500000000    0.318506241    0.289268792
    0.500000000    0.985172927    0.000000010
    0.500000000    0.651839554    0.144634411
    0.166666672    0.985172927    0.289268792
    0.166666672    0.651839674    0.000000001
    0.166666672    0.318506241    0.144634411
    0.833333373    0.651839614    0.289268792
    0.833333373    0.318506300    0.000000001
    0.833333373    0.985172927    0.144634411
    0.166666657    0.651839554    0.325427383
    0.166666657    0.318506300    0.036158580
    0.166666657    0.985172868    0.180792972
    0.833333433    0.318506181    0.325427413
    0.833333433    0.985172927    0.036158595
    0.833333433    0.651839495    0.180792987
    0.500000060    0.985172868    0.325427413
    0.500000060    0.651839614    0.036158599
    0.500000060    0.318506211    0.180793017
    0.166666672    0.485172927    0.289268792
    0.166666672    0.151839614    0.000000010
    0.166666672    0.818506241    0.144634411
    0.500000000    0.818506241    0.289268821
    0.500000000    0.485172987    0.000000016
    0.500000000    0.151839584    0.144634426
    0.833333373    0.151839629    0.289268792
    0.833333373    0.818506360    0.000000000
    0.833333373    0.485173017    0.144634381
    0.500000000    0.485172868    0.325427413
    0.500000000    0.151839614    0.036158595
    0.500000000    0.818506241    0.180792987
    0.166666672    0.151839569    0.325427383
    0.166666672    0.818506360    0.036158573
    0.166666672    0.485172927    0.180792972
    0.833333373    0.818506181    0.325427383
    0.833333373    0.485172927    0.036158573
    0.833333373    0.151839525    0.180792972
    0.000000000    0.818506241    0.289268792
    0.000000000    0.485172957    0.000000009
    0.000000000    0.151839554    0.144634411
    0.666666687    0.485172868    0.289268792
    0.666666687    0.151839599    0.000000009
    0.666666687    0.818506181    0.144634411
    0.333333313    0.151839495    0.289268792
    0.333333313    0.818506241    0.000000002
    0.333333313    0.485172868    0.144634381
    0.000000000    0.485172808    0.325427473
    0.000000000    0.151839659    0.036158618
    0.000000000    0.818506300    0.180793017
    0.333333343    0.818506122    0.325427473
    0.333333343    0.485172957    0.036158621
    0.333333343    0.151839599    0.180793017
    0.666666687    0.151839525    0.325427443
    0.666666687    0.818506300    0.036158618
    0.666666687    0.485172957    0.180792987
    0.575454414    0.439091116    0.876437724
    0.908788025    0.772424519    0.496484071
    0.575454772    0.439091176    0.591472447
    0.242121145    0.105757691    0.686460912
    0.908787906    0.772424400    0.781449258
    0.861168802    0.581948221    0.876437724
    0.194502354    0.915281594    0.496484071
    0.861169040    0.581948340    0.591472447
    0.527835488    0.248614818    0.686460912
    0.194502100    0.915281475    0.781449258
    0.718311608    0.010519505    0.876437783
    0.051645160    0.343852997    0.496484041
    0.718311846    0.010519743    0.591472447
    0.384978294    0.677186251    0.686460912
    0.051644921    0.343852848    0.781449258
    0.146882892    0.724805295    0.876437783
    0.480216622    0.058138721    0.496484071
    0.146883249    0.724805415    0.591472447
    0.813549817    0.391471952    0.686460912
    0.480216384    0.058138587    0.781449258
    0.004025698    0.153376669    0.876437724
    0.337359518    0.486710191    0.496484011
    0.004026055    0.153376848    0.591472447
    0.670692742    0.820043504    0.686460853
    0.337359190    0.486710042    0.781449258
    0.432597280    0.867662370    0.876437724
    0.765930951    0.200995892    0.496484011
    0.432597578    0.867662549    0.591472447
    0.099264145    0.534329236    0.686460793
    0.765930653    0.200995773    0.781449258
    0.289740145    0.296233863    0.876437724
    0.623073757    0.629567266    0.496484071
    0.289740413    0.296233952    0.591472447
    0.956406891    0.962900519    0.686460912
    0.623073518    0.629567146    0.781449258
    0.670692623    0.820043504    0.900184751
    0.337359548    0.486710131    0.425242722
    0.004026175    0.153376818    0.520231128
    0.670692682    0.820043445    0.615219593
    0.337359250    0.486709923    0.710207999
    0.004025817    0.153376609    0.805196404
    0.099264026    0.534329236    0.900184751
    0.765930951    0.200995922    0.425242722
    0.432597578    0.867662609    0.520231128
    0.099264145    0.534329236    0.615219533
    0.765930593    0.200995654    0.710207999
    0.432597280    0.867662370    0.805196404
    0.956406891    0.962900579    0.900184751
    0.623073757    0.629567325    0.425242722
    0.289740443    0.296233952    0.520231128
    0.956407011    0.962900579    0.615219533
    0.623073459    0.629567087    0.710207999
    0.289740086    0.296233743    0.805196404
    0.384978235    0.677186310    0.900184751
    0.051645160    0.343853027    0.425242722
    0.718311846    0.010519624    0.520231128
    0.384978414    0.677186310    0.615219533
    0.051644802    0.343852788    0.710207999
    0.718311489    0.010519505    0.805196404
    0.813549697    0.391472131    0.900184751
    0.480216682    0.058138750    0.425242722
    0.146883249    0.724805415    0.520231128
    0.813549817    0.391472012    0.615219593
    0.480216324    0.058138527    0.710207999
    0.146882892    0.724805176    0.805196404
    0.242121205    0.105757691    0.900184751
    0.908788145    0.772424459    0.425242752
    0.575454772    0.439091086    0.520231128
    0.242121324    0.105757684    0.615219593
    0.908787787    0.772424221    0.710207999
    0.575454473    0.439090878    0.805196404
    0.527835310    0.248614877    0.900184751
    0.194502428    0.915281594    0.425242692
    0.861169040    0.581948280    0.520231068
    0.527835727    0.248614967    0.615219533
    0.194502100    0.915281475    0.710207939
    0.861168683    0.581948102    0.805196404
    0.789740145    0.796233952    0.876437724
    0.123073697    0.129567295    0.496484041
    0.789740384    0.796234012    0.591472447
    0.456406891    0.462900490    0.686460912
    0.123073459    0.129567176    0.781449258
    0.218311593    0.510519564    0.876437724
    0.551645160    0.843853056    0.496484011
    0.218311846    0.510519743    0.591472447
    0.884978354    0.177186221    0.686460912
    0.551644981    0.843852937    0.781449258
    0.646883070    0.224805206    0.876437724
    0.980216682    0.558138728    0.496484011
    0.646883249    0.224805355    0.591472447
    0.313549876    0.891472042    0.686460853
    0.980216324    0.558138549    0.781449258
    0.075454354    0.939091027    0.876437724
    0.408788085    0.272424459    0.496484041
    0.075454593    0.939091146    0.591472447
    0.742121279    0.605757773    0.686460853
    0.408787727    0.272424251    0.781449258
    0.504025817    0.653376639    0.876437724
    0.837359548    0.986710250    0.496484011
    0.504026115    0.653376877    0.591472447
    0.170692682    0.320043534    0.686460793
    0.837359250    0.986710131    0.781449199
    0.932597339    0.367662400    0.876437724
    0.265930891    0.700995862    0.496484041
    0.932597578    0.367662579    0.591472447
    0.599264026    0.034329057    0.686460912
    0.265930712    0.700995743    0.781449258
    0.361168802    0.081948139    0.876437783
    0.694502354    0.415281564    0.496484071
    0.361169040    0.081948280    0.591472447
    0.027835488    0.748614848    0.686460912
    0.694502115    0.415281445    0.781449258
    0.742121041    0.605757654    0.900184751
    0.408788085    0.272424459    0.425242692
    0.075454712    0.939091146    0.520231068
    0.742121398    0.605757833    0.615219533
    0.408787787    0.272424251    0.710207939
    0.075454354    0.939091027    0.805196404
    0.599263966    0.034329057    0.900184751
    0.265930980    0.700995862    0.425242692
    0.932597578    0.367662519    0.520231068
    0.599264264    0.034329176    0.615219533
    0.265930653    0.700995743    0.710207939
    0.932597339    0.367662340    0.805196404
    0.027835369    0.748614728    0.900184751
    0.694502413    0.415281594    0.425242692
    0.361168981    0.081948236    0.520231068
    0.027835608    0.748614967    0.615219533
    0.694502056    0.415281385    0.710207939
    0.361168683    0.081948079    0.805196404
    0.456406772    0.462900430    0.900184751
    0.123073816    0.129567295    0.425242692
    0.789740384    0.796233952    0.520231068
    0.456407070    0.462900668    0.615219533
    0.123073459    0.129567116    0.710207939
    0.789740145    0.796233833    0.805196404
    0.884978235    0.177186221    0.900184751
    0.551645279    0.843853056    0.425242692
    0.218311831    0.510519683    0.520231068
    0.884978533    0.177186370    0.615219533
    0.551644921    0.843852878    0.710207939
    0.218311533    0.510519564    0.805196345
    0.313549697    0.891471922    0.900184751
    0.980216742    0.558138728    0.425242722
    0.646883309    0.224805355    0.520231128
    0.313549995    0.891472101    0.615219533
    0.980216444    0.558138549    0.710207939
    0.646883070    0.224805206    0.805196404
    0.170692444    0.320043296    0.900184751
    0.837359548    0.986710131    0.425242722
    0.504026115    0.653376758    0.520231128
    0.170692801    0.320043445    0.615219533
    0.837359250    0.986709952    0.710207999
    0.504025817    0.653376579    0.805196404
    0.718311608    0.510519564    0.876437783
    0.051645160    0.843853056    0.496484071
    0.718311846    0.510519743    0.591472447
    0.384978294    0.177186221    0.686460912
    0.051644921    0.843852937    0.781449258
    0.575454533    0.939091027    0.876437783
    0.908788085    0.272424430    0.496484071
    0.575454712    0.939091146    0.591472447
    0.242121145    0.605757654    0.686460912
    0.908787787    0.272424310    0.781449258
    0.004025817    0.653376758    0.876437783
    0.337359488    0.986710191    0.496484041
    0.004026175    0.653376877    0.591472447
    0.670692623    0.320043355    0.686460912
    0.337359250    0.986710012    0.781449258
    0.861168683    0.081948139    0.876437783
    0.194502354    0.415281683    0.496484011
    0.861168921    0.081948310    0.591472447
    0.527835608    0.748614967    0.686460793
    0.194502041    0.415281564    0.781449258
    0.289740086    0.796233833    0.876437724
    0.623073816    0.129567355    0.496484011
    0.289740443    0.796234012    0.591472447
    0.956407070    0.462900668    0.686460853
    0.623073578    0.129567236    0.781449258
    0.146882892    0.224805325    0.876437724
    0.480216622    0.558138728    0.496484071
    0.146883249    0.224805415    0.591472447
    0.813549757    0.891471982    0.686460912
    0.480216384    0.558138669    0.781449258
    0.432597339    0.367662400    0.876437783
    0.765930891    0.700995862    0.496484071
    0.432597578    0.367662549    0.591472447
    0.099264026    0.034329057    0.686460912
    0.765930712    0.700995743    0.781449258
    0.956406653    0.462900430    0.900184751
    0.623073757    0.129567295    0.425242722
    0.289740384    0.796233952    0.520231128
    0.956407070    0.462900668    0.615219533
    0.623073459    0.129567116    0.710207939
    0.289740086    0.796233714    0.805196404
    0.813549697    0.891471922    0.900184751
    0.480216682    0.558138728    0.425242692
    0.146883249    0.224805355    0.520231068
    0.813549995    0.891472101    0.615219533
    0.480216384    0.558138549    0.710207939
    0.146883011    0.224805146    0.805196404
    0.242121086    0.605757654    0.900184751
    0.908788145    0.272424459    0.425242722
    0.575454712    0.939091086    0.520231128
    0.242121384    0.605757833    0.615219533
    0.908787787    0.272424251    0.710207939
    0.575454414    0.939090908    0.805196404
    0.670692503    0.320043355    0.900184751
    0.337359548    0.986710250    0.425242722
    0.004026175    0.653376877    0.520231128
    0.670692801    0.320043534    0.615219533
    0.337359190    0.986710012    0.710207999
    0.004025817    0.653376758    0.805196404
    0.099263906    0.034329057    0.900184751
    0.765930951    0.700995922    0.425242662
    0.432597518    0.367662489    0.520231068
    0.099264145    0.034329176    0.615219533
    0.765930593    0.700995743    0.710207880
    0.432597220    0.367662400    0.805196345
    0.527835429    0.748614728    0.900184751
    0.194502488    0.415281594    0.425242692
    0.861169100    0.081948221    0.520231068
    0.527835786    0.748614967    0.615219533
    0.194502160    0.415281385    0.710207939
    0.861168802    0.081948079    0.805196404
    0.384978235    0.177186161    0.900184751
    0.051645279    0.843853056    0.425242722
    0.718311846    0.510519683    0.520231128
    0.384978533    0.177186370    0.615219533
    0.051644921    0.843852818    0.710207999
    0.718311608    0.510519505    0.805196404
    0.646883190    0.724805415    0.876437724
    0.980216622    0.058138728    0.496484041
    0.646883309    0.724805415    0.591472447
    0.313549697    0.391471952    0.686460912
    0.980216444    0.058138646    0.781449258
    0.075454354    0.439090997    0.876437724
    0.408788025    0.772424519    0.496484041
    0.075454712    0.439091116    0.591472447
    0.742121160    0.105757691    0.686460912
    0.408787787    0.772424400    0.781449258
    0.932597220    0.867662489    0.876437724
    0.265930921    0.200995952    0.496484011
    0.932597518    0.867662609    0.591472447
    0.599264145    0.534329236    0.686460853
    0.265930593    0.200995773    0.781449258
    0.361168623    0.581948221    0.876437724
    0.694502294    0.915281653    0.496484011
    0.361168921    0.581948221    0.591472447
    0.027835488    0.248614937    0.686460853
    0.694502056    0.915281475    0.781449258
    0.789740145    0.296233743    0.876437724
    0.123073816    0.629567206    0.496484041
    0.789740443    0.296233952    0.591472447
    0.456406891    0.962900460    0.686460912
    0.123073459    0.629567206    0.781449258
    0.218311533    0.010519624    0.876437724
    0.551645160    0.343852997    0.496484041
    0.218311876    0.010519743    0.591472447
    0.884978354    0.677186191    0.686460912
    0.551644981    0.343852907    0.781449258
    0.504025936    0.153376669    0.876437724
    0.837359488    0.486710072    0.496484071
    0.504026115    0.153376818    0.591472447
    0.170692563    0.820043385    0.686460912
    0.837359250    0.486709982    0.781449258
    0.599264205    0.534329236    0.900184751
    0.265930980    0.200995952    0.425242722
    0.932597637    0.867662668    0.520231128
    0.599264205    0.534329236    0.615219593
    0.265930653    0.200995773    0.710207939
    0.932597220    0.867662370    0.805196404
    0.884978354    0.677186310    0.900184751
    0.551645279    0.343853086    0.425242722
    0.218311891    0.010519743    0.520231128
    0.884978473    0.677186370    0.615219593
    0.551644921    0.343852848    0.710207999
    0.218311593    0.010519505    0.805196404
    0.742121279    0.105757810    0.900184751
    0.408788145    0.772424519    0.425242692
    0.075454712    0.439091146    0.520231068
    0.742121339    0.105757751    0.615219533
    0.408787787    0.772424281    0.710207999
    0.075454354    0.439090878    0.805196404
    0.170692563    0.820043504    0.900184751
    0.837359548    0.486710221    0.425242722
    0.504026115    0.153376877    0.520231068
    0.170692682    0.820043504    0.615219533
    0.837359190    0.486709982    0.710207999
    0.504025817    0.153376609    0.805196404
    0.027835369    0.248614877    0.900184751
    0.694502354    0.915281594    0.425242692
    0.361168951    0.581948280    0.520231068
    0.027835488    0.248614848    0.615219533
    0.694501996    0.915281415    0.710207999
    0.361168683    0.581948102    0.805196404
    0.456406772    0.962900579    0.900184751
    0.123073697    0.629567266    0.425242722
    0.789740443    0.296233922    0.520231128
    0.456406951    0.962900579    0.615219593
    0.123073339    0.629567087    0.710207999
    0.789740026    0.296233743    0.805196404
    0.313549757    0.391472131    0.900184751
    0.980216682    0.058138870    0.425242752
    0.646883309    0.724805534    0.520231128
    0.313549876    0.391472131    0.615219593
    0.980216324    0.058138587    0.710207999
    0.646882951    0.724805295    0.805196404
