C+Si
    1.000000000
   13.345743179    0.000000000    0.000000000
   -6.672872543   14.920996666    0.000000000
    0.000000000    0.000000000    8.390060425
C   Si 
84     36
Direct
    0.846410573    0.460768223    0.000000005
    0.746410489    0.760768354    0.095060207
    0.646410406    0.060768485    0.190120444
    0.560696304    0.317911088    0.000000007
    0.460696220    0.617911220    0.095060207
    0.360696167    0.917911410    0.190120444
    0.274982035    0.175053939    0.000000004
    0.174981952    0.475054085    0.095060207
    0.074981831    0.775054276    0.190120444
    0.989267707    0.032196779    0.000000006
    0.889267683    0.332196921    0.095060207
    0.789267540    0.632197142    0.190120444
    0.703553498    0.889339566    0.000000000
    0.603553355    0.189339757    0.095060229
    0.503553271    0.489339828    0.190120354
    0.417839199    0.746482551    0.000000004
    0.317839086    0.046482682    0.095060192
    0.217839003    0.346482873    0.190120459
    0.132124901    0.603625357    0.000000004
    0.032124814    0.903625548    0.095060192
    0.932124674    0.203625679    0.190120459
    0.867839277    0.146482348    0.047530036
    0.767839134    0.446482539    0.142590255
    0.667839050    0.746482611    0.237650484
    0.724982142    0.575053871    0.047530014
    0.624982059    0.875054002    0.142590225
    0.524982035    0.175054193    0.237650380
    0.439267725    0.432196766    0.047530022
    0.339267671    0.732196987    0.142590255
    0.239267603    0.032196999    0.237650409
    0.153553441    0.289339483    0.047530014
    0.053553350    0.589339674    0.142590240
    0.953553259    0.889339745    0.237650380
    0.582124949    0.003625274    0.047530040
    0.482124835    0.303625464    0.142590269
    0.382124811    0.603625536    0.237650350
    0.296410650    0.860768020    0.047530033
    0.196410552    0.160768270    0.142590255
    0.096410468    0.460768223    0.237650350
    0.010696323    0.717910945    0.047530036
    0.910696208    0.017911077    0.142590255
    0.810696125    0.317911148    0.237650484
    0.774982095    0.175053984    0.000000014
    0.674981892    0.475054085    0.095060214
    0.574981868    0.775054276    0.190120429
    0.489267707    0.032196764    0.000000011
    0.389267653    0.332196921    0.095060214
    0.289267510    0.632197082    0.190120429
    0.917839170    0.746482491    0.000000009
    0.817839026    0.046482682    0.095060207
    0.717839003    0.346482873    0.190120429
    0.632124841    0.603625298    0.000000021
    0.532124698    0.903625429    0.095060229
    0.432124674    0.203625679    0.190120429
    0.346410602    0.460768253    0.000000013
    0.246410504    0.760768414    0.095060229
    0.146410406    0.060768604    0.190120429
    0.060696311    0.317911088    0.000000025
    0.960696220    0.617911220    0.095060207
    0.860696137    0.917911410    0.190120429
    0.203553453    0.889339626    0.000000009
    0.103553370    0.189339757    0.095060267
    0.003553284    0.489339948    0.190120384
    0.939267814    0.432196766    0.047530014
    0.839267671    0.732196987    0.142590240
    0.739267588    0.032196999    0.237650439
    0.653553486    0.289339483    0.047530014
    0.553553343    0.589339674    0.142590240
    0.453553349    0.889339685    0.237650380
    0.367839187    0.146482348    0.047530018
    0.267839074    0.446482539    0.142590284
    0.167839035    0.746482611    0.237650335
    0.796410680    0.860768020    0.047530022
    0.696410537    0.160768151    0.142590225
    0.596410513    0.460768223    0.237650350
    0.510696411    0.717910886    0.047530025
    0.410696298    0.017911077    0.142590269
    0.310696244    0.317911148    0.237650409
    0.224981993    0.575053871    0.047530014
    0.124981925    0.875054061    0.142590240
    0.024981862    0.175054073    0.237650439
    0.082124881    0.003625274    0.047530022
    0.982124805    0.303625464    0.142590180
    0.882124722    0.603625655    0.237650439
    0.133514643    0.060303450    0.437895536
    0.100181222    0.826970100    0.582639337
    0.066847801    0.593636751    0.727383137
    0.466847837    0.393636763    0.437895536
    0.433514416    0.160303384    0.582639337
    0.400180995    0.926970005    0.727383137
    0.800181091    0.726970077    0.437895536
    0.766847670    0.493636608    0.582639337
    0.733514249    0.260303259    0.727383137
    0.450181186    0.026970267    0.510267258
    0.416847765    0.793636918    0.655011058
    0.383514345    0.560303509    0.799754798
    0.783514440    0.360303462    0.510267258
    0.750181019    0.126970112    0.655010998
    0.716847599    0.893636703    0.799754858
    0.116848111    0.693636775    0.510267258
    0.083514690    0.460303366    0.655010998
    0.050181270    0.226970002    0.799754798
    0.300181210    0.726970017    0.437895536
    0.266847789    0.493636608    0.582639337
    0.233514398    0.260303229    0.727383137
    0.633514524    0.060303569    0.437895536
    0.600181043    0.826970100    0.582639277
    0.566847682    0.593636751    0.727383077
    0.966847777    0.393636763    0.437895536
    0.933514357    0.160303444    0.582639277
    0.900180936    0.926970005    0.727383077
    0.283514559    0.360303462    0.510267258
    0.250181139    0.126970083    0.655011058
    0.216847718    0.893636703    0.799754858
    0.616847873    0.693636835    0.510267258
    0.583514452    0.460303426    0.655010998
    0.550181031    0.226970077    0.799754858
    0.950181127    0.026970148    0.510267258
    0.916847765    0.793636799    0.655010998
    0.883514345    0.560303390    0.799754858
