Sn+Ge
    1.000000000
   19.467599869    0.000000000    0.000000000
    6.489200115   18.354230881    0.000000000
    0.000000000    0.000000000   25.800943375
Sn  Ge 
144     192
Direct
    0.991010249    0.991010249    0.000000014
    0.866010189    0.866010129    0.088922322
    0.741010189    0.741009951    0.177844614
    0.616010189    0.616009831    0.266766906
    0.491010129    0.491009712    0.355689257
    0.366010129    0.366009593    0.444611579
    0.991010249    0.324343592    0.000000014
    0.866010189    0.199343473    0.088922322
    0.741010189    0.074343339    0.177844614
    0.616010189    0.949343204    0.266766906
    0.491010129    0.824343085    0.355689257
    0.366010129    0.699342966    0.444611579
    0.991010249    0.657676935    0.000000014
    0.866010189    0.532676816    0.088922322
    0.741010189    0.407676697    0.177844614
    0.616010189    0.282676548    0.266766906
    0.491010129    0.157676399    0.355689257
    0.366010129    0.032676294    0.444611579
    0.491010249    0.157676876    0.000000013
    0.366010219    0.032676764    0.088922322
    0.241010219    0.907676637    0.177844614
    0.116010167    0.782676458    0.266766936
    0.991010129    0.657676339    0.355689257
    0.866010129    0.532676280    0.444611549
    0.491010249    0.491010368    0.000000013
    0.366010219    0.366010189    0.088922322
    0.241010219    0.241010040    0.177844614
    0.116010167    0.116009913    0.266766936
    0.991010129    0.991009772    0.355689257
    0.866010129    0.866009712    0.444611549
    0.491010249    0.824343622    0.000000013
    0.366010219    0.699343503    0.088922322
    0.241010219    0.574343324    0.177844614
    0.116010167    0.449343175    0.266766936
    0.991010129    0.324343055    0.355689257
    0.866010129    0.199342936    0.444611549
    0.241010249    0.241010264    0.000000010
    0.116010226    0.116010129    0.088922322
    0.991010189    0.991010010    0.177844614
    0.866010189    0.866009831    0.266766906
    0.741010129    0.741009712    0.355689257
    0.616010129    0.616009593    0.444611579
    0.241010249    0.574343681    0.000000010
    0.116010226    0.449343532    0.088922322
    0.991010189    0.324343383    0.177844614
    0.866010189    0.199343234    0.266766906
    0.741010129    0.074343123    0.355689257
    0.616010129    0.949343026    0.444611579
    0.241010249    0.907676935    0.000000010
    0.116010226    0.782676756    0.088922322
    0.991010189    0.657676637    0.177844614
    0.866010189    0.532676518    0.266766906
    0.741010129    0.407676429    0.355689257
    0.616010129    0.282676280    0.444611579
    0.741010249    0.074343577    0.000000005
    0.616010249    0.949343443    0.088922322
    0.491010219    0.824343324    0.177844614
    0.366010159    0.699343204    0.266766936
    0.241010144    0.574343085    0.355689257
    0.116010129    0.449342906    0.444611549
    0.741010249    0.407676876    0.000000005
    0.616010249    0.282676727    0.088922322
    0.491010219    0.157676622    0.177844614
    0.366010159    0.032676473    0.266766936
    0.241010144    0.907676339    0.355689257
    0.116010129    0.782676220    0.444611549
    0.741010249    0.741010249    0.000000005
    0.616010249    0.616010129    0.088922322
    0.491010219    0.491010010    0.177844614
    0.366010159    0.366009861    0.266766936
    0.241010144    0.241009742    0.355689257
    0.116010129    0.116009608    0.444611549
    0.366010249    0.116010241    0.000000018
    0.241010219    0.991010129    0.088922322
    0.116010211    0.866009951    0.177844614
    0.991010129    0.741009831    0.266766936
    0.866010129    0.616009712    0.355689257
    0.741010129    0.491009593    0.444611549
    0.366010249    0.449343652    0.000000018
    0.241010219    0.324343443    0.088922322
    0.116010211    0.199343339    0.177844614
    0.991010129    0.074343182    0.266766936
    0.866010129    0.949343085    0.355689257
    0.741010129    0.824342906    0.444611549
    0.366010249    0.782676995    0.000000018
    0.241010219    0.657676816    0.088922322
    0.116010211    0.532676697    0.177844614
    0.991010129    0.407676578    0.266766936
    0.866010129    0.282676458    0.355689257
    0.741010129    0.157676324    0.444611549
    0.866010308    0.282676965    0.000000000
    0.741010249    0.157676771    0.088922314
    0.616010249    0.032676667    0.177844614
    0.491010189    0.907676518    0.266766936
    0.366010189    0.782676399    0.355689257
    0.241010174    0.657676220    0.444611549
    0.866010308    0.616010368    0.000000000
    0.741010249    0.491010159    0.088922314
    0.616010249    0.366010010    0.177844614
    0.491010189    0.241009891    0.266766936
    0.366010189    0.116009764    0.355689257
    0.241010174    0.991009653    0.444611549
    0.866010308    0.949343622    0.000000000
    0.741010249    0.824343622    0.088922314
    0.616010249    0.699343443    0.177844614
    0.491010189    0.574343264    0.266766936
    0.366010189    0.449343115    0.355689257
    0.241010174    0.324343026    0.444611549
    0.116010241    0.199343547    0.000000014
    0.991010249    0.074343421    0.088922322
    0.866010189    0.949343324    0.177844614
    0.741010129    0.824343145    0.266766936
    0.616010129    0.699343026    0.355689257
    0.491010129    0.574342966    0.444611549
    0.116010241    0.532676935    0.000000014
    0.991010249    0.407676727    0.088922322
    0.866010189    0.282676637    0.177844614
    0.741010129    0.157676473    0.266766936
    0.616010129    0.032676354    0.355689257
    0.491010129    0.907676220    0.444611549
    0.116010241    0.866010368    0.000000014
    0.991010249    0.741010189    0.088922322
    0.866010189    0.616010070    0.177844614
    0.741010129    0.491009891    0.266766936
    0.616010129    0.366009802    0.355689257
    0.491010129    0.241009653    0.444611549
    0.616010249    0.032676876    0.000000022
    0.491010219    0.907676756    0.088922322
    0.366010219    0.782676637    0.177844614
    0.241010159    0.657676458    0.266766936
    0.116010137    0.532676339    0.355689257
    0.991010129    0.407676280    0.444611549
    0.616010249    0.366010308    0.000000022
    0.491010219    0.241010129    0.088922322
    0.366010219    0.116010010    0.177844614
    0.241010159    0.991009831    0.266766936
    0.116010137    0.866009712    0.355689257
    0.991010129    0.741009593    0.444611549
    0.616010249    0.699343562    0.000000022
    0.491010219    0.574343324    0.088922322
    0.366010219    0.449343294    0.177844614
    0.241010159    0.324343145    0.266766936
    0.116010137    0.199343026    0.355689257
    0.991010129    0.074342884    0.444611549
    0.804810286    0.962082982    0.528481960
    0.617310286    0.524582982    0.606011569
    0.429810286    0.087083042    0.683541059
    0.242310286    0.649582982    0.761070490
    0.054810286    0.212083101    0.838600099
    0.867310226    0.774582982    0.916129470
    0.804810286    0.462083012    0.528481960
    0.617310286    0.024583019    0.606011569
    0.429810286    0.587082982    0.683541059
    0.242310286    0.149583042    0.761070490
    0.054810286    0.712083101    0.838600099
    0.867310166    0.274582982    0.916129589
    0.054810286    0.212082997    0.528481960
    0.867310286    0.774582982    0.606011569
    0.679810286    0.337082982    0.683541059
    0.492310286    0.899582982    0.761070490
    0.304810286    0.462083101    0.838600099
    0.117310286    0.024582861    0.916129589
    0.304810286    0.962083042    0.528481960
    0.117310286    0.524582982    0.606011569
    0.929810286    0.087082982    0.683541059
    0.742310286    0.649583101    0.761070490
    0.554810286    0.212083101    0.838600099
    0.367310166    0.774582982    0.916129589
    0.054810286    0.712083042    0.528481960
    0.867310286    0.274583042    0.606011569
    0.679810286    0.837083042    0.683541059
    0.492310286    0.399583042    0.761070490
    0.304810286    0.962083101    0.838600099
    0.117310166    0.524582863    0.916129589
    0.304810286    0.462083012    0.528481960
    0.117310286    0.024583025    0.606011569
    0.929810286    0.587082982    0.683541059
    0.742310286    0.149583042    0.761070490
    0.554810286    0.712083101    0.838600099
    0.367310166    0.274582863    0.916129589
    0.554810286    0.212083012    0.528481960
    0.367310286    0.774583042    0.606011569
    0.179810286    0.337083101    0.683541059
    0.992310226    0.899583101    0.761070490
    0.804810286    0.462082982    0.838600099
    0.617310166    0.024582980    0.916129589
    0.554810286    0.712083042    0.528481960
    0.367310286    0.274583042    0.606011510
    0.179810286    0.837082982    0.683541059
    0.992310226    0.399583042    0.761070490
    0.804810286    0.962083101    0.838600099
    0.617310166    0.524582863    0.916129529
    0.929810286    0.087082997    0.528481960
    0.742310286    0.649582982    0.606011569
    0.554810286    0.212083042    0.683541059
    0.367310286    0.774582982    0.761070490
    0.179810286    0.337083101    0.838600099
    0.992310226    0.899582982    0.916129589
    0.929810226    0.587083042    0.528481960
    0.742310286    0.149583012    0.606011569
    0.554810286    0.712082982    0.683541059
    0.367310286    0.274583042    0.761070490
    0.179810286    0.837083101    0.838600099
    0.992310166    0.399582863    0.916129529
    0.179810286    0.337083012    0.528481960
    0.992310286    0.899582982    0.606011569
    0.804810286    0.462083042    0.683541059
    0.617310286    0.024583040    0.761070490
    0.429810286    0.587083101    0.838600099
    0.242310166    0.149582863    0.916129529
    0.429810286    0.087083004    0.528481960
    0.242310286    0.649582982    0.606011569
    0.054810286    0.212083042    0.683541059
    0.867310226    0.774583101    0.761070490
    0.679810286    0.337082982    0.838600099
    0.492310166    0.899582982    0.916129529
    0.179810286    0.837083042    0.528481960
    0.992310286    0.399583071    0.606011569
    0.804810286    0.962083042    0.683541059
    0.617310286    0.524583101    0.761070490
    0.429810286    0.087083101    0.838600099
    0.242310166    0.649582982    0.916129589
    0.429810286    0.587083042    0.528481960
    0.242310286    0.149583027    0.606011569
    0.054810286    0.712083042    0.683541059
    0.867310286    0.274583042    0.761070490
    0.679810286    0.837083101    0.838600099
    0.492310166    0.399582863    0.916129589
    0.679810286    0.337083012    0.528481960
    0.492310286    0.899582982    0.606011569
    0.304810286    0.462083042    0.683541059
    0.117310286    0.024583040    0.761070490
    0.929810345    0.587082982    0.838600099
    0.742310166    0.149582863    0.916129589
    0.679810286    0.837083042    0.528481960
    0.492310286    0.399583071    0.606011569
    0.304810286    0.962083042    0.683541059
    0.117310286    0.524583101    0.761070490
    0.929810345    0.087083042    0.838600099
    0.742310286    0.649582863    0.916129529
    0.929810286    0.212082997    0.528481960
    0.742310286    0.774582982    0.606011569
    0.554810286    0.337083042    0.683541059
    0.367310286    0.899582982    0.761070549
    0.179810286    0.462082982    0.838600099
    0.992310166    0.024582861    0.916129589
    0.179810286    0.962082982    0.528481960
    0.992310286    0.524582982    0.606011569
    0.804810286    0.087083042    0.683541059
    0.617310286    0.649582982    0.761070549
    0.429810286    0.212083101    0.838600099
    0.242310047    0.774582982    0.916129589
    0.929810286    0.712083042    0.528481960
    0.742310286    0.274583042    0.606011569
    0.554810286    0.837083042    0.683541059
    0.367310286    0.399583042    0.761070490
    0.179810286    0.962083101    0.838600099
    0.992310226    0.524582982    0.916129589
    0.179810286    0.462082982    0.528481960
    0.992310226    0.024582990    0.606011569
    0.804810286    0.587082982    0.683541059
    0.617310286    0.149582982    0.761070490
    0.429810286    0.712082982    0.838600099
    0.242310286    0.274582863    0.916129470
    0.429810286    0.212083027    0.528481960
    0.242310286    0.774583042    0.606011569
    0.054810286    0.337083042    0.683541059
    0.867310286    0.899582982    0.761070490
    0.679810286    0.462083101    0.838600099
    0.492310166    0.024582980    0.916129589
    0.679810286    0.962082982    0.528481960
    0.492310286    0.524582982    0.606011569
    0.304810286    0.087083042    0.683541059
    0.117310286    0.649583101    0.761070490
    0.929810286    0.212083101    0.838600099
    0.742310286    0.774582982    0.916129589
    0.429810286    0.712083042    0.528481960
    0.242310286    0.274583012    0.606011569
    0.054810286    0.837083042    0.683541059
    0.867310286    0.399583042    0.761070490
    0.679810286    0.962082982    0.838600099
    0.492310166    0.524582863    0.916129589
    0.679810286    0.462082982    0.528481960
    0.492310286    0.024582990    0.606011569
    0.304810286    0.587082982    0.683541059
    0.117310286    0.149583042    0.761070490
    0.929810345    0.712082982    0.838600099
    0.742310286    0.274582863    0.916129589
    0.804810286    0.087082997    0.528481960
    0.617310286    0.649582982    0.606011569
    0.429810286    0.212082982    0.683541059
    0.242310286    0.774582982    0.761070549
    0.054810286    0.337083101    0.838600039
    0.867310166    0.899582982    0.916129529
    0.804810286    0.587083042    0.528481960
    0.617310286    0.149583027    0.606011569
    0.429810286    0.712083042    0.683541059
    0.242310286    0.274583042    0.761070490
    0.054810286    0.837083101    0.838600099
    0.867310226    0.399582982    0.916129470
    0.054810286    0.337083012    0.528481960
    0.867310286    0.899583042    0.606011569
    0.679810286    0.462083042    0.683541059
    0.492310286    0.024583040    0.761070490
    0.304810286    0.587082982    0.838600099
    0.117310286    0.149582982    0.916129470
    0.304810286    0.087083019    0.528481960
    0.117310286    0.649582982    0.606011569
    0.929810286    0.212083042    0.683541059
    0.742310286    0.774582982    0.761070490
    0.554810286    0.337083101    0.838600099
    0.367310166    0.899582982    0.916129470
    0.054810286    0.837083042    0.528481960
    0.867310226    0.399583012    0.606011569
    0.679810286    0.962083042    0.683541059
    0.492310286    0.524583042    0.761070490
    0.304810286    0.087083042    0.838600099
    0.117310286    0.649582863    0.916129529
    0.304810286    0.587082982    0.528481960
    0.117310286    0.149583012    0.606011569
    0.929810286    0.712082982    0.683541059
    0.742310286    0.274583042    0.761070490
    0.554810286    0.837082982    0.838600099
    0.367310286    0.399582863    0.916129529
    0.554810286    0.337083012    0.528481960
    0.367310286    0.899582982    0.606011569
    0.179810286    0.462083042    0.683541059
    0.992310286    0.024583040    0.761070490
    0.804810286    0.587083101    0.838600099
    0.617310166    0.149582982    0.916129529
    0.554810286    0.837082982    0.528482020
    0.367310286    0.399583012    0.606011569
    0.179810286    0.962082982    0.683541059
    0.992310226    0.524583042    0.761070490
    0.804810286    0.087082982    0.838600099
    0.617310166    0.649582863    0.916129529
