Ge
 1.0000000000000000
    12.6512254030983105    0.0000000000000000    0.0000000000000000
     2.5302450806196619    7.5907352418589848    0.0000000000000000
     0.0000000000000000    0.0000000000000000   60.2737833333333413
 Ge 
  88
Direct
  0.0000000000000000  0.0000000000000000  0.3318192237808201
  0.6111111111111110  0.1944444444444444  0.3396415854654330
  0.0000000000000000  0.4999999999999999  0.3318192237808201
  0.6111111111111113  0.6944444444444442  0.3396415854654330
  0.7222222222222221  0.8888888888888888  0.3474639471500461
  0.3333333333333333  0.0833333333333333  0.3552863088346591
  0.7222222222222221  0.3888888888888889  0.3474639471500461
  0.3333333333333334  0.5833333333333333  0.3552863088346591
  0.4444444444444444  0.7777777777777778  0.3631086705192721
  0.0555555555555556  0.9722222222222222  0.3709310322038851
  0.4444444444444445  0.2777777777777777  0.3631086705192721
  0.0555555555555556  0.4722222222222222  0.3709310322038851
  0.1666666666666665  0.6666666666666667  0.3787533938884982
  0.7777777777777778  0.8611111111111110  0.3865757555731111
  0.1666666666666665  0.1666666666666667  0.3787533938884982
  0.7777777777777778  0.3611111111111110  0.3865757555731111
  0.8888888888888890  0.5555555555555555  0.3943981172577242
  0.4999999999999998  0.7499999999999999  0.4022204789423372
  0.8888888888888888  0.0555555555555555  0.3943981172577242
  0.4999999999999998  0.2499999999999999  0.4022204789423372
  0.6111111111111113  0.4444444444444445  0.4100428406269502
  0.2222222222222221  0.6388888888888890  0.4178652023115632
  0.6111111111111109  0.9444444444444445  0.4100428406269502
  0.2222222222222221  0.1388888888888889  0.4178652023115632
  0.3333333333333330  0.3333333333333334  0.4256875639961762
  0.9444444444444440  0.5277777777777779  0.4335099256807893
  0.3333333333333333  0.8333333333333333  0.4256875639961762
  0.9444444444444442  0.0277777777777778  0.4335099256807893
  0.0555555555555554  0.2222222222222223  0.4413322873654023
  0.6666666666666665  0.4166666666666667  0.4491546490500153
  0.0555555555555554  0.7222222222222223  0.4413322873654023
  0.6666666666666663  0.9166666666666666  0.4491546490500152
  0.7777777777777777  0.1111111111111111  0.4569770107346283
  0.3888888888888885  0.3055555555555556  0.4647993724192414
  0.7777777777777777  0.6111111111111112  0.4569770107346283
  0.3888888888888889  0.8055555555555556  0.4647993724192414
  0.5000000000000000  0.0000000000000001  0.4726217341038543
  0.1111111111111112  0.1944444444444444  0.4804440957884674
  0.4999999999999996  0.5000000000000002  0.4726217341038543
  0.1111111111111107  0.6944444444444443  0.4804440957884673
  0.2222222222222219  0.8888888888888890  0.4882664574730804
  0.8333333333333330  0.0833333333333335  0.4960888191576934
  0.2222222222222223  0.3888888888888890  0.4882664574730803
  0.8333333333333330  0.5833333333333334  0.4960888191576933
  0.9444444444444442  0.7777777777777777  0.5039111808423063
  0.5555555555555554  0.9722222222222220  0.5117335425269195
  0.9444444444444442  0.2777777777777776  0.5039111808423063
  0.5555555555555554  0.4722222222222220  0.5117335425269194
  0.6666666666666661  0.6666666666666667  0.5195559042115324
  0.2777777777777772  0.8611111111111113  0.5273782658961454
  0.6666666666666661  0.1666666666666667  0.5195559042115324
  0.2777777777777773  0.3611111111111112  0.5273782658961453
  0.3888888888888885  0.5555555555555557  0.5352006275807585
  0.9999999999999992  0.7500000000000001  0.5430229892653714
  0.3888888888888885  0.0555555555555557  0.5352006275807585
  0.9999999999999996  0.2500000000000002  0.5430229892653714
  0.1111111111111107  0.4444444444444446  0.5508453509499844
  0.7222222222222224  0.6388888888888891  0.5586677126345976
  0.1111111111111112  0.9444444444444446  0.5508453509499844
  0.7222222222222224  0.1388888888888889  0.5586677126345976
  0.8333333333333330  0.3333333333333337  0.5664900743192105
  0.4444444444444442  0.5277777777777781  0.5743124360038235
  0.8333333333333330  0.8333333333333335  0.5664900743192105
  0.4444444444444442  0.0277777777777781  0.5743124360038235
  0.5555555555555554  0.2222222222222223  0.5821347976884366
  0.1666666666666660  0.4166666666666667  0.5899571593730495
  0.5555555555555555  0.7222222222222220  0.5821347976884366
  0.1666666666666661  0.9166666666666669  0.5899571593730495
  0.2777777777777777  0.1111111111111111  0.5977795210576626
  0.8888888888888884  0.3055555555555557  0.6056018827422757
  0.2777777777777777  0.6111111111111112  0.5977795210576626
  0.8888888888888884  0.8055555555555556  0.6056018827422756
  0.0000000000000000  0.0000000000000002  0.6134242444268886
  0.6111111111111115  0.1944444444444442  0.6212466061115017
  0.0000000000000000  0.4999999999999999  0.6134242444268886
  0.6111111111111116  0.6944444444444443  0.6212466061115017
  0.7222222222222214  0.8888888888888892  0.6290689677961147
  0.3333333333333339  0.0833333333333332  0.6368913294807277
  0.7222222222222224  0.3888888888888888  0.6290689677961147
  0.3333333333333339  0.5833333333333333  0.6368913294807277
  0.4444444444444437  0.7777777777777781  0.6447136911653407
  0.0555555555555554  0.9722222222222218  0.6525360528499536
  0.4444444444444446  0.2777777777777778  0.6447136911653407
  0.0555555555555554  0.4722222222222223  0.6525360528499536
  0.1666666666666670  0.6666666666666664  0.6603584145345668
  0.7777777777777778  0.8611111111111110  0.6681807762191798
  0.1666666666666670  0.1666666666666665  0.6603584145345668
  0.7777777777777777  0.3611111111111109  0.6681807762191797
