fcc Si+fcc Ge                           
   1.00000000000000     
    12.2536525170000008    0.0000000000000000    0.0000000000000000
   -14.7043830199999999    9.1697938909999994    0.0000000000000000
     0.0000000000000000    0.0000000000000000    8.0432255870000002
   Si   Ge
    24    24
Direct
  0.0000000000000000  0.0000000000000000  0.0000000000000000
  0.4285714290000016  0.6071428569999995  0.0910450410000010
  0.8571428569999995  0.2142857139999990  0.1820900820000020
  0.2857142860000010  0.8214285709999984  0.2731351230000030
  0.7142857139999990  0.4285714290000016  0.3641801639999969
  0.1428571430000005  0.0357142860000010  0.4552252049999979
  0.0000000000000000  0.5000000000000000  0.0000000000000000
  0.4285714290000016  0.1071428569999995  0.0910450410000010
  0.8571428569999995  0.7142857139999990  0.1820900820000020
  0.2857142860000010  0.3214285709999984  0.2731351230000030
  0.7142857139999990  0.9285714290000016  0.3641801639999969
  0.1428571430000005  0.5357142860000010  0.4552252049999979
  0.2500000000000000  0.7500000000000000  0.0000000000000000
  0.6785714290000016  0.3571428569999995  0.0910450410000010
  0.1071428569999995  0.9642857139999990  0.1820900820000020
  0.5357142860000010  0.5714285709999984  0.2731351230000030
  0.9642857139999990  0.1785714290000016  0.3641801639999969
  0.3928571430000005  0.7857142860000010  0.4552252049999979
  0.2500000000000000  0.2500000000000000  0.0000000000000000
  0.6785714290000016  0.8571428569999995  0.0910450410000010
  0.1071428569999995  0.4642857139999990  0.1820900820000020
  0.5357142860000010  0.0714285709999984  0.2731351230000030
  0.9642857139999990  0.6785714290000016  0.3641801639999969
  0.3928571430000005  0.2857142860000010  0.4552252049999979
  0.8688524590000029  0.2500000000000000  0.4925236739999974
  0.4402810300000013  0.6428571430000005  0.5865592449999966
  0.0117096020000034  0.0357142860000010  0.6805948169999994
  0.5831381730000018  0.4285714290000016  0.7746303879999985
  0.1545667449999968  0.8214285709999984  0.8686659600000013
  0.7259953160000023  0.2142857139999990  0.9627015310000004
  0.8688524590000029  0.7500000000000000  0.4925236739999974
  0.4402810300000013  0.1428571430000005  0.5865592449999966
  0.0117096020000034  0.5357142860000010  0.6805948169999994
  0.5831381730000018  0.9285714290000016  0.7746303879999985
  0.1545667449999968  0.3214285709999984  0.8686659600000013
  0.7259953160000023  0.7142857139999990  0.9627015310000004
  0.6188524590000029  0.5000000000000000  0.4925236739999974
  0.1902810300000013  0.8928571430000005  0.5865592449999966
  0.7617096020000034  0.2857142860000010  0.6805948169999994
  0.3331381730000018  0.6785714290000016  0.7746303879999985
  0.9045667449999968  0.0714285709999984  0.8686659600000013
  0.4759953160000023  0.4642857139999990  0.9627015310000004
  0.6188524590000029  0.0000000000000000  0.4925236739999974
  0.1902810300000013  0.3928571430000005  0.5865592449999966
  0.7617096020000034  0.7857142860000010  0.6805948169999994
  0.3331381730000018  0.1785714290000016  0.7746303879999985
  0.9045667449999968  0.5714285709999984  0.8686659600000013
  0.4759953160000023  0.9642857139999990  0.9627015310000004
 
  0.00000000E+00  0.00000000E+00  0.00000000E+00
  0.00000000E+00  0.00000000E+00  0.00000000E+00
  0.00000000E+00  0.00000000E+00  0.00000000E+00
  0.00000000E+00  0.00000000E+00  0.00000000E+00
  0.00000000E+00  0.00000000E+00  0.00000000E+00
  0.00000000E+00  0.00000000E+00  0.00000000E+00
  0.00000000E+00  0.00000000E+00  0.00000000E+00
  0.00000000E+00  0.00000000E+00  0.00000000E+00
  0.00000000E+00  0.00000000E+00  0.00000000E+00
  0.00000000E+00  0.00000000E+00  0.00000000E+00
  0.00000000E+00  0.00000000E+00  0.00000000E+00
  0.00000000E+00  0.00000000E+00  0.00000000E+00
  0.00000000E+00  0.00000000E+00  0.00000000E+00
  0.00000000E+00  0.00000000E+00  0.00000000E+00
  0.00000000E+00  0.00000000E+00  0.00000000E+00
  0.00000000E+00  0.00000000E+00  0.00000000E+00
  0.00000000E+00  0.00000000E+00  0.00000000E+00
  0.00000000E+00  0.00000000E+00  0.00000000E+00
  0.00000000E+00  0.00000000E+00  0.00000000E+00
  0.00000000E+00  0.00000000E+00  0.00000000E+00
  0.00000000E+00  0.00000000E+00  0.00000000E+00
  0.00000000E+00  0.00000000E+00  0.00000000E+00
  0.00000000E+00  0.00000000E+00  0.00000000E+00
  0.00000000E+00  0.00000000E+00  0.00000000E+00
  0.00000000E+00  0.00000000E+00  0.00000000E+00
  0.00000000E+00  0.00000000E+00  0.00000000E+00
  0.00000000E+00  0.00000000E+00  0.00000000E+00
  0.00000000E+00  0.00000000E+00  0.00000000E+00
  0.00000000E+00  0.00000000E+00  0.00000000E+00
  0.00000000E+00  0.00000000E+00  0.00000000E+00
  0.00000000E+00  0.00000000E+00  0.00000000E+00
  0.00000000E+00  0.00000000E+00  0.00000000E+00
  0.00000000E+00  0.00000000E+00  0.00000000E+00
  0.00000000E+00  0.00000000E+00  0.00000000E+00
  0.00000000E+00  0.00000000E+00  0.00000000E+00
  0.00000000E+00  0.00000000E+00  0.00000000E+00
  0.00000000E+00  0.00000000E+00  0.00000000E+00
  0.00000000E+00  0.00000000E+00  0.00000000E+00
  0.00000000E+00  0.00000000E+00  0.00000000E+00
  0.00000000E+00  0.00000000E+00  0.00000000E+00
  0.00000000E+00  0.00000000E+00  0.00000000E+00
  0.00000000E+00  0.00000000E+00  0.00000000E+00
  0.00000000E+00  0.00000000E+00  0.00000000E+00
  0.00000000E+00  0.00000000E+00  0.00000000E+00
  0.00000000E+00  0.00000000E+00  0.00000000E+00
  0.00000000E+00  0.00000000E+00  0.00000000E+00
  0.00000000E+00  0.00000000E+00  0.00000000E+00
  0.00000000E+00  0.00000000E+00  0.00000000E+00
