Ge+Ge                                   
   1.00000000000000     
    17.8915348049999992    0.0000000000000000    0.0000000000000000
   -16.1023807529999985    7.7987394329999997    0.0000000000000000
     0.0000003040000000   -0.0000000700000000   14.8285598749999998
   Ge
    96
Direct
  0.4397265019999992  0.8636441829999981  0.6750661129999997
  0.0228133239999977  0.9771866800000026  0.0000000089999972
  0.1807081549999978  0.8192918299999974  0.0875330570000017
  0.3386029899999983  0.6613969799999992  0.1750661129999997
  0.4964978100000010  0.5035021899999990  0.2625991700000014
  0.6543926000000013  0.3456073999999987  0.3501322270000031
  0.9964978100000010  0.0035021540000031  0.2625991399999990
  0.3122870620000029  0.6877129080000017  0.0218832919999983
  0.4701818819999986  0.5298180580000036  0.1094163280000018
  0.6280767319999967  0.3719232680000033  0.1969494220000030
  0.4134106639999970  0.8899601099999970  0.5218833090000032
  0.9438664320000001  0.0561335499999984  0.3720155059999968
  0.6239368319999983  0.6794338229999966  0.5000000000000000
  0.5228132610000031  0.4771866500000002  0.0000000000000000
  0.6807081099999976  0.3192918299999974  0.0875330490000010
  0.8386029600000029  0.1613970100000017  0.1750660840000009
  0.1017612220000004  0.8982388379999975  0.4595485030000006
  0.1543926000000013  0.8456073999999987  0.3501322270000031
  0.4438663720000022  0.5561336279999978  0.3720156549999984
  0.8122870919999983  0.1877129080000017  0.0218834490000006
  0.9701818229999972  0.0298181269999986  0.1094164479999975
  0.1280766730000025  0.8719232680000033  0.1969495860000023
  0.2859715219999970  0.7140283580000002  0.2844825979999968
  0.6017612220000004  0.3982388379999975  0.4595486520000023
  0.6017614599999987  0.8982387189999983  0.4595486219999998
  0.5228132610000031  0.9771866800000026  0.0000000100000008
  0.6807081099999976  0.8192918900000024  0.0875330490000010
  0.8386029600000029  0.6613970399999971  0.1750660840000009
  0.9964977500000032  0.5035022499999968  0.2625991399999990
  0.1543926000000013  0.3456073999999987  0.3501322270000031
  0.3122874499999995  0.1877124909999992  0.4376653129999966
  0.8122872710000024  0.6877128479999968  0.0218834229999985
  0.9701821210000006  0.5298180580000036  0.1094164699999993
  0.1017612220000004  0.3982387779999996  0.4595486520000023
  0.2859717609999990  0.2140283880000027  0.2844825689999979
  0.4438667300000034  0.0561335200000030  0.3720156250000031
  0.8122875090000008  0.6877124909999992  0.4376652540000023
  0.0228133869999994  0.4771866500000002  0.0000000129999975
  0.1807081999999980  0.3192918299999974  0.0875330419999969
  0.3386030500000032  0.1613969799999992  0.1750661129999997
  0.1239369809999999  0.6794338229999966  0.5000000000000000
  0.6543926599999992  0.8456073400000008  0.3501322270000031
  0.7292001839999998  0.0741703509999994  0.6969495419999987
  0.3122870620000029  0.1877128779999993  0.0218834360000031
  0.4701818819999986  0.0298180859999988  0.1094164699999993
  0.6280767319999967  0.8719232680000033  0.1969495419999987
  0.7859715219999970  0.7140284179999981  0.2844825689999979
  0.9438663720000022  0.5561335089999986  0.3720156549999984
  0.9134107830000033  0.3899597529999994  0.9376653429999990
  0.2292002740000001  0.0741704699999985  0.6969494820000008
  0.2818317119999989  0.0215389729999984  0.5875330570000017
  0.8122874499999995  0.1877125500000005  0.4376652540000023
  0.5976212619999970  0.7057493330000000  0.7625991700000014
  0.7555160519999973  0.5478544830000018  0.8501322870000010
  0.2028845849999996  0.1004859210000006  0.9595485930000009
  0.7859715820000019  0.2140284030000004  0.2844824789999976
  0.5713053939999995  0.7320653199999967  0.6094163060000000
  0.7292001839999998  0.5741704109999972  0.6969494220000030
  0.8870950339999979  0.4162755609999991  0.7844824789999976
  0.0449898239999982  0.2583806809999984  0.8720155950000006
  0.4134106930000030  0.8899597529999994  0.9376653429999990
  0.7818316219999986  0.5215390319999997  0.5875329969999967
  0.6239368319999983  0.6794338229999966  0.5000000000000000
  0.9397264119999988  0.3636441230000003  0.6750661129999997
  0.0976212019999991  0.2057493180000023  0.7625991700000014
  0.2555159630000006  0.0478544240000005  0.8501321669999982
  0.7028845549999971  0.6004859210000006  0.9595487120000001
  0.6017612220000004  0.3982388379999975  0.4595486520000023
  0.0713053939999995  0.2320652599999988  0.6094164849999970
  0.1239369139999980  0.1794338229999966  0.5000000000000000
  0.3870950040000025  0.9162756200000004  0.7844825979999968
  0.5449898239999982  0.7583807110000009  0.8720156549999984
  0.9134108419999976  0.8899596329999966  0.9376652239999999
  0.4964978400000035  0.0035021899999990  0.2625991399999990
  0.2818317409999977  0.5215389729999984  0.5875329969999967
  0.4397265610000005  0.3636441230000003  0.6750661129999997
  0.5976213220000020  0.2057493180000023  0.7625991700000014
  0.7555161120000022  0.0478544240000005  0.8501322870000010
  0.2028845849999996  0.6004858610000028  0.9595487120000001
  0.4134106639999970  0.3899600510000027  0.5218834280000024
  0.5713054539999973  0.2320652599999988  0.6094164849999970
  0.1017612220000004  0.3982387779999996  0.4595486520000023
  0.8870949749999966  0.9162756200000004  0.7844825390000025
  0.0449898239999982  0.7583807110000009  0.8720156549999984
  0.4134108129999987  0.3899596930000016  0.9376652239999999
  0.9134109020000025  0.8899600510000027  0.5218834280000024
  0.7818316219999986  0.0215389729999984  0.5875330570000017
  0.9397264119999988  0.8636441829999981  0.6750661129999997
  0.1239369809999999  0.6794338229999966  0.5000000000000000
  0.2555159630000006  0.5478545429999997  0.8501321669999982
  0.7028847930000026  0.1004858020000015  0.9595487120000001
  0.6239368319999983  0.1794338229999966  0.5000000000000000
  0.0713056330000015  0.7320652009999975  0.6094164849999970
  0.2292005119999985  0.5741703509999994  0.6969494820000008
  0.3870952429999974  0.4162755609999991  0.7844825390000025
  0.5449900630000002  0.2583806510000031  0.8720156549999984
 
  0.00000000E+00  0.00000000E+00  0.00000000E+00
  0.00000000E+00  0.00000000E+00  0.00000000E+00
  0.00000000E+00  0.00000000E+00  0.00000000E+00
  0.00000000E+00  0.00000000E+00  0.00000000E+00
  0.00000000E+00  0.00000000E+00  0.00000000E+00
  0.00000000E+00  0.00000000E+00  0.00000000E+00
  0.00000000E+00  0.00000000E+00  0.00000000E+00
  0.00000000E+00  0.00000000E+00  0.00000000E+00
  0.00000000E+00  0.00000000E+00  0.00000000E+00
  0.00000000E+00  0.00000000E+00  0.00000000E+00
  0.00000000E+00  0.00000000E+00  0.00000000E+00
  0.00000000E+00  0.00000000E+00  0.00000000E+00
  0.00000000E+00  0.00000000E+00  0.00000000E+00
  0.00000000E+00  0.00000000E+00  0.00000000E+00
  0.00000000E+00  0.00000000E+00  0.00000000E+00
  0.00000000E+00  0.00000000E+00  0.00000000E+00
  0.00000000E+00  0.00000000E+00  0.00000000E+00
  0.00000000E+00  0.00000000E+00  0.00000000E+00
  0.00000000E+00  0.00000000E+00  0.00000000E+00
  0.00000000E+00  0.00000000E+00  0.00000000E+00
  0.00000000E+00  0.00000000E+00  0.00000000E+00
  0.00000000E+00  0.00000000E+00  0.00000000E+00
  0.00000000E+00  0.00000000E+00  0.00000000E+00
  0.00000000E+00  0.00000000E+00  0.00000000E+00
  0.00000000E+00  0.00000000E+00  0.00000000E+00
  0.00000000E+00  0.00000000E+00  0.00000000E+00
  0.00000000E+00  0.00000000E+00  0.00000000E+00
  0.00000000E+00  0.00000000E+00  0.00000000E+00
  0.00000000E+00  0.00000000E+00  0.00000000E+00
  0.00000000E+00  0.00000000E+00  0.00000000E+00
  0.00000000E+00  0.00000000E+00  0.00000000E+00
  0.00000000E+00  0.00000000E+00  0.00000000E+00
  0.00000000E+00  0.00000000E+00  0.00000000E+00
  0.00000000E+00  0.00000000E+00  0.00000000E+00
  0.00000000E+00  0.00000000E+00  0.00000000E+00
  0.00000000E+00  0.00000000E+00  0.00000000E+00
  0.00000000E+00  0.00000000E+00  0.00000000E+00
  0.00000000E+00  0.00000000E+00  0.00000000E+00
  0.00000000E+00  0.00000000E+00  0.00000000E+00
  0.00000000E+00  0.00000000E+00  0.00000000E+00
  0.00000000E+00  0.00000000E+00  0.00000000E+00
  0.00000000E+00  0.00000000E+00  0.00000000E+00
  0.00000000E+00  0.00000000E+00  0.00000000E+00
  0.00000000E+00  0.00000000E+00  0.00000000E+00
  0.00000000E+00  0.00000000E+00  0.00000000E+00
  0.00000000E+00  0.00000000E+00  0.00000000E+00
  0.00000000E+00  0.00000000E+00  0.00000000E+00
  0.00000000E+00  0.00000000E+00  0.00000000E+00
  0.00000000E+00  0.00000000E+00  0.00000000E+00
  0.00000000E+00  0.00000000E+00  0.00000000E+00
  0.00000000E+00  0.00000000E+00  0.00000000E+00
  0.00000000E+00  0.00000000E+00  0.00000000E+00
  0.00000000E+00  0.00000000E+00  0.00000000E+00
  0.00000000E+00  0.00000000E+00  0.00000000E+00
  0.00000000E+00  0.00000000E+00  0.00000000E+00
  0.00000000E+00  0.00000000E+00  0.00000000E+00
  0.00000000E+00  0.00000000E+00  0.00000000E+00
  0.00000000E+00  0.00000000E+00  0.00000000E+00
  0.00000000E+00  0.00000000E+00  0.00000000E+00
  0.00000000E+00  0.00000000E+00  0.00000000E+00
  0.00000000E+00  0.00000000E+00  0.00000000E+00
  0.00000000E+00  0.00000000E+00  0.00000000E+00
  0.00000000E+00  0.00000000E+00  0.00000000E+00
  0.00000000E+00  0.00000000E+00  0.00000000E+00
  0.00000000E+00  0.00000000E+00  0.00000000E+00
  0.00000000E+00  0.00000000E+00  0.00000000E+00
  0.00000000E+00  0.00000000E+00  0.00000000E+00
  0.00000000E+00  0.00000000E+00  0.00000000E+00
  0.00000000E+00  0.00000000E+00  0.00000000E+00
  0.00000000E+00  0.00000000E+00  0.00000000E+00
  0.00000000E+00  0.00000000E+00  0.00000000E+00
  0.00000000E+00  0.00000000E+00  0.00000000E+00
  0.00000000E+00  0.00000000E+00  0.00000000E+00
  0.00000000E+00  0.00000000E+00  0.00000000E+00
  0.00000000E+00  0.00000000E+00  0.00000000E+00
  0.00000000E+00  0.00000000E+00  0.00000000E+00
  0.00000000E+00  0.00000000E+00  0.00000000E+00
  0.00000000E+00  0.00000000E+00  0.00000000E+00
  0.00000000E+00  0.00000000E+00  0.00000000E+00
  0.00000000E+00  0.00000000E+00  0.00000000E+00
  0.00000000E+00  0.00000000E+00  0.00000000E+00
  0.00000000E+00  0.00000000E+00  0.00000000E+00
  0.00000000E+00  0.00000000E+00  0.00000000E+00
  0.00000000E+00  0.00000000E+00  0.00000000E+00
  0.00000000E+00  0.00000000E+00  0.00000000E+00
  0.00000000E+00  0.00000000E+00  0.00000000E+00
  0.00000000E+00  0.00000000E+00  0.00000000E+00
  0.00000000E+00  0.00000000E+00  0.00000000E+00
  0.00000000E+00  0.00000000E+00  0.00000000E+00
  0.00000000E+00  0.00000000E+00  0.00000000E+00
  0.00000000E+00  0.00000000E+00  0.00000000E+00
  0.00000000E+00  0.00000000E+00  0.00000000E+00
  0.00000000E+00  0.00000000E+00  0.00000000E+00
  0.00000000E+00  0.00000000E+00  0.00000000E+00
  0.00000000E+00  0.00000000E+00  0.00000000E+00
  0.00000000E+00  0.00000000E+00  0.00000000E+00
