Si+C
    1.000000000
   13.303179741    0.000000000    0.000000000
   -6.651589394   14.873406410    0.000000000
    0.000000000    0.000000000    7.006474495
Si  C  
36     84
Direct
    0.997150958    0.980056584    0.000000000
    0.963817537    0.746723175    0.173326731
    0.930484116    0.513389826    0.346653461
    0.330484211    0.313389868    0.000000000
    0.297150791    0.080056474    0.173326731
    0.263817370    0.846723080    0.346653461
    0.663817465    0.646723151    0.000000000
    0.630484045    0.413389713    0.173326731
    0.597150624    0.180056334    0.346653461
    0.313817531    0.946723342    0.086663179
    0.280484110    0.713389993    0.259989917
    0.247150689    0.480056584    0.433316529
    0.647150815    0.280056566    0.086663179
    0.613817394    0.046723194    0.259989887
    0.580483973    0.813389778    0.433316588
    0.980484426    0.613389850    0.086663209
    0.947151005    0.380056471    0.259989887
    0.913817585    0.146723092    0.433316529
    0.163817570    0.646723092    0.000000002
    0.130484164    0.413389713    0.173326731
    0.097150750    0.180056319    0.346653461
    0.497150898    0.980056643    0.000000006
    0.463817418    0.746723175    0.173326641
    0.430484056    0.513389826    0.346653402
    0.830484152    0.313389868    0.000000006
    0.797150731    0.080056526    0.173326641
    0.763817310    0.846723080    0.346653402
    0.147150904    0.280056566    0.086663194
    0.113817483    0.046723165    0.259989917
    0.080484070    0.813389778    0.433316588
    0.480484217    0.613389909    0.086663194
    0.447150826    0.380056530    0.259989887
    0.413817406    0.146723166    0.433316588
    0.813817501    0.946723282    0.086663179
    0.780484140    0.713389874    0.259989887
    0.747150719    0.480056465    0.433316588
    0.391468346    0.050342798    0.802032292
    0.191468209    0.650342822    0.574368298
    0.291468263    0.350342780    0.688200295
    0.677182674    0.193199873    0.802032292
    0.477182448    0.793199956    0.574368298
    0.577182591    0.493199915    0.688200295
    0.962896883    0.336056948    0.802032292
    0.762896776    0.936057031    0.574368298
    0.862896860    0.636057019    0.688200295
    0.248611212    0.478914201    0.802032292
    0.048611060    0.078914285    0.574368298
    0.148611128    0.778914273    0.688200295
    0.534325480    0.621771336    0.802032292
    0.334325314    0.221771449    0.574368298
    0.434325397    0.921771407    0.688200295
    0.820039809    0.764628470    0.802032292
    0.620039582    0.364628583    0.574368298
    0.720039666    0.064628601    0.688200295
    0.105753936    0.907485545    0.802032292
    0.905753851    0.507485747    0.574368298
    0.005753875    0.207485676    0.688200295
    0.370039791    0.364628553    0.858948171
    0.170039654    0.964628696    0.631284177
    0.270039737    0.664628685    0.745116115
    0.512896895    0.936057091    0.858948171
    0.312896729    0.536057174    0.631284177
    0.412896782    0.236057132    0.745116115
    0.798611164    0.078914404    0.858948171
    0.598610938    0.678914487    0.631284177
    0.698611021    0.378914416    0.745116234
    0.084325470    0.221771508    0.858948052
    0.884325325    0.821771562    0.631284177
    0.984325409    0.521771550    0.745116234
    0.655754089    0.507485628    0.858948171
    0.455753922    0.107485771    0.631284177
    0.555754006    0.807485640    0.745116115
    0.941468298    0.650342941    0.858948171
    0.741468132    0.250343025    0.631284177
    0.841468155    0.950342953    0.745116115
    0.227182418    0.793199956    0.858948171
    0.027182341    0.393200099    0.631284177
    0.127182394    0.093200088    0.745116115
    0.462896943    0.336056918    0.802032292
    0.262896717    0.936057091    0.574368298
    0.362896830    0.636057019    0.688200295
    0.320039749    0.764628470    0.802032292
    0.120039627    0.364628553    0.574368298
    0.220039696    0.064628482    0.688200295
    0.605754018    0.907485545    0.802032292
    0.405753851    0.507485688    0.574368298
    0.505753934    0.207485646    0.688200295
    0.891468287    0.050342679    0.802032292
    0.691468120    0.650342762    0.574368298
    0.791468322    0.350342751    0.688200295
    0.177182585    0.193199813    0.802032292
    0.977182508    0.793199956    0.574368298
    0.077182449    0.493199855    0.688200295
    0.748611152    0.478914201    0.802032292
    0.548610985    0.078914285    0.574368298
    0.648611128    0.778914213    0.688200295
    0.034325361    0.621771276    0.802032292
    0.834325254    0.221771419    0.574368298
    0.934325397    0.921771348    0.688200295
    0.298611164    0.078914404    0.858948171
    0.098610997    0.678914487    0.631284177
    0.198611081    0.378914416    0.745116234
    0.584325492    0.221771479    0.858948171
    0.384325296    0.821771562    0.631284177
    0.484325409    0.521771550    0.745116234
    0.870039761    0.364628613    0.858948171
    0.670039594    0.964628696    0.631284177
    0.770039678    0.664628565    0.745116234
    0.441468328    0.650343001    0.858948171
    0.241468191    0.250343084    0.631284177
    0.341468215    0.950343013    0.745116115
    0.727182627    0.793200076    0.858948052
    0.527182460    0.393200159    0.631284177
    0.627182484    0.093200088    0.745116234
    0.012896776    0.936057031    0.858948052
    0.812896550    0.536057115    0.631284177
    0.912896752    0.236057103    0.745116115
    0.155754000    0.507485628    0.858948171
    0.955753803    0.107485771    0.631284177
    0.055753864    0.807485640    0.745116234
