fcc Si+fcc Ge                           
   1.00000000000000     
     5.4800000000000004    0.0000000000000000    0.0000000000000000
     0.0000000000000000    5.4800000000000004    0.0000000000000000
     0.0000000000000000    0.0000000000000000   30.8500000000000014
   Si   Ge
    22    22
Direct
  0.2500000000000000  0.0000000000000000  0.0444084279999970
  0.7500000000000000  0.0000000000000000  0.1332252839999981
  0.2500000000000000  0.0000000000000000  0.2220421390000027
  0.7500000000000000  0.0000000000000000  0.3108589949999967
  0.2500000000000000  0.0000000000000000  0.3996758509999978
  0.7500000000000000  0.5000000000000000  0.0444084279999970
  0.2500000000000000  0.5000000000000000  0.1332252839999981
  0.7500000000000000  0.5000000000000000  0.2220421390000027
  0.2500000000000000  0.5000000000000000  0.3108589949999967
  0.7500000000000000  0.5000000000000000  0.3996758509999978
  0.0000000000000000  0.2500000000000000  0.0000000000000000
  0.5000000000000000  0.2500000000000000  0.0888168560000011
  0.0000000000000000  0.2500000000000000  0.1776337120000022
  0.5000000000000000  0.2500000000000000  0.2664505669999997
  0.0000000000000000  0.2500000000000000  0.3552674230000008
  0.5000000000000000  0.2500000000000000  0.4440842790000019
  0.5000000000000000  0.7500000000000000  0.0000000000000000
  0.0000000000000000  0.7500000000000000  0.0888168560000011
  0.5000000000000000  0.7500000000000000  0.1776337120000022
  0.0000000000000000  0.7500000000000000  0.2664505669999997
  0.5000000000000000  0.7500000000000000  0.3552674230000008
  0.0000000000000000  0.7500000000000000  0.4440842790000019
  0.2222222219999992  0.4814814810000030  0.4927066449999984
  0.7222222219999992  0.4814814810000030  0.5844408430000030
  0.2222222219999992  0.4814814810000030  0.6761750410000005
  0.7222222219999992  0.4814814810000030  0.7679092380000014
  0.2222222219999992  0.4814814810000030  0.8596434359999989
  0.7222222219999992  0.4814814810000030  0.9513776339999964
  0.7222222219999992  0.9814814810000030  0.4927066449999984
  0.2222222219999992  0.9814814810000030  0.5844408430000030
  0.7222222219999992  0.9814814810000030  0.6761750410000005
  0.2222222219999992  0.9814814810000030  0.7679092380000014
  0.7222222219999992  0.9814814810000030  0.8596434359999989
  0.2222222219999992  0.9814814810000030  0.9513776339999964
  0.4722222219999992  0.7314814810000030  0.5385737439999971
  0.9722222219999992  0.7314814810000030  0.6303079420000017
  0.4722222219999992  0.7314814810000030  0.7220421390000027
  0.9722222219999992  0.7314814810000030  0.8137763370000002
  0.4722222219999992  0.7314814810000030  0.9055105349999977
  0.9722222219999992  0.2314814810000030  0.5385737439999971
  0.4722222219999992  0.2314814810000030  0.6303079420000017
  0.9722222219999992  0.2314814810000030  0.7220421390000027
  0.4722222219999992  0.2314814810000030  0.8137763370000002
  0.9722222219999992  0.2314814810000030  0.9055105349999977
 
  0.00000000E+00  0.00000000E+00  0.00000000E+00
  0.00000000E+00  0.00000000E+00  0.00000000E+00
  0.00000000E+00  0.00000000E+00  0.00000000E+00
  0.00000000E+00  0.00000000E+00  0.00000000E+00
  0.00000000E+00  0.00000000E+00  0.00000000E+00
  0.00000000E+00  0.00000000E+00  0.00000000E+00
  0.00000000E+00  0.00000000E+00  0.00000000E+00
  0.00000000E+00  0.00000000E+00  0.00000000E+00
  0.00000000E+00  0.00000000E+00  0.00000000E+00
  0.00000000E+00  0.00000000E+00  0.00000000E+00
  0.00000000E+00  0.00000000E+00  0.00000000E+00
  0.00000000E+00  0.00000000E+00  0.00000000E+00
  0.00000000E+00  0.00000000E+00  0.00000000E+00
  0.00000000E+00  0.00000000E+00  0.00000000E+00
  0.00000000E+00  0.00000000E+00  0.00000000E+00
  0.00000000E+00  0.00000000E+00  0.00000000E+00
  0.00000000E+00  0.00000000E+00  0.00000000E+00
  0.00000000E+00  0.00000000E+00  0.00000000E+00
  0.00000000E+00  0.00000000E+00  0.00000000E+00
  0.00000000E+00  0.00000000E+00  0.00000000E+00
  0.00000000E+00  0.00000000E+00  0.00000000E+00
  0.00000000E+00  0.00000000E+00  0.00000000E+00
  0.00000000E+00  0.00000000E+00  0.00000000E+00
  0.00000000E+00  0.00000000E+00  0.00000000E+00
  0.00000000E+00  0.00000000E+00  0.00000000E+00
  0.00000000E+00  0.00000000E+00  0.00000000E+00
  0.00000000E+00  0.00000000E+00  0.00000000E+00
  0.00000000E+00  0.00000000E+00  0.00000000E+00
  0.00000000E+00  0.00000000E+00  0.00000000E+00
  0.00000000E+00  0.00000000E+00  0.00000000E+00
  0.00000000E+00  0.00000000E+00  0.00000000E+00
  0.00000000E+00  0.00000000E+00  0.00000000E+00
  0.00000000E+00  0.00000000E+00  0.00000000E+00
  0.00000000E+00  0.00000000E+00  0.00000000E+00
  0.00000000E+00  0.00000000E+00  0.00000000E+00
  0.00000000E+00  0.00000000E+00  0.00000000E+00
  0.00000000E+00  0.00000000E+00  0.00000000E+00
  0.00000000E+00  0.00000000E+00  0.00000000E+00
  0.00000000E+00  0.00000000E+00  0.00000000E+00
  0.00000000E+00  0.00000000E+00  0.00000000E+00
  0.00000000E+00  0.00000000E+00  0.00000000E+00
  0.00000000E+00  0.00000000E+00  0.00000000E+00
  0.00000000E+00  0.00000000E+00  0.00000000E+00
  0.00000000E+00  0.00000000E+00  0.00000000E+00
