Ge+Sn
    1.000000000
   11.315600395    0.000000000    0.000000000
  -11.315600395   16.002676010    0.000000000
    0.000000000    0.000000000   25.800939560
Ge  Sn 
96     72
Direct
    0.985331416    0.455994159    0.000000018
    0.860331416    0.080994137    0.077529535
    0.735331416    0.705994129    0.155059069
    0.610331416    0.330994248    0.232588530
    0.485331357    0.955994129    0.310118079
    0.360331357    0.580994129    0.387647629
    0.485331386    0.455994159    0.000000018
    0.360331416    0.080994137    0.077529535
    0.235331357    0.705994129    0.155059069
    0.110331379    0.330994248    0.232588530
    0.985331476    0.955994129    0.310118079
    0.860331416    0.580994129    0.387647629
    0.985331357    0.955994129    0.000000016
    0.860331416    0.580994129    0.077529542
    0.735331416    0.205994129    0.155059054
    0.610331416    0.830994368    0.232588530
    0.485331416    0.455994129    0.310118109
    0.360331357    0.080994129    0.387647599
    0.485331386    0.955994129    0.000000016
    0.360331357    0.580994129    0.077529542
    0.235331446    0.205994129    0.155059054
    0.110331491    0.830994368    0.232588530
    0.985331297    0.455994129    0.310118109
    0.860331357    0.080994129    0.387647599
    0.235331371    0.705994129    0.000000021
    0.110331371    0.330994129    0.077529535
    0.985331357    0.955994129    0.155059054
    0.860331357    0.580994248    0.232588559
    0.735331357    0.205994189    0.310118109
    0.610331297    0.830994129    0.387647629
    0.735331357    0.705994129    0.000000021
    0.610331357    0.330994129    0.077529535
    0.485331327    0.955994129    0.155059054
    0.360331357    0.580994248    0.232588559
    0.235331371    0.205994189    0.310118109
    0.110331364    0.830994129    0.387647629
    0.235331386    0.205994144    0.000000017
    0.110331394    0.830994129    0.077529535
    0.985331357    0.455994129    0.155059054
    0.860331357    0.080994248    0.232588559
    0.735331476    0.705994248    0.310118079
    0.610331357    0.330994129    0.387647599
    0.735331297    0.205994144    0.000000017
    0.610331357    0.830994129    0.077529535
    0.485331386    0.455994129    0.155059054
    0.360331297    0.080994248    0.232588559
    0.235331386    0.705994248    0.310118079
    0.110331260    0.330994129    0.387647599
    0.985331416    0.580994189    0.000000026
    0.860331416    0.205994159    0.077529535
    0.735331357    0.830994129    0.155059054
    0.610331416    0.455994248    0.232588530
    0.485331357    0.080994189    0.310118109
    0.360331357    0.705994129    0.387647629
    0.485331416    0.580994189    0.000000026
    0.360331416    0.205994159    0.077529535
    0.235331401    0.830994129    0.155059054
    0.110331431    0.455994248    0.232588530
    0.985331357    0.080994189    0.310118109
    0.860331416    0.705994129    0.387647629
    0.985331357    0.080994137    0.000000013
    0.860331416    0.705994129    0.077529535
    0.735331416    0.330994129    0.155059054
    0.610331416    0.955994248    0.232588559
    0.485331416    0.580994248    0.310118079
    0.360331357    0.205994010    0.387647599
    0.485331386    0.080994137    0.000000013
    0.360331357    0.705994129    0.077529535
    0.235331401    0.330994129    0.155059054
    0.110331446    0.955994248    0.232588559
    0.985331535    0.580994248    0.310118079
    0.860331237    0.205994010    0.387647599
    0.235331446    0.830994189    0.000000000
    0.110331416    0.455994189    0.077529535
    0.985331416    0.080994174    0.155059054
    0.860331416    0.705994308    0.232588530
    0.735331416    0.330994248    0.310118079
    0.610331416    0.955994129    0.387647569
    0.735331416    0.830994189    0.000000000
    0.610331416    0.455994189    0.077529535
    0.485331386    0.080994174    0.155059054
    0.360331416    0.705994308    0.232588530
    0.235331416    0.330994248    0.310118079
    0.110331357    0.955994129    0.387647569
    0.235331371    0.330994129    0.000000018
    0.110331379    0.955994129    0.077529542
    0.985331357    0.580994129    0.155059054
    0.860331416    0.205994248    0.232588559
    0.735331357    0.830994129    0.310118079
    0.610331416    0.455994129    0.387647599
    0.735331357    0.330994129    0.000000018
    0.610331357    0.955994129    0.077529542
    0.485331386    0.580994129    0.155059054
    0.360331416    0.205994248    0.232588559
    0.235331461    0.830994129    0.310118079
    0.110331304    0.455994129    0.387647599
    0.482020497    0.489712834    0.471518010
    0.232020497    0.239712715    0.560440361
    0.982020378    0.989712656    0.649362683
    0.732020319    0.739712477    0.738284945
    0.482020259    0.489712477    0.827207208
    0.232020259    0.239712477    0.916129589
    0.482020497    0.156379461    0.471518010
    0.232020497    0.906379461    0.560440361
    0.982020378    0.656379223    0.649362683
    0.732020319    0.406379223    0.738284945
    0.482020259    0.156379223    0.827207208
    0.232020259    0.906379044    0.916129589
    0.482020497    0.823046207    0.471518010
    0.232020497    0.573046088    0.560440361
    0.982020378    0.323045969    0.649362683
    0.732020319    0.073045731    0.738284945
    0.482020259    0.823045731    0.827207208
    0.232020259    0.573045731    0.916129589
    0.982020497    0.656379461    0.471518010
    0.732020497    0.406379461    0.560440361
    0.482020378    0.156379342    0.649362624
    0.232020378    0.906379223    0.738284945
    0.982020319    0.656379223    0.827207208
    0.732020259    0.406378984    0.916129589
    0.982020497    0.323046088    0.471518010
    0.732020497    0.073046088    0.560440361
    0.482020378    0.823045969    0.649362624
    0.232020378    0.573045850    0.738284945
    0.982020319    0.323045731    0.827207208
    0.732020259    0.073045731    0.916129589
    0.982020497    0.989712834    0.471518010
    0.732020497    0.739712715    0.560440361
    0.482020378    0.489712715    0.649362624
    0.232020378    0.239712477    0.738284945
    0.982020319    0.989712417    0.827207208
    0.732020259    0.739712238    0.916129589
    0.232020497    0.489712954    0.471518010
    0.982020497    0.239712834    0.560440421
    0.732020378    0.989712715    0.649362683
    0.482020378    0.739712596    0.738284945
    0.232020259    0.489712596    0.827207267
    0.982020259    0.239712477    0.916129589
    0.232020497    0.156379461    0.471518010
    0.982020497    0.906379461    0.560440421
    0.732020378    0.656379223    0.649362683
    0.482020378    0.406379223    0.738284945
    0.232020259    0.156379223    0.827207267
    0.982020259    0.906379044    0.916129589
    0.232020497    0.823046207    0.471518010
    0.982020497    0.573046088    0.560440421
    0.732020378    0.323045969    0.649362683
    0.482020378    0.073045850    0.738284945
    0.232020259    0.823045731    0.827207267
    0.982020259    0.573045731    0.916129589
    0.732020497    0.656379461    0.471518010
    0.482020497    0.406379461    0.560440421
    0.232020378    0.156379223    0.649362683
    0.982020259    0.906379104    0.738284945
    0.732020319    0.656379104    0.827207208
    0.482020259    0.406378984    0.916129589
    0.732020497    0.323046088    0.471518010
    0.482020497    0.073046088    0.560440421
    0.232020378    0.823045969    0.649362683
    0.982020259    0.573045850    0.738284945
    0.732020319    0.323045731    0.827207208
    0.482020259    0.073045731    0.916129589
    0.732020497    0.989712834    0.471518010
    0.482020497    0.739712715    0.560440421
    0.232020378    0.489712715    0.649362683
    0.982020259    0.239712477    0.738284945
    0.732020319    0.989712536    0.827207208
    0.482020259    0.739712238    0.916129589
