Si+C                                    
   1.00000000000000     
    13.3031797409999992    0.0000000000000000    0.0000000000000000
    -6.6515893940000002   14.8734064099999994    0.0000000000000000
     0.0000000000000000    0.0000000000000000    5.0299243929999999
   Si   C 
    36    84
Direct
  0.9971509579999989  0.9800565840000033  0.0000000000000000
  0.9638175369999971  0.7467231749999996  0.2414369139999977
  0.9304841160000024  0.5133898260000009  0.4828738269999988
  0.3304842109999981  0.3133898680000016  0.0000000000000000
  0.2971507910000000  0.0800564740000027  0.2414369139999977
  0.2638173699999982  0.8467230799999967  0.4828738269999988
  0.6638174650000011  0.6467231510000033  0.0000000000000000
  0.6304840450000029  0.4133897130000008  0.2414369139999977
  0.5971506240000011  0.1800563339999997  0.4828738269999988
  0.3138175309999980  0.9467233419999985  0.1207182030000027
  0.2804841100000033  0.7133899929999998  0.3621551100000033
  0.2471506890000015  0.4800565840000033  0.6035918589999980
  0.6471508150000034  0.2800565659999990  0.1207182030000027
  0.6138173940000016  0.0467231940000019  0.3621550800000009
  0.5804839729999998  0.8133897780000012  0.6035919190000030
  0.9804844259999967  0.6133898499999972  0.1207182480000029
  0.9471510050000020  0.3800564710000032  0.3621550800000009
  0.9138175849999968  0.1467230920000020  0.6035918589999980
  0.1638175699999991  0.6467230920000020  0.0000000029999967
  0.1304841640000021  0.4133897130000008  0.2414369139999977
  0.0971507499999973  0.1800563190000020  0.4828738269999988
  0.4971508980000010  0.9800566429999975  0.0000000080000007
  0.4638174179999979  0.7467231749999996  0.2414368089999996
  0.4304840559999974  0.5133898260000009  0.4828737380000021
  0.8304841519999968  0.3133898680000016  0.0000000080000007
  0.7971507310000021  0.0800565259999999  0.2414368089999996
  0.7638173100000003  0.8467230799999967  0.4828737380000021
  0.1471509040000001  0.2800565659999990  0.1207182110000034
  0.1138174829999983  0.0467231650000031  0.3621551100000033
  0.0804840699999971  0.8133897780000012  0.6035919190000030
  0.4804842169999972  0.6133899089999986  0.1207182110000034
  0.4471508259999979  0.3800565299999974  0.3621550800000009
  0.4138174059999997  0.1467231660000010  0.6035919190000030
  0.8138175010000026  0.9467232820000007  0.1207182030000027
  0.7804841399999987  0.7133898740000006  0.3621550800000009
  0.7471507189999969  0.4800564649999970  0.6035919190000030
  0.3535895650000001  0.9392316340000022  0.9207184309999974
  0.1535894129999988  0.5392317180000035  0.6035919190000030
  0.2535894809999988  0.2392316760000028  0.7621552940000029
  0.6393038630000021  0.0820887610000014  0.9207184309999974
  0.4393036660000007  0.6820888519999997  0.6035919190000030
  0.5393037799999973  0.3820888099999991  0.7621552940000029
  0.9250180720000003  0.2249458280000027  0.9207184309999974
  0.7250179649999993  0.8249459270000017  0.6035919190000030
  0.8250180479999969  0.5249459150000035  0.7621552940000029
  0.2107324300000002  0.3678030969999995  0.9207184309999974
  0.0107322710000020  0.9678031799999971  0.6035919190000030
  0.1107323470000026  0.6678031679999989  0.7621552940000029
  0.4964466990000034  0.5106602310000028  0.9207184309999974
  0.2964465319999974  0.1106603369999988  0.6035919190000030
  0.3964466150000021  0.8106603029999988  0.7621552940000029
  0.7821609969999983  0.6535173649999990  0.9207184309999974
  0.5821607709999981  0.2535174790000028  0.6035919190000030
  0.6821608540000028  0.9535174370000021  0.7621552940000029
  0.0678751470000023  0.7963744400000010  0.9207184309999974
  0.8678750400000013  0.3963746129999990  0.6035919190000030
  0.9678751229999989  0.0963745560000007  0.7621552940000029
  0.3321610090000036  0.2535174490000003  0.9999998810000008
  0.1321608570000024  0.8535175920000029  0.6828734870000019
  0.2321609409999965  0.5535175799999976  0.8414366250000000
  0.4750180839999985  0.8249459860000030  0.9999998810000008
  0.2750179470000020  0.4249460699999972  0.6828734870000019
  0.3750180010000008  0.1249460129999989  0.8414366250000000
  0.7607323530000016  0.9678032990000034  0.9999998810000008
  0.5607321259999978  0.5678033829999976  0.6828734870000019
  0.6607322099999990  0.2678033110000015  0.8414367439999992
  0.0464466809999990  0.1106603890000031  0.9999997620000016
  0.8464465140000001  0.7106604579999996  0.6828734870000019
  0.9464465980000014  0.4106604159999989  0.8414367439999992
  0.6178752779999996  0.3963745240000023  0.9999998810000008
  0.4178751410000032  0.9963746669999978  0.6828734870000019
  0.5178751950000020  0.6963745360000004  0.8414366250000000
  0.9035894869999979  0.5392318370000027  0.9999998810000008
  0.7035893199999990  0.1392319200000003  0.6828734870000019
  0.8035893440000024  0.8392318490000008  0.8414366250000000
  0.1893036370000019  0.6820888519999997  0.9999998810000008
  0.9893035289999972  0.2820889950000023  0.6828734870000019
  0.0893036129999984  0.9820889229999992  0.8414366250000000
  0.4250181620000006  0.2249458129999979  0.9207184309999974
  0.2250179349999968  0.8249459860000030  0.6035919190000030
  0.3250180479999969  0.5249459150000035  0.7621552940000029
  0.2821609679999995  0.6535173649999990  0.9207184309999974
  0.0821608380000001  0.2535174490000003  0.6035919190000030
  0.1821608990000030  0.9535173769999972  0.7621552940000029
  0.5678752059999965  0.7963744400000010  0.9207184309999974
  0.3678750690000001  0.3963745829999965  0.6035919190000030
  0.4678751530000014  0.0963745270000018  0.7621552940000029
  0.8535894749999997  0.9392315750000009  0.9207184309999974
  0.6535893080000008  0.5392316579999985  0.6035919190000030
  0.7535895110000013  0.2392316310000027  0.7621552940000029
  0.1393038029999971  0.0820886939999994  0.9207184309999974
  0.9393036960000032  0.6820888519999997  0.6035919190000030
  0.0393036600000016  0.3820887509999977  0.7621552940000029
  0.7107323410000035  0.3678030969999995  0.9207184309999974
  0.5107321739999975  0.9678031799999971  0.6035919190000030
  0.6107323170000001  0.6678031089999976  0.7621552940000029
  0.9964466090000030  0.5106601720000015  0.9207184309999974
  0.7964464430000007  0.1106602999999993  0.6035919190000030
  0.8964465860000033  0.8106602430000009  0.7621552940000029
  0.2607323829999970  0.9678032990000034  0.9999998810000008
  0.0607322079999975  0.5678033829999976  0.6828734870000019
  0.1607322839999981  0.2678033110000015  0.8414367439999992
  0.5464466809999990  0.1106603739999983  0.9999998810000008
  0.3464465140000001  0.7106604579999996  0.6828734870000019
  0.4464466270000003  0.4106604159999989  0.8414367439999992
  0.8321609500000022  0.2535175089999981  0.9999998810000008
  0.6321607830000033  0.8535175920000029  0.6828734870000019
  0.7321608660000010  0.5535174609999984  0.8414367439999992
  0.4035895470000028  0.5392318959999969  0.9999998810000008
  0.2035894099999993  0.1392319650000005  0.6828734870000019
  0.3035894329999991  0.8392319080000021  0.8414366250000000
  0.6893038150000024  0.6820889709999989  0.9999997620000016
  0.4893036480000035  0.2820890550000001  0.6828734870000019
  0.5893036719999998  0.9820889229999992  0.8414367439999992
  0.9750179649999993  0.8249459270000017  0.9999997620000016
  0.7750177380000025  0.4249460099999993  0.6828734870000019
  0.8750179410000030  0.1249459909999970  0.8414366250000000
  0.1178752180000018  0.3963745240000023  0.0000000000000000
  0.9178749920000016  0.9963746669999978  0.6828734870000019
  0.0178750749999992  0.6963745360000004  0.8414367439999992
 
  0.00000000E+00  0.00000000E+00  0.00000000E+00
  0.00000000E+00  0.00000000E+00  0.00000000E+00
  0.00000000E+00  0.00000000E+00  0.00000000E+00
  0.00000000E+00  0.00000000E+00  0.00000000E+00
  0.00000000E+00  0.00000000E+00  0.00000000E+00
  0.00000000E+00  0.00000000E+00  0.00000000E+00
  0.00000000E+00  0.00000000E+00  0.00000000E+00
  0.00000000E+00  0.00000000E+00  0.00000000E+00
  0.00000000E+00  0.00000000E+00  0.00000000E+00
  0.00000000E+00  0.00000000E+00  0.00000000E+00
  0.00000000E+00  0.00000000E+00  0.00000000E+00
  0.00000000E+00  0.00000000E+00  0.00000000E+00
  0.00000000E+00  0.00000000E+00  0.00000000E+00
  0.00000000E+00  0.00000000E+00  0.00000000E+00
  0.00000000E+00  0.00000000E+00  0.00000000E+00
  0.00000000E+00  0.00000000E+00  0.00000000E+00
  0.00000000E+00  0.00000000E+00  0.00000000E+00
  0.00000000E+00  0.00000000E+00  0.00000000E+00
  0.00000000E+00  0.00000000E+00  0.00000000E+00
  0.00000000E+00  0.00000000E+00  0.00000000E+00
  0.00000000E+00  0.00000000E+00  0.00000000E+00
  0.00000000E+00  0.00000000E+00  0.00000000E+00
  0.00000000E+00  0.00000000E+00  0.00000000E+00
  0.00000000E+00  0.00000000E+00  0.00000000E+00
  0.00000000E+00  0.00000000E+00  0.00000000E+00
  0.00000000E+00  0.00000000E+00  0.00000000E+00
  0.00000000E+00  0.00000000E+00  0.00000000E+00
  0.00000000E+00  0.00000000E+00  0.00000000E+00
  0.00000000E+00  0.00000000E+00  0.00000000E+00
  0.00000000E+00  0.00000000E+00  0.00000000E+00
  0.00000000E+00  0.00000000E+00  0.00000000E+00
  0.00000000E+00  0.00000000E+00  0.00000000E+00
  0.00000000E+00  0.00000000E+00  0.00000000E+00
  0.00000000E+00  0.00000000E+00  0.00000000E+00
  0.00000000E+00  0.00000000E+00  0.00000000E+00
  0.00000000E+00  0.00000000E+00  0.00000000E+00
  0.00000000E+00  0.00000000E+00  0.00000000E+00
  0.00000000E+00  0.00000000E+00  0.00000000E+00
  0.00000000E+00  0.00000000E+00  0.00000000E+00
  0.00000000E+00  0.00000000E+00  0.00000000E+00
  0.00000000E+00  0.00000000E+00  0.00000000E+00
  0.00000000E+00  0.00000000E+00  0.00000000E+00
  0.00000000E+00  0.00000000E+00  0.00000000E+00
  0.00000000E+00  0.00000000E+00  0.00000000E+00
  0.00000000E+00  0.00000000E+00  0.00000000E+00
  0.00000000E+00  0.00000000E+00  0.00000000E+00
  0.00000000E+00  0.00000000E+00  0.00000000E+00
  0.00000000E+00  0.00000000E+00  0.00000000E+00
  0.00000000E+00  0.00000000E+00  0.00000000E+00
  0.00000000E+00  0.00000000E+00  0.00000000E+00
  0.00000000E+00  0.00000000E+00  0.00000000E+00
  0.00000000E+00  0.00000000E+00  0.00000000E+00
  0.00000000E+00  0.00000000E+00  0.00000000E+00
  0.00000000E+00  0.00000000E+00  0.00000000E+00
  0.00000000E+00  0.00000000E+00  0.00000000E+00
  0.00000000E+00  0.00000000E+00  0.00000000E+00
  0.00000000E+00  0.00000000E+00  0.00000000E+00
  0.00000000E+00  0.00000000E+00  0.00000000E+00
  0.00000000E+00  0.00000000E+00  0.00000000E+00
  0.00000000E+00  0.00000000E+00  0.00000000E+00
  0.00000000E+00  0.00000000E+00  0.00000000E+00
  0.00000000E+00  0.00000000E+00  0.00000000E+00
  0.00000000E+00  0.00000000E+00  0.00000000E+00
  0.00000000E+00  0.00000000E+00  0.00000000E+00
  0.00000000E+00  0.00000000E+00  0.00000000E+00
  0.00000000E+00  0.00000000E+00  0.00000000E+00
  0.00000000E+00  0.00000000E+00  0.00000000E+00
  0.00000000E+00  0.00000000E+00  0.00000000E+00
  0.00000000E+00  0.00000000E+00  0.00000000E+00
  0.00000000E+00  0.00000000E+00  0.00000000E+00
  0.00000000E+00  0.00000000E+00  0.00000000E+00
  0.00000000E+00  0.00000000E+00  0.00000000E+00
  0.00000000E+00  0.00000000E+00  0.00000000E+00
  0.00000000E+00  0.00000000E+00  0.00000000E+00
  0.00000000E+00  0.00000000E+00  0.00000000E+00
  0.00000000E+00  0.00000000E+00  0.00000000E+00
  0.00000000E+00  0.00000000E+00  0.00000000E+00
  0.00000000E+00  0.00000000E+00  0.00000000E+00
  0.00000000E+00  0.00000000E+00  0.00000000E+00
  0.00000000E+00  0.00000000E+00  0.00000000E+00
  0.00000000E+00  0.00000000E+00  0.00000000E+00
  0.00000000E+00  0.00000000E+00  0.00000000E+00
  0.00000000E+00  0.00000000E+00  0.00000000E+00
  0.00000000E+00  0.00000000E+00  0.00000000E+00
  0.00000000E+00  0.00000000E+00  0.00000000E+00
  0.00000000E+00  0.00000000E+00  0.00000000E+00
  0.00000000E+00  0.00000000E+00  0.00000000E+00
  0.00000000E+00  0.00000000E+00  0.00000000E+00
  0.00000000E+00  0.00000000E+00  0.00000000E+00
  0.00000000E+00  0.00000000E+00  0.00000000E+00
  0.00000000E+00  0.00000000E+00  0.00000000E+00
  0.00000000E+00  0.00000000E+00  0.00000000E+00
  0.00000000E+00  0.00000000E+00  0.00000000E+00
  0.00000000E+00  0.00000000E+00  0.00000000E+00
  0.00000000E+00  0.00000000E+00  0.00000000E+00
  0.00000000E+00  0.00000000E+00  0.00000000E+00
  0.00000000E+00  0.00000000E+00  0.00000000E+00
  0.00000000E+00  0.00000000E+00  0.00000000E+00
  0.00000000E+00  0.00000000E+00  0.00000000E+00
  0.00000000E+00  0.00000000E+00  0.00000000E+00
  0.00000000E+00  0.00000000E+00  0.00000000E+00
  0.00000000E+00  0.00000000E+00  0.00000000E+00
  0.00000000E+00  0.00000000E+00  0.00000000E+00
  0.00000000E+00  0.00000000E+00  0.00000000E+00
  0.00000000E+00  0.00000000E+00  0.00000000E+00
  0.00000000E+00  0.00000000E+00  0.00000000E+00
  0.00000000E+00  0.00000000E+00  0.00000000E+00
  0.00000000E+00  0.00000000E+00  0.00000000E+00
  0.00000000E+00  0.00000000E+00  0.00000000E+00
  0.00000000E+00  0.00000000E+00  0.00000000E+00
  0.00000000E+00  0.00000000E+00  0.00000000E+00
  0.00000000E+00  0.00000000E+00  0.00000000E+00
  0.00000000E+00  0.00000000E+00  0.00000000E+00
  0.00000000E+00  0.00000000E+00  0.00000000E+00
  0.00000000E+00  0.00000000E+00  0.00000000E+00
  0.00000000E+00  0.00000000E+00  0.00000000E+00
  0.00000000E+00  0.00000000E+00  0.00000000E+00
  0.00000000E+00  0.00000000E+00  0.00000000E+00
  0.00000000E+00  0.00000000E+00  0.00000000E+00
  0.00000000E+00  0.00000000E+00  0.00000000E+00
