Automatic KPOINTS generated
0
Gamma
3 2 4
0 0 0
