C+Si
    1.000000000
   13.345743179    0.000000000    0.000000000
   -6.672872543   14.920996666    0.000000000
    0.000000000    0.000000000    8.390060425
C   Si 
84     36
Direct
    0.846410573    0.460768223    0.000000005
    0.746410489    0.760768354    0.095060207
    0.646410406    0.060768485    0.190120444
    0.560696304    0.317911088    0.000000007
    0.460696220    0.617911220    0.095060207
    0.360696167    0.917911410    0.190120444
    0.274982035    0.175053939    0.000000004
    0.174981952    0.475054085    0.095060207
    0.074981831    0.775054276    0.190120444
    0.989267707    0.032196779    0.000000006
    0.889267683    0.332196921    0.095060207
    0.789267540    0.632197142    0.190120444
    0.703553498    0.889339566    0.000000000
    0.603553355    0.189339757    0.095060229
    0.503553271    0.489339828    0.190120354
    0.417839199    0.746482551    0.000000004
    0.317839086    0.046482682    0.095060192
    0.217839003    0.346482873    0.190120459
    0.132124901    0.603625357    0.000000004
    0.032124814    0.903625548    0.095060192
    0.932124674    0.203625679    0.190120459
    0.867839277    0.146482348    0.047530036
    0.767839134    0.446482539    0.142590255
    0.667839050    0.746482611    0.237650484
    0.724982142    0.575053871    0.047530014
    0.624982059    0.875054002    0.142590225
    0.524982035    0.175054193    0.237650380
    0.439267725    0.432196766    0.047530022
    0.339267671    0.732196987    0.142590255
    0.239267603    0.032196999    0.237650409
    0.153553441    0.289339483    0.047530014
    0.053553350    0.589339674    0.142590240
    0.953553259    0.889339745    0.237650380
    0.582124949    0.003625274    0.047530040
    0.482124835    0.303625464    0.142590269
    0.382124811    0.603625536    0.237650350
    0.296410650    0.860768020    0.047530033
    0.196410552    0.160768270    0.142590255
    0.096410468    0.460768223    0.237650350
    0.010696323    0.717910945    0.047530036
    0.910696208    0.017911077    0.142590255
    0.810696125    0.317911148    0.237650484
    0.774982095    0.175053984    0.000000014
    0.674981892    0.475054085    0.095060214
    0.574981868    0.775054276    0.190120429
    0.489267707    0.032196764    0.000000011
    0.389267653    0.332196921    0.095060214
    0.289267510    0.632197082    0.190120429
    0.917839170    0.746482491    0.000000009
    0.817839026    0.046482682    0.095060207
    0.717839003    0.346482873    0.190120429
    0.632124841    0.603625298    0.000000021
    0.532124698    0.903625429    0.095060229
    0.432124674    0.203625679    0.190120429
    0.346410602    0.460768253    0.000000013
    0.246410504    0.760768414    0.095060229
    0.146410406    0.060768604    0.190120429
    0.060696311    0.317911088    0.000000025
    0.960696220    0.617911220    0.095060207
    0.860696137    0.917911410    0.190120429
    0.203553453    0.889339626    0.000000009
    0.103553370    0.189339757    0.095060267
    0.003553284    0.489339948    0.190120384
    0.939267814    0.432196766    0.047530014
    0.839267671    0.732196987    0.142590240
    0.739267588    0.032196999    0.237650439
    0.653553486    0.289339483    0.047530014
    0.553553343    0.589339674    0.142590240
    0.453553349    0.889339685    0.237650380
    0.367839187    0.146482348    0.047530018
    0.267839074    0.446482539    0.142590284
    0.167839035    0.746482611    0.237650335
    0.796410680    0.860768020    0.047530022
    0.696410537    0.160768151    0.142590225
    0.596410513    0.460768223    0.237650350
    0.510696411    0.717910886    0.047530025
    0.410696298    0.017911077    0.142590269
    0.310696244    0.317911148    0.237650409
    0.224981993    0.575053871    0.047530014
    0.124981925    0.875054061    0.142590240
    0.024981862    0.175054073    0.237650439
    0.082124881    0.003625274    0.047530022
    0.982124805    0.303625464    0.142590180
    0.882124722    0.603625655    0.237650439
    0.125938892    0.041785002    0.437895536
    0.092605352    0.808451593    0.582639337
    0.059272051    0.575118244    0.727383137
    0.459272087    0.375118256    0.437895536
    0.425938666    0.141784877    0.582639337
    0.392605245    0.908451498    0.727383137
    0.792605340    0.708451569    0.437895536
    0.759271920    0.475118101    0.582639337
    0.725938499    0.241784722    0.727383137
    0.442605406    0.008451700    0.510267258
    0.409271985    0.775118411    0.655011058
    0.375938565    0.541785002    0.799754798
    0.775938690    0.341784954    0.510267258
    0.742605269    0.108451590    0.655010998
    0.709271848    0.875118196    0.799754858
    0.109272242    0.675118268    0.510267258
    0.075938940    0.441784859    0.655010998
    0.042605400    0.208451480    0.799754798
    0.292605460    0.708451509    0.437895536
    0.259272039    0.475118101    0.582639337
    0.225938618    0.241784722    0.727383137
    0.625938773    0.041785002    0.437895536
    0.592605293    0.808451593    0.582639277
    0.559271932    0.575118244    0.727383077
    0.959272027    0.375118256    0.437895536
    0.925938606    0.141784921    0.582639277
    0.892605186    0.908451498    0.727383077
    0.275938779    0.341784954    0.510267258
    0.242605358    0.108451560    0.655011058
    0.209271938    0.875118196    0.799754858
    0.609272122    0.675118327    0.510267258
    0.575938702    0.441784918    0.655010998
    0.542605281    0.208451569    0.799754858
    0.942605376    0.008451700    0.510267258
    0.909272015    0.775118291    0.655010998
    0.875938594    0.541784883    0.799754858
