Sn+Ge                                   
   1.00000000000000     
    14.5102920530000006    0.0000000000000000    0.0000000000000000
     0.0000000000000000   19.4676017759999986    0.0000000000000000
     0.0000000000000000    0.0000000000000000   17.4044361109999990
   Sn   Ge
    36   144
Direct
  0.9829056259999973  0.6524212960000000  0.0000000069999970
  0.7829055790000012  0.4857546089999971  0.0833712889999987
  0.5829054120000023  0.3190878930000025  0.1667425480000020
  0.9829056259999973  0.3190880120000017  0.0000000069999970
  0.7829055790000012  0.1524213249999988  0.0833712889999987
  0.5829054120000023  0.9857546089999971  0.1667425480000020
  0.9829056259999973  0.9857547280000034  0.0000000069999970
  0.7829055790000012  0.8190880419999971  0.0833712889999987
  0.5829054120000023  0.6524212960000000  0.1667425480000020
  0.6329056020000010  0.9024214149999992  0.0416855699999985
  0.4329055250000025  0.7357547280000034  0.1250568479999998
  0.2329054329999991  0.5690880419999971  0.2084280850000013
  0.6329056020000010  0.5690879819999992  0.0416855699999985
  0.4329055250000025  0.4024212960000000  0.1250568479999998
  0.2329054329999991  0.2357546089999971  0.2084280850000013
  0.6329056020000010  0.2357547579999988  0.0416855699999985
  0.4329055250000025  0.0690880639999989  0.1250568479999998
  0.2329054329999991  0.9024213550000013  0.2084280850000013
  0.4829055960000019  0.8190879229999979  0.0000000000000000
  0.2829054589999984  0.6524212360000021  0.0833712740000010
  0.0829053519999974  0.4857545790000017  0.1667425779999974
  0.4829055960000019  0.4857546690000021  0.0000000000000000
  0.2829054589999984  0.3190879819999992  0.0833712740000010
  0.0829053519999974  0.1524212810000023  0.1667425779999974
  0.4829055960000019  0.1524213550000013  0.0000000000000000
  0.2829054589999984  0.9857546690000021  0.0833712740000010
  0.0829053519999974  0.8190879819999992  0.1667425779999974
  0.1329056470000012  0.7357546690000021  0.0416855630000015
  0.9329055549999978  0.5690879819999992  0.1250568179999973
  0.7329055069999981  0.4024212960000000  0.2084280850000013
  0.1329056470000012  0.4024213849999967  0.0416855630000015
  0.9329055549999978  0.2357547129999986  0.1250568179999973
  0.7329055069999981  0.0690880120000017  0.2084280850000013
  0.1329056470000012  0.0690880120000017  0.0416855630000015
  0.9329055549999978  0.9024213550000013  0.1250568179999973
  0.7329055069999981  0.7357546089999971  0.2084280850000013
  0.9793784619999997  0.1340206120000005  0.3168829079999966
  0.7293783430000005  0.1340205670000003  0.4318153560000013
  0.4793782830000026  0.1340204480000011  0.5467477440000010
  0.2293782229999977  0.1340204480000011  0.6616802220000011
  0.9793783430000005  0.1340203290000019  0.7766126389999997
  0.7293781039999985  0.1340202089999991  0.8915451769999976
  0.6460450889999976  0.3006872529999995  0.3168829079999966
  0.3960450289999997  0.3006871939999982  0.4318153560000013
  0.1460449400000030  0.3006871340000004  0.5467477440000010
  0.8960449100000005  0.3006870449999965  0.6616802220000011
  0.6460449100000005  0.3006869550000033  0.7766126389999997
  0.3960447910000013  0.3006869550000033  0.8915451769999976
  0.3127117459999980  0.4673539400000024  0.3168829079999966
  0.0627116929999971  0.4673538799999974  0.4318153560000013
  0.8127115959999998  0.4673537609999983  0.5467477440000010
  0.5627115959999998  0.4673537609999983  0.6616802220000011
  0.3127115369999984  0.4673536419999991  0.7766126389999997
  0.0627114770000006  0.4673536419999991  0.8915451769999976
  0.9793784619999997  0.6340205670000003  0.3168829079999966
  0.7293783430000005  0.6340205070000025  0.4318153560000013
  0.4793782229999977  0.6340204480000011  0.5467477440000010
  0.2293782830000026  0.6340203880000033  0.6616802220000011
  0.9793782229999977  0.6340203290000019  0.7766126389999997
  0.7293781039999985  0.6340202689999970  0.8915451769999976
  0.6460450889999976  0.8006873129999974  0.3168828789999978
  0.3960450289999997  0.8006871939999982  0.4318153259999988
  0.1460449249999982  0.8006871340000004  0.5467477440000010
  0.8960449100000005  0.8006870749999990  0.6616802220000011
  0.6460448500000027  0.8006870150000012  0.7766126389999997
  0.3960447910000013  0.8006869550000033  0.8915451769999976
  0.3127117749999968  0.9673539400000024  0.3168828789999978
  0.0627117229999996  0.9673538799999974  0.4318153259999988
  0.8127115959999998  0.9673538210000032  0.5467477440000010
  0.5627115959999998  0.9673537019999969  0.6616802220000011
  0.3127115369999984  0.9673537019999969  0.7766126389999997
  0.0627114770000006  0.9673535820000012  0.8915451769999976
  0.4793784619999997  0.1340205670000003  0.3168829079999966
  0.2293783719999993  0.1340205670000003  0.4318153560000013
  0.9793782830000026  0.1340204480000011  0.5467477440000010
  0.7293782229999977  0.1340204480000011  0.6616802220000011
  0.4793782229999977  0.1340203290000019  0.7766126389999997
  0.2293781039999985  0.1340202089999991  0.8915451769999976
  0.1460451040000024  0.3006872529999995  0.3168829079999966
  0.8960450289999997  0.3006871939999982  0.4318153560000013
  0.6460449699999984  0.3006871340000004  0.5467477440000010
  0.3960449100000005  0.3006870749999990  0.6616802220000011
  0.1460449100000005  0.3006869849999987  0.7766126389999997
  0.8960448500000027  0.3006868960000020  0.8915451769999976
  0.8127118350000018  0.4673539400000024  0.3168829079999966
  0.5627117749999968  0.4673538799999974  0.4318153560000013
  0.3127116860000001  0.4673538210000032  0.5467477440000010
  0.0627116779999994  0.4673537609999983  0.6616802810000024
  0.8127115959999998  0.4673536419999991  0.7766126389999997
  0.5627114770000006  0.4673535820000012  0.8915451169999997
  0.4793784319999972  0.6340206269999982  0.3168829079999966
  0.2293783579999982  0.6340205070000025  0.4318153560000013
  0.9793782830000026  0.6340204480000011  0.5467477440000010
  0.7293782229999977  0.6340203880000033  0.6616802810000024
  0.4793782830000026  0.6340202689999970  0.7766126389999997
  0.2293781039999985  0.6340202089999991  0.8915451169999997
  0.1460451190000001  0.8006872529999995  0.3168829079999966
  0.8960450289999997  0.8006871939999982  0.4318153560000013
  0.6460449699999984  0.8006871340000004  0.5467477440000010
  0.3960449100000005  0.8006870749999990  0.6616802810000024
  0.1460447910000013  0.8006869550000033  0.7766126389999997
  0.8960448500000027  0.8006868960000020  0.8915451169999997
  0.8127117749999968  0.9673539400000024  0.3168829079999966
  0.5627117160000026  0.9673539400000024  0.4318153560000013
  0.3127116260000022  0.9673537609999983  0.5467478039999989
  0.0627115959999998  0.9673537609999983  0.6616802810000024
  0.8127115959999998  0.9673536419999991  0.7766126389999997
  0.5627114770000006  0.9673535820000012  0.8915451769999976
  0.6460452079999968  0.1756872529999995  0.3168829079999966
  0.3960451190000001  0.1756871939999982  0.4318153560000013
  0.1460450289999997  0.1756871190000027  0.5467477440000010
  0.8960450289999997  0.1756870449999965  0.6616802220000011
  0.6460449699999984  0.1756870000000035  0.7766126389999997
  0.3960449100000005  0.1756869109999997  0.8915451769999976
  0.3127117459999980  0.3423539400000024  0.3168829079999966
  0.0627117009999978  0.3423538799999974  0.4318153560000013
  0.8127115959999998  0.3423537609999983  0.5467477440000010
  0.5627115959999998  0.3423537019999969  0.6616802220000011
  0.3127115959999998  0.3423536419999991  0.7766126389999997
  0.0627114770000006  0.3423535820000012  0.8915452359999989
  0.9793784619999997  0.5090205670000003  0.3168829079999966
  0.7293784020000018  0.5090205070000025  0.4318153560000013
  0.4793782830000026  0.5090203880000033  0.5467477440000010
  0.2293782830000026  0.5090203880000033  0.6616802220000011
  0.9793783430000005  0.5090202689999970  0.7766126389999997
  0.7293781039999985  0.5090202089999991  0.8915452359999989
  0.6460451479999989  0.6756873129999974  0.3168828789999978
  0.3960450889999976  0.6756871939999982  0.4318153560000013
  0.1460450140000020  0.6756871340000004  0.5467478039999989
  0.8960450289999997  0.6756870749999990  0.6616802220000011
  0.6460449699999984  0.6756869550000033  0.7766126389999997
  0.3960448500000027  0.6756868960000020  0.8915451169999997
  0.3127117749999968  0.8423538799999974  0.3168828789999978
  0.0627116779999994  0.8423538210000032  0.4318153560000013
  0.8127115959999998  0.8423537609999983  0.5467477440000010
  0.5627115959999998  0.8423536419999991  0.6616802220000011
  0.3127115959999998  0.8423535820000012  0.7766126389999997
  0.0627114770000006  0.8423535229999999  0.8915451169999997
  0.9793785210000010  0.0090205670000003  0.3168828789999978
  0.7293784619999997  0.0090205670000003  0.4318153560000013
  0.4793784020000018  0.0090204480000011  0.5467478039999989
  0.2293783430000005  0.0090203290000019  0.6616802220000011
  0.9793783430000005  0.0090202089999991  0.7766126389999997
  0.7293782229999977  0.0090202089999991  0.8915451169999997
  0.1460450889999976  0.1756872679999972  0.3168829079999966
  0.8960450289999997  0.1756871939999982  0.4318153560000013
  0.6460449699999984  0.1756871340000004  0.5467477440000010
  0.3960449100000005  0.1756870449999965  0.6616802220000011
  0.1460449100000005  0.1756869700000010  0.7766126389999997
  0.8960448500000027  0.1756869109999997  0.8915451169999997
  0.8127117160000026  0.3423539400000024  0.3168829079999966
  0.5627116559999976  0.3423538509999986  0.4318153560000013
  0.3127115670000009  0.3423537910000007  0.5467477440000010
  0.0627115369999984  0.3423537019999969  0.6616802220000011
  0.8127115369999984  0.3423536419999991  0.7766126389999997
  0.5627114770000006  0.3423535820000012  0.8915451769999976
  0.4793784319999972  0.5090206269999982  0.3168829079999966
  0.2293783719999993  0.5090205070000025  0.4318153560000013
  0.9793782830000026  0.5090204480000011  0.5467477440000010
  0.7293782229999977  0.5090203880000033  0.6616802220000011
  0.4793782830000026  0.5090203290000019  0.7766126389999997
  0.2293782229999977  0.5090202089999991  0.8915451769999976
  0.1460451190000001  0.6756873129999974  0.3168829079999966
  0.8960450289999997  0.6756872529999995  0.4318153560000013
  0.6460449100000005  0.6756871340000004  0.5467477440000010
  0.3960449100000005  0.6756870749999990  0.6616802220000011
  0.1460449100000005  0.6756870150000012  0.7766126389999997
  0.8960447310000035  0.6756870150000012  0.8915451769999976
  0.8127118350000018  0.8423540000000003  0.3168828789999978
  0.5627117160000026  0.8423539400000024  0.4318153259999988
  0.3127116559999976  0.8423538210000032  0.5467478039999989
  0.0627116260000022  0.8423537609999983  0.6616802810000024
  0.8127115959999998  0.8423537019999969  0.7766126389999997
  0.5627115369999984  0.8423535820000012  0.8915451769999976
  0.4793784619999997  0.0090205670000003  0.3168828789999978
  0.2293783719999993  0.0090205670000003  0.4318153259999988
  0.9793782830000026  0.0090204480000011  0.5467478039999989
  0.7293783430000005  0.0090204480000011  0.6616802810000024
  0.4793782830000026  0.0090203290000019  0.7766126389999997
  0.2293780449999971  0.0090202089999991  0.8915451769999976
 
  0.00000000E+00  0.00000000E+00  0.00000000E+00
  0.00000000E+00  0.00000000E+00  0.00000000E+00
  0.00000000E+00  0.00000000E+00  0.00000000E+00
  0.00000000E+00  0.00000000E+00  0.00000000E+00
  0.00000000E+00  0.00000000E+00  0.00000000E+00
  0.00000000E+00  0.00000000E+00  0.00000000E+00
  0.00000000E+00  0.00000000E+00  0.00000000E+00
  0.00000000E+00  0.00000000E+00  0.00000000E+00
  0.00000000E+00  0.00000000E+00  0.00000000E+00
  0.00000000E+00  0.00000000E+00  0.00000000E+00
  0.00000000E+00  0.00000000E+00  0.00000000E+00
  0.00000000E+00  0.00000000E+00  0.00000000E+00
  0.00000000E+00  0.00000000E+00  0.00000000E+00
  0.00000000E+00  0.00000000E+00  0.00000000E+00
  0.00000000E+00  0.00000000E+00  0.00000000E+00
  0.00000000E+00  0.00000000E+00  0.00000000E+00
  0.00000000E+00  0.00000000E+00  0.00000000E+00
  0.00000000E+00  0.00000000E+00  0.00000000E+00
  0.00000000E+00  0.00000000E+00  0.00000000E+00
  0.00000000E+00  0.00000000E+00  0.00000000E+00
  0.00000000E+00  0.00000000E+00  0.00000000E+00
  0.00000000E+00  0.00000000E+00  0.00000000E+00
  0.00000000E+00  0.00000000E+00  0.00000000E+00
  0.00000000E+00  0.00000000E+00  0.00000000E+00
  0.00000000E+00  0.00000000E+00  0.00000000E+00
  0.00000000E+00  0.00000000E+00  0.00000000E+00
  0.00000000E+00  0.00000000E+00  0.00000000E+00
  0.00000000E+00  0.00000000E+00  0.00000000E+00
  0.00000000E+00  0.00000000E+00  0.00000000E+00
  0.00000000E+00  0.00000000E+00  0.00000000E+00
  0.00000000E+00  0.00000000E+00  0.00000000E+00
  0.00000000E+00  0.00000000E+00  0.00000000E+00
  0.00000000E+00  0.00000000E+00  0.00000000E+00
  0.00000000E+00  0.00000000E+00  0.00000000E+00
  0.00000000E+00  0.00000000E+00  0.00000000E+00
  0.00000000E+00  0.00000000E+00  0.00000000E+00
  0.00000000E+00  0.00000000E+00  0.00000000E+00
  0.00000000E+00  0.00000000E+00  0.00000000E+00
  0.00000000E+00  0.00000000E+00  0.00000000E+00
  0.00000000E+00  0.00000000E+00  0.00000000E+00
  0.00000000E+00  0.00000000E+00  0.00000000E+00
  0.00000000E+00  0.00000000E+00  0.00000000E+00
  0.00000000E+00  0.00000000E+00  0.00000000E+00
  0.00000000E+00  0.00000000E+00  0.00000000E+00
  0.00000000E+00  0.00000000E+00  0.00000000E+00
  0.00000000E+00  0.00000000E+00  0.00000000E+00
  0.00000000E+00  0.00000000E+00  0.00000000E+00
  0.00000000E+00  0.00000000E+00  0.00000000E+00
  0.00000000E+00  0.00000000E+00  0.00000000E+00
  0.00000000E+00  0.00000000E+00  0.00000000E+00
  0.00000000E+00  0.00000000E+00  0.00000000E+00
  0.00000000E+00  0.00000000E+00  0.00000000E+00
  0.00000000E+00  0.00000000E+00  0.00000000E+00
  0.00000000E+00  0.00000000E+00  0.00000000E+00
  0.00000000E+00  0.00000000E+00  0.00000000E+00
  0.00000000E+00  0.00000000E+00  0.00000000E+00
  0.00000000E+00  0.00000000E+00  0.00000000E+00
  0.00000000E+00  0.00000000E+00  0.00000000E+00
  0.00000000E+00  0.00000000E+00  0.00000000E+00
  0.00000000E+00  0.00000000E+00  0.00000000E+00
  0.00000000E+00  0.00000000E+00  0.00000000E+00
  0.00000000E+00  0.00000000E+00  0.00000000E+00
  0.00000000E+00  0.00000000E+00  0.00000000E+00
  0.00000000E+00  0.00000000E+00  0.00000000E+00
  0.00000000E+00  0.00000000E+00  0.00000000E+00
  0.00000000E+00  0.00000000E+00  0.00000000E+00
  0.00000000E+00  0.00000000E+00  0.00000000E+00
  0.00000000E+00  0.00000000E+00  0.00000000E+00
  0.00000000E+00  0.00000000E+00  0.00000000E+00
  0.00000000E+00  0.00000000E+00  0.00000000E+00
  0.00000000E+00  0.00000000E+00  0.00000000E+00
  0.00000000E+00  0.00000000E+00  0.00000000E+00
  0.00000000E+00  0.00000000E+00  0.00000000E+00
  0.00000000E+00  0.00000000E+00  0.00000000E+00
  0.00000000E+00  0.00000000E+00  0.00000000E+00
  0.00000000E+00  0.00000000E+00  0.00000000E+00
  0.00000000E+00  0.00000000E+00  0.00000000E+00
  0.00000000E+00  0.00000000E+00  0.00000000E+00
  0.00000000E+00  0.00000000E+00  0.00000000E+00
  0.00000000E+00  0.00000000E+00  0.00000000E+00
  0.00000000E+00  0.00000000E+00  0.00000000E+00
  0.00000000E+00  0.00000000E+00  0.00000000E+00
  0.00000000E+00  0.00000000E+00  0.00000000E+00
  0.00000000E+00  0.00000000E+00  0.00000000E+00
  0.00000000E+00  0.00000000E+00  0.00000000E+00
  0.00000000E+00  0.00000000E+00  0.00000000E+00
  0.00000000E+00  0.00000000E+00  0.00000000E+00
  0.00000000E+00  0.00000000E+00  0.00000000E+00
  0.00000000E+00  0.00000000E+00  0.00000000E+00
  0.00000000E+00  0.00000000E+00  0.00000000E+00
  0.00000000E+00  0.00000000E+00  0.00000000E+00
  0.00000000E+00  0.00000000E+00  0.00000000E+00
  0.00000000E+00  0.00000000E+00  0.00000000E+00
  0.00000000E+00  0.00000000E+00  0.00000000E+00
  0.00000000E+00  0.00000000E+00  0.00000000E+00
  0.00000000E+00  0.00000000E+00  0.00000000E+00
  0.00000000E+00  0.00000000E+00  0.00000000E+00
  0.00000000E+00  0.00000000E+00  0.00000000E+00
  0.00000000E+00  0.00000000E+00  0.00000000E+00
  0.00000000E+00  0.00000000E+00  0.00000000E+00
  0.00000000E+00  0.00000000E+00  0.00000000E+00
  0.00000000E+00  0.00000000E+00  0.00000000E+00
  0.00000000E+00  0.00000000E+00  0.00000000E+00
  0.00000000E+00  0.00000000E+00  0.00000000E+00
  0.00000000E+00  0.00000000E+00  0.00000000E+00
  0.00000000E+00  0.00000000E+00  0.00000000E+00
  0.00000000E+00  0.00000000E+00  0.00000000E+00
  0.00000000E+00  0.00000000E+00  0.00000000E+00
  0.00000000E+00  0.00000000E+00  0.00000000E+00
  0.00000000E+00  0.00000000E+00  0.00000000E+00
  0.00000000E+00  0.00000000E+00  0.00000000E+00
  0.00000000E+00  0.00000000E+00  0.00000000E+00
  0.00000000E+00  0.00000000E+00  0.00000000E+00
  0.00000000E+00  0.00000000E+00  0.00000000E+00
  0.00000000E+00  0.00000000E+00  0.00000000E+00
  0.00000000E+00  0.00000000E+00  0.00000000E+00
  0.00000000E+00  0.00000000E+00  0.00000000E+00
  0.00000000E+00  0.00000000E+00  0.00000000E+00
  0.00000000E+00  0.00000000E+00  0.00000000E+00
  0.00000000E+00  0.00000000E+00  0.00000000E+00
  0.00000000E+00  0.00000000E+00  0.00000000E+00
  0.00000000E+00  0.00000000E+00  0.00000000E+00
  0.00000000E+00  0.00000000E+00  0.00000000E+00
  0.00000000E+00  0.00000000E+00  0.00000000E+00
  0.00000000E+00  0.00000000E+00  0.00000000E+00
  0.00000000E+00  0.00000000E+00  0.00000000E+00
  0.00000000E+00  0.00000000E+00  0.00000000E+00
  0.00000000E+00  0.00000000E+00  0.00000000E+00
  0.00000000E+00  0.00000000E+00  0.00000000E+00
  0.00000000E+00  0.00000000E+00  0.00000000E+00
  0.00000000E+00  0.00000000E+00  0.00000000E+00
  0.00000000E+00  0.00000000E+00  0.00000000E+00
  0.00000000E+00  0.00000000E+00  0.00000000E+00
  0.00000000E+00  0.00000000E+00  0.00000000E+00
  0.00000000E+00  0.00000000E+00  0.00000000E+00
  0.00000000E+00  0.00000000E+00  0.00000000E+00
  0.00000000E+00  0.00000000E+00  0.00000000E+00
  0.00000000E+00  0.00000000E+00  0.00000000E+00
  0.00000000E+00  0.00000000E+00  0.00000000E+00
  0.00000000E+00  0.00000000E+00  0.00000000E+00
  0.00000000E+00  0.00000000E+00  0.00000000E+00
  0.00000000E+00  0.00000000E+00  0.00000000E+00
  0.00000000E+00  0.00000000E+00  0.00000000E+00
  0.00000000E+00  0.00000000E+00  0.00000000E+00
  0.00000000E+00  0.00000000E+00  0.00000000E+00
  0.00000000E+00  0.00000000E+00  0.00000000E+00
  0.00000000E+00  0.00000000E+00  0.00000000E+00
  0.00000000E+00  0.00000000E+00  0.00000000E+00
  0.00000000E+00  0.00000000E+00  0.00000000E+00
  0.00000000E+00  0.00000000E+00  0.00000000E+00
  0.00000000E+00  0.00000000E+00  0.00000000E+00
  0.00000000E+00  0.00000000E+00  0.00000000E+00
  0.00000000E+00  0.00000000E+00  0.00000000E+00
  0.00000000E+00  0.00000000E+00  0.00000000E+00
  0.00000000E+00  0.00000000E+00  0.00000000E+00
  0.00000000E+00  0.00000000E+00  0.00000000E+00
  0.00000000E+00  0.00000000E+00  0.00000000E+00
  0.00000000E+00  0.00000000E+00  0.00000000E+00
  0.00000000E+00  0.00000000E+00  0.00000000E+00
  0.00000000E+00  0.00000000E+00  0.00000000E+00
  0.00000000E+00  0.00000000E+00  0.00000000E+00
  0.00000000E+00  0.00000000E+00  0.00000000E+00
  0.00000000E+00  0.00000000E+00  0.00000000E+00
  0.00000000E+00  0.00000000E+00  0.00000000E+00
  0.00000000E+00  0.00000000E+00  0.00000000E+00
  0.00000000E+00  0.00000000E+00  0.00000000E+00
  0.00000000E+00  0.00000000E+00  0.00000000E+00
  0.00000000E+00  0.00000000E+00  0.00000000E+00
  0.00000000E+00  0.00000000E+00  0.00000000E+00
  0.00000000E+00  0.00000000E+00  0.00000000E+00
  0.00000000E+00  0.00000000E+00  0.00000000E+00
  0.00000000E+00  0.00000000E+00  0.00000000E+00
  0.00000000E+00  0.00000000E+00  0.00000000E+00
  0.00000000E+00  0.00000000E+00  0.00000000E+00
  0.00000000E+00  0.00000000E+00  0.00000000E+00
  0.00000000E+00  0.00000000E+00  0.00000000E+00
  0.00000000E+00  0.00000000E+00  0.00000000E+00
  0.00000000E+00  0.00000000E+00  0.00000000E+00
  0.00000000E+00  0.00000000E+00  0.00000000E+00
  0.00000000E+00  0.00000000E+00  0.00000000E+00
