Sn+Ge
    1.000000000
   14.510292053    0.000000000    0.000000000
    0.000000000   19.467601776    0.000000000
    0.000000000    0.000000000   17.404436111
Sn  Ge 
36     144
Direct
    0.982905626    0.652421296    0.000000007
    0.782905579    0.485754609    0.083371289
    0.582905412    0.319087893    0.166742548
    0.982905626    0.319088012    0.000000007
    0.782905579    0.152421325    0.083371289
    0.582905412    0.985754609    0.166742548
    0.982905626    0.985754728    0.000000007
    0.782905579    0.819088042    0.083371289
    0.582905412    0.652421296    0.166742548
    0.632905602    0.902421415    0.041685570
    0.432905525    0.735754728    0.125056848
    0.232905433    0.569088042    0.208428085
    0.632905602    0.569087982    0.041685570
    0.432905525    0.402421296    0.125056848
    0.232905433    0.235754609    0.208428085
    0.632905602    0.235754758    0.041685570
    0.432905525    0.069088064    0.125056848
    0.232905433    0.902421355    0.208428085
    0.482905596    0.819087923    0.000000000
    0.282905459    0.652421236    0.083371274
    0.082905352    0.485754579    0.166742578
    0.482905596    0.485754669    0.000000000
    0.282905459    0.319087982    0.083371274
    0.082905352    0.152421281    0.166742578
    0.482905596    0.152421355    0.000000000
    0.282905459    0.985754669    0.083371274
    0.082905352    0.819087982    0.166742578
    0.132905647    0.735754669    0.041685563
    0.932905555    0.569087982    0.125056818
    0.732905507    0.402421296    0.208428085
    0.132905647    0.402421385    0.041685563
    0.932905555    0.235754713    0.125056818
    0.732905507    0.069088012    0.208428085
    0.132905647    0.069088012    0.041685563
    0.932905555    0.902421355    0.125056818
    0.732905507    0.735754609    0.208428085
    0.979378462    0.134020612    0.316882908
    0.729378343    0.134020567    0.431815356
    0.479378283    0.134020448    0.546747744
    0.229378223    0.134020448    0.661680222
    0.979378343    0.134020329    0.776612639
    0.729378104    0.134020209    0.891545177
    0.646045089    0.300687253    0.316882908
    0.396045029    0.300687194    0.431815356
    0.146044940    0.300687134    0.546747744
    0.896044910    0.300687045    0.661680222
    0.646044910    0.300686955    0.776612639
    0.396044791    0.300686955    0.891545177
    0.312711746    0.467353940    0.316882908
    0.062711693    0.467353880    0.431815356
    0.812711596    0.467353761    0.546747744
    0.562711596    0.467353761    0.661680222
    0.312711537    0.467353642    0.776612639
    0.062711477    0.467353642    0.891545177
    0.979378462    0.634020567    0.316882908
    0.729378343    0.634020507    0.431815356
    0.479378223    0.634020448    0.546747744
    0.229378283    0.634020388    0.661680222
    0.979378223    0.634020329    0.776612639
    0.729378104    0.634020269    0.891545177
    0.646045089    0.800687313    0.316882879
    0.396045029    0.800687194    0.431815326
    0.146044925    0.800687134    0.546747744
    0.896044910    0.800687075    0.661680222
    0.646044850    0.800687015    0.776612639
    0.396044791    0.800686955    0.891545177
    0.312711775    0.967353940    0.316882879
    0.062711723    0.967353880    0.431815326
    0.812711596    0.967353821    0.546747744
    0.562711596    0.967353702    0.661680222
    0.312711537    0.967353702    0.776612639
    0.062711477    0.967353582    0.891545177
    0.479378462    0.134020567    0.316882908
    0.229378372    0.134020567    0.431815356
    0.979378283    0.134020448    0.546747744
    0.729378223    0.134020448    0.661680222
    0.479378223    0.134020329    0.776612639
    0.229378104    0.134020209    0.891545177
    0.146045104    0.300687253    0.316882908
    0.896045029    0.300687194    0.431815356
    0.646044970    0.300687134    0.546747744
    0.396044910    0.300687075    0.661680222
    0.146044910    0.300686985    0.776612639
    0.896044850    0.300686896    0.891545177
    0.812711835    0.467353940    0.316882908
    0.562711775    0.467353880    0.431815356
    0.312711686    0.467353821    0.546747744
    0.062711678    0.467353761    0.661680281
    0.812711596    0.467353642    0.776612639
    0.562711477    0.467353582    0.891545117
    0.479378432    0.634020627    0.316882908
    0.229378358    0.634020507    0.431815356
    0.979378283    0.634020448    0.546747744
    0.729378223    0.634020388    0.661680281
    0.479378283    0.634020269    0.776612639
    0.229378104    0.634020209    0.891545117
    0.146045119    0.800687253    0.316882908
    0.896045029    0.800687194    0.431815356
    0.646044970    0.800687134    0.546747744
    0.396044910    0.800687075    0.661680281
    0.146044791    0.800686955    0.776612639
    0.896044850    0.800686896    0.891545117
    0.812711775    0.967353940    0.316882908
    0.562711716    0.967353940    0.431815356
    0.312711626    0.967353761    0.546747804
    0.062711596    0.967353761    0.661680281
    0.812711596    0.967353642    0.776612639
    0.562711477    0.967353582    0.891545177
    0.646045208    0.175687253    0.316882908
    0.396045119    0.175687194    0.431815356
    0.146045029    0.175687119    0.546747744
    0.896045029    0.175687045    0.661680222
    0.646044970    0.175687000    0.776612639
    0.396044910    0.175686911    0.891545177
    0.312711746    0.342353940    0.316882908
    0.062711701    0.342353880    0.431815356
    0.812711596    0.342353761    0.546747744
    0.562711596    0.342353702    0.661680222
    0.312711596    0.342353642    0.776612639
    0.062711477    0.342353582    0.891545236
    0.979378462    0.509020567    0.316882908
    0.729378402    0.509020507    0.431815356
    0.479378283    0.509020388    0.546747744
    0.229378283    0.509020388    0.661680222
    0.979378343    0.509020269    0.776612639
    0.729378104    0.509020209    0.891545236
    0.646045148    0.675687313    0.316882879
    0.396045089    0.675687194    0.431815356
    0.146045014    0.675687134    0.546747804
    0.896045029    0.675687075    0.661680222
    0.646044970    0.675686955    0.776612639
    0.396044850    0.675686896    0.891545117
    0.312711775    0.842353880    0.316882879
    0.062711678    0.842353821    0.431815356
    0.812711596    0.842353761    0.546747744
    0.562711596    0.842353642    0.661680222
    0.312711596    0.842353582    0.776612639
    0.062711477    0.842353523    0.891545117
    0.979378521    0.009020567    0.316882879
    0.729378462    0.009020567    0.431815356
    0.479378402    0.009020448    0.546747804
    0.229378343    0.009020329    0.661680222
    0.979378343    0.009020209    0.776612639
    0.729378223    0.009020209    0.891545117
    0.146045089    0.175687268    0.316882908
    0.896045029    0.175687194    0.431815356
    0.646044970    0.175687134    0.546747744
    0.396044910    0.175687045    0.661680222
    0.146044910    0.175686970    0.776612639
    0.896044850    0.175686911    0.891545117
    0.812711716    0.342353940    0.316882908
    0.562711656    0.342353851    0.431815356
    0.312711567    0.342353791    0.546747744
    0.062711537    0.342353702    0.661680222
    0.812711537    0.342353642    0.776612639
    0.562711477    0.342353582    0.891545177
    0.479378432    0.509020627    0.316882908
    0.229378372    0.509020507    0.431815356
    0.979378283    0.509020448    0.546747744
    0.729378223    0.509020388    0.661680222
    0.479378283    0.509020329    0.776612639
    0.229378223    0.509020209    0.891545177
    0.146045119    0.675687313    0.316882908
    0.896045029    0.675687253    0.431815356
    0.646044910    0.675687134    0.546747744
    0.396044910    0.675687075    0.661680222
    0.146044910    0.675687015    0.776612639
    0.896044731    0.675687015    0.891545177
    0.812711835    0.842354000    0.316882879
    0.562711716    0.842353940    0.431815326
    0.312711656    0.842353821    0.546747804
    0.062711626    0.842353761    0.661680281
    0.812711596    0.842353702    0.776612639
    0.562711537    0.842353582    0.891545177
    0.479378462    0.009020567    0.316882879
    0.229378372    0.009020567    0.431815326
    0.979378283    0.009020448    0.546747804
    0.729378343    0.009020448    0.661680281
    0.479378283    0.009020329    0.776612639
    0.229378045    0.009020209    0.891545177
