Si+C
    1.000000000
   13.303179741    0.000000000    0.000000000
    6.651589394   14.873406410    0.000000000
    0.000000000    0.000000000    7.994750023
Si  C  
36     84
Direct
    0.283249497    0.641624749    0.000000047
    0.816582799    0.408291280    0.151900873
    0.349915981    0.174957767    0.303801745
    0.616582751    0.308291376    0.000000057
    0.149916053    0.074957930    0.151900873
    0.683249235    0.841624439    0.303801715
    0.949916124    0.974958062    0.000000040
    0.483249485    0.741624594    0.151900873
    0.016582668    0.508291125    0.303801715
    0.799916267    0.774958014    0.075950310
    0.333249509    0.541624546    0.227851167
    0.866582751    0.308291078    0.379752040
    0.133249685    0.441624761    0.075950325
    0.666582942    0.208291277    0.227851167
    0.199916244    0.974957764    0.379752040
    0.466582894    0.108291537    0.075950325
    0.999916136    0.874958038    0.227851167
    0.533249378    0.641624570    0.379752040
    0.783249557    0.641624749    0.000000000
    0.316582829    0.408291280    0.151900858
    0.849916041    0.174957782    0.303801745
    0.116582796    0.308291405    0.000000057
    0.649916053    0.074957952    0.151900902
    0.183249295    0.841624498    0.303801745
    0.449916124    0.974958062    0.000000057
    0.983249426    0.741624594    0.151900902
    0.516582668    0.508291125    0.303801745
    0.299916178    0.774958134    0.075950325
    0.833249450    0.541624665    0.227851197
    0.366582692    0.308291197    0.379752010
    0.633249402    0.441624731    0.075950347
    0.166582644    0.208291262    0.227851197
    0.699915946    0.974957824    0.379751980
    0.966582716    0.108291551    0.075950325
    0.499915957    0.874958038    0.227851197
    0.033249259    0.641624629    0.379752040
    0.019807935    0.145018101    0.565175354
    0.991236269    0.416446716    0.664936006
    0.962664723    0.687875330    0.764696538
    0.162665009    0.287875235    0.565175354
    0.134093463    0.559303880    0.664936006
    0.105521932    0.830732524    0.764696538
    0.305522174    0.430732399    0.565175354
    0.276950598    0.702161014    0.664936006
    0.248379081    0.973589718    0.764696598
    0.448379308    0.573589563    0.565175354
    0.419807762    0.845018208    0.664936006
    0.391236216    0.116446853    0.764696598
    0.591236413    0.716446698    0.565175354
    0.562664807    0.987875283    0.664936006
    0.534093261    0.259303927    0.764696598
    0.734093547    0.859303772    0.565175354
    0.705522001    0.130732417    0.664936006
    0.676950455    0.402161002    0.764696538
    0.876950741    0.002161026    0.565175354
    0.848379195    0.273589611    0.664936006
    0.819807529    0.545018196    0.764696598
    0.112665057    0.887875080    0.615055561
    0.084093511    0.159303665    0.714816213
    0.055522017    0.430732369    0.814576805
    0.255522162    0.030732393    0.615055561
    0.226950616    0.302160978    0.714816153
    0.198379040    0.573589683    0.814576805
    0.398379326    0.173589468    0.615055561
    0.369807750    0.445018172    0.714816153
    0.341236144    0.716446757    0.814576805
    0.541236401    0.316446543    0.615055561
    0.512664914    0.587875187    0.714816213
    0.484093279    0.859303713    0.814576805
    0.684093535    0.459303826    0.615055561
    0.655521989    0.730732441    0.714816213
    0.626950443    0.002161145    0.814576805
    0.826950669    0.602160931    0.615055561
    0.798379123    0.873589575    0.714816213
    0.769807637    0.145018220    0.814576805
    0.969807863    0.745018065    0.615055561
    0.941236377    0.016446710    0.714816213
    0.912664711    0.287875175    0.814576805
    0.091236413    0.716446638    0.565175354
    0.062664896    0.987875283    0.664936006
    0.034093309    0.259303927    0.764696538
    0.234093547    0.859303772    0.565175354
    0.205522031    0.130732417    0.664936006
    0.176950544    0.402161121    0.764696598
    0.376950771    0.002160907    0.565175354
    0.348379254    0.273589611    0.664936006
    0.319807619    0.545018196    0.764696538
    0.519807875    0.145018101    0.565175354
    0.491236299    0.416446716    0.664936006
    0.462664783    0.687875330    0.764696598
    0.662665009    0.287875175    0.565175354
    0.634093463    0.559303820    0.664936006
    0.605521917    0.830732465    0.764696598
    0.805522203    0.430732399    0.565175354
    0.776950598    0.702161014    0.664936006
    0.748379111    0.973589659    0.764696598
    0.948379338    0.573589504    0.565175354
    0.919807732    0.845018148    0.664936006
    0.891236186    0.116446733    0.764696598
    0.041236445    0.316446573    0.615055561
    0.012664914    0.587875187    0.714816153
    0.984093308    0.859303832    0.814576805
    0.184093595    0.459303617    0.615055561
    0.155522048    0.730732262    0.714816213
    0.126950517    0.002160907    0.814576805
    0.326950729    0.602160931    0.615055561
    0.298379183    0.873589516    0.714816213
    0.269807607    0.145018101    0.814576805
    0.469807893    0.745018005    0.615055561
    0.441236317    0.016446590    0.714816153
    0.412664801    0.287875175    0.814576805
    0.612664938    0.887875021    0.615055561
    0.584093451    0.159303665    0.714816153
    0.555521905    0.430732369    0.814576805
    0.755522072    0.030732274    0.615055561
    0.726950526    0.302160978    0.714816213
    0.698378980    0.573589444    0.814576805
    0.898379266    0.173589349    0.615055561
    0.869807661    0.445017934    0.714816153
    0.841236055    0.716446519    0.814576805
