Si+C
    1.000000000
   13.303179741    0.000000000    0.000000000
    6.651589394   14.873406410    0.000000000
    0.000000000    0.000000000    7.994750023
Si  C  
36     84
Direct
    0.283249497    0.641624749    0.000000047
    0.816582799    0.408291280    0.151900873
    0.349915981    0.174957767    0.303801745
    0.616582751    0.308291376    0.000000057
    0.149916053    0.074957930    0.151900873
    0.683249235    0.841624439    0.303801715
    0.949916124    0.974958062    0.000000040
    0.483249485    0.741624594    0.151900873
    0.016582668    0.508291125    0.303801715
    0.799916267    0.774958014    0.075950310
    0.333249509    0.541624546    0.227851167
    0.866582751    0.308291078    0.379752040
    0.133249685    0.441624761    0.075950325
    0.666582942    0.208291277    0.227851167
    0.199916244    0.974957764    0.379752040
    0.466582894    0.108291537    0.075950325
    0.999916136    0.874958038    0.227851167
    0.533249378    0.641624570    0.379752040
    0.783249557    0.641624749    0.000000000
    0.316582829    0.408291280    0.151900858
    0.849916041    0.174957782    0.303801745
    0.116582796    0.308291405    0.000000057
    0.649916053    0.074957952    0.151900902
    0.183249295    0.841624498    0.303801745
    0.449916124    0.974958062    0.000000057
    0.983249426    0.741624594    0.151900902
    0.516582668    0.508291125    0.303801745
    0.299916178    0.774958134    0.075950325
    0.833249450    0.541624665    0.227851197
    0.366582692    0.308291197    0.379752010
    0.633249402    0.441624731    0.075950347
    0.166582644    0.208291262    0.227851197
    0.699915946    0.974957824    0.379751980
    0.966582716    0.108291551    0.075950325
    0.499915957    0.874958038    0.227851197
    0.033249259    0.641624629    0.379752040
    0.012232184    0.157363772    0.565175354
    0.983660519    0.428792417    0.664936006
    0.955088973    0.700221002    0.764696538
    0.155089259    0.300220907    0.565175354
    0.126517713    0.571649551    0.664936006
    0.097946174    0.843078196    0.764696538
    0.297946393    0.443078101    0.565175354
    0.269374847    0.714506686    0.664936006
    0.240803316    0.985935390    0.764696598
    0.440803528    0.585935235    0.565175354
    0.412231982    0.857363880    0.664936006
    0.383660436    0.128792524    0.764696598
    0.583660662    0.728792369    0.565175354
    0.555089056    0.000221014    0.664936006
    0.526517510    0.271649599    0.764696598
    0.726517797    0.871649444    0.565175354
    0.697946250    0.143078104    0.664936006
    0.669374704    0.414506674    0.764696538
    0.869374990    0.014506698    0.565175354
    0.840803444    0.285935283    0.664936006
    0.812231779    0.557363868    0.764696598
    0.105089299    0.900220752    0.615055561
    0.076517761    0.171649352    0.714816213
    0.047946259    0.443078041    0.814576805
    0.247946396    0.043078065    0.615055561
    0.219374850    0.314506650    0.714816153
    0.190803289    0.585935354    0.814576805
    0.390803576    0.185935155    0.615055561
    0.362231970    0.457363844    0.714816153
    0.333660364    0.728792429    0.814576805
    0.533660650    0.328792214    0.615055561
    0.505089164    0.600220859    0.714816213
    0.476517498    0.871649384    0.814576805
    0.676517785    0.471649528    0.615055561
    0.647946239    0.743078113    0.714816213
    0.619374692    0.014506817    0.814576805
    0.819374919    0.614506602    0.615055561
    0.790803373    0.885935247    0.714816213
    0.762231886    0.157363907    0.814576805
    0.962232113    0.757363737    0.615055561
    0.933660626    0.028792381    0.714816213
    0.905088961    0.300220847    0.814576805
    0.083660655    0.728792310    0.565175354
    0.055089135    0.000221014    0.664936006
    0.026517551    0.271649599    0.764696538
    0.226517797    0.871649444    0.565175354
    0.197946265    0.143078104    0.664936006
    0.169374779    0.414506793    0.764696598
    0.369374990    0.014506578    0.565175354
    0.340803504    0.285935283    0.664936006
    0.312231839    0.557363868    0.764696538
    0.512232125    0.157363772    0.565175354
    0.483660519    0.428792417    0.664936006
    0.455089033    0.700221002    0.764696598
    0.655089259    0.300220847    0.565175354
    0.626517713    0.571649492    0.664936006
    0.597946167    0.843078136    0.764696598
    0.797946453    0.443078101    0.565175354
    0.769374847    0.714506686    0.664936006
    0.740803361    0.985935330    0.764696598
    0.940803587    0.585935175    0.565175354
    0.912231982    0.857363820    0.664936006
    0.883660436    0.128792405    0.764696598
    0.033660688    0.328792244    0.615055561
    0.005089164    0.600220859    0.714816153
    0.976517558    0.871649504    0.814576805
    0.176517844    0.471649289    0.615055561
    0.147946298    0.743077934    0.714816213
    0.119374759    0.014506578    0.814576805
    0.319374979    0.614506602    0.615055561
    0.290803432    0.885935187    0.714816213
    0.262231827    0.157363787    0.814576805
    0.462232113    0.757363677    0.615055561
    0.433660567    0.028792262    0.714816153
    0.405089021    0.300220847    0.814576805
    0.605089188    0.900220692    0.615055561
    0.576517701    0.171649352    0.714816153
    0.547946155    0.443078041    0.814576805
    0.747946322    0.043077946    0.615055561
    0.719374776    0.314506650    0.714816213
    0.690803230    0.585935116    0.814576805
    0.890803516    0.185935035    0.615055561
    0.862231910    0.457363605    0.714816153
    0.833660305    0.728792191    0.814576805
