fcc Si+fcc Ge
    1.000000000
    7.749890322    0.000000000    0.000000000
    0.000000000   16.440000000    0.000000000
    0.000000000    0.000000000   20.379120967
Si    Ge   
24     88
Direct
    0.000000000    0.000000000    0.000000000
    0.250000000    0.611111111    0.031690483
    0.500000000    0.222222222    0.063380967
    0.750000000    0.833333333    0.095071450
    0.000000000    0.444444444    0.126761933
    0.250000000    0.055555556    0.158452417
    0.500000000    0.000000000    0.000000000
    0.750000000    0.611111111    0.031690483
    0.000000000    0.222222222    0.063380967
    0.250000000    0.833333333    0.095071450
    0.500000000    0.444444444    0.126761933
    0.750000000    0.055555556    0.158452417
    0.250000000    0.750000000    0.000000000
    0.500000000    0.361111111    0.031690483
    0.750000000    0.972222222    0.063380967
    0.000000000    0.583333333    0.095071450
    0.250000000    0.194444444    0.126761933
    0.500000000    0.805555556    0.158452417
    0.750000000    0.750000000    0.000000000
    0.000000000    0.361111111    0.031690483
    0.250000000    0.972222222    0.063380967
    0.500000000    0.583333333    0.095071450
    0.750000000    0.194444444    0.126761933
    0.000000000    0.805555556    0.158452417
    0.875000000    0.784892638    0.301490971
    0.625000000    0.409892638    0.440358590
    0.375000000    0.034892638    0.579226208
    0.125000000    0.659892638    0.718093827
    0.875000000    0.284892638    0.856961446
    0.375000000    0.034892638    0.301490971
    0.125000000    0.659892638    0.440358590
    0.875000000    0.284892638    0.579226208
    0.625000000    0.909892638    0.718093827
    0.375000000    0.534892638    0.856961446
    0.875000000    0.284892638    0.301490971
    0.625000000    0.909892638    0.440358590
    0.375000000    0.534892638    0.579226208
    0.125000000    0.159892638    0.718093827
    0.875000000    0.784892638    0.856961446
    0.375000000    0.534892638    0.301490971
    0.125000000    0.159892638    0.440358590
    0.875000000    0.784892638    0.579226208
    0.625000000    0.409892638    0.718093827
    0.375000000    0.034892638    0.856961446
    0.875000000    0.034892638    0.301490971
    0.625000000    0.659892638    0.440358590
    0.375000000    0.284892638    0.579226208
    0.125000000    0.909892638    0.718093827
    0.875000000    0.534892638    0.856961446
    0.875000000    0.534892638    0.301490971
    0.625000000    0.159892638    0.440358590
    0.375000000    0.784892638    0.579226208
    0.125000000    0.409892638    0.718093827
    0.875000000    0.034892638    0.856961446
    0.375000000    0.784892638    0.301490971
    0.125000000    0.409892638    0.440358590
    0.875000000    0.034892638    0.579226208
    0.625000000    0.659892638    0.718093827
    0.375000000    0.284892638    0.856961446
    0.375000000    0.284892638    0.301490971
    0.125000000    0.909892638    0.440358590
    0.875000000    0.534892638    0.579226208
    0.625000000    0.159892638    0.718093827
    0.375000000    0.784892638    0.856961446
    0.375000000    0.159892638    0.232057162
    0.125000000    0.784892638    0.370924780
    0.875000000    0.409892638    0.509792399
    0.625000000    0.034892638    0.648660018
    0.375000000    0.659892638    0.787527636
    0.125000000    0.284892638    0.926395255
    0.875000000    0.409892638    0.232057162
    0.625000000    0.034892638    0.370924780
    0.375000000    0.659892638    0.509792399
    0.125000000    0.284892638    0.648660018
    0.875000000    0.909892638    0.787527636
    0.625000000    0.534892638    0.926395255
    0.375000000    0.659892638    0.232057162
    0.125000000    0.284892638    0.370924780
    0.875000000    0.909892638    0.509792399
    0.625000000    0.534892638    0.648660018
    0.375000000    0.159892638    0.787527636
    0.125000000    0.784892638    0.926395255
    0.875000000    0.909892638    0.232057162
    0.625000000    0.534892638    0.370924780
    0.375000000    0.159892638    0.509792399
    0.125000000    0.784892638    0.648660018
    0.875000000    0.409892638    0.787527636
    0.625000000    0.034892638    0.926395255
    0.375000000    0.409892638    0.232057162
    0.125000000    0.034892638    0.370924780
    0.875000000    0.659892638    0.509792399
    0.625000000    0.284892638    0.648660018
    0.375000000    0.909892638    0.787527636
    0.125000000    0.534892638    0.926395255
    0.375000000    0.909892638    0.232057162
    0.125000000    0.534892638    0.370924780
    0.875000000    0.159892638    0.509792399
    0.625000000    0.784892638    0.648660018
    0.375000000    0.409892638    0.787527636
    0.125000000    0.034892638    0.926395255
    0.875000000    0.159892638    0.232057162
    0.625000000    0.784892638    0.370924780
    0.375000000    0.409892638    0.509792399
    0.125000000    0.034892638    0.648660018
    0.875000000    0.659892638    0.787527636
    0.625000000    0.284892638    0.926395255
    0.875000000    0.659892638    0.232057162
    0.625000000    0.284892638    0.370924780
    0.375000000    0.909892638    0.509792399
    0.125000000    0.534892638    0.648660018
    0.875000000    0.159892638    0.787527636
    0.625000000    0.784892638    0.926395255
