Si+C                                    
   1.00000000000000     
    16.2930011750000006    0.0000000000000000    0.0000000000000000
   -10.8620004649999995   12.1440858840000008    0.0000000000000000
     0.0000000000000000    0.0000000000000000    7.9947495460000004
   Si   C 
    36    84
Direct
  0.9829056259999973  0.6410251260000024  0.0000000020000002
  0.7829055790000012  0.3410250250000004  0.1519008280000023
  0.5829054120000023  0.0410249350000029  0.3038016559999974
  0.9829056259999973  0.3076917830000028  0.0000000020000002
  0.7829055790000012  0.0076917150000000  0.1519008280000023
  0.5829054120000023  0.7076916689999990  0.3038016559999974
  0.9829056259999973  0.9743584989999974  0.0000000020000002
  0.7829055790000012  0.6743583680000000  0.1519008280000023
  0.5829054120000023  0.3743582959999969  0.3038016559999974
  0.6329056619999989  0.6576917169999987  0.0759502570000024
  0.4329055850000003  0.3576916159999968  0.2278510929999982
  0.2329055220000029  0.0576915779999965  0.3797519210000004
  0.6329056619999989  0.3243584630000029  0.0759502570000024
  0.4329055850000003  0.0243583689999980  0.2278510929999982
  0.2329055220000029  0.7243583200000003  0.3797519210000004
  0.6329056619999989  0.9910252090000000  0.0759502570000024
  0.4329055850000003  0.6910251380000005  0.2278510929999982
  0.2329055220000029  0.3910250659999974  0.3797519210000004
  0.4829056259999973  0.8076917530000003  0.0000000000000000
  0.2829055489999988  0.5076916220000030  0.1519008280000023
  0.0829054419999977  0.2076916099999977  0.3038016559999974
  0.4829056259999973  0.4743584389999995  0.0000000000000000
  0.2829055489999988  0.1743583530000024  0.1519008280000023
  0.0829054419999977  0.8743582959999969  0.3038016559999974
  0.4829056259999973  0.1410251410000001  0.0000000000000000
  0.2829055489999988  0.8410250539999993  0.1519008280000023
  0.0829054419999977  0.5410249829999998  0.3038016559999974
  0.1329056769999966  0.8243585230000008  0.0759502720000000
  0.9329055549999978  0.5243583920000034  0.2278510929999982
  0.7329055069999981  0.2243583799999982  0.3797519210000004
  0.1329056769999966  0.4910252090000000  0.0759502720000000
  0.9329055549999978  0.1910251079999981  0.2278510929999982
  0.7329055069999981  0.8910251260000024  0.3797519210000004
  0.1329056769999966  0.1576919560000007  0.0759502720000000
  0.9329055549999978  0.8576918839999976  0.2278510929999982
  0.7329055069999981  0.5576919319999973  0.3797519210000004
  0.7655555010000015  0.0958460570000028  0.5651751759999968
  0.0084127189999990  0.0672745700000021  0.6649358270000008
  0.2512699370000036  0.0387030839999980  0.7646964790000013
  0.0512697699999975  0.2387031909999990  0.5651751759999968
  0.2941269869999985  0.2101317050000020  0.6649358270000008
  0.5369842050000031  0.1815602329999990  0.7646964790000013
  0.3369839189999979  0.3815602960000035  0.5651751759999968
  0.5798412560000017  0.3529888090000028  0.6649358270000008
  0.8226985339999970  0.3244173530000012  0.7646964790000013
  0.6226983070000003  0.5244175200000001  0.5651751759999968
  0.8655555839999991  0.4958460029999969  0.6649358270000008
  0.1084129810000007  0.4672745470000024  0.7646964790000013
  0.9084126349999977  0.6672745939999984  0.5651751759999968
  0.1512699130000001  0.6387031670000027  0.6649358270000008
  0.3941271309999976  0.6101316809999986  0.7646964790000013
  0.1941269639999987  0.8101317879999996  0.5651751759999968
  0.4369841809999997  0.7815603020000026  0.6649358270000008
  0.6798413989999972  0.7529888150000019  0.7646964790000013
  0.4798412319999983  0.9529889229999995  0.5651751759999968
  0.7226984500000029  0.9244173769999975  0.6649358270000008
  0.9655556080000025  0.8958459500000018  0.7646964790000013
  0.6012697219999978  0.1887031939999986  0.6150554419999992
  0.8441269989999967  0.1601317229999992  0.7148160930000031
  0.0869841579999999  0.1315602060000032  0.8145766259999974
  0.8869838709999982  0.3315603140000007  0.6150554419999992
  0.1298410890000028  0.3029888570000026  0.7148160930000031
  0.3726983070000003  0.2744173410000030  0.8145767449999965
  0.1726982590000006  0.4744175080000019  0.6150554419999992
  0.4155554769999981  0.4458460210000013  0.7148160930000031
  0.6584126950000027  0.4172745349999971  0.8145767449999965
  0.4584126470000029  0.6172746419999982  0.6150554419999992
  0.7012698650000004  0.5887031560000011  0.7148160930000031
  0.9441271419999993  0.5601317289999983  0.8145767449999965
  0.7441267370000020  0.7601317760000015  0.6150554419999992
  0.9869840739999987  0.7315602899999973  0.7148160930000031
  0.2298412319999983  0.7029888029999967  0.8145767449999965
  0.0298411850000022  0.9029889110000013  0.6150554419999992
  0.2726984020000032  0.8744173649999993  0.7148160930000031
  0.5155556200000007  0.8458459379999965  0.8145766259999974
  0.3155553340000026  0.0458459849999997  0.6150554419999992
  0.5584125520000001  0.0172746180000019  0.7148160930000031
  0.8012698289999989  0.9887030719999998  0.8145766259999974
  0.4084126950000027  0.1672746389999986  0.5651751759999968
  0.6512699130000001  0.1387031379999968  0.6649358270000008
  0.8941271899999990  0.1101317110000011  0.7646964790000013
  0.6941270829999979  0.3101317879999996  0.5651751759999968
  0.9369842409999976  0.2815602720000001  0.6649358270000008
  0.1798412799999980  0.2529887860000031  0.7646964790000013
  0.9798412319999983  0.4529889229999995  0.5651751759999968
  0.2226984500000029  0.4244174359999988  0.6649358270000008
  0.4655556680000004  0.3958459500000018  0.7646964790000013
  0.2655553820000023  0.5958460570000028  0.5651751759999968
  0.5084127189999990  0.5672745700000021  0.6649358270000008
  0.7512699959999978  0.5387030839999980  0.7646964790000013
  0.5512697699999975  0.7387031909999990  0.5651751759999968
  0.7941270470000035  0.7101317640000033  0.6649358270000008
  0.0369842050000031  0.6815602180000013  0.7646964790000013
  0.8369840379999971  0.8815603850000002  0.5651751759999968
  0.0798412560000017  0.8529889579999974  0.6649358270000008
  0.3226985929999984  0.8244174720000004  0.7646964790000013
  0.1226983070000003  0.0244175200000001  0.5651751759999968
  0.3655555249999978  0.9958460929999973  0.6649358270000008
  0.6084128620000016  0.9672746059999966  0.7646964790000013
  0.9584126470000029  0.1172746270000005  0.6150554419999992
  0.2012698650000004  0.0887031560000011  0.7148160930000031
  0.4441272019999971  0.0601316690000004  0.8145767449999965
  0.2441267969999998  0.2601317760000015  0.6150554419999992
  0.4869840149999973  0.2315602749999996  0.7148160930000031
  0.7298412319999983  0.2029888329999991  0.8145766259999974
  0.5298410649999994  0.4029888809999989  0.6150554419999992
  0.7726984620000010  0.3744174540000031  0.7148160930000031
  0.0155556200000007  0.3458459969999979  0.8145766259999974
  0.8155552739999976  0.5458460449999976  0.6150554419999992
  0.0584125520000001  0.5172746180000019  0.7148160930000031
  0.3012697699999975  0.4887030719999998  0.8145766259999974
  0.1012697219999978  0.6887031199999996  0.6150554419999992
  0.3441270590000016  0.6601316329999989  0.7148160930000031
  0.5869842769999991  0.6315602060000032  0.8145767449999965
  0.3869841100000002  0.8315603140000007  0.6150554419999992
  0.6298413279999977  0.8029888270000001  0.7148160930000031
  0.8726986049999965  0.7744174600000022  0.8145767449999965
  0.6726982590000006  0.9744174479999970  0.6150554419999992
  0.9155555370000030  0.9458460210000013  0.7148160930000031
  0.1584126950000027  0.9172745349999971  0.8145767449999965
 
  0.00000000E+00  0.00000000E+00  0.00000000E+00
  0.00000000E+00  0.00000000E+00  0.00000000E+00
  0.00000000E+00  0.00000000E+00  0.00000000E+00
  0.00000000E+00  0.00000000E+00  0.00000000E+00
  0.00000000E+00  0.00000000E+00  0.00000000E+00
  0.00000000E+00  0.00000000E+00  0.00000000E+00
  0.00000000E+00  0.00000000E+00  0.00000000E+00
  0.00000000E+00  0.00000000E+00  0.00000000E+00
  0.00000000E+00  0.00000000E+00  0.00000000E+00
  0.00000000E+00  0.00000000E+00  0.00000000E+00
  0.00000000E+00  0.00000000E+00  0.00000000E+00
  0.00000000E+00  0.00000000E+00  0.00000000E+00
  0.00000000E+00  0.00000000E+00  0.00000000E+00
  0.00000000E+00  0.00000000E+00  0.00000000E+00
  0.00000000E+00  0.00000000E+00  0.00000000E+00
  0.00000000E+00  0.00000000E+00  0.00000000E+00
  0.00000000E+00  0.00000000E+00  0.00000000E+00
  0.00000000E+00  0.00000000E+00  0.00000000E+00
  0.00000000E+00  0.00000000E+00  0.00000000E+00
  0.00000000E+00  0.00000000E+00  0.00000000E+00
  0.00000000E+00  0.00000000E+00  0.00000000E+00
  0.00000000E+00  0.00000000E+00  0.00000000E+00
  0.00000000E+00  0.00000000E+00  0.00000000E+00
  0.00000000E+00  0.00000000E+00  0.00000000E+00
  0.00000000E+00  0.00000000E+00  0.00000000E+00
  0.00000000E+00  0.00000000E+00  0.00000000E+00
  0.00000000E+00  0.00000000E+00  0.00000000E+00
  0.00000000E+00  0.00000000E+00  0.00000000E+00
  0.00000000E+00  0.00000000E+00  0.00000000E+00
  0.00000000E+00  0.00000000E+00  0.00000000E+00
  0.00000000E+00  0.00000000E+00  0.00000000E+00
  0.00000000E+00  0.00000000E+00  0.00000000E+00
  0.00000000E+00  0.00000000E+00  0.00000000E+00
  0.00000000E+00  0.00000000E+00  0.00000000E+00
  0.00000000E+00  0.00000000E+00  0.00000000E+00
  0.00000000E+00  0.00000000E+00  0.00000000E+00
  0.00000000E+00  0.00000000E+00  0.00000000E+00
  0.00000000E+00  0.00000000E+00  0.00000000E+00
  0.00000000E+00  0.00000000E+00  0.00000000E+00
  0.00000000E+00  0.00000000E+00  0.00000000E+00
  0.00000000E+00  0.00000000E+00  0.00000000E+00
  0.00000000E+00  0.00000000E+00  0.00000000E+00
  0.00000000E+00  0.00000000E+00  0.00000000E+00
  0.00000000E+00  0.00000000E+00  0.00000000E+00
  0.00000000E+00  0.00000000E+00  0.00000000E+00
  0.00000000E+00  0.00000000E+00  0.00000000E+00
  0.00000000E+00  0.00000000E+00  0.00000000E+00
  0.00000000E+00  0.00000000E+00  0.00000000E+00
  0.00000000E+00  0.00000000E+00  0.00000000E+00
  0.00000000E+00  0.00000000E+00  0.00000000E+00
  0.00000000E+00  0.00000000E+00  0.00000000E+00
  0.00000000E+00  0.00000000E+00  0.00000000E+00
  0.00000000E+00  0.00000000E+00  0.00000000E+00
  0.00000000E+00  0.00000000E+00  0.00000000E+00
  0.00000000E+00  0.00000000E+00  0.00000000E+00
  0.00000000E+00  0.00000000E+00  0.00000000E+00
  0.00000000E+00  0.00000000E+00  0.00000000E+00
  0.00000000E+00  0.00000000E+00  0.00000000E+00
  0.00000000E+00  0.00000000E+00  0.00000000E+00
  0.00000000E+00  0.00000000E+00  0.00000000E+00
  0.00000000E+00  0.00000000E+00  0.00000000E+00
  0.00000000E+00  0.00000000E+00  0.00000000E+00
  0.00000000E+00  0.00000000E+00  0.00000000E+00
  0.00000000E+00  0.00000000E+00  0.00000000E+00
  0.00000000E+00  0.00000000E+00  0.00000000E+00
  0.00000000E+00  0.00000000E+00  0.00000000E+00
  0.00000000E+00  0.00000000E+00  0.00000000E+00
  0.00000000E+00  0.00000000E+00  0.00000000E+00
  0.00000000E+00  0.00000000E+00  0.00000000E+00
  0.00000000E+00  0.00000000E+00  0.00000000E+00
  0.00000000E+00  0.00000000E+00  0.00000000E+00
  0.00000000E+00  0.00000000E+00  0.00000000E+00
  0.00000000E+00  0.00000000E+00  0.00000000E+00
  0.00000000E+00  0.00000000E+00  0.00000000E+00
  0.00000000E+00  0.00000000E+00  0.00000000E+00
  0.00000000E+00  0.00000000E+00  0.00000000E+00
  0.00000000E+00  0.00000000E+00  0.00000000E+00
  0.00000000E+00  0.00000000E+00  0.00000000E+00
  0.00000000E+00  0.00000000E+00  0.00000000E+00
  0.00000000E+00  0.00000000E+00  0.00000000E+00
  0.00000000E+00  0.00000000E+00  0.00000000E+00
  0.00000000E+00  0.00000000E+00  0.00000000E+00
  0.00000000E+00  0.00000000E+00  0.00000000E+00
  0.00000000E+00  0.00000000E+00  0.00000000E+00
  0.00000000E+00  0.00000000E+00  0.00000000E+00
  0.00000000E+00  0.00000000E+00  0.00000000E+00
  0.00000000E+00  0.00000000E+00  0.00000000E+00
  0.00000000E+00  0.00000000E+00  0.00000000E+00
  0.00000000E+00  0.00000000E+00  0.00000000E+00
  0.00000000E+00  0.00000000E+00  0.00000000E+00
  0.00000000E+00  0.00000000E+00  0.00000000E+00
  0.00000000E+00  0.00000000E+00  0.00000000E+00
  0.00000000E+00  0.00000000E+00  0.00000000E+00
  0.00000000E+00  0.00000000E+00  0.00000000E+00
  0.00000000E+00  0.00000000E+00  0.00000000E+00
  0.00000000E+00  0.00000000E+00  0.00000000E+00
  0.00000000E+00  0.00000000E+00  0.00000000E+00
  0.00000000E+00  0.00000000E+00  0.00000000E+00
  0.00000000E+00  0.00000000E+00  0.00000000E+00
  0.00000000E+00  0.00000000E+00  0.00000000E+00
  0.00000000E+00  0.00000000E+00  0.00000000E+00
  0.00000000E+00  0.00000000E+00  0.00000000E+00
  0.00000000E+00  0.00000000E+00  0.00000000E+00
  0.00000000E+00  0.00000000E+00  0.00000000E+00
  0.00000000E+00  0.00000000E+00  0.00000000E+00
  0.00000000E+00  0.00000000E+00  0.00000000E+00
  0.00000000E+00  0.00000000E+00  0.00000000E+00
  0.00000000E+00  0.00000000E+00  0.00000000E+00
  0.00000000E+00  0.00000000E+00  0.00000000E+00
  0.00000000E+00  0.00000000E+00  0.00000000E+00
  0.00000000E+00  0.00000000E+00  0.00000000E+00
  0.00000000E+00  0.00000000E+00  0.00000000E+00
  0.00000000E+00  0.00000000E+00  0.00000000E+00
  0.00000000E+00  0.00000000E+00  0.00000000E+00
  0.00000000E+00  0.00000000E+00  0.00000000E+00
  0.00000000E+00  0.00000000E+00  0.00000000E+00
  0.00000000E+00  0.00000000E+00  0.00000000E+00
  0.00000000E+00  0.00000000E+00  0.00000000E+00
  0.00000000E+00  0.00000000E+00  0.00000000E+00
  0.00000000E+00  0.00000000E+00  0.00000000E+00
