Automatic KPOINTS generated
0
Gamma
6 2 1
0 0 0
