Si
 1.0000000000000000
     7.6805938572482795    0.0000000000000000    0.0000000000000000
   -15.3611877144965590   16.2930000000000028    0.0000000000000000
     0.0000000000000000   -0.0000000000000000   61.1216331074327712
 Si 
 136
Direct
  0.0000000000000000  0.0000000000000000  0.3272163877697155
  0.2222222222222221  0.8611111111111108  0.3376881218442782
  0.9722222222222222  0.6111111111111110  0.3376881218442782
  0.2500000000000000  0.2499999999999999  0.3272163877697155
  0.4722222222222221  0.6111111111111109  0.3376881218442782
  0.7499999999999998  0.2499999999999999  0.3272163877697155
  0.4999999999999998  0.0000000000000000  0.3272163877697155
  0.7222222222222220  0.8611111111111107  0.3376881218442782
  0.9444444444444444  0.2222222222222222  0.3481598559188409
  0.1666666666666665  0.0833333333333330  0.3586315899934036
  0.9166666666666665  0.8333333333333333  0.3586315899934036
  0.1944444444444446  0.4722222222222222  0.3481598559188409
  0.4166666666666666  0.8333333333333331  0.3586315899934036
  0.6944444444444443  0.4722222222222222  0.3481598559188409
  0.4444444444444445  0.2222222222222222  0.3481598559188409
  0.6666666666666664  0.0833333333333328  0.3586315899934036
  0.8888888888888890  0.4444444444444444  0.3691033240679663
  0.1111111111111107  0.3055555555555551  0.3795750581425290
  0.8611111111111107  0.0555555555555554  0.3795750581425290
  0.1388888888888889  0.6944444444444444  0.3691033240679663
  0.3611111111111117  0.0555555555555554  0.3795750581425290
  0.6388888888888883  0.6944444444444443  0.3691033240679663
  0.3888888888888889  0.4444444444444444  0.3691033240679663
  0.6111111111111107  0.3055555555555551  0.3795750581425290
  0.8333333333333336  0.6666666666666665  0.3900467922170917
  0.0555555555555554  0.5277777777777775  0.4005185262916544
  0.8055555555555555  0.2777777777777777  0.4005185262916543
  0.0833333333333335  0.9166666666666665  0.3900467922170917
  0.3055555555555550  0.2777777777777775  0.4005185262916543
  0.5833333333333328  0.9166666666666665  0.3900467922170917
  0.3333333333333326  0.6666666666666664  0.3900467922170917
  0.5555555555555558  0.5277777777777775  0.4005185262916543
  0.7777777777777778  0.8888888888888888  0.4109902603662171
  0.0000000000000007  0.7499999999999997  0.4214619944407798
  0.7500000000000000  0.4999999999999998  0.4214619944407798
  0.0277777777777777  0.1388888888888888  0.4109902603662171
  0.2500000000000000  0.4999999999999998  0.4214619944407798
  0.5277777777777768  0.1388888888888888  0.4109902603662171
  0.2777777777777777  0.8888888888888888  0.4109902603662171
  0.5000000000000007  0.7499999999999997  0.4214619944407798
  0.7222222222222233  0.1111111111111109  0.4319337285153425
  0.9444444444444455  0.9722222222222221  0.4424054625899052
  0.6944444444444438  0.7222222222222219  0.4424054625899052
  0.9722222222222223  0.3611111111111109  0.4319337285153425
  0.1944444444444438  0.7222222222222219  0.4424054625899052
  0.4722222222222223  0.3611111111111109  0.4319337285153425
  0.2222222222222223  0.1111111111111109  0.4319337285153425
  0.4444444444444455  0.9722222222222221  0.4424054625899052
  0.6666666666666671  0.3333333333333330  0.4528771966644678
  0.8888888888888884  0.1944444444444442  0.4633489307390306
  0.6388888888888884  0.9444444444444440  0.4633489307390306
  0.9166666666666677  0.5833333333333333  0.4528771966644679
  0.1388888888888884  0.9444444444444440  0.4633489307390306
  0.4166666666666669  0.5833333333333333  0.4528771966644679
  0.1666666666666670  0.3333333333333330  0.4528771966644678
  0.3888888888888893  0.1944444444444442  0.4633489307390306
  0.6111111111111118  0.5555555555555556  0.4738206648135933
  0.8333333333333349  0.4166666666666665  0.4842923988881560
  0.5833333333333339  0.1666666666666665  0.4842923988881559
  0.8611111111111127  0.8055555555555554  0.4738206648135933
  0.0833333333333340  0.1666666666666665  0.4842923988881559
  0.3611111111111117  0.8055555555555556  0.4738206648135933
  0.1111111111111127  0.5555555555555556  0.4738206648135933
  0.3333333333333348  0.4166666666666665  0.4842923988881560
  0.5555555555555555  0.7777777777777777  0.4947641329627187
  0.7777777777777786  0.6388888888888888  0.5052358670372814
  0.5277777777777768  0.3888888888888884  0.5052358670372813
  0.8055555555555572  0.0277777777777781  0.4947641329627187
  0.0277777777777785  0.3888888888888884  0.5052358670372813
  0.3055555555555571  0.0277777777777781  0.4947641329627187
  0.0555555555555554  0.7777777777777777  0.4947641329627187
  0.2777777777777786  0.6388888888888888  0.5052358670372814
  0.5000000000000000  0.0000000000000000  0.5157076011118440
  0.7222222222222214  0.8611111111111107  0.5261793351864068
  0.4722222222222214  0.6111111111111107  0.5261793351864067
  0.7500000000000018  0.2500000000000000  0.5157076011118440
  0.9722222222222232  0.6111111111111107  0.5261793351864068
  0.2500000000000000  0.2500000000000000  0.5157076011118440
  0.0000000000000018  0.0000000000000000  0.5157076011118440
  0.2222222222222214  0.8611111111111107  0.5261793351864067
  0.4444444444444464  0.2222222222222219  0.5366510692609694
  0.6666666666666679  0.0833333333333330  0.5471228033355321
  0.4166666666666661  0.8333333333333326  0.5471228033355321
  0.6944444444444445  0.4722222222222223  0.5366510692609695
  0.9166666666666663  0.8333333333333326  0.5471228033355321
  0.1944444444444462  0.4722222222222223  0.5366510692609694
  0.9444444444444446  0.2222222222222219  0.5366510692609694
  0.1666666666666696  0.0833333333333330  0.5471228033355321
  0.3888888888888893  0.4444444444444442  0.5575945374100949
  0.6111111111111107  0.3055555555555549  0.5680662714846575
  0.3611111111111125  0.0555555555555549  0.5680662714846575
  0.6388888888888909  0.6944444444444446  0.5575945374100949
  0.8611111111111091  0.0555555555555549  0.5680662714846575
  0.1388888888888909  0.6944444444444446  0.5575945374100949
  0.8888888888888875  0.4444444444444442  0.5575945374100949
  0.1111111111111125  0.3055555555555554  0.5680662714846576
  0.3333333333333339  0.6666666666666661  0.5785380055592201
  0.5555555555555536  0.5277777777777768  0.5890097396337829
  0.3055555555555553  0.2777777777777768  0.5890097396337829
  0.5833333333333324  0.9166666666666661  0.5785380055592201
  0.8055555555555572  0.2777777777777772  0.5890097396337829
  0.0833333333333339  0.9166666666666665  0.5785380055592202
  0.8333333333333323  0.6666666666666661  0.5785380055592201
  0.0555555555555554  0.5277777777777772  0.5890097396337829
  0.2777777777777768  0.8888888888888884  0.5994814737083456
  0.4999999999999982  0.7499999999999991  0.6099532077829084
  0.2499999999999983  0.4999999999999991  0.6099532077829084
  0.5277777777777768  0.1388888888888884  0.5994814737083456
  0.7500000000000000  0.4999999999999996  0.6099532077829084
  0.0277777777777786  0.1388888888888888  0.5994814737083456
  0.7777777777777786  0.8888888888888888  0.5994814737083456
  0.0000000000000000  0.7499999999999996  0.6099532077829084
  0.2222222222222232  0.1111111111111112  0.6204249418574711
  0.4444444444444446  0.9722222222222219  0.6308966759320337
  0.1944444444444463  0.7222222222222219  0.6308966759320337
  0.4722222222222233  0.3611111111111107  0.6204249418574711
  0.6944444444444481  0.7222222222222219  0.6308966759320338
  0.9722222222222250  0.3611111111111112  0.6204249418574711
  0.7222222222222269  0.1111111111111112  0.6204249418574711
  0.9444444444444464  0.9722222222222219  0.6308966759320337
  0.1666666666666679  0.3333333333333335  0.6413684100065964
  0.3888888888888893  0.1944444444444438  0.6518401440811591
  0.1388888888888893  0.9444444444444442  0.6518401440811591
  0.4166666666666677  0.5833333333333335  0.6413684100065964
  0.6388888888888928  0.9444444444444451  0.6518401440811591
  0.9166666666666696  0.5833333333333335  0.6413684100065964
  0.6666666666666662  0.3333333333333330  0.6413684100065964
  0.8888888888888911  0.1944444444444438  0.6518401440811591
  0.1111111111111108  0.5555555555555554  0.6623118781557218
  0.3333333333333322  0.4166666666666661  0.6727836122302845
  0.0833333333333357  0.1666666666666670  0.6727836122302846
  0.3611111111111125  0.8055555555555554  0.6623118781557218
  0.5833333333333376  0.1666666666666670  0.6727836122302846
  0.8611111111111127  0.8055555555555554  0.6623118781557218
  0.6111111111111125  0.5555555555555558  0.6623118781557218
  0.8333333333333339  0.4166666666666661  0.6727836122302846
