Ge+Sn                                   
   1.00000000000000     
    11.3156003950000006    0.0000000000000000    0.0000000000000000
     0.0000000000000000   17.8915348049999992    0.0000000000000000
     0.0000000000000000   -0.0000002560000000   11.0959100720000006
   Ge   Sn
    48    48
Direct
  0.9455687399999988  0.0762038009999984  0.0000000160000013
  0.6955686809999975  0.4262039070000014  0.0806223379999977
  0.4455686809999975  0.7762039899999991  0.1612446609999978
  0.1955686209999996  0.1262041330000017  0.2418670650000010
  0.9455686809999975  0.4762041569999980  0.3224893510000015
  0.6955686809999975  0.8262043000000006  0.4031116069999996
  0.4455687399999988  0.0762038009999984  0.0000000160000013
  0.1955687110000000  0.4262039070000014  0.0806223379999977
  0.9455686809999975  0.7762039899999991  0.1612446609999978
  0.6955686809999975  0.1262041330000017  0.2418670650000010
  0.4455686809999975  0.4762041569999980  0.3224893510000015
  0.1955686209999996  0.8262043000000006  0.4031116069999996
  0.0705687250000011  0.8262039419999994  0.0000000369999995
  0.8205686809999975  0.1762040850000020  0.0806223080000024
  0.5705686809999975  0.5262041089999983  0.1612446009999999
  0.3205686209999996  0.8762041330000017  0.2418670509999998
  0.0705686209999996  0.2262041569999980  0.3224893809999969
  0.8205685619999983  0.5762043000000006  0.4031116960000034
  0.5705687399999988  0.8262039419999994  0.0000000369999995
  0.3205687399999988  0.1762040850000020  0.0806223080000024
  0.0705687110000000  0.5262041089999983  0.1612446009999999
  0.8205686809999975  0.8762041330000017  0.2418670509999998
  0.5705686809999975  0.2262041569999980  0.3224893809999969
  0.3205686209999996  0.5762043000000006  0.4031116960000034
  0.9455687399999988  0.5762038230000002  0.0000000200000017
  0.6955686809999975  0.9262039070000014  0.0806223009999982
  0.4455686809999975  0.2762039899999991  0.1612446760000026
  0.1955686209999996  0.6262041330000017  0.2418669609999995
  0.9455686809999975  0.9762041569999980  0.3224893510000015
  0.6955686809999975  0.3262043000000006  0.4031116960000034
  0.4455687399999988  0.5762038230000002  0.0000000200000017
  0.1955687110000000  0.9262039070000014  0.0806223009999982
  0.9455686809999975  0.2762039899999991  0.1612446760000026
  0.6955686809999975  0.6262041330000017  0.2418669609999995
  0.4455686809999975  0.9762041569999980  0.3224893510000015
  0.1955686209999996  0.3262043000000006  0.4031116960000034
  0.0705687250000011  0.3262038230000002  0.0000000000000000
  0.8205686809999975  0.6762039660000028  0.0806223450000019
  0.5705686809999975  0.0262039899999991  0.1612446609999978
  0.3205686209999996  0.3762041330000017  0.2418669759999972
  0.0705686209999996  0.7262041569999980  0.3224893209999991
  0.8205685619999983  0.0762043000000006  0.4031115769999971
  0.5705687399999988  0.3262038230000002  0.0000000000000000
  0.3205687399999988  0.6762039660000028  0.0806223450000019
  0.0705687110000000  0.0262039899999991  0.1612446609999978
  0.8205686809999975  0.3762041330000017  0.2418669759999972
  0.5705686809999975  0.7262041569999980  0.3224893209999991
  0.3205686209999996  0.0762043000000006  0.4031115769999971
  0.9409289359999988  0.4778483509999987  0.4031117259999988
  0.6075955029999989  0.3528483509999987  0.5224894289999966
  0.2742621900000017  0.2278483509999987  0.6418669219999984
  0.9409288169999996  0.1028483440000016  0.7612445350000030
  0.6075953249999984  0.9778482910000008  0.8806222680000033
  0.2742618320000005  0.8528482319999995  0.9999998810000008
  0.9409289359999988  0.9778483509999987  0.4031117259999988
  0.6075955029999989  0.8528482910000008  0.5224894289999966
  0.2742621900000017  0.7278482910000008  0.6418669219999984
  0.9409288169999996  0.6028482910000008  0.7612445350000030
  0.6075953249999984  0.4778482910000008  0.8806222680000033
  0.2742618320000005  0.3528481720000016  0.9999998810000008
  0.1909289060000035  0.7278483509999987  0.4031117259999988
  0.8575955629999967  0.6028483509999987  0.5224894289999966
  0.5242621900000017  0.4778483509999987  0.6418670420000012
  0.1909288169999996  0.3528483509999987  0.7612445350000030
  0.8575954439999975  0.2278483210000033  0.8806222680000033
  0.5242618320000005  0.1028482239999988  0.0000000000000000
  0.1909289060000035  0.2278483509999987  0.4031117259999988
  0.8575955029999989  0.1028483289999969  0.5224894289999966
  0.5242621900000017  0.9778483509999987  0.6418669219999984
  0.1909288169999996  0.8528483509999987  0.7612445350000030
  0.8575954439999975  0.7278482910000008  0.8806221489999970
  0.5242618320000005  0.6028482319999995  0.0000000000000000
  0.9409288760000010  0.7278483509999987  0.4031117259999988
  0.6075955029999989  0.6028483509999987  0.5224894289999966
  0.2742621900000017  0.4778483509999987  0.6418669219999984
  0.9409288169999996  0.3528483509999987  0.7612445350000030
  0.6075953249999984  0.2278483059999985  0.8806222680000033
  0.2742619509999997  0.1028482090000011  0.9999998810000008
  0.9409289359999988  0.2278483509999987  0.4031117259999988
  0.6075955029999989  0.1028483289999969  0.5224894289999966
  0.2742621900000017  0.9778483509999987  0.6418669219999984
  0.9409288169999996  0.8528483509999987  0.7612445350000030
  0.6075954439999975  0.7278482910000008  0.8806222680000033
  0.2742618320000005  0.6028481720000016  0.9999998810000008
  0.1909289660000013  0.4778483810000012  0.4031117259999988
  0.8575955629999967  0.3528483810000012  0.5224894289999966
  0.5242621900000017  0.2278483810000012  0.6418669219999984
  0.1909288169999996  0.1028483509999987  0.7612445350000030
  0.8575954439999975  0.9778483509999987  0.8806222680000033
  0.5242619509999997  0.8528482910000008  0.9999998810000008
  0.1909289509999965  0.9778483509999987  0.4031117259999988
  0.8575955629999967  0.8528482910000008  0.5224894289999966
  0.5242621900000017  0.7278482910000008  0.6418669219999984
  0.1909288169999996  0.6028482910000008  0.7612445350000030
  0.8575954439999975  0.4778482910000008  0.8806222680000033
  0.5242619509999997  0.3528482319999995  0.9999998810000008
 
  0.00000000E+00  0.00000000E+00  0.00000000E+00
  0.00000000E+00  0.00000000E+00  0.00000000E+00
  0.00000000E+00  0.00000000E+00  0.00000000E+00
  0.00000000E+00  0.00000000E+00  0.00000000E+00
  0.00000000E+00  0.00000000E+00  0.00000000E+00
  0.00000000E+00  0.00000000E+00  0.00000000E+00
  0.00000000E+00  0.00000000E+00  0.00000000E+00
  0.00000000E+00  0.00000000E+00  0.00000000E+00
  0.00000000E+00  0.00000000E+00  0.00000000E+00
  0.00000000E+00  0.00000000E+00  0.00000000E+00
  0.00000000E+00  0.00000000E+00  0.00000000E+00
  0.00000000E+00  0.00000000E+00  0.00000000E+00
  0.00000000E+00  0.00000000E+00  0.00000000E+00
  0.00000000E+00  0.00000000E+00  0.00000000E+00
  0.00000000E+00  0.00000000E+00  0.00000000E+00
  0.00000000E+00  0.00000000E+00  0.00000000E+00
  0.00000000E+00  0.00000000E+00  0.00000000E+00
  0.00000000E+00  0.00000000E+00  0.00000000E+00
  0.00000000E+00  0.00000000E+00  0.00000000E+00
  0.00000000E+00  0.00000000E+00  0.00000000E+00
  0.00000000E+00  0.00000000E+00  0.00000000E+00
  0.00000000E+00  0.00000000E+00  0.00000000E+00
  0.00000000E+00  0.00000000E+00  0.00000000E+00
  0.00000000E+00  0.00000000E+00  0.00000000E+00
  0.00000000E+00  0.00000000E+00  0.00000000E+00
  0.00000000E+00  0.00000000E+00  0.00000000E+00
  0.00000000E+00  0.00000000E+00  0.00000000E+00
  0.00000000E+00  0.00000000E+00  0.00000000E+00
  0.00000000E+00  0.00000000E+00  0.00000000E+00
  0.00000000E+00  0.00000000E+00  0.00000000E+00
  0.00000000E+00  0.00000000E+00  0.00000000E+00
  0.00000000E+00  0.00000000E+00  0.00000000E+00
  0.00000000E+00  0.00000000E+00  0.00000000E+00
  0.00000000E+00  0.00000000E+00  0.00000000E+00
  0.00000000E+00  0.00000000E+00  0.00000000E+00
  0.00000000E+00  0.00000000E+00  0.00000000E+00
  0.00000000E+00  0.00000000E+00  0.00000000E+00
  0.00000000E+00  0.00000000E+00  0.00000000E+00
  0.00000000E+00  0.00000000E+00  0.00000000E+00
  0.00000000E+00  0.00000000E+00  0.00000000E+00
  0.00000000E+00  0.00000000E+00  0.00000000E+00
  0.00000000E+00  0.00000000E+00  0.00000000E+00
  0.00000000E+00  0.00000000E+00  0.00000000E+00
  0.00000000E+00  0.00000000E+00  0.00000000E+00
  0.00000000E+00  0.00000000E+00  0.00000000E+00
  0.00000000E+00  0.00000000E+00  0.00000000E+00
  0.00000000E+00  0.00000000E+00  0.00000000E+00
  0.00000000E+00  0.00000000E+00  0.00000000E+00
  0.00000000E+00  0.00000000E+00  0.00000000E+00
  0.00000000E+00  0.00000000E+00  0.00000000E+00
  0.00000000E+00  0.00000000E+00  0.00000000E+00
  0.00000000E+00  0.00000000E+00  0.00000000E+00
  0.00000000E+00  0.00000000E+00  0.00000000E+00
  0.00000000E+00  0.00000000E+00  0.00000000E+00
  0.00000000E+00  0.00000000E+00  0.00000000E+00
  0.00000000E+00  0.00000000E+00  0.00000000E+00
  0.00000000E+00  0.00000000E+00  0.00000000E+00
  0.00000000E+00  0.00000000E+00  0.00000000E+00
  0.00000000E+00  0.00000000E+00  0.00000000E+00
  0.00000000E+00  0.00000000E+00  0.00000000E+00
  0.00000000E+00  0.00000000E+00  0.00000000E+00
  0.00000000E+00  0.00000000E+00  0.00000000E+00
  0.00000000E+00  0.00000000E+00  0.00000000E+00
  0.00000000E+00  0.00000000E+00  0.00000000E+00
  0.00000000E+00  0.00000000E+00  0.00000000E+00
  0.00000000E+00  0.00000000E+00  0.00000000E+00
  0.00000000E+00  0.00000000E+00  0.00000000E+00
  0.00000000E+00  0.00000000E+00  0.00000000E+00
  0.00000000E+00  0.00000000E+00  0.00000000E+00
  0.00000000E+00  0.00000000E+00  0.00000000E+00
  0.00000000E+00  0.00000000E+00  0.00000000E+00
  0.00000000E+00  0.00000000E+00  0.00000000E+00
  0.00000000E+00  0.00000000E+00  0.00000000E+00
  0.00000000E+00  0.00000000E+00  0.00000000E+00
  0.00000000E+00  0.00000000E+00  0.00000000E+00
  0.00000000E+00  0.00000000E+00  0.00000000E+00
  0.00000000E+00  0.00000000E+00  0.00000000E+00
  0.00000000E+00  0.00000000E+00  0.00000000E+00
  0.00000000E+00  0.00000000E+00  0.00000000E+00
  0.00000000E+00  0.00000000E+00  0.00000000E+00
  0.00000000E+00  0.00000000E+00  0.00000000E+00
  0.00000000E+00  0.00000000E+00  0.00000000E+00
  0.00000000E+00  0.00000000E+00  0.00000000E+00
  0.00000000E+00  0.00000000E+00  0.00000000E+00
  0.00000000E+00  0.00000000E+00  0.00000000E+00
  0.00000000E+00  0.00000000E+00  0.00000000E+00
  0.00000000E+00  0.00000000E+00  0.00000000E+00
  0.00000000E+00  0.00000000E+00  0.00000000E+00
  0.00000000E+00  0.00000000E+00  0.00000000E+00
  0.00000000E+00  0.00000000E+00  0.00000000E+00
  0.00000000E+00  0.00000000E+00  0.00000000E+00
  0.00000000E+00  0.00000000E+00  0.00000000E+00
  0.00000000E+00  0.00000000E+00  0.00000000E+00
  0.00000000E+00  0.00000000E+00  0.00000000E+00
  0.00000000E+00  0.00000000E+00  0.00000000E+00
  0.00000000E+00  0.00000000E+00  0.00000000E+00
