Ge+Sn
    1.000000000
   11.315600395    0.000000000    0.000000000
    0.000000000   17.891534805    0.000000000
    0.000000000   -0.000000256   11.095910072
Ge  Sn 
48     48
Direct
    0.945568740    0.076203801    0.000000016
    0.695568681    0.426203907    0.080622338
    0.445568681    0.776203990    0.161244661
    0.195568621    0.126204133    0.241867065
    0.945568681    0.476204157    0.322489351
    0.695568681    0.826204300    0.403111607
    0.445568740    0.076203801    0.000000016
    0.195568711    0.426203907    0.080622338
    0.945568681    0.776203990    0.161244661
    0.695568681    0.126204133    0.241867065
    0.445568681    0.476204157    0.322489351
    0.195568621    0.826204300    0.403111607
    0.070568725    0.826203942    0.000000037
    0.820568681    0.176204085    0.080622308
    0.570568681    0.526204109    0.161244601
    0.320568621    0.876204133    0.241867051
    0.070568621    0.226204157    0.322489381
    0.820568562    0.576204300    0.403111696
    0.570568740    0.826203942    0.000000037
    0.320568740    0.176204085    0.080622308
    0.070568711    0.526204109    0.161244601
    0.820568681    0.876204133    0.241867051
    0.570568681    0.226204157    0.322489381
    0.320568621    0.576204300    0.403111696
    0.945568740    0.576203823    0.000000020
    0.695568681    0.926203907    0.080622301
    0.445568681    0.276203990    0.161244676
    0.195568621    0.626204133    0.241866961
    0.945568681    0.976204157    0.322489351
    0.695568681    0.326204300    0.403111696
    0.445568740    0.576203823    0.000000020
    0.195568711    0.926203907    0.080622301
    0.945568681    0.276203990    0.161244676
    0.695568681    0.626204133    0.241866961
    0.445568681    0.976204157    0.322489351
    0.195568621    0.326204300    0.403111696
    0.070568725    0.326203823    0.000000000
    0.820568681    0.676203966    0.080622345
    0.570568681    0.026203990    0.161244661
    0.320568621    0.376204133    0.241866976
    0.070568621    0.726204157    0.322489321
    0.820568562    0.076204300    0.403111577
    0.570568740    0.326203823    0.000000000
    0.320568740    0.676203966    0.080622345
    0.070568711    0.026203990    0.161244661
    0.820568681    0.376204133    0.241866976
    0.570568681    0.726204157    0.322489321
    0.320568621    0.076204300    0.403111577
    0.940928936    0.477848351    0.403111726
    0.607595503    0.352848351    0.522489429
    0.274262190    0.227848351    0.641866922
    0.940928817    0.102848344    0.761244535
    0.607595325    0.977848291    0.880622268
    0.274261832    0.852848232    0.999999881
    0.940928936    0.977848351    0.403111726
    0.607595503    0.852848291    0.522489429
    0.274262190    0.727848291    0.641866922
    0.940928817    0.602848291    0.761244535
    0.607595325    0.477848291    0.880622268
    0.274261832    0.352848172    0.999999881
    0.190928906    0.727848351    0.403111726
    0.857595563    0.602848351    0.522489429
    0.524262190    0.477848351    0.641867042
    0.190928817    0.352848351    0.761244535
    0.857595444    0.227848321    0.880622268
    0.524261832    0.102848224    1.000000000
    0.190928906    0.227848351    0.403111726
    0.857595503    0.102848329    0.522489429
    0.524262190    0.977848351    0.641866922
    0.190928817    0.852848351    0.761244535
    0.857595444    0.727848291    0.880622149
    0.524261832    0.602848232    1.000000000
    0.940928876    0.727848351    0.403111726
    0.607595503    0.602848351    0.522489429
    0.274262190    0.477848351    0.641866922
    0.940928817    0.352848351    0.761244535
    0.607595325    0.227848306    0.880622268
    0.274261951    0.102848209    0.999999881
    0.940928936    0.227848351    0.403111726
    0.607595503    0.102848329    0.522489429
    0.274262190    0.977848351    0.641866922
    0.940928817    0.852848351    0.761244535
    0.607595444    0.727848291    0.880622268
    0.274261832    0.602848172    0.999999881
    0.190928966    0.477848381    0.403111726
    0.857595563    0.352848381    0.522489429
    0.524262190    0.227848381    0.641866922
    0.190928817    0.102848351    0.761244535
    0.857595444    0.977848351    0.880622268
    0.524261951    0.852848291    0.999999881
    0.190928951    0.977848351    0.403111726
    0.857595563    0.852848291    0.522489429
    0.524262190    0.727848291    0.641866922
    0.190928817    0.602848291    0.761244535
    0.857595444    0.477848291    0.880622268
    0.524261951    0.352848232    0.999999881
