Si+C
    1.000000000
   13.303179741    0.000000000    0.000000000
   -6.651589394   11.520891190    0.000000000
    0.000000000    0.000000000   21.679418564
Si  C  
72     308
Direct
    0.348160356    0.681493700    0.000000013
    0.681493759    0.014827132    0.144634396
    0.014827251    0.348160625    0.289268821
    0.014827028    0.014827028    0.000000014
    0.348160386    0.348160386    0.144634396
    0.681493878    0.681493878    0.289268821
    0.681493700    0.348160356    0.000000000
    0.014827132    0.681493759    0.144634381
    0.348160625    0.014827251    0.289268792
    0.014827013    0.681493759    0.036158606
    0.348160386    0.014827132    0.180793002
    0.681493878    0.348160625    0.325427443
    0.348160416    0.348160416    0.036158621
    0.681493759    0.681493819    0.180793017
    0.014827251    0.014827251    0.325427443
    0.681493759    0.014827013    0.036158606
    0.014827132    0.348160386    0.180793002
    0.348160625    0.681493878    0.325427413
    0.014827028    0.514827013    0.000000017
    0.348160416    0.848160446    0.144634411
    0.681493819    0.181493878    0.289268821
    0.681493759    0.848160386    0.000000038
    0.014827132    0.181493759    0.144634396
    0.348160625    0.514827251    0.289268821
    0.348160386    0.181493685    0.000000008
    0.681493759    0.514827073    0.144634381
    0.014827132    0.848160505    0.289268792
    0.348160416    0.848160267    0.036158569
    0.681493878    0.181493759    0.180792972
    0.014827132    0.514827013    0.325427353
    0.014827132    0.181493700    0.036158592
    0.348160505    0.514827132    0.180792972
    0.681493759    0.848160446    0.325427324
    0.681493819    0.514827073    0.036158577
    0.014827251    0.848160505    0.180793002
    0.348160625    0.181493878    0.325427383
    0.181493700    0.848160386    0.000000024
    0.514827073    0.181493759    0.144634396
    0.848160565    0.514827251    0.289268821
    0.514827013    0.514827013    0.000000014
    0.848160446    0.848160386    0.144634396
    0.181493878    0.181493878    0.289268821
    0.848160386    0.181493700    0.000000005
    0.181493759    0.514827073    0.144634381
    0.514827251    0.848160565    0.289268821
    0.181493685    0.514827013    0.036158577
    0.514827132    0.848160505    0.180793002
    0.848160446    0.181493759    0.325427353
    0.848160386    0.848160386    0.036158558
    0.181493878    0.181493878    0.180793002
    0.514827251    0.514827251    0.325427383
    0.514827073    0.181493670    0.036158577
    0.848160505    0.514827132    0.180793002
    0.181493759    0.848160446    0.325427383
    0.181493700    0.348160356    0.000000013
    0.514827073    0.681493759    0.144634396
    0.848160505    0.014827132    0.289268821
    0.848160386    0.681493759    0.000000027
    0.181493759    0.014827132    0.144634396
    0.514827251    0.348160625    0.289268821
    0.514827013    0.014827021    0.000000013
    0.848160386    0.348160416    0.144634396
    0.181493878    0.681493819    0.289268821
    0.514827013    0.681493640    0.036158621
    0.848160386    0.014827013    0.180793002
    0.181493878    0.348160505    0.325427443
    0.181493655    0.014827013    0.036158614
    0.514827013    0.348160386    0.180793002
    0.848160446    0.681493878    0.325427443
    0.848160446    0.348160386    0.036158606
    0.181493878    0.681493759    0.180793002
    0.514827251    0.014827251    0.325427413
    0.847782016    0.014273047    0.900184751
    0.800163269    0.204749525    0.425242633
    0.609686971    0.966654181    0.520231068
    0.419210762    0.728558898    0.615219474
    0.228734449    0.490463495    0.710207880
    0.038258314    0.252368271    0.805196285
    0.990639091    0.442844450    0.900184751
    0.943020463    0.633320987    0.425242662
    0.752544165    0.395225674    0.520231068
    0.562067866    0.157130390    0.615219533
    0.371591598    0.919035017    0.710207939
    0.181115359    0.680939734    0.805196345
    0.562067628    0.157130122    0.900184751
    0.514449000    0.347606689    0.425242633
    0.323972702    0.109511353    0.520231068
    0.133496448    0.871416032    0.615219474
    0.943020105    0.633320630    0.710207939
    0.752543926    0.395225465    0.805196345
    0.704924822    0.585701585    0.900184751
    0.657306075    0.776178062    0.425242633
    0.466829866    0.538082778    0.520231068
    0.276353627    0.299987495    0.615219474
    0.085877299    0.061892152    0.710207880
    0.895401120    0.823796868    0.805196345
    0.133496255    0.871415794    0.900184751
    0.085877538    0.061892390    0.425242633
    0.895401239    0.823797047    0.520231068
    0.704925060    0.585701764    0.615219474
    0.514448643    0.347606421    0.710207880
    0.323972493    0.109511144    0.805196285
    0.276353389    0.299987257    0.900184751
    0.228734687    0.490463793    0.425242633
    0.038258433    0.252368480    0.520231068
    0.847782135    0.014273286    0.615219474
    0.657305837    0.776177824    0.710207939
    0.466829628    0.538082600    0.805196285
    0.419210523    0.728558719    0.900184751
    0.371591806    0.919035256    0.425242633
    0.181115568    0.680939913    0.520231068
    0.990639329    0.442844659    0.615219474
    0.800163031    0.204749256    0.710207939
    0.609686852    0.966654003    0.805196285
    0.038258433    0.252368510    0.448989779
    0.847782254    0.014273286    0.543978214
    0.657305956    0.776177943    0.638966620
    0.466829628    0.538082540    0.733955085
    0.276353329    0.299987197    0.828943491
    0.752544165    0.395225704    0.448989749
    0.562067986    0.157130420    0.543978155
    0.371591717    0.919035137    0.638966560
    0.181115419    0.680939794    0.733955026
    0.990639091    0.442844331    0.828943491
    0.895401359    0.823797166    0.448989749
    0.704925179    0.585701883    0.543978155
    0.514448881    0.347606570    0.638966620
    0.323972583    0.109511219    0.733955026
    0.133496255    0.871415794    0.828943491
    0.323972762    0.109511420    0.448989779
    0.133496508    0.871416092    0.543978214
    0.943020225    0.633320808    0.638966620
    0.752543926    0.395225406    0.733955085
    0.562067628    0.157130063    0.828943491
    0.466829926    0.538082838    0.448989779
    0.276353657    0.299987555    0.543978214
    0.085877419    0.061892271    0.638966620
    0.895401120    0.823796868    0.733955026
    0.704924822    0.585701466    0.828943491
    0.609687090    0.966654301    0.448989779
    0.419210851    0.728559017    0.543978214
    0.228734583    0.490463734    0.638966620
    0.038258314    0.252368361    0.733955026
    0.847781897    0.014272928    0.828943491
    0.181115597    0.680939972    0.448989779
    0.990639329    0.442844659    0.543978214
    0.800163150    0.204749376    0.638966620
    0.609686852    0.966654003    0.733955085
    0.419210464    0.728558600    0.828943491
    0.062067747    0.157130182    0.900184751
    0.014449000    0.347606689    0.425242633
    0.823972821    0.109511375    0.520231068
    0.633496523    0.871416092    0.615219474
    0.443020195    0.633320630    0.710207880
    0.252544016    0.395225465    0.805196345
    0.633496284    0.871415794    0.900184751
    0.585877538    0.061892390    0.425242633
    0.395401299    0.823797047    0.520231068
    0.204925045    0.585701764    0.615219474
    0.014448762    0.347606361    0.710207939
    0.823972464    0.109511085    0.805196345
    0.776353478    0.299987257    0.900184751
    0.728734732    0.490463823    0.425242662
    0.538258433    0.252368510    0.520231068
    0.347782224    0.014273286    0.615219533
    0.157305896    0.776177824    0.710207939
    0.966829658    0.538082600    0.805196345
    0.919210553    0.728558719    0.900184751
    0.871591806    0.919035256    0.425242633
    0.681115508    0.680939913    0.520231068
    0.490639299    0.442844629    0.615219533
    0.300162971    0.204749227    0.710207939
    0.109686762    0.966654003    0.805196345
    0.347781926    0.014273047    0.900184751
    0.300163269    0.204749525    0.425242633
    0.109686978    0.966654181    0.520231068
    0.919210792    0.728558958    0.615219474
    0.728734374    0.490463495    0.710207880
    0.538258195    0.252368212    0.805196345
    0.490639061    0.442844391    0.900184751
    0.443020374    0.633320987    0.425242633
    0.252544105    0.395225644    0.520231068
    0.062067866    0.157130361    0.615219474
    0.871591568    0.919034958    0.710207939
    0.681115389    0.680939734    0.805196345
    0.204924792    0.585701525    0.900184751
    0.157306105    0.776178062    0.425242633
    0.966829777    0.538082778    0.520231068
    0.776353598    0.299987495    0.615219474
    0.585877299    0.061892152    0.710207939
    0.395401031    0.823796809    0.805196345
    0.823972821    0.109511435    0.448989749
    0.633496642    0.871416092    0.543978214
    0.443020314    0.633320808    0.638966560
    0.252543986    0.395225465    0.733955026
    0.062067747    0.157130122    0.828943491
    0.966830015    0.538082838    0.448989749
    0.776353717    0.299987525    0.543978214
    0.585877419    0.061892271    0.638966620
    0.395401180    0.823796868    0.733955026
    0.204924822    0.585701466    0.828943491
    0.538258493    0.252368569    0.448989719
    0.347782195    0.014273286    0.543978155
    0.157305956    0.776177943    0.638966560
    0.966829777    0.538082659    0.733955026
    0.776353359    0.299987316    0.828943431
    0.681115627    0.680940032    0.448989719
    0.490639359    0.442844689    0.543978155
    0.300163150    0.204749405    0.638966560
    0.109686874    0.966654062    0.733955026
    0.919210672    0.728558719    0.828943372
    0.252544194    0.395225704    0.448989749
    0.062067866    0.157130361    0.543978214
    0.871591687    0.919035077    0.638966620
    0.681115389    0.680939794    0.733955026
    0.490639120    0.442844450    0.828943431
    0.395401329    0.823797166    0.448989749
    0.204925060    0.585701823    0.543978214
    0.014448881    0.347606540    0.638966560
    0.823972583    0.109511219    0.733955026
    0.633496284    0.871415854    0.828943491
    0.109687030    0.966654301    0.448989749
    0.919210792    0.728559017    0.543978214
    0.728734493    0.490463704    0.638966560
    0.538258195    0.252368391    0.733955026
    0.347781926    0.014273047    0.828943491
    0.990639210    0.942844450    0.900184751
    0.943020463    0.133320957    0.425242662
    0.752544165    0.895225585    0.520231068
    0.562067986    0.657130361    0.615219533
    0.371591598    0.419034958    0.710207939
    0.181115419    0.180939734    0.805196345
    0.704924941    0.085701592    0.900184751
    0.657306194    0.276178122    0.425242662
    0.466829896    0.038082838    0.520231068
    0.276353657    0.799987495    0.615219533
    0.085877299    0.561892152    0.710207939
    0.895401120    0.323796928    0.805196345
    0.847782016    0.514272928    0.900184751
    0.800163269    0.704749525    0.425242633
    0.609686971    0.466654181    0.520231068
    0.419210762    0.228558928    0.615219474
    0.228734449    0.990463555    0.710207880
    0.038258195    0.752368271    0.805196285
    0.419210583    0.228558660    0.900184751
    0.371591836    0.419035226    0.425242633
    0.181115568    0.180939913    0.520231068
    0.990639329    0.942844629    0.615219474
    0.800163031    0.704749227    0.710207939
    0.609686852    0.466654003    0.805196345
    0.562067747    0.657130122    0.900184751
    0.514449000    0.847606659    0.425242633
    0.323972702    0.609511375    0.520231068
    0.133496478    0.371416062    0.615219474
    0.943020105    0.133320659    0.710207880
    0.752543926    0.895225406    0.805196285
    0.133496195    0.371415854    0.900184751
    0.085877538    0.561892390    0.425242633
    0.895401239    0.323797047    0.520231068
    0.704925060    0.085701779    0.615219474
    0.514448643    0.847606361    0.710207939
    0.323972493    0.609511137    0.805196285
    0.276353389    0.799987257    0.900184751
    0.228734672    0.990463853    0.425242633
    0.038258433    0.752368510    0.520231068
    0.847782135    0.514273226    0.615219474
    0.657305956    0.276178002    0.710207820
    0.466829628    0.038082600    0.805196345
    0.895401359    0.323797047    0.448989779
    0.704925179    0.085701779    0.543978214
    0.514448881    0.847606480    0.638966620
    0.323972583    0.609511137    0.733955085
    0.133496210    0.371415675    0.828943491
    0.038258553    0.752368569    0.448989779
    0.847782254    0.514273286    0.543978214
    0.657305956    0.276177973    0.638966620
    0.466829687    0.038082600    0.733955085
    0.276353389    0.799987197    0.828943491
    0.609687090    0.466654301    0.448989749
    0.419210792    0.228558958    0.543978214
    0.228734583    0.990463674    0.638966620
    0.038258314    0.752368391    0.733955085
    0.847782016    0.514273047    0.828943491
    0.752544284    0.895225704    0.448989749
    0.562067926    0.657130361    0.543978214
    0.371591717    0.419035077    0.638966560
    0.181115478    0.180939764    0.733955026
    0.990639210    0.942844450    0.828943431
    0.181115627    0.180939943    0.448989749
    0.990639329    0.942844570    0.543978214
    0.800163150    0.704749286    0.638966560
    0.609686852    0.466654062    0.733955026
    0.419210583    0.228558719    0.828943431
    0.323972791    0.609511435    0.448989749
    0.133496493    0.371416062    0.543978214
    0.943020225    0.133320823    0.638966560
    0.752544045    0.895225465    0.733955026
    0.562067747    0.657130182    0.828943431
    0.466829926    0.038082838    0.448989719
    0.276353627    0.799987495    0.543978155
    0.085877419    0.561892211    0.638966560
    0.895401120    0.323796868    0.733955026
    0.704924822    0.085701533    0.828943372
    0.919210672    0.228558660    0.900184751
    0.871591926    0.419035226    0.425242662
    0.681115627    0.180939913    0.520231068
    0.490639418    0.942844629    0.615219533
    0.300163090    0.704749227    0.710207939
    0.109686837    0.466653943    0.805196404
    0.062067747    0.657130122    0.900184751
    0.014449120    0.847606659    0.425242633
    0.823972821    0.609511375    0.520231068
    0.633496523    0.371416092    0.615219474
    0.443020225    0.133320689    0.710207880
    0.252544045    0.895225465    0.805196285
    0.490639061    0.942844331    0.900184751
    0.443020403    0.133320943    0.425242633
    0.252544135    0.895225585    0.520231068
    0.062067866    0.657130301    0.615219474
    0.871591568    0.419034898    0.710207880
    0.681115389    0.180939674    0.805196345
    0.633496165    0.371415794    0.900184751
    0.585877538    0.561892390    0.425242633
    0.395401269    0.323797047    0.520231068
    0.204925030    0.085701779    0.615219474
    0.014448762    0.847606361    0.710207939
    0.823972464    0.609511137    0.805196345
    0.776353478    0.799987316    0.900184751
    0.728734732    0.990463853    0.425242633
    0.538258433    0.752368510    0.520231068
    0.347782224    0.514273286    0.615219474
    0.157305896    0.276177853    0.710207880
    0.966829658    0.038082719    0.805196285
    0.204924792    0.085701533    0.900184751
    0.157306105    0.276178092    0.425242633
    0.966829777    0.038082838    0.520231068
    0.776353598    0.799987495    0.615219474
    0.585877180    0.561892092    0.710207880
    0.395401031    0.323796868    0.805196345
    0.347781986    0.514273047    0.900184751
    0.300163239    0.704749584    0.425242633
    0.109686993    0.466654271    0.520231068
    0.919210792    0.228558987    0.615219474
    0.728734374    0.990463555    0.710207880
    0.538258195    0.752368391    0.805196285
    0.681115746    0.180940032    0.448989779
    0.490639418    0.942844689    0.543978214
    0.300163209    0.704749405    0.638966620
    0.109686889    0.466654062    0.733955085
    0.919210553    0.228558660    0.828943491
    0.823972821    0.609511435    0.448989749
    0.633496642    0.371416122    0.543978155
    0.443020344    0.133320838    0.638966620
    0.252544105    0.895225465    0.733955026
    0.062067747    0.657130063    0.828943491
    0.966830015    0.038082838    0.448989749
    0.776353717    0.799987495    0.543978214
    0.585877419    0.561892211    0.638966560
    0.395401150    0.323796868    0.733955026
    0.204924822    0.085701533    0.828943491
    0.395401388    0.323797137    0.448989749
    0.204925120    0.085701838    0.543978214
    0.014448881    0.847606540    0.638966620
    0.823972583    0.609511197    0.733955085
    0.633496284    0.371415794    0.828943491
    0.538258433    0.752368510    0.448989749
    0.347782224    0.514273286    0.543978214
    0.157305971    0.276177943    0.638966620
    0.966829658    0.038082600    0.733955026
    0.776353359    0.799987137    0.828943491
    0.109687075    0.466654301    0.448989749
    0.919210792    0.228559017    0.543978214
    0.728734612    0.990463674    0.638966620
    0.538258195    0.752368331    0.733955085
    0.347781926    0.514272928    0.828943491
    0.252544224    0.895225704    0.448989749
    0.062067986    0.657130420    0.543978214
    0.871591687    0.419035107    0.638966620
    0.681115508    0.180939794    0.733955026
    0.490639120    0.942844391    0.828943491
