Si
 1.0000000000000000
     5.4310000000000000    0.0000000000000000    0.0000000000000000
     0.0000000000000000   17.1743299723744691    0.0000000000000000
     0.0000000000000000    0.0000000000000000   61.4679124654680891
 Si 
 104
Direct
  0.0000000000000000  0.0000000000000000  0.3253730149244250
  0.2499999999999999  0.7500000000000001  0.3253730149244250
  0.0000000000000000  0.5000000000000001  0.3253730149244250
  0.2499999999999999  0.2500000000000001  0.3253730149244250
  0.4999999999999997  0.6500000000000001  0.3393431737304710
  0.7499999999999996  0.4000000000000000  0.3393431737304710
  0.4999999999999997  0.1500000000000000  0.3393431737304710
  0.7499999999999996  0.8999999999999999  0.3393431737304710
  0.0000000000000000  0.3000000000000000  0.3533133325365170
  0.2499999999999999  0.0500000000000000  0.3533133325365170
  0.0000000000000000  0.8000000000000003  0.3533133325365170
  0.2499999999999999  0.5500000000000002  0.3533133325365170
  0.4999999999999997  0.9500000000000001  0.3672834913425630
  0.7499999999999996  0.7000000000000002  0.3672834913425630
  0.4999999999999997  0.4500000000000000  0.3672834913425630
  0.7499999999999996  0.2000000000000000  0.3672834913425630
  0.0000000000000000  0.6000000000000000  0.3812536501486090
  0.2499999999999999  0.3500000000000001  0.3812536501486090
  0.0000000000000000  0.1000000000000001  0.3812536501486090
  0.2499999999999999  0.8500000000000001  0.3812536501486090
  0.4999999999999997  0.2500000000000000  0.3952238089546550
  0.7499999999999996  0.0000000000000000  0.3952238089546550
  0.4999999999999997  0.7500000000000001  0.3952238089546550
  0.7499999999999996  0.5000000000000000  0.3952238089546550
  0.0000000000000000  0.9000000000000000  0.4091939677607010
  0.2499999999999999  0.6500000000000000  0.4091939677607010
  0.0000000000000000  0.4000000000000004  0.4091939677607010
  0.2499999999999999  0.1500000000000004  0.4091939677607009
  0.4999999999999997  0.5500000000000000  0.4231641265667470
  0.7499999999999996  0.3000000000000003  0.4231641265667470
  0.4999999999999997  0.0500000000000000  0.4231641265667470
  0.7499999999999996  0.7999999999999998  0.4231641265667470
  0.0000000000000000  0.2000000000000000  0.4371342853727930
  0.2499999999999999  0.9500000000000001  0.4371342853727929
  0.0000000000000000  0.7000000000000001  0.4371342853727929
  0.2499999999999999  0.4500000000000002  0.4371342853727929
  0.4999999999999997  0.8500000000000001  0.4511044441788389
  0.7499999999999996  0.6000000000000003  0.4511044441788389
  0.4999999999999997  0.3500000000000001  0.4511044441788389
  0.7499999999999996  0.1000000000000001  0.4511044441788389
  0.0000000000000000  0.5000000000000002  0.4650746029848850
  0.2499999999999999  0.2500000000000000  0.4650746029848850
  0.0000000000000000  0.0000000000000004  0.4650746029848850
  0.2499999999999999  0.7500000000000004  0.4650746029848850
  0.4999999999999997  0.1500000000000004  0.4790447617909309
  0.7499999999999996  0.9000000000000001  0.4790447617909310
  0.4999999999999997  0.6500000000000000  0.4790447617909309
  0.7499999999999996  0.3999999999999999  0.4790447617909309
  0.0000000000000000  0.8000000000000000  0.4930149205969769
  0.2499999999999999  0.5500000000000003  0.4930149205969769
  0.0000000000000000  0.3000000000000007  0.4930149205969769
  0.2499999999999999  0.0499999999999998  0.4930149205969769
  0.4999999999999997  0.4500000000000002  0.5069850794030228
  0.7499999999999996  0.1999999999999998  0.5069850794030230
  0.4999999999999997  0.9500000000000001  0.5069850794030230
  0.7499999999999996  0.6999999999999997  0.5069850794030228
  0.0000000000000000  0.1000000000000005  0.5209552382090689
  0.2499999999999999  0.8500000000000001  0.5209552382090689
  0.0000000000000000  0.6000000000000005  0.5209552382090689
  0.2499999999999999  0.3500000000000005  0.5209552382090689
  0.4999999999999997  0.7500000000000009  0.5349253970151149
  0.7499999999999996  0.5000000000000004  0.5349253970151150
  0.4999999999999997  0.2500000000000005  0.5349253970151149
  0.7499999999999996  0.0000000000000004  0.5349253970151149
  0.0000000000000000  0.3999999999999999  0.5488955558211609
  0.2499999999999999  0.1499999999999999  0.5488955558211608
  0.0000000000000000  0.9000000000000004  0.5488955558211609
  0.2499999999999999  0.6500000000000000  0.5488955558211609
  0.4999999999999997  0.0500000000000007  0.5628657146272068
  0.7499999999999996  0.8000000000000004  0.5628657146272068
  0.4999999999999997  0.5500000000000003  0.5628657146272068
  0.7499999999999996  0.2999999999999999  0.5628657146272068
  0.0000000000000000  0.7000000000000003  0.5768358734332529
  0.2499999999999999  0.4500000000000002  0.5768358734332529
  0.0000000000000000  0.2000000000000006  0.5768358734332529
  0.2499999999999999  0.9500000000000003  0.5768358734332529
  0.4999999999999997  0.3500000000000001  0.5908060322392988
  0.7499999999999996  0.0999999999999997  0.5908060322392988
  0.4999999999999997  0.8499999999999996  0.5908060322392988
  0.7499999999999996  0.6000000000000001  0.5908060322392990
  0.0000000000000000  0.0000000000000004  0.6047761910453449
  0.2499999999999999  0.7500000000000004  0.6047761910453450
  0.0000000000000000  0.5000000000000010  0.6047761910453449
  0.2499999999999999  0.2500000000000005  0.6047761910453449
  0.4999999999999997  0.6500000000000004  0.6187463498513908
  0.7499999999999996  0.4000000000000004  0.6187463498513908
  0.4999999999999997  0.1500000000000004  0.6187463498513908
  0.7499999999999996  0.8999999999999999  0.6187463498513908
  0.0000000000000000  0.2999999999999999  0.6327165086574368
  0.2499999999999999  0.0499999999999989  0.6327165086574368
  0.0000000000000000  0.8000000000000004  0.6327165086574368
  0.2499999999999999  0.5499999999999998  0.6327165086574368
  0.4999999999999997  0.9499999999999997  0.6466866674634828
  0.7499999999999996  0.6999999999999997  0.6466866674634828
  0.4999999999999997  0.4500000000000002  0.6466866674634828
  0.7499999999999996  0.2000000000000002  0.6466866674634828
  0.0000000000000000  0.6000000000000001  0.6606568262695289
  0.2499999999999999  0.3499999999999996  0.6606568262695289
  0.0000000000000000  0.0999999999999997  0.6606568262695288
  0.2499999999999999  0.8500000000000001  0.6606568262695288
  0.4999999999999997  0.2500000000000000  0.6746269850755747
  0.7499999999999996  0.9999999999999997  0.6746269850755747
  0.4999999999999997  0.7500000000000004  0.6746269850755749
  0.7499999999999996  0.4999999999999991  0.6746269850755749
