fcc Si+fcc Ge
    1.000000000
   13.423203790    0.000000000    0.000000000
    6.711601895   15.007598076    0.000000000
    0.000000000    0.000000000    7.627449317
Si    Ge   
36     36
Direct
    0.400000000    0.200000000    0.321304069
    0.333333333    0.666666667    0.000000000
    0.866666667    0.433333333    0.160652035
    0.733333333    0.866666667    0.321304069
    0.666666667    0.333333333    0.000000000
    0.200000000    0.100000000    0.160652035
    0.066666667    0.533333333    0.321304069
    0.000000000    0.000000000    0.000000000
    0.533333333    0.766666667    0.160652035
    0.900000000    0.200000000    0.321304069
    0.833333333    0.666666667    0.000000000
    0.366666667    0.433333333    0.160652035
    0.233333333    0.866666667    0.321304069
    0.166666667    0.333333333    0.000000000
    0.700000000    0.100000000    0.160652035
    0.566666667    0.533333333    0.321304069
    0.500000000    0.000000000    0.000000000
    0.033333333    0.766666667    0.160652035
    0.416666667    0.333333333    0.401630087
    0.350000000    0.800000000    0.080326017
    0.883333333    0.566666667    0.240978052
    0.750000000    0.000000000    0.401630087
    0.683333333    0.466666667    0.080326017
    0.216666667    0.233333333    0.240978052
    0.083333333    0.666666667    0.401630087
    0.016666667    0.133333333    0.080326017
    0.550000000    0.900000000    0.240978052
    0.916666667    0.333333333    0.401630087
    0.850000000    0.800000000    0.080326017
    0.383333333    0.566666667    0.240978052
    0.250000000    0.000000000    0.401630087
    0.183333333    0.466666667    0.080326017
    0.716666667    0.233333333    0.240978052
    0.583333333    0.666666667    0.401630087
    0.516666667    0.133333333    0.080326017
    0.050000000    0.900000000    0.240978052
    0.834586466    0.165644172    0.493403885
    0.534586466    0.932310838    0.659332812
    0.234586466    0.698977505    0.825261738
    0.834586466    0.498977505    0.493403885
    0.534586466    0.265644172    0.659332812
    0.234586466    0.032310838    0.825261738
    0.834586466    0.832310838    0.493403885
    0.534586466    0.598977505    0.659332812
    0.234586466    0.365644172    0.825261738
    0.334586466    0.165644172    0.493403885
    0.034586466    0.932310838    0.659332812
    0.734586466    0.698977505    0.825261738
    0.334586466    0.498977505    0.493403885
    0.034586466    0.265644172    0.659332812
    0.734586466    0.032310838    0.825261738
    0.334586466    0.832310838    0.493403885
    0.034586466    0.598977505    0.659332812
    0.734586466    0.365644172    0.825261738
    0.684586466    0.465644172    0.576368349
    0.384586466    0.232310838    0.742297275
    0.084586466    0.998977505    0.908226201
    0.684586466    0.798977505    0.576368349
    0.384586466    0.565644172    0.742297275
    0.084586466    0.332310838    0.908226201
    0.684586466    0.132310838    0.576368349
    0.384586466    0.898977505    0.742297275
    0.084586466    0.665644172    0.908226201
    0.184586466    0.465644172    0.576368349
    0.884586466    0.232310838    0.742297275
    0.584586466    0.998977505    0.908226201
    0.184586466    0.798977505    0.576368349
    0.884586466    0.565644172    0.742297275
    0.584586466    0.332310838    0.908226201
    0.184586466    0.132310838    0.576368349
    0.884586466    0.898977505    0.742297275
    0.584586466    0.665644172    0.908226201
