Si+C
    1.000000000
   13.303179741    0.000000000    0.000000000
    6.651589394   11.520891190    0.000000000
    0.000000000    0.000000000   21.679414749
Si  C  
72     308
Direct
    0.000000000    0.681493819    0.289268851
    0.000000000    0.014827055    0.000000008
    0.000000000    0.348160446    0.144634441
    0.333333343    0.014827132    0.289268851
    0.333333343    0.348160386    0.000000009
    0.333333343    0.681493819    0.144634441
    0.666666687    0.348160386    0.289268821
    0.666666687    0.681493759    0.000000006
    0.666666687    0.014827132    0.144634441
    0.000000000    0.014827251    0.325427473
    0.000000000    0.348160416    0.036158621
    0.000000000    0.681493819    0.180793047
    0.333333343    0.348160505    0.325427443
    0.333333343    0.681493819    0.036158621
    0.333333343    0.014827132    0.180793032
    0.666666746    0.681493998    0.325427473
    0.666666746    0.014827132    0.036158621
    0.666666746    0.348160505    0.180793062
    0.166666672    0.848160446    0.289268821
    0.166666672    0.181493714    0.000000004
    0.166666672    0.514827132    0.144634441
    0.500000060    0.181493759    0.289268821
    0.500000000    0.514827073    0.000000001
    0.500000000    0.848160505    0.144634441
    0.833333373    0.514827251    0.289268851
    0.833333373    0.848160446    0.000000000
    0.833333373    0.181493759    0.144634411
    0.166666687    0.181493759    0.325427383
    0.166666687    0.514827073    0.036158580
    0.166666687    0.848160505    0.180793002
    0.500000000    0.514827132    0.325427383
    0.500000000    0.848160326    0.036158577
    0.500000000    0.181493759    0.180793017
    0.833333313    0.848160446    0.325427383
    0.833333313    0.181493714    0.036158577
    0.833333313    0.514827132    0.180793047
    0.000000000    0.181493759    0.289268821
    0.000000000    0.514827073    0.000000011
    0.000000000    0.848160446    0.144634441
    0.333333343    0.514827251    0.289268851
    0.333333343    0.848160505    0.000000016
    0.333333343    0.181493878    0.144634470
    0.666666687    0.848160446    0.289268821
    0.666666687    0.181493714    0.000000001
    0.666666687    0.514827132    0.144634441
    0.000000014    0.514827251    0.325427443
    0.000000014    0.848160446    0.036158580
    0.000000014    0.181493878    0.180793032
    0.333333373    0.848160446    0.325427443
    0.333333373    0.181493714    0.036158580
    0.333333373    0.514827073    0.180793002
    0.666666746    0.181493878    0.325427443
    0.666666746    0.514827073    0.036158580
    0.666666746    0.848160505    0.180793017
    0.166666672    0.348160386    0.289268821
    0.166666672    0.681493759    0.000000009
    0.166666672    0.014827132    0.144634470
    0.500000000    0.681493759    0.289268851
    0.500000000    0.014827051    0.000000009
    0.500000000    0.348160475    0.144634441
    0.833333313    0.014827132    0.289268821
    0.833333313    0.348160416    0.000000006
    0.833333313    0.681493759    0.144634426
    0.166666687    0.681493878    0.325427473
    0.166666687    0.014827132    0.036158640
    0.166666687    0.348160386    0.180793032
    0.500000000    0.014827251    0.325427473
    0.500000000    0.348160416    0.036158610
    0.500000000    0.681493759    0.180793032
    0.833333373    0.348160505    0.325427443
    0.833333373    0.681493700    0.036158621
    0.833333373    0.014827013    0.180793032
    0.165963843    0.022551179    0.876437724
    0.927868783    0.213027716    0.496484041
    0.737392604    0.165408611    0.591472507
    0.546916246    0.117789507    0.686460912
    0.356440008    0.070170403    0.781449318
    0.308821023    0.308265537    0.876437724
    0.070725918    0.498742044    0.496484011
    0.880249679    0.451122940    0.591472507
    0.689773381    0.403503776    0.686460912
    0.499297142    0.355884641    0.781449318
    0.451678157    0.593979836    0.876437724
    0.213583067    0.784456313    0.496484011
    0.023106933    0.736837268    0.591472507
    0.832630575    0.689218104    0.686460912
    0.642154276    0.641598940    0.781449378
    0.737392485    0.165408373    0.876437724
    0.499297380    0.355884910    0.496484011
    0.308821172    0.308265775    0.591472447
    0.118344873    0.260646611    0.686460912
    0.927868605    0.213027477    0.781449318
    0.594535291    0.879694045    0.876437724
    0.356440246    0.070170641    0.496484011
    0.165963992    0.022551537    0.591472447
    0.975487828    0.974932373    0.686460793
    0.785011351    0.927313149    0.781449318
    0.880249560    0.451122642    0.876437724
    0.642154515    0.641599178    0.496484011
    0.451678336    0.593980074    0.591472507
    0.261202127    0.546360970    0.686460853
    0.070725679    0.498741776    0.781449318
    0.023106694    0.736836910    0.876437724
    0.785011590    0.927313507    0.496484011
    0.594535410    0.879694343    0.591472447
    0.404059112    0.832075238    0.686460912
    0.213582829    0.784456074    0.781449318
    0.261201918    0.546360731    0.900184810
    0.213583097    0.784456432    0.425242722
    0.023106933    0.736837268    0.520231128
    0.832630575    0.689218163    0.615219593
    0.642154276    0.641599000    0.710208058
    0.451678097    0.593979836    0.805196404
    0.546916187    0.117789268    0.900184810
    0.499297380    0.355884999    0.425242752
    0.308821172    0.308265865    0.520231128
    0.118344896    0.260646731    0.615219593
    0.927868545    0.213027477    0.710208058
    0.737392366    0.165408373    0.805196404
    0.404058993    0.832075059    0.900184810
    0.356440246    0.070170760    0.425242722
    0.165963978    0.022551537    0.520231128
    0.975487769    0.974932432    0.615219593
    0.785011411    0.927313268    0.710208058
    0.594535172    0.879694164    0.805196404
    0.689773321    0.403503597    0.900184810
    0.642154574    0.641599298    0.425242722
    0.451678336    0.593980134    0.520231128
    0.261202037    0.546361029    0.615219593
    0.070725799    0.498741865    0.710208058
    0.880249500    0.451122731    0.805196404
    0.832630455    0.689217865    0.900184810
    0.785011709    0.927313626    0.425242722
    0.594535410    0.879694402    0.520231187
    0.404059172    0.832075298    0.615219593
    0.213582888    0.784456134    0.710208058
    0.023106694    0.736837029    0.805196404
    0.118344739    0.260646403    0.900184870
    0.070726037    0.498742104    0.425242752
    0.880249679    0.451122969    0.520231128
    0.689773500    0.403503835    0.615219593
    0.499297142    0.355884671    0.710208058
    0.308820963    0.308265537    0.805196464
    0.975487590    0.974932194    0.900184810
    0.927868783    0.213027954    0.425242722
    0.737392545    0.165408731    0.520231128
    0.546916366    0.117789626    0.615219593
    0.356440067    0.070170403    0.710208058
    0.165963829    0.022551298    0.805196404
    0.237392440    0.165408373    0.876437724
    0.999297321    0.355884880    0.496484011
    0.808821142    0.308265746    0.591472507
    0.618344843    0.260646582    0.686460912
    0.427868545    0.213027477    0.781449378
    0.380249560    0.451122701    0.876437724
    0.142154485    0.641599178    0.496484011
    0.951678276    0.593980134    0.591472507
    0.761201978    0.546360970    0.686460912
    0.570725679    0.498741806    0.781449318
    0.665963829    0.022551298    0.876437724
    0.427868783    0.213027716    0.496484011
    0.237392575    0.165408611    0.591472507
    0.046916246    0.117789507    0.686460912
    0.856439948    0.070170403    0.781449378
    0.523106635    0.736836910    0.876437724
    0.285011649    0.927313507    0.496484011
    0.094535381    0.879694402    0.591472507
    0.904059231    0.832075298    0.686460853
    0.713582814    0.784456074    0.781449378
    0.808821023    0.308265507    0.876437724
    0.570725977    0.498742044    0.496483982
    0.380249739    0.451122940    0.591472507
    0.189773589    0.403503805    0.686460853
    0.999297202    0.355884612    0.781449318
    0.951678216    0.593979836    0.876437724
    0.713583112    0.784456372    0.496484011
    0.523106933    0.736837268    0.591472447
    0.332630634    0.689218044    0.686460912
    0.142154366    0.641598940    0.781449318
    0.094535388    0.879694104    0.876437724
    0.856440306    0.070170641    0.496484011
    0.665964067    0.022551537    0.591472507
    0.475487828    0.974932313    0.686460912
    0.285011530    0.927313209    0.781449318
    0.189773396    0.403503567    0.900184810
    0.142154545    0.641599238    0.425242722
    0.951678276    0.593980074    0.520231128
    0.761202097    0.546360970    0.615219533
    0.570725739    0.498741806    0.710208058
    0.380249560    0.451122701    0.805196404
    0.332630455    0.689217925    0.900184810
    0.285011709    0.927313566    0.425242692
    0.094535433    0.879694462    0.520231128
    0.904059231    0.832075298    0.615219533
    0.713582933    0.784456134    0.710208058
    0.523106694    0.736837029    0.805196404
    0.618344784    0.260646433    0.900184810
    0.570725977    0.498742104    0.425242722
    0.380249739    0.451122969    0.520231128
    0.189773530    0.403503835    0.615219533
    0.999297202    0.355884671    0.710208058
    0.808820963    0.308265567    0.805196404
    0.475487649    0.974932253    0.900184810
    0.427868843    0.213027954    0.425242722
    0.237392560    0.165408850    0.520231128
    0.046916366    0.117789745    0.615219533
    0.856440008    0.070170522    0.710208058
    0.665963829    0.022551298    0.805196404
    0.761201918    0.546360850    0.900184810
    0.713583112    0.784456491    0.425242722
    0.523106873    0.736837387    0.520231128
    0.332630634    0.689218223    0.615219533
    0.142154336    0.641599059    0.710208058
    0.951678097    0.593979955    0.805196404
    0.046916246    0.117789268    0.900184810
    0.999297500    0.355884999    0.425242692
    0.808821201    0.308265865    0.520231128
    0.618345022    0.260646701    0.615219533
    0.427868724    0.213027477    0.710208058
    0.237392500    0.165408373    0.805196404
    0.904059052    0.832075000    0.900184810
    0.856440246    0.070170641    0.425242692
    0.665964007    0.022551537    0.520231128
    0.475487828    0.974932492    0.615219533
    0.285011470    0.927313268    0.710208058
    0.094535284    0.879694164    0.805196345
    0.237392440    0.665408373    0.876437724
    0.999297321    0.855884910    0.496484011
    0.808821142    0.808265865    0.591472507
    0.618344843    0.760646641    0.686460912
    0.427868545    0.713027477    0.781449318
    0.523106694    0.236836910    0.876437724
    0.285011649    0.427313447    0.496484041
    0.094535440    0.379694343    0.591472507
    0.904059112    0.332075179    0.686460912
    0.713582814    0.284456015    0.781449378
    0.380249560    0.951122642    0.876437724
    0.142154545    0.141599178    0.496483982
    0.951678276    0.093980074    0.591472447
    0.761202097    0.046360970    0.686460793
    0.570725679    0.998741806    0.781449318
    0.665963829    0.522551179    0.876437724
    0.427868783    0.713027716    0.496484011
    0.237392530    0.665408611    0.591472507
    0.046916366    0.617789507    0.686460853
    0.856439948    0.570170283    0.781449318
    0.951678097    0.093979836    0.876437724
    0.713583052    0.284456342    0.496484011
    0.523106873    0.236837149    0.591472507
    0.332630634    0.189218044    0.686460853
    0.142154276    0.141598940    0.781449318
    0.808821023    0.808265567    0.876437724
    0.570725977    0.998742104    0.496484011
    0.380249798    0.951122999    0.591472447
    0.189773470    0.903503835    0.686460912
    0.999297202    0.855884671    0.781449318
    0.094535328    0.379694104    0.876437724
    0.856440246    0.570170641    0.496484011
    0.665964007    0.522551537    0.591472507
    0.475487769    0.474932373    0.686460912
    0.285011470    0.427313209    0.781449318
    0.332630515    0.189217806    0.900184810
    0.285011709    0.427313566    0.425242722
    0.094535425    0.379694432    0.520231128
    0.904059231    0.332075298    0.615219533
    0.713582933    0.284456134    0.710208058
    0.523106694    0.236837029    0.805196404
    0.189773336    0.903503597    0.900184810
    0.142154515    0.141599298    0.425242722
    0.951678276    0.093980193    0.520231128
    0.761202097    0.046361089    0.615219533
    0.570725739    0.998741865    0.710208058
    0.380249560    0.951122761    0.805196404
    0.475487649    0.474932194    0.900184810
    0.427868843    0.713027835    0.425242722
    0.237392589    0.665408731    0.520231128
    0.046916366    0.617789626    0.615219533
    0.856440067    0.570170403    0.710208058
    0.665963829    0.522551298    0.805196404
    0.761201918    0.046360731    0.900184810
    0.713583052    0.284456402    0.425242722
    0.523106873    0.236837268    0.520231128
    0.332630694    0.189218163    0.615219533
    0.142154336    0.141598940    0.710208058
    0.951678097    0.093979836    0.805196404
    0.618344784    0.760646522    0.900184810
    0.570725977    0.998742163    0.425242692
    0.380249739    0.951123059    0.520231128
    0.189773530    0.903503954    0.615219533
    0.999297202    0.855884731    0.710208058
    0.808820963    0.808265626    0.805196404
    0.904059052    0.332075059    0.900184810
    0.856440306    0.570170760    0.425242692
    0.665964007    0.522551596    0.520231128
    0.475487828    0.474932432    0.615219533
    0.285011500    0.427313298    0.710208058
    0.094535284    0.379694194    0.805196404
    0.046916127    0.617789388    0.900184810
    0.999297321    0.855885029    0.425242722
    0.808821082    0.808265924    0.520231128
    0.618344903    0.760646760    0.615219533
    0.427868545    0.713027596    0.710208058
    0.237392351    0.665408492    0.805196404
    0.165963843    0.522551179    0.876437724
    0.927868783    0.713027716    0.496484011
    0.737392545    0.665408611    0.591472507
    0.546916246    0.617789507    0.686460912
    0.356439948    0.570170343    0.781449378
    0.451678157    0.093979836    0.876437724
    0.213583067    0.284456313    0.496484011
    0.023106933    0.236837149    0.591472507
    0.832630575    0.189218044    0.686460912
    0.642154276    0.141598940    0.781449318
    0.308820963    0.808265448    0.876437724
    0.070725918    0.998741984    0.496484011
    0.880249679    0.951122880    0.591472507
    0.689773500    0.903503776    0.686460853
    0.499297082    0.855884552    0.781449318
    0.594535291    0.379694045    0.876437724
    0.356440246    0.570170581    0.496483982
    0.165964007    0.522551417    0.591472507
    0.975487828    0.474932343    0.686460853
    0.785011411    0.427313209    0.781449318
    0.737392485    0.665408373    0.876437724
    0.499297380    0.855884969    0.496484011
    0.308821201    0.808265805    0.591472447
    0.118344873    0.760646641    0.686460912
    0.927868545    0.713027537    0.781449318
    0.023106694    0.236836910    0.876437724
    0.785011590    0.427313477    0.496484011
    0.594535470    0.379694343    0.591472507
    0.404059112    0.332075208    0.686460912
    0.213582814    0.284456074    0.781449318
    0.880249560    0.951122642    0.876437724
    0.642154515    0.141599178    0.496484011
    0.451678276    0.093980074    0.591472507
    0.261201978    0.046360970    0.686460912
    0.070725679    0.998741746    0.781449318
    0.261201859    0.046360731    0.900184870
    0.213583127    0.284456432    0.425242752
    0.023106933    0.236837268    0.520231128
    0.832630634    0.189218163    0.615219593
    0.642154336    0.141598940    0.710208058
    0.451678157    0.093979836    0.805196404
    0.404059052    0.332075000    0.900184870
    0.356440246    0.570170701    0.425242752
    0.165964037    0.522551537    0.520231128
    0.975487769    0.474932432    0.615219653
    0.785011470    0.427313268    0.710208058
    0.594535291    0.379694134    0.805196404
    0.546916187    0.617789388    0.900184810
    0.499297380    0.855885029    0.425242722
    0.308821142    0.808265924    0.520231128
    0.118344888    0.760646760    0.615219653
    0.927868545    0.713027596    0.710208058
    0.737392366    0.665408492    0.805196404
    0.832630455    0.189217806    0.900184810
    0.785011709    0.427313566    0.425242722
    0.594535470    0.379694402    0.520231128
    0.404059231    0.332075268    0.615219653
    0.213582918    0.284456104    0.710208058
    0.023106694    0.236836910    0.805196404
    0.689773321    0.903503656    0.900184810
    0.642154515    0.141599417    0.425242722
    0.451678276    0.093980193    0.520231187
    0.261202037    0.046360970    0.615219593
    0.070725799    0.998741865    0.710208058
    0.880249500    0.951122761    0.805196464
    0.975487590    0.474932134    0.900184810
    0.927868843    0.713027835    0.425242722
    0.737392545    0.665408731    0.520231128
    0.546916366    0.617789567    0.615219533
    0.356440008    0.570170403    0.710208058
    0.165963814    0.522551298    0.805196404
    0.118344858    0.760646462    0.900184810
    0.070726037    0.998742163    0.425242722
    0.880249798    0.951122999    0.520231128
    0.689773500    0.903503895    0.615219593
    0.499297202    0.855884671    0.710208058
    0.308821023    0.808265567    0.805196404
