Ge
 1.0000000000000000
     5.6600000000000001    0.0000000000000000    0.0000000000000000
     0.0000000000000000    5.6600000000000001    0.0000000000000000
     0.0000000000000000    0.0000000000000000    5.6600000000000001
 Ge 
   8
Direct
  0.0000000000000000  0.0000000000000000  0.0000000000000000
  0.2500000000000000  0.2500000000000000  0.2500000000000000
  0.0000000000000000  0.5000000000000000  0.5000000000000000
  0.2500000000000000  0.7500000000000000  0.7500000000000000
  0.5000000000000000  0.0000000000000000  0.5000000000000000
  0.7500000000000000  0.2500000000000000  0.7500000000000000
  0.5000000000000000  0.5000000000000000  0.0000000000000000
  0.7500000000000000  0.7500000000000000  0.2500000000000000
