Si+Si
    1.000000000
    5.431000233    0.000000000    0.000000000
    0.000000000    5.431000233    0.000000000
    0.000000000    0.000000000   13.577501297
Si 
24
Direct
    0.017796859    0.000000000    0.000000000
    0.517796874    0.000000000    0.200000003
    0.017796874    0.000000000    0.400000006
    0.267796874    0.750000060    0.100000001
    0.767796934    0.750000060    0.300000042
    0.267796993    0.750000060    0.500000000
    0.517796874    0.500000000    0.000000000
    0.017796874    0.500000000    0.200000003
    0.517796993    0.500000000    0.400000006
    0.767796934    0.250000000    0.100000001
    0.267796874    0.250000000    0.300000042
    0.767796993    0.250000000    0.500000000
    0.017796859    0.000000000    0.500000000
    0.517796874    0.000000000    0.699999988
    0.017796874    0.000000000    0.899999976
    0.267796874    0.750000060    0.600000024
    0.767796934    0.750000060    0.800000072
    0.267796993    0.750000060    1.000000000
    0.517796874    0.500000000    0.500000000
    0.017796874    0.500000000    0.699999988
    0.517796993    0.500000000    0.899999976
    0.767796934    0.250000000    0.600000024
    0.267796874    0.250000000    0.800000072
    0.767796993    0.250000000    1.000000000
