Sn+Ge                                   
   1.00000000000000     
    15.8952283859999994    0.0000000000000000    0.0000000000000000
   -15.8952302929999991   11.2396249770000001    0.0000000000000000
     0.0000000000000000    0.0000000000000000   25.6042194370000011
   Sn   Ge
    72    96
Direct
  0.6581405399999980  0.3674380779999993  0.0000000149999977
  0.5748071069999980  0.7007714510000014  0.0896055030000014
  0.4914736750000017  0.0341049430000027  0.1792110499999993
  0.4081402119999993  0.3674383159999977  0.2688165309999988
  0.3248068689999997  0.7007719280000018  0.3584220709999997
  0.2414733020000028  0.0341053009999968  0.4480275809999981
  0.9914737940000009  0.0341047309999993  0.0000000149999977
  0.9081403610000010  0.3674381379999971  0.0896055179999991
  0.8248069289999975  0.7007716299999984  0.1792110499999993
  0.7414735560000025  0.0341049430000027  0.2688165309999988
  0.6581400629999976  0.3674385549999997  0.3584220709999997
  0.5748066900000026  0.7007719280000018  0.4480275809999981
  0.3248071670000030  0.7007713910000035  0.0000000000000000
  0.2414737340000030  0.0341048240000035  0.0896054879999966
  0.1581403169999973  0.3674383159999977  0.1792109909999979
  0.0748068469999978  0.7007716889999998  0.2688165309999988
  0.9914734359999997  0.0341050620000019  0.3584220110000018
  0.9081400629999976  0.3674385549999997  0.4480275510000027
  0.4914738240000034  0.0341047349999997  0.0000000089999972
  0.4081403910000034  0.3674381080000018  0.0896055179999991
  0.3248069580000035  0.7007716299999984  0.1792110199999968
  0.2414735110000024  0.0341049430000027  0.2688165309999988
  0.1581401230000026  0.3674385549999997  0.3584220709999997
  0.0748066230000006  0.7007719280000018  0.4480275809999981
  0.8248071670000030  0.7007713910000035  0.0000000120000010
  0.7414737940000009  0.0341048240000035  0.0896054729999989
  0.6581403019999996  0.3674381969999985  0.1792110199999968
  0.5748069289999975  0.7007716889999998  0.2688165309999988
  0.4914734959999976  0.0341050620000019  0.3584220110000018
  0.4081399140000030  0.3674385549999997  0.4480275510000027
  0.1581404809999967  0.3674380479999968  0.0000000129999975
  0.0748070630000015  0.7007714510000014  0.0896055099999984
  0.9914735560000025  0.0341048240000035  0.1792110199999968
  0.9081401819999968  0.3674383159999977  0.2688165309999988
  0.8248067500000005  0.7007718090000026  0.3584220709999997
  0.7414733170000005  0.0341053009999968  0.4480275510000027
  0.7414737940000009  0.2841047049999972  0.0000000160000013
  0.6581404809999967  0.6174380779999993  0.0896055030000014
  0.5748069879999989  0.9507715700000006  0.1792110199999968
  0.4914735850000014  0.2841050620000019  0.2688165610000013
  0.4081401230000026  0.6174384360000005  0.3584220709999997
  0.3248066900000026  0.9507719280000018  0.4480275210000002
  0.4081405100000026  0.6174380779999993  0.0000000000000000
  0.3248070779999992  0.9507715109999992  0.0896055179999991
  0.2414736449999992  0.2841049430000027  0.1792110499999993
  0.1581403019999996  0.6174384360000005  0.2688165610000013
  0.0748068170000025  0.9507719280000018  0.3584219809999993
  0.9914733170000005  0.2841053009999968  0.4480276110000005
  0.0748071450000012  0.9507714510000014  0.0000000189999980
  0.9914736750000017  0.2841048240000035  0.0896054879999966
  0.9081403019999996  0.6174383159999977  0.1792110499999993
  0.8248069289999975  0.9507718090000026  0.2688165309999988
  0.7414735560000025  0.2841053009999968  0.3584220110000018
  0.6581401819999968  0.6174387929999980  0.4480276410000030
  0.9081404809999967  0.6174380779999993  0.0000000180000015
  0.8248070479999967  0.9507715109999992  0.0896055030000014
  0.7414736149999968  0.2841049430000027  0.1792110199999968
  0.6581401819999968  0.6174383159999977  0.2688165309999988
  0.5748067500000005  0.9507719280000018  0.3584220409999972
  0.4914732579999992  0.2841053009999968  0.4480275210000002
  0.2414738390000011  0.2841047349999997  0.0000000109999974
  0.1581404359999965  0.6174381379999971  0.0896055250000032
  0.0748070180000013  0.9507716299999984  0.1792110499999993
  0.9914736149999968  0.2841050620000019  0.2688165610000013
  0.9081401230000026  0.6174384360000005  0.3584220709999997
  0.8248066900000026  0.9507719280000018  0.4480275510000027
  0.5748071069999980  0.9507715109999992  0.0000000340000028
  0.4914736750000017  0.2841048240000035  0.0896055179999991
  0.4081402119999993  0.6174383159999977  0.1792110199999968
  0.3248068090000018  0.9507716889999998  0.2688165309999988
  0.2414734359999997  0.2841053009999968  0.3584220409999972
  0.1581399590000032  0.6174387929999980  0.4480275809999981
  0.6589410309999977  0.5515434149999976  0.5287008290000017
  0.2839410309999977  0.3015434149999976  0.6068260070000022
  0.9089410309999977  0.0515433549999997  0.6849512459999971
  0.5339410309999977  0.8015434149999976  0.7630764840000026
  0.1589412690000032  0.5515434739999989  0.8412016030000018
  0.7839410899999990  0.3015434149999976  0.9193268419999967
  0.6589410309999977  0.0515433549999997  0.5287008290000017
  0.2839410309999977  0.8015434149999976  0.6068260070000022
  0.9089410309999977  0.5515433549999997  0.6849511859999993
  0.5339410309999977  0.3015434149999976  0.7630764840000026
  0.1589412690000032  0.0515434739999989  0.8412016030000018
  0.7839410899999990  0.8015434149999976  0.9193268419999967
  0.1589411499999969  0.5515434149999976  0.5287008290000017
  0.7839410899999990  0.3015434149999976  0.6068260070000022
  0.4089410309999977  0.0515433549999997  0.6849511859999993
  0.0339411499999969  0.8015434149999976  0.7630764840000026
  0.6589412690000032  0.5515434739999989  0.8412016030000018
  0.2839410309999977  0.3015434149999976  0.9193268419999967
  0.1589410309999977  0.0515433549999997  0.5287008290000017
  0.7839410899999990  0.8015434149999976  0.6068260070000022
  0.4089410309999977  0.5515433549999997  0.6849511859999993
  0.0339410309999977  0.3015434149999976  0.7630764840000026
  0.6589412690000032  0.0515434739999989  0.8412016030000018
  0.2839410309999977  0.8015434149999976  0.9193267819999988
  0.9089410899999990  0.5515434149999976  0.5287008290000017
  0.5339410309999977  0.3015434149999976  0.6068260070000022
  0.1589410309999977  0.0515433549999997  0.6849511859999993
  0.7839410899999990  0.8015434149999976  0.7630764840000026
  0.4089412690000032  0.5515434739999989  0.8412016030000018
  0.0339410309999977  0.3015434149999976  0.9193267819999988
  0.9089410899999990  0.0515433549999997  0.5287008290000017
  0.5339410309999977  0.8015434149999976  0.6068260070000022
  0.1589410309999977  0.5515433549999997  0.6849511859999993
  0.7839410899999990  0.3015434149999976  0.7630764840000026
  0.4089412690000032  0.0515434739999989  0.8412016030000018
  0.0339410309999977  0.8015434149999976  0.9193268419999967
  0.4089410309999977  0.5515434149999976  0.5287008290000017
  0.0339411499999969  0.3015434149999976  0.6068260070000022
  0.6589410309999977  0.0515433549999997  0.6849511859999993
  0.2839410309999977  0.8015434149999976  0.7630764840000026
  0.9089411499999969  0.5515434739999989  0.8412016030000018
  0.5339410309999977  0.3015434149999976  0.9193267819999988
  0.4089410309999977  0.0515433549999997  0.5287008290000017
  0.0339410309999977  0.8015434149999976  0.6068260070000022
  0.6589410309999977  0.5515433549999997  0.6849511859999993
  0.2839410309999977  0.3015434149999976  0.7630764840000026
  0.9089412690000032  0.0515434739999989  0.8412016030000018
  0.5339410309999977  0.8015434149999976  0.9193268419999967
  0.9089411499999969  0.9265434739999989  0.5287008290000017
  0.5339410309999977  0.6765434149999976  0.6068260070000022
  0.1589410309999977  0.4265434149999976  0.6849511859999993
  0.7839411499999969  0.1765434440000035  0.7630764840000026
  0.4089412690000032  0.9265434739999989  0.8412016030000018
  0.0339410309999977  0.6765434739999989  0.9193268419999967
  0.9089410899999990  0.4265434149999976  0.5287008290000017
  0.5339410309999977  0.1765434149999976  0.6068260070000022
  0.1589410309999977  0.9265433549999997  0.6849511859999993
  0.7839410309999977  0.6765434149999976  0.7630764840000026
  0.4089410309999977  0.4265434149999976  0.8412016030000018
  0.0339410309999977  0.1765433549999997  0.9193267819999988
  0.4089411499999969  0.9265434739999989  0.5287008290000017
  0.0339410309999977  0.6765434149999976  0.6068260070000022
  0.6589410309999977  0.4265434149999976  0.6849511859999993
  0.2839410309999977  0.1765434440000035  0.7630764840000026
  0.9089412089999982  0.9265434739999989  0.8412016030000018
  0.5339410309999977  0.6765434739999989  0.9193267819999988
  0.4089410309999977  0.4265434149999976  0.5287008290000017
  0.0339410309999977  0.1765434149999976  0.6068260070000022
  0.6589410309999977  0.9265433549999997  0.6849512459999971
  0.2839410309999977  0.6765434149999976  0.7630764840000026
  0.9089411499999969  0.4265434149999976  0.8412016030000018
  0.5339410309999977  0.1765433549999997  0.9193268419999967
  0.6589410309999977  0.9265434739999989  0.5287008290000017
  0.2839410309999977  0.6765434149999976  0.6068260070000022
  0.9089410309999977  0.4265434149999976  0.6849511859999993
  0.5339410309999977  0.1765434440000035  0.7630764840000026
  0.1589412690000032  0.9265434739999989  0.8412016030000018
  0.7839410899999990  0.6765434739999989  0.9193268419999967
  0.6589410309999977  0.4265434149999976  0.5287008290000017
  0.2839410309999977  0.1765434149999976  0.6068260070000022
  0.9089410309999977  0.9265433549999997  0.6849511859999993
  0.5339410309999977  0.6765434149999976  0.7630764840000026
  0.1589410309999977  0.4265434149999976  0.8412016030000018
  0.7839410899999990  0.1765433549999997  0.9193267819999988
  0.1589411499999969  0.9265434739999989  0.5287008290000017
  0.7839410899999990  0.6765434149999976  0.6068260070000022
  0.4089410309999977  0.4265434149999976  0.6849511859999993
  0.0339411499999969  0.1765434440000035  0.7630764840000026
  0.6589412690000032  0.9265434739999989  0.8412016030000018
  0.2839412690000032  0.6765434739999989  0.9193267819999988
  0.1589410309999977  0.4265434149999976  0.5287008290000017
  0.7839410899999990  0.1765434149999976  0.6068260070000022
  0.4089410309999977  0.9265433549999997  0.6849511859999993
  0.0339410309999977  0.6765434149999976  0.7630764840000026
  0.6589410309999977  0.4265434149999976  0.8412016030000018
  0.2839410309999977  0.1765433549999997  0.9193267819999988
 
  0.00000000E+00  0.00000000E+00  0.00000000E+00
  0.00000000E+00  0.00000000E+00  0.00000000E+00
  0.00000000E+00  0.00000000E+00  0.00000000E+00
  0.00000000E+00  0.00000000E+00  0.00000000E+00
  0.00000000E+00  0.00000000E+00  0.00000000E+00
  0.00000000E+00  0.00000000E+00  0.00000000E+00
  0.00000000E+00  0.00000000E+00  0.00000000E+00
  0.00000000E+00  0.00000000E+00  0.00000000E+00
  0.00000000E+00  0.00000000E+00  0.00000000E+00
  0.00000000E+00  0.00000000E+00  0.00000000E+00
  0.00000000E+00  0.00000000E+00  0.00000000E+00
  0.00000000E+00  0.00000000E+00  0.00000000E+00
  0.00000000E+00  0.00000000E+00  0.00000000E+00
  0.00000000E+00  0.00000000E+00  0.00000000E+00
  0.00000000E+00  0.00000000E+00  0.00000000E+00
  0.00000000E+00  0.00000000E+00  0.00000000E+00
  0.00000000E+00  0.00000000E+00  0.00000000E+00
  0.00000000E+00  0.00000000E+00  0.00000000E+00
  0.00000000E+00  0.00000000E+00  0.00000000E+00
  0.00000000E+00  0.00000000E+00  0.00000000E+00
  0.00000000E+00  0.00000000E+00  0.00000000E+00
  0.00000000E+00  0.00000000E+00  0.00000000E+00
  0.00000000E+00  0.00000000E+00  0.00000000E+00
  0.00000000E+00  0.00000000E+00  0.00000000E+00
  0.00000000E+00  0.00000000E+00  0.00000000E+00
  0.00000000E+00  0.00000000E+00  0.00000000E+00
  0.00000000E+00  0.00000000E+00  0.00000000E+00
  0.00000000E+00  0.00000000E+00  0.00000000E+00
  0.00000000E+00  0.00000000E+00  0.00000000E+00
  0.00000000E+00  0.00000000E+00  0.00000000E+00
  0.00000000E+00  0.00000000E+00  0.00000000E+00
  0.00000000E+00  0.00000000E+00  0.00000000E+00
  0.00000000E+00  0.00000000E+00  0.00000000E+00
  0.00000000E+00  0.00000000E+00  0.00000000E+00
  0.00000000E+00  0.00000000E+00  0.00000000E+00
  0.00000000E+00  0.00000000E+00  0.00000000E+00
  0.00000000E+00  0.00000000E+00  0.00000000E+00
  0.00000000E+00  0.00000000E+00  0.00000000E+00
  0.00000000E+00  0.00000000E+00  0.00000000E+00
  0.00000000E+00  0.00000000E+00  0.00000000E+00
  0.00000000E+00  0.00000000E+00  0.00000000E+00
  0.00000000E+00  0.00000000E+00  0.00000000E+00
  0.00000000E+00  0.00000000E+00  0.00000000E+00
  0.00000000E+00  0.00000000E+00  0.00000000E+00
  0.00000000E+00  0.00000000E+00  0.00000000E+00
  0.00000000E+00  0.00000000E+00  0.00000000E+00
  0.00000000E+00  0.00000000E+00  0.00000000E+00
  0.00000000E+00  0.00000000E+00  0.00000000E+00
  0.00000000E+00  0.00000000E+00  0.00000000E+00
  0.00000000E+00  0.00000000E+00  0.00000000E+00
  0.00000000E+00  0.00000000E+00  0.00000000E+00
  0.00000000E+00  0.00000000E+00  0.00000000E+00
  0.00000000E+00  0.00000000E+00  0.00000000E+00
  0.00000000E+00  0.00000000E+00  0.00000000E+00
  0.00000000E+00  0.00000000E+00  0.00000000E+00
  0.00000000E+00  0.00000000E+00  0.00000000E+00
  0.00000000E+00  0.00000000E+00  0.00000000E+00
  0.00000000E+00  0.00000000E+00  0.00000000E+00
  0.00000000E+00  0.00000000E+00  0.00000000E+00
  0.00000000E+00  0.00000000E+00  0.00000000E+00
  0.00000000E+00  0.00000000E+00  0.00000000E+00
  0.00000000E+00  0.00000000E+00  0.00000000E+00
  0.00000000E+00  0.00000000E+00  0.00000000E+00
  0.00000000E+00  0.00000000E+00  0.00000000E+00
  0.00000000E+00  0.00000000E+00  0.00000000E+00
  0.00000000E+00  0.00000000E+00  0.00000000E+00
  0.00000000E+00  0.00000000E+00  0.00000000E+00
  0.00000000E+00  0.00000000E+00  0.00000000E+00
  0.00000000E+00  0.00000000E+00  0.00000000E+00
  0.00000000E+00  0.00000000E+00  0.00000000E+00
  0.00000000E+00  0.00000000E+00  0.00000000E+00
  0.00000000E+00  0.00000000E+00  0.00000000E+00
  0.00000000E+00  0.00000000E+00  0.00000000E+00
  0.00000000E+00  0.00000000E+00  0.00000000E+00
  0.00000000E+00  0.00000000E+00  0.00000000E+00
  0.00000000E+00  0.00000000E+00  0.00000000E+00
  0.00000000E+00  0.00000000E+00  0.00000000E+00
  0.00000000E+00  0.00000000E+00  0.00000000E+00
  0.00000000E+00  0.00000000E+00  0.00000000E+00
  0.00000000E+00  0.00000000E+00  0.00000000E+00
  0.00000000E+00  0.00000000E+00  0.00000000E+00
  0.00000000E+00  0.00000000E+00  0.00000000E+00
  0.00000000E+00  0.00000000E+00  0.00000000E+00
  0.00000000E+00  0.00000000E+00  0.00000000E+00
  0.00000000E+00  0.00000000E+00  0.00000000E+00
  0.00000000E+00  0.00000000E+00  0.00000000E+00
  0.00000000E+00  0.00000000E+00  0.00000000E+00
  0.00000000E+00  0.00000000E+00  0.00000000E+00
  0.00000000E+00  0.00000000E+00  0.00000000E+00
  0.00000000E+00  0.00000000E+00  0.00000000E+00
  0.00000000E+00  0.00000000E+00  0.00000000E+00
  0.00000000E+00  0.00000000E+00  0.00000000E+00
  0.00000000E+00  0.00000000E+00  0.00000000E+00
  0.00000000E+00  0.00000000E+00  0.00000000E+00
  0.00000000E+00  0.00000000E+00  0.00000000E+00
  0.00000000E+00  0.00000000E+00  0.00000000E+00
  0.00000000E+00  0.00000000E+00  0.00000000E+00
  0.00000000E+00  0.00000000E+00  0.00000000E+00
  0.00000000E+00  0.00000000E+00  0.00000000E+00
  0.00000000E+00  0.00000000E+00  0.00000000E+00
  0.00000000E+00  0.00000000E+00  0.00000000E+00
  0.00000000E+00  0.00000000E+00  0.00000000E+00
  0.00000000E+00  0.00000000E+00  0.00000000E+00
  0.00000000E+00  0.00000000E+00  0.00000000E+00
  0.00000000E+00  0.00000000E+00  0.00000000E+00
  0.00000000E+00  0.00000000E+00  0.00000000E+00
  0.00000000E+00  0.00000000E+00  0.00000000E+00
  0.00000000E+00  0.00000000E+00  0.00000000E+00
  0.00000000E+00  0.00000000E+00  0.00000000E+00
  0.00000000E+00  0.00000000E+00  0.00000000E+00
  0.00000000E+00  0.00000000E+00  0.00000000E+00
  0.00000000E+00  0.00000000E+00  0.00000000E+00
  0.00000000E+00  0.00000000E+00  0.00000000E+00
  0.00000000E+00  0.00000000E+00  0.00000000E+00
  0.00000000E+00  0.00000000E+00  0.00000000E+00
  0.00000000E+00  0.00000000E+00  0.00000000E+00
  0.00000000E+00  0.00000000E+00  0.00000000E+00
  0.00000000E+00  0.00000000E+00  0.00000000E+00
  0.00000000E+00  0.00000000E+00  0.00000000E+00
  0.00000000E+00  0.00000000E+00  0.00000000E+00
  0.00000000E+00  0.00000000E+00  0.00000000E+00
  0.00000000E+00  0.00000000E+00  0.00000000E+00
  0.00000000E+00  0.00000000E+00  0.00000000E+00
  0.00000000E+00  0.00000000E+00  0.00000000E+00
  0.00000000E+00  0.00000000E+00  0.00000000E+00
  0.00000000E+00  0.00000000E+00  0.00000000E+00
  0.00000000E+00  0.00000000E+00  0.00000000E+00
  0.00000000E+00  0.00000000E+00  0.00000000E+00
  0.00000000E+00  0.00000000E+00  0.00000000E+00
  0.00000000E+00  0.00000000E+00  0.00000000E+00
  0.00000000E+00  0.00000000E+00  0.00000000E+00
  0.00000000E+00  0.00000000E+00  0.00000000E+00
  0.00000000E+00  0.00000000E+00  0.00000000E+00
  0.00000000E+00  0.00000000E+00  0.00000000E+00
  0.00000000E+00  0.00000000E+00  0.00000000E+00
  0.00000000E+00  0.00000000E+00  0.00000000E+00
  0.00000000E+00  0.00000000E+00  0.00000000E+00
  0.00000000E+00  0.00000000E+00  0.00000000E+00
  0.00000000E+00  0.00000000E+00  0.00000000E+00
  0.00000000E+00  0.00000000E+00  0.00000000E+00
  0.00000000E+00  0.00000000E+00  0.00000000E+00
  0.00000000E+00  0.00000000E+00  0.00000000E+00
  0.00000000E+00  0.00000000E+00  0.00000000E+00
  0.00000000E+00  0.00000000E+00  0.00000000E+00
  0.00000000E+00  0.00000000E+00  0.00000000E+00
  0.00000000E+00  0.00000000E+00  0.00000000E+00
  0.00000000E+00  0.00000000E+00  0.00000000E+00
  0.00000000E+00  0.00000000E+00  0.00000000E+00
  0.00000000E+00  0.00000000E+00  0.00000000E+00
  0.00000000E+00  0.00000000E+00  0.00000000E+00
  0.00000000E+00  0.00000000E+00  0.00000000E+00
  0.00000000E+00  0.00000000E+00  0.00000000E+00
  0.00000000E+00  0.00000000E+00  0.00000000E+00
  0.00000000E+00  0.00000000E+00  0.00000000E+00
  0.00000000E+00  0.00000000E+00  0.00000000E+00
  0.00000000E+00  0.00000000E+00  0.00000000E+00
  0.00000000E+00  0.00000000E+00  0.00000000E+00
  0.00000000E+00  0.00000000E+00  0.00000000E+00
  0.00000000E+00  0.00000000E+00  0.00000000E+00
  0.00000000E+00  0.00000000E+00  0.00000000E+00
  0.00000000E+00  0.00000000E+00  0.00000000E+00
  0.00000000E+00  0.00000000E+00  0.00000000E+00
  0.00000000E+00  0.00000000E+00  0.00000000E+00
  0.00000000E+00  0.00000000E+00  0.00000000E+00
  0.00000000E+00  0.00000000E+00  0.00000000E+00
  0.00000000E+00  0.00000000E+00  0.00000000E+00
  0.00000000E+00  0.00000000E+00  0.00000000E+00
  0.00000000E+00  0.00000000E+00  0.00000000E+00
