Sn+Ge
    1.000000000
   19.467599869    0.000000000    0.000000000
    6.489200115   18.354230881    0.000000000
    0.000000000    0.000000000   25.800943375
Sn  Ge 
144     192
Direct
    0.991010249    0.991010249    0.000000014
    0.866010189    0.866010129    0.088922322
    0.741010189    0.741009951    0.177844614
    0.616010189    0.616009831    0.266766906
    0.491010129    0.491009712    0.355689257
    0.366010129    0.366009593    0.444611579
    0.991010249    0.324343592    0.000000014
    0.866010189    0.199343473    0.088922322
    0.741010189    0.074343339    0.177844614
    0.616010189    0.949343204    0.266766906
    0.491010129    0.824343085    0.355689257
    0.366010129    0.699342966    0.444611579
    0.991010249    0.657676935    0.000000014
    0.866010189    0.532676816    0.088922322
    0.741010189    0.407676697    0.177844614
    0.616010189    0.282676548    0.266766906
    0.491010129    0.157676399    0.355689257
    0.366010129    0.032676294    0.444611579
    0.491010249    0.157676876    0.000000013
    0.366010219    0.032676764    0.088922322
    0.241010219    0.907676637    0.177844614
    0.116010167    0.782676458    0.266766936
    0.991010129    0.657676339    0.355689257
    0.866010129    0.532676280    0.444611549
    0.491010249    0.491010368    0.000000013
    0.366010219    0.366010189    0.088922322
    0.241010219    0.241010040    0.177844614
    0.116010167    0.116009913    0.266766936
    0.991010129    0.991009772    0.355689257
    0.866010129    0.866009712    0.444611549
    0.491010249    0.824343622    0.000000013
    0.366010219    0.699343503    0.088922322
    0.241010219    0.574343324    0.177844614
    0.116010167    0.449343175    0.266766936
    0.991010129    0.324343055    0.355689257
    0.866010129    0.199342936    0.444611549
    0.241010249    0.241010264    0.000000010
    0.116010226    0.116010129    0.088922322
    0.991010189    0.991010010    0.177844614
    0.866010189    0.866009831    0.266766906
    0.741010129    0.741009712    0.355689257
    0.616010129    0.616009593    0.444611579
    0.241010249    0.574343681    0.000000010
    0.116010226    0.449343532    0.088922322
    0.991010189    0.324343383    0.177844614
    0.866010189    0.199343234    0.266766906
    0.741010129    0.074343123    0.355689257
    0.616010129    0.949343026    0.444611579
    0.241010249    0.907676935    0.000000010
    0.116010226    0.782676756    0.088922322
    0.991010189    0.657676637    0.177844614
    0.866010189    0.532676518    0.266766906
    0.741010129    0.407676429    0.355689257
    0.616010129    0.282676280    0.444611579
    0.741010249    0.074343577    0.000000005
    0.616010249    0.949343443    0.088922322
    0.491010219    0.824343324    0.177844614
    0.366010159    0.699343204    0.266766936
    0.241010144    0.574343085    0.355689257
    0.116010129    0.449342906    0.444611549
    0.741010249    0.407676876    0.000000005
    0.616010249    0.282676727    0.088922322
    0.491010219    0.157676622    0.177844614
    0.366010159    0.032676473    0.266766936
    0.241010144    0.907676339    0.355689257
    0.116010129    0.782676220    0.444611549
    0.741010249    0.741010249    0.000000005
    0.616010249    0.616010129    0.088922322
    0.491010219    0.491010010    0.177844614
    0.366010159    0.366009861    0.266766936
    0.241010144    0.241009742    0.355689257
    0.116010129    0.116009608    0.444611549
    0.366010249    0.116010241    0.000000018
    0.241010219    0.991010129    0.088922322
    0.116010211    0.866009951    0.177844614
    0.991010129    0.741009831    0.266766936
    0.866010129    0.616009712    0.355689257
    0.741010129    0.491009593    0.444611549
    0.366010249    0.449343652    0.000000018
    0.241010219    0.324343443    0.088922322
    0.116010211    0.199343339    0.177844614
    0.991010129    0.074343182    0.266766936
    0.866010129    0.949343085    0.355689257
    0.741010129    0.824342906    0.444611549
    0.366010249    0.782676995    0.000000018
    0.241010219    0.657676816    0.088922322
    0.116010211    0.532676697    0.177844614
    0.991010129    0.407676578    0.266766936
    0.866010129    0.282676458    0.355689257
    0.741010129    0.157676324    0.444611549
    0.866010308    0.282676965    0.000000000
    0.741010249    0.157676771    0.088922314
    0.616010249    0.032676667    0.177844614
    0.491010189    0.907676518    0.266766936
    0.366010189    0.782676399    0.355689257
    0.241010174    0.657676220    0.444611549
    0.866010308    0.616010368    0.000000000
    0.741010249    0.491010159    0.088922314
    0.616010249    0.366010010    0.177844614
    0.491010189    0.241009891    0.266766936
    0.366010189    0.116009764    0.355689257
    0.241010174    0.991009653    0.444611549
    0.866010308    0.949343622    0.000000000
    0.741010249    0.824343622    0.088922314
    0.616010249    0.699343443    0.177844614
    0.491010189    0.574343264    0.266766936
    0.366010189    0.449343115    0.355689257
    0.241010174    0.324343026    0.444611549
    0.116010241    0.199343547    0.000000014
    0.991010249    0.074343421    0.088922322
    0.866010189    0.949343324    0.177844614
    0.741010129    0.824343145    0.266766936
    0.616010129    0.699343026    0.355689257
    0.491010129    0.574342966    0.444611549
    0.116010241    0.532676935    0.000000014
    0.991010249    0.407676727    0.088922322
    0.866010189    0.282676637    0.177844614
    0.741010129    0.157676473    0.266766936
    0.616010129    0.032676354    0.355689257
    0.491010129    0.907676220    0.444611549
    0.116010241    0.866010368    0.000000014
    0.991010249    0.741010189    0.088922322
    0.866010189    0.616010070    0.177844614
    0.741010129    0.491009891    0.266766936
    0.616010129    0.366009802    0.355689257
    0.491010129    0.241009653    0.444611549
    0.616010249    0.032676876    0.000000022
    0.491010219    0.907676756    0.088922322
    0.366010219    0.782676637    0.177844614
    0.241010159    0.657676458    0.266766936
    0.116010137    0.532676339    0.355689257
    0.991010129    0.407676280    0.444611549
    0.616010249    0.366010308    0.000000022
    0.491010219    0.241010129    0.088922322
    0.366010219    0.116010010    0.177844614
    0.241010159    0.991009831    0.266766936
    0.116010137    0.866009712    0.355689257
    0.991010129    0.741009593    0.444611549
    0.616010249    0.699343562    0.000000022
    0.491010219    0.574343324    0.088922322
    0.366010219    0.449343294    0.177844614
    0.241010159    0.324343145    0.266766936
    0.116010137    0.199343026    0.355689257
    0.991010129    0.074342884    0.444611549
    0.057387471    0.209505677    0.528481960
    0.869887590    0.772005677    0.606011569
    0.682387590    0.334505707    0.683541059
    0.494887590    0.897005677    0.761070490
    0.307387590    0.459505767    0.838600099
    0.119887523    0.022005677    0.916129470
    0.057387590    0.709505677    0.528481960
    0.869887531    0.272005677    0.606011569
    0.682387590    0.834505677    0.683541059
    0.494887590    0.397005707    0.761070490
    0.307387590    0.959505796    0.838600099
    0.119887464    0.522005677    0.916129589
    0.307387561    0.459505677    0.528481960
    0.119887561    0.022005677    0.606011569
    0.932387590    0.584505677    0.683541059
    0.744887590    0.147005677    0.761070490
    0.557387590    0.709505796    0.838600099
    0.369887531    0.272005528    0.916129589
    0.557387531    0.209505677    0.528481960
    0.369887561    0.772005677    0.606011569
    0.182387590    0.334505647    0.683541059
    0.994887531    0.897005796    0.761070490
    0.807387650    0.459505767    0.838600099
    0.619887471    0.022005677    0.916129589
    0.307387561    0.959505677    0.528481960
    0.119887561    0.522005677    0.606011569
    0.932387590    0.084505677    0.683541059
    0.744887590    0.647005677    0.761070490
    0.557387531    0.209505796    0.838600099
    0.369887471    0.772005558    0.916129589
    0.557387531    0.709505677    0.528481960
    0.369887561    0.272005707    0.606011569
    0.182387561    0.834505677    0.683541059
    0.994887590    0.397005707    0.761070490
    0.807387590    0.959505796    0.838600099
    0.619887471    0.522005558    0.916129589
    0.807387590    0.459505677    0.528481960
    0.619887590    0.022005677    0.606011569
    0.432387531    0.584505796    0.683541059
    0.244887531    0.147005796    0.761070490
    0.057387590    0.709505677    0.838600099
    0.869887471    0.272005647    0.916129589
    0.807387590    0.959505677    0.528481960
    0.619887531    0.522005677    0.606011510
    0.432387561    0.084505677    0.683541059
    0.244887531    0.647005677    0.761070490
    0.057387471    0.209505796    0.838600099
    0.869887471    0.772005558    0.916129529
    0.182387561    0.334505677    0.528481960
    0.994887590    0.897005677    0.606011569
    0.807387590    0.459505707    0.683541059
    0.619887590    0.022005677    0.761070490
    0.432387531    0.584505796    0.838600099
    0.244887531    0.147005677    0.916129589
    0.182387546    0.834505677    0.528481960
    0.994887531    0.397005677    0.606011569
    0.807387590    0.959505677    0.683541059
    0.619887590    0.522005677    0.761070490
    0.432387531    0.084505796    0.838600099
    0.244887471    0.647005558    0.916129529
    0.432387561    0.584505677    0.528481960
    0.244887561    0.147005677    0.606011569
    0.057387590    0.709505677    0.683541059
    0.869887590    0.272005707    0.761070490
    0.682387590    0.834505796    0.838600099
    0.494887471    0.397005528    0.916129529
    0.682387590    0.334505677    0.528481960
    0.494887561    0.897005677    0.606011569
    0.307387590    0.459505707    0.683541059
    0.119887531    0.022005796    0.761070490
    0.932387590    0.584505677    0.838600099
    0.744887471    0.147005677    0.916129529
    0.432387590    0.084505677    0.528481960
    0.244887590    0.647005737    0.606011569
    0.057387590    0.209505677    0.683541059
    0.869887590    0.772005796    0.761070490
    0.682387590    0.334505767    0.838600099
    0.494887471    0.897005677    0.916129589
    0.682387590    0.834505677    0.528481960
    0.494887620    0.397005677    0.606011569
    0.307387590    0.959505677    0.683541059
    0.119887605    0.522005677    0.761070490
    0.932387590    0.084505796    0.838600099
    0.744887471    0.647005558    0.916129589
    0.932387650    0.584505677    0.528481960
    0.744887650    0.147005677    0.606011569
    0.557387650    0.709505677    0.683541059
    0.369887650    0.272005707    0.761070490
    0.182387635    0.834505677    0.838600099
    0.994887471    0.397005528    0.916129589
    0.932387590    0.084505677    0.528481960
    0.744887650    0.647005737    0.606011569
    0.557387590    0.209505677    0.683541059
    0.369887620    0.772005796    0.761070490
    0.182387650    0.334505707    0.838600099
    0.994887531    0.897005558    0.916129529
    0.182387561    0.459505677    0.528481960
    0.994887590    0.022005677    0.606011569
    0.807387590    0.584505677    0.683541059
    0.619887590    0.147005677    0.761070549
    0.432387531    0.709505677    0.838600099
    0.244887471    0.272005528    0.916129589
    0.432387561    0.209505677    0.528481960
    0.244887561    0.772005677    0.606011569
    0.057387590    0.334505707    0.683541059
    0.869887590    0.897005677    0.761070549
    0.682387531    0.459505767    0.838600099
    0.494887412    0.022005677    0.916129589
    0.182387576    0.959505677    0.528481960
    0.994887590    0.522005677    0.606011569
    0.807387590    0.084505677    0.683541059
    0.619887590    0.647005677    0.761070490
    0.432387590    0.209505796    0.838600099
    0.244887531    0.772005677    0.916129589
    0.432387531    0.709505677    0.528481960
    0.244887531    0.272005647    0.606011569
    0.057387471    0.834505677    0.683541059
    0.869887531    0.397005647    0.761070490
    0.682387590    0.959505677    0.838600099
    0.494887531    0.522005558    0.916129470
    0.682387590    0.459505677    0.528481960
    0.494887561    0.022005677    0.606011569
    0.307387590    0.584505677    0.683541059
    0.119887613    0.147005677    0.761070490
    0.932387590    0.709505796    0.838600099
    0.744887471    0.272005647    0.916129589
    0.932387650    0.209505677    0.528481960
    0.744887650    0.772005677    0.606011569
    0.557387650    0.334505707    0.683541059
    0.369887561    0.897005796    0.761070490
    0.182387620    0.459505767    0.838600099
    0.994887590    0.022005677    0.916129589
    0.682387590    0.959505677    0.528481960
    0.494887561    0.522005677    0.606011569
    0.307387561    0.084505677    0.683541059
    0.119887590    0.647005677    0.761070490
    0.932387590    0.209505677    0.838600099
    0.744887471    0.772005558    0.916129589
    0.932387590    0.709505677    0.528481960
    0.744887650    0.272005647    0.606011569
    0.557387590    0.834505677    0.683541059
    0.369887620    0.397005707    0.761070490
    0.182387620    0.959505677    0.838600099
    0.994887531    0.522005558    0.916129589
    0.057387471    0.334505677    0.528481960
    0.869887531    0.897005677    0.606011569
    0.682387590    0.459505647    0.683541059
    0.494887590    0.022005677    0.761070549
    0.307387650    0.584505796    0.838600039
    0.119887464    0.147005677    0.916129529
    0.057387590    0.834505677    0.528481960
    0.869887531    0.397005677    0.606011569
    0.682387590    0.959505677    0.683541059
    0.494887590    0.522005677    0.761070490
    0.307387590    0.084505796    0.838600099
    0.119887523    0.647005677    0.916129470
    0.307387561    0.584505677    0.528481960
    0.119887561    0.147005677    0.606011569
    0.932387590    0.709505677    0.683541059
    0.744887590    0.272005707    0.761070490
    0.557387590    0.834505677    0.838600099
    0.369887531    0.397005647    0.916129470
    0.557387531    0.334505677    0.528481960
    0.369887561    0.897005677    0.606011569
    0.182387561    0.459505707    0.683541059
    0.994887650    0.022005677    0.761070490
    0.807387590    0.584505796    0.838600099
    0.619887471    0.147005677    0.916129470
    0.307387561    0.084505677    0.528481960
    0.119887531    0.647005677    0.606011569
    0.932387531    0.209505677    0.683541059
    0.744887590    0.772005677    0.761070490
    0.557387531    0.334505707    0.838600099
    0.369887531    0.897005558    0.916129529
    0.557387531    0.834505677    0.528481960
    0.369887561    0.397005677    0.606011569
    0.182387561    0.959505677    0.683541059
    0.994887590    0.522005677    0.761070490
    0.807387590    0.084505677    0.838600099
    0.619887531    0.647005558    0.916129529
    0.807387590    0.584505677    0.528481960
    0.619887531    0.147005677    0.606011569
    0.432387561    0.709505677    0.683541059
    0.244887590    0.272005707    0.761070490
    0.057387471    0.834505796    0.838600099
    0.869887471    0.397005647    0.916129529
    0.807387531    0.084505677    0.528482020
    0.619887531    0.647005677    0.606011569
    0.432387531    0.209505677    0.683541059
    0.244887531    0.772005677    0.761070490
    0.057387471    0.334505647    0.838600099
    0.869887471    0.897005558    0.916129529
