Si+Sn
    1.000000000
   13.303179741    0.000000000    0.000000000
    0.000000000   18.813535690    0.000000000
    0.000000000    0.000000000   21.646673203
Si  Sn 
144     72
Direct
    0.978517294    0.499999970    0.000000002
    0.728517175    0.499999940    0.088704132
    0.478517115    0.499999881    0.177408233
    0.228517056    0.499999791    0.266112298
    0.978516936    0.499999732    0.354816407
    0.728516817    0.499999702    0.443520576
    0.311850607    0.666666687    0.000000001
    0.061850507    0.666666627    0.088704117
    0.811850429    0.666666567    0.177408218
    0.561850369    0.666666508    0.266112357
    0.311850190    0.666666448    0.354816467
    0.061850071    0.666666389    0.443520576
    0.645183980    0.833333433    0.000000000
    0.395183891    0.833333373    0.088704132
    0.145183742    0.833333313    0.177408233
    0.895183682    0.833333194    0.266112298
    0.645183563    0.833333135    0.354816437
    0.395183444    0.833333075    0.443520546
    0.978517294    0.000000000    0.000000011
    0.728517175    0.999999940    0.088704117
    0.478517115    0.999999881    0.177408218
    0.228516996    0.999999821    0.266112298
    0.978516936    0.999999702    0.354816437
    0.728516817    0.999999702    0.443520546
    0.311850607    0.166666657    0.000000011
    0.061850544    0.166666612    0.088704117
    0.811850429    0.166666538    0.177408218
    0.561850429    0.166666478    0.266112357
    0.311850309    0.166666418    0.354816437
    0.061850190    0.166666344    0.443520486
    0.645183980    0.333333343    0.000000010
    0.395183831    0.333333254    0.088704117
    0.145183802    0.333333194    0.177408218
    0.895183742    0.333333164    0.266112357
    0.645183563    0.333333075    0.354816437
    0.395183504    0.333332986    0.443520486
    0.145183966    0.833333373    0.000000008
    0.895183802    0.833333254    0.088704109
    0.645183802    0.833333194    0.177408233
    0.395183742    0.833333135    0.266112298
    0.145183563    0.833333135    0.354816467
    0.895183444    0.833333075    0.443520546
    0.145183936    0.333333313    0.000000010
    0.895183861    0.333333284    0.088704117
    0.645183802    0.333333194    0.177408218
    0.395183742    0.333333135    0.266112298
    0.145183623    0.333333075    0.354816437
    0.895183444    0.333332986    0.443520486
    0.478517324    0.500000000    0.000000010
    0.228517190    0.499999911    0.088704117
    0.978517115    0.499999881    0.177408218
    0.728517056    0.499999821    0.266112298
    0.478516936    0.499999732    0.354816437
    0.228516817    0.499999672    0.443520486
    0.811850667    0.666666746    0.000000010
    0.561850607    0.666666687    0.088704109
    0.311850488    0.666666567    0.177408233
    0.061850403    0.666666508    0.266112298
    0.811850250    0.666666448    0.354816437
    0.561850131    0.666666389    0.443520576
    0.478517294    1.000000000    0.000000013
    0.228517205    0.999999940    0.088704117
    0.978517115    0.999999881    0.177408218
    0.728517056    0.999999821    0.266112298
    0.478516936    0.999999762    0.354816437
    0.228516817    0.999999642    0.443520546
    0.811850607    0.166666687    0.000000013
    0.561850488    0.166666597    0.088704117
    0.311850458    0.166666538    0.177408218
    0.061850403    0.166666478    0.266112298
    0.811850250    0.166666403    0.354816437
    0.561850190    0.166666344    0.443520546
    0.145183980    0.708333373    0.000000005
    0.895183861    0.708333313    0.088704117
    0.645183802    0.708333254    0.177408218
    0.395183682    0.708333194    0.266112357
    0.145183563    0.708333135    0.354816467
    0.895183444    0.708333075    0.443520576
    0.478517294    0.875000119    0.000000004
    0.228517160    0.875000000    0.088704132
    0.978517115    0.875000000    0.177408233
    0.728517056    0.874999881    0.266112298
    0.478516877    0.874999821    0.354816437
    0.228516817    0.874999762    0.443520546
    0.145183951    0.208333343    0.000000011
    0.895183861    0.208333284    0.088704117
    0.645183802    0.208333224    0.177408233
    0.395183682    0.208333150    0.266112298
    0.145183563    0.208333075    0.354816437
    0.895183444    0.208333030    0.443520546
    0.478517324    0.375000000    0.000000011
    0.228517205    0.374999940    0.088704124
    0.978517115    0.374999881    0.177408218
    0.728517056    0.374999821    0.266112298
    0.478516936    0.374999732    0.354816437
    0.228516817    0.374999702    0.443520546
    0.811850667    0.541666687    0.000000011
    0.561850548    0.541666627    0.088704117
    0.311850458    0.541666567    0.177408233
    0.061850410    0.541666508    0.266112298
    0.811850309    0.541666448    0.354816437
    0.561850190    0.541666389    0.443520546
    0.811850667    0.041666683    0.000000009
    0.561850548    0.041666586    0.088704124
    0.311850488    0.041666534    0.177408218
    0.061850410    0.041666467    0.266112357
    0.811850309    0.041666392    0.354816437
    0.561850190    0.041666318    0.443520546
    0.978517294    0.875000060    0.000000012
    0.728517175    0.875000000    0.088704109
    0.478517115    0.874999881    0.177408248
    0.228517056    0.874999821    0.266112298
    0.978516936    0.874999821    0.354816467
    0.728516817    0.874999702    0.443520546
    0.978517294    0.375000000    0.000000006
    0.728517175    0.374999940    0.088704124
    0.478517115    0.374999911    0.177408233
    0.228517056    0.374999791    0.266112298
    0.978516936    0.374999762    0.354816467
    0.728516817    0.374999732    0.443520576
    0.311850667    0.541666687    0.000000006
    0.061850529    0.541666627    0.088704124
    0.811850429    0.541666567    0.177408233
    0.561850429    0.541666508    0.266112298
    0.311850250    0.541666448    0.354816467
    0.061850071    0.541666389    0.443520576
    0.645183980    0.708333313    0.000000007
    0.395183861    0.708333254    0.088704124
    0.145183817    0.708333194    0.177408218
    0.895183682    0.708333135    0.266112357
    0.645183563    0.708333075    0.354816437
    0.395183504    0.708332956    0.443520546
    0.311850667    0.041666657    0.000000012
    0.061850540    0.041666586    0.088704117
    0.811850488    0.041666519    0.177408218
    0.561850429    0.041666452    0.266112298
    0.311850309    0.041666407    0.354816437
    0.061850131    0.041666333    0.443520546
    0.645184040    0.208333343    0.000000012
    0.395183891    0.208333254    0.088704117
    0.145183831    0.208333194    0.177408218
    0.895183742    0.208333135    0.266112298
    0.645183623    0.208333075    0.354816437
    0.395183504    0.208332986    0.443520546
    0.734976888    0.773618579    0.534398913
    0.484976888    0.773618579    0.684288025
    0.234977007    0.773618579    0.834177017
    0.734976888    0.440285206    0.534398913
    0.484976888    0.440285206    0.684288025
    0.234977007    0.440285206    0.834177017
    0.734976888    0.106951870    0.534398913
    0.484976888    0.106951870    0.684288025
    0.234977007    0.106951870    0.834177017
    0.234976888    0.773618579    0.534398913
    0.984976888    0.773618579    0.684288025
    0.734977007    0.773618579    0.834177017
    0.234976888    0.440285206    0.534398913
    0.984976888    0.440285206    0.684288025
    0.734977007    0.440285206    0.834177017
    0.234976888    0.106951870    0.534398913
    0.984976888    0.106951870    0.684288025
    0.734977007    0.106951870    0.834177017
    0.859976888    0.023618579    0.609343529
    0.609977007    0.023618579    0.759232640
    0.359976888    0.023618579    0.909121752
    0.859976888    0.690285325    0.609343529
    0.609977007    0.690285325    0.759232640
    0.359976888    0.690285325    0.909121752
    0.859976888    0.356951863    0.609343529
    0.609977007    0.356951863    0.759232640
    0.359976888    0.356951863    0.909121752
    0.359976888    0.023618579    0.609343529
    0.109977007    0.023618579    0.759232640
    0.859976947    0.023618579    0.909121752
    0.359976888    0.690285325    0.609343529
    0.109977007    0.690285325    0.759232640
    0.859976947    0.690285325    0.909121752
    0.359976888    0.356951863    0.609343529
    0.109977007    0.356951863    0.759232640
    0.859976947    0.356951863    0.909121752
    0.984976888    0.940285206    0.534398913
    0.734976888    0.940285206    0.684288025
    0.484977007    0.940285206    0.834177017
    0.984976888    0.606951892    0.534398913
    0.734976888    0.606951892    0.684288025
    0.484977007    0.606951892    0.834177017
    0.984976888    0.273618549    0.534398913
    0.734976888    0.273618549    0.684288025
    0.484977007    0.273618549    0.834177017
    0.484976888    0.940285206    0.534398913
    0.234976888    0.940285206    0.684288025
    0.984977007    0.940285206    0.834177017
    0.484976888    0.606951892    0.534398913
    0.234976888    0.606951892    0.684288025
    0.984977007    0.606951892    0.834177017
    0.484976888    0.273618549    0.534398913
    0.234976888    0.273618549    0.684288025
    0.984977007    0.273618549    0.834177017
    0.109976888    0.856951952    0.609343529
    0.859976947    0.856951952    0.759232640
    0.609977007    0.856951952    0.909121752
    0.109976888    0.523618579    0.609343529
    0.859976947    0.523618579    0.759232640
    0.609977007    0.523618579    0.909121752
    0.109976888    0.190285206    0.609343529
    0.859976947    0.190285206    0.759232640
    0.609977007    0.190285206    0.909121752
    0.609976888    0.856951952    0.609343529
    0.359977007    0.856951952    0.759232640
    0.109976888    0.856951952    0.909121752
    0.609976888    0.523618579    0.609343529
    0.359977007    0.523618579    0.759232640
    0.109976888    0.523618579    0.909121752
    0.609976888    0.190285206    0.609343529
    0.359977007    0.190285206    0.759232640
    0.109976888    0.190285206    0.909121752
