C+Si
    1.000000000
   13.345744133    0.000000000    0.000000000
    6.672872066   11.557753563    0.000000000
    0.000000000    0.000000590   21.729431152
C   Si 
308     72
Direct
    0.042587280    0.760646462    0.473848939
    0.994968414    0.998742104    0.000000043
    0.804492176    0.951122999    0.094769821
    0.614015937    0.903503835    0.189539596
    0.423539698    0.855884671    0.284309387
    0.233063519    0.808265567    0.379079133
    0.185444415    0.046360724    0.473848939
    0.137825578    0.284456402    0.000000040
    0.947349310    0.236837253    0.094769835
    0.756873131    0.189218119    0.189539582
    0.566396832    0.141598985    0.284309387
    0.375920653    0.093979850    0.379079163
    0.328301549    0.332075000    0.473848939
    0.280682713    0.570170701    0.000000044
    0.090206459    0.522551537    0.094769835
    0.899730265    0.474932402    0.189539596
    0.709253907    0.427313268    0.284309387
    0.518777788    0.379694134    0.379079133
    0.614015818    0.903503597    0.473848939
    0.566396952    0.141599253    0.000000044
    0.375920743    0.093980111    0.094769813
    0.185444534    0.046360992    0.189539582
    0.994968235    0.998741806    0.284309387
    0.804492056    0.951122701    0.379079133
    0.471158624    0.617789209    0.473848939
    0.423539817    0.855884910    0.000000023
    0.233063608    0.808265805    0.094769813
    0.042587370    0.760646582    0.189539582
    0.852111220    0.713027477    0.284309298
    0.661634922    0.665408373    0.379079163
    0.756872952    0.189217836    0.473848939
    0.709254086    0.427313507    0.000000057
    0.518777907    0.379694372    0.094769813
    0.328301668    0.332075238    0.189539582
    0.137825489    0.284456104    0.284309328
    0.947349191    0.236836955    0.379079163
    0.899730027    0.474932104    0.473848939
    0.852111220    0.713027775    0.000000019
    0.661634982    0.665408671    0.094769821
    0.471158743    0.617789507    0.189539582
    0.280682445    0.570170403    0.284309387
    0.090206265    0.522551298    0.379079133
    0.090206519    0.522551596    0.023692474
    0.899730265    0.474932492    0.118462257
    0.709254026    0.427313358    0.213232040
    0.518777788    0.379694223    0.308001846
    0.328301430    0.332075030    0.402771652
    0.375920773    0.093980208    0.023692474
    0.185444549    0.046361066    0.118462257
    0.994968355    0.998741925    0.213232026
    0.804492056    0.951122820    0.308001816
    0.614015698    0.903503656    0.402771652
    0.233063638    0.808265924    0.023692487
    0.042587414    0.760646760    0.118462250
    0.852111220    0.713027596    0.213232040
    0.661634922    0.665408492    0.308001816
    0.471158624    0.617789328    0.402771652
    0.518777907    0.379694462    0.023692468
    0.328301698    0.332075357    0.118462265
    0.137825474    0.284456223    0.213232040
    0.947349191    0.236837074    0.308001816
    0.756872892    0.189217895    0.402771652
    0.661635041    0.665408731    0.023692481
    0.471158832    0.617789567    0.118462287
    0.280682594    0.570170462    0.213232040
    0.090206325    0.522551358    0.308001816
    0.899730027    0.474932194    0.402771682
    0.947349370    0.236837298    0.023692491
    0.756873131    0.189218178    0.118462265
    0.566396952    0.141599044    0.213232040
    0.375920653    0.093979895    0.308001846
    0.185444355    0.046360735    0.402771652
    0.804492176    0.951122999    0.023692477
    0.614015937    0.903503835    0.118462257
    0.423539668    0.855884731    0.213232055
    0.233063459    0.808265626    0.308001816
    0.042587217    0.760646462    0.402771622
    0.114015818    0.903503537    0.473848969
    0.066396996    0.141599238    0.000000046
    0.875920773    0.093980089    0.094769821
    0.685444534    0.046360970    0.189539582
    0.494968235    0.998741806    0.284309387
    0.304492056    0.951122701    0.379079163
    0.256872952    0.189217865    0.473848939
    0.209254131    0.427313536    0.000000046
    0.018777892    0.379694432    0.094769835
    0.828301668    0.332075268    0.189539582
    0.637825370    0.284456134    0.284309387
    0.447349191    0.236837029    0.379079133
    0.542587221    0.760646462    0.473848939
    0.494968385    0.998742104    0.000000059
    0.304492146    0.951122999    0.094769821
    0.114015944    0.903503835    0.189539596
    0.923539639    0.855884671    0.284309417
    0.733063459    0.808265567    0.379079133
    0.399730027    0.474932104    0.473848969
    0.352111220    0.713027775    0.000000055
    0.161635011    0.665408671    0.094769835
    0.971158743    0.617789567    0.189539596
    0.780682564    0.570170403    0.284309328
    0.590206265    0.522551239    0.379079163
    0.685444355    0.046360683    0.473848939
    0.637825549    0.284456372    0.000000029
    0.447349370    0.236837238    0.094769806
    0.256873101    0.189218104    0.189539582
    0.066396952    0.141598985    0.284309298
    0.875920653    0.093979828    0.379079133
    0.828301549    0.332075000    0.473848909
    0.780682743    0.570170701    0.000000000
    0.590206504    0.522551537    0.094769806
    0.399730265    0.474932402    0.189539567
    0.209253982    0.427313238    0.284309387
    0.018777804    0.379694134    0.379079133
    0.971158743    0.617789209    0.473848939
    0.923539877    0.855884969    0.000000029
    0.733063638    0.808265746    0.094769806
    0.542587459    0.760646641    0.189539582
    0.352111131    0.713027537    0.284309387
    0.161634952    0.665408432    0.379079133
    0.018777953    0.379694432    0.023692466
    0.828301668    0.332075328    0.118462265
    0.637825489    0.284456164    0.213232040
    0.447349250    0.236837044    0.308001816
    0.256873012    0.189217895    0.402771592
    0.161635101    0.665408731    0.023692459
    0.971158803    0.617789567    0.118462242
    0.780682623    0.570170462    0.213232026
    0.590206385    0.522551298    0.308001757
    0.399730146    0.474932194    0.402771592
    0.447349340    0.236837283    0.023692453
    0.256873101    0.189218163    0.118462257
    0.066396870    0.141599059    0.213232026
    0.875920653    0.093979932    0.308001816
    0.685444474    0.046360780    0.402771592
    0.304492205    0.951123059    0.023692489
    0.114015959    0.903503895    0.118462265
    0.923539758    0.855884790    0.213232026
    0.733063519    0.808265626    0.308001816
    0.542587280    0.760646522    0.402771622
    0.590206444    0.522551656    0.023692489
    0.399730235    0.474932522    0.118462265
    0.209254012    0.427313417    0.213232026
    0.018777769    0.379694253    0.308001816
    0.828301549    0.332075119    0.402771622
    0.875920832    0.093980193    0.023692431
    0.685444593    0.046361092    0.118462242
    0.494968385    0.998741925    0.213232040
    0.304492146    0.951122820    0.308001757
    0.114015877    0.903503656    0.402771592
    0.733063638    0.808265805    0.023692450
    0.542587399    0.760646701    0.118462235
    0.352111131    0.713027596    0.213232026
    0.161634907    0.665408432    0.308001757
    0.971158683    0.617789328    0.402771622
    0.114015818    0.403503537    0.473848939
    0.066396996    0.641599238    0.000000046
    0.875920773    0.593980074    0.094769813
    0.685444593    0.546360970    0.189539582
    0.494968235    0.498741835    0.284309387
    0.304492116    0.451122731    0.379079133
    0.399730086    0.974932134    0.473848939
    0.352111250    0.213027805    0.000000059
    0.161635026    0.165408671    0.094769821
    0.971158803    0.117789537    0.189539596
    0.780682504    0.070170380    0.284309417
    0.590206385    0.022551261    0.379079133
    0.256872952    0.689217806    0.473848939
    0.209254161    0.927313507    0.000000029
    0.018777944    0.879694343    0.094769791
    0.828301668    0.832075238    0.189539582
    0.637825489    0.784456074    0.284309298
    0.447349191    0.736836910    0.379079133
    0.542587161    0.260646343    0.473848939
    0.494968385    0.498742044    0.000000038
    0.304492146    0.451122910    0.094769798
    0.114015907    0.403503776    0.189539582
    0.923539758    0.355884671    0.284309298
    0.733063459    0.308265477    0.379079163
    0.828301430    0.832075000    0.473848939
    0.780682623    0.070170648    0.000000038
    0.590206444    0.022551522    0.094769798
    0.399730206    0.974932373    0.189539596
    0.209254012    0.927313268    0.284309298
    0.018777698    0.879694104    0.379079163
    0.685444415    0.546360731    0.473848909
    0.637825608    0.784456432    0.000000033
    0.447349340    0.736837268    0.094769806
    0.256873131    0.689218163    0.189539567
    0.066396832    0.641599000    0.284309387
    0.875920653    0.593979895    0.379079133
    0.971158683    0.117789298    0.473848939
    0.923539877    0.355884969    0.000000059
    0.733063579    0.308265835    0.094769835
    0.542587399    0.260646671    0.189539626
    0.352111071    0.213027552    0.284309417
    0.161634907    0.165408418    0.379079163
    0.161635071    0.165408760    0.023692466
    0.971158803    0.117789626    0.118462257
    0.780682623    0.070170492    0.213232026
    0.590206385    0.022551373    0.308001757
    0.399730146    0.974932253    0.402771592
    0.018777946    0.879694462    0.023692459
    0.828301668    0.832075298    0.118462257
    0.637825489    0.784456193    0.213232040
    0.447349250    0.736837029    0.308001816
    0.256873012    0.689217925    0.402771592
    0.304492235    0.451123029    0.023692459
    0.114015974    0.403503925    0.118462257
    0.923539758    0.355884790    0.213232040
    0.733063579    0.308265656    0.308001816
    0.542587280    0.260646522    0.402771592
    0.590206504    0.022551641    0.023692472
    0.399730206    0.974932492    0.118462257
    0.209254041    0.927313328    0.213232026
    0.018777780    0.879694223    0.308001816
    0.828301549    0.832075119    0.402771592
    0.447349340    0.736837327    0.023692453
    0.256873101    0.689218223    0.118462265
    0.066396877    0.641599059    0.213232026
    0.875920653    0.593979895    0.308001757
    0.685444355    0.546360791    0.402771622
    0.733063638    0.308265895    0.023692453
    0.542587340    0.260646790    0.118462265
    0.352111191    0.213027656    0.213232026
    0.161634922    0.165408537    0.308001757
    0.971158683    0.117789388    0.402771622
    0.875920653    0.593980193    0.023692477
    0.685444415    0.546361089    0.118462257
    0.494968206    0.498741925    0.213232055
    0.304491967    0.451122791    0.308001816
    0.114015721    0.403503686    0.402771592
    0.042587280    0.260646403    0.473848969
    0.994968414    0.498742074    0.000000038
    0.804492176    0.451122910    0.094769821
    0.614015996    0.403503805    0.189539582
    0.423539698    0.355884641    0.284309417
    0.233063519    0.308265537    0.379079133
    0.328301549    0.832075000    0.473848939
    0.280682713    0.070170686    0.000000040
    0.090206467    0.022551546    0.094769821
    0.899730265    0.974932432    0.189539582
    0.709253967    0.927313268    0.284309387
    0.518777728    0.879694164    0.379079133
    0.185444355    0.546360612    0.473848939
    0.137825549    0.784456313    0.000000040
    0.947349310    0.736837208    0.094769798
    0.756873071    0.689218044    0.189539582
    0.566396952    0.641598880    0.284309328
    0.375920594    0.593979776    0.379079163
    0.471158624    0.117789231    0.473848939
    0.423539847    0.355884910    0.000000028
    0.233063623    0.308265805    0.094769791
    0.042587381    0.260646641    0.189539567
    0.852111220    0.213027537    0.284309298
    0.661634922    0.165408358    0.379079133
    0.614015818    0.403503567    0.473848909
    0.566397011    0.641599238    0.000000031
    0.375920743    0.593980134    0.094769806
    0.185444549    0.546360970    0.189539567
    0.994968235    0.498741835    0.284309387
    0.804492056    0.451122701    0.379079133
    0.899730027    0.974932134    0.473848939
    0.852111220    0.213027805    0.000000023
    0.661634982    0.165408671    0.094769798
    0.471158803    0.117789552    0.189539582
    0.280682445    0.070170395    0.284309387
    0.090206288    0.022551289    0.379079163
    0.756872892    0.689217806    0.473848969
    0.709254086    0.927313507    0.000000053
    0.518777847    0.879694402    0.094769821
    0.328301609    0.832075179    0.189539611
    0.137825325    0.784456074    0.284309417
    0.947349131    0.736836970    0.379079133
    0.090206526    0.022551643    0.023692491
    0.899730325    0.974932492    0.118462265
    0.709254086    0.927313387    0.213232040
    0.518777847    0.879694223    0.308001816
    0.328301489    0.832075059    0.402771682
    0.233063683    0.308265865    0.023692474
    0.042587440    0.260646760    0.118462279
    0.852111220    0.213027641    0.213232055
    0.661634922    0.165408492    0.308001846
    0.471158624    0.117789328    0.402771682
    0.375920773    0.593980193    0.023692487
    0.185444534    0.546361089    0.118462265
    0.994968295    0.498741955    0.213232055
    0.804492056    0.451122791    0.308001846
    0.614015698    0.403503656    0.402771652
    0.661635041    0.165408745    0.023692468
    0.471158832    0.117789648    0.118462265
    0.280682623    0.070170492    0.213232055
    0.090206347    0.022551356    0.308001846
    0.899730027    0.974932194    0.402771652
    0.518777907    0.879694462    0.023692481
    0.328301668    0.832075298    0.118462287
    0.137825444    0.784456193    0.213232040
    0.947349191    0.736837089    0.308001846
    0.756872892    0.689217925    0.402771682
    0.804492176    0.451123029    0.023692481
    0.614015937    0.403503925    0.118462250
    0.423539728    0.355884731    0.213232011
    0.233063444    0.308265597    0.308001816
    0.042587135    0.260646462    0.402771652
    0.947349489    0.736837327    0.023692481
    0.756873250    0.689218223    0.118462265
    0.566397011    0.641599059    0.213232040
    0.375920713    0.593979895    0.308001846
    0.185444474    0.546360731    0.402771682
    0.090909094    0.863312006    0.863188326
    0.090909094    0.196645245    0.574585319
    0.090909094    0.529978633    0.718886793
    0.424242437    0.196645319    0.863188326
    0.424242437    0.529978573    0.574585319
    0.424242437    0.863312006    0.718886793
    0.757575750    0.529978573    0.863188267
    0.757575750    0.863311946    0.574585319
    0.757575750    0.196645319    0.718886793
    0.090909094    0.196645439    0.899263740
    0.090909094    0.529978633    0.610660672
    0.090909094    0.863312006    0.754962146
    0.424242437    0.529978693    0.899263680
    0.424242437    0.863312006    0.610660672
    0.424242437    0.196645319    0.754962087
    0.757575870    0.863312185    0.899263740
    0.757575870    0.196645319    0.610660672
    0.757575870    0.529978693    0.754962146
    0.257575750    0.029978633    0.863188267
    0.257575750    0.363311887    0.574585319
    0.257575750    0.696645319    0.718886793
    0.590909123    0.363311946    0.863188267
    0.590909123    0.696645260    0.574585319
    0.590909123    0.029978752    0.718886793
    0.924242496    0.696645439    0.863188326
    0.924242496    0.029978633    0.574585319
    0.924242496    0.363311946    0.718886733
    0.257575780    0.363311946    0.899263620
    0.257575780    0.696645260    0.610660672
    0.257575780    0.029978752    0.754962087
    0.590909123    0.696645319    0.899263620
    0.590909123    0.029978514    0.610660672
    0.590909123    0.363311946    0.754962087
    0.924242377    0.029978633    0.899263620
    0.924242377    0.363311887    0.610660672
    0.924242377    0.696645319    0.754962146
    0.090909094    0.363311946    0.863188267
    0.090909094    0.696645260    0.574585319
    0.090909094    0.029978633    0.718886793
    0.424242437    0.696645439    0.863188326
    0.424242437    0.029978752    0.574585319
    0.424242437    0.363312066    0.718886852
    0.757575750    0.029978633    0.863188267
    0.757575750    0.363311887    0.574585319
    0.757575750    0.696645319    0.718886793
    0.090909109    0.696645439    0.899263680
    0.090909109    0.029978633    0.610660672
    0.090909109    0.363312066    0.754962087
    0.424242467    0.029978633    0.899263680
    0.424242467    0.363311887    0.610660672
    0.424242467    0.696645260    0.754962087
    0.757575870    0.363312066    0.899263680
    0.757575870    0.696645260    0.610660672
    0.757575870    0.029978752    0.754962087
    0.257575750    0.529978573    0.863188267
    0.257575750    0.863311946    0.574585319
    0.257575750    0.196645319    0.718886852
    0.590909123    0.863311946    0.863188326
    0.590909123    0.196645245    0.574585319
    0.590909123    0.529978633    0.718886793
    0.924242377    0.196645319    0.863188267
    0.924242377    0.529978633    0.574585319
    0.924242377    0.863311946    0.718886733
    0.257575780    0.863312066    0.899263740
    0.257575780    0.196645319    0.610660732
    0.257575780    0.529978573    0.754962087
    0.590909123    0.196645439    0.899263740
    0.590909123    0.529978633    0.610660672
    0.590909123    0.863311946    0.754962087
    0.924242496    0.529978693    0.899263680
    0.924242496    0.863311887    0.610660672
    0.924242496    0.196645200    0.754962087
