fcc Si+fcc Ge                           
   1.00000000000000     
    12.2536525170000008    0.0000000000000000    0.0000000000000000
    -9.8029220129999999    7.3521915099999999    0.0000000000000000
     0.0000000000000000    0.0000000000000000   18.0583333330000002
   Si   Ge
    66    12
Direct
  0.3333333329999988  0.6666666670000012  0.0000000000000000
  0.6666666670000012  0.8333333329999988  0.1517305030000031
  0.0000000000000000  0.0000000000000000  0.3034610059999991
  0.3333333329999988  0.1666666670000012  0.4551915090000023
  0.6666666670000012  0.3333333329999988  0.6069220119999983
  0.0000000000000000  0.5000000000000000  0.7586525150000014
  0.0000000000000000  0.0000000000000000  0.0000000000000000
  0.3333333329999988  0.1666666670000012  0.1517305030000031
  0.6666666670000012  0.3333333329999988  0.3034610059999991
  0.0000000000000000  0.5000000000000000  0.4551915090000023
  0.3333333329999988  0.6666666670000012  0.6069220119999983
  0.6666666670000012  0.8333333329999988  0.7586525150000014
  0.6666666670000012  0.3333333329999988  0.0000000000000000
  0.0000000000000000  0.5000000000000000  0.1517305030000031
  0.3333333329999988  0.6666666670000012  0.3034610059999991
  0.6666666670000012  0.8333333329999988  0.4551915090000023
  0.0000000000000000  0.0000000000000000  0.6069220119999983
  0.3333333329999988  0.1666666670000012  0.7586525150000014
  0.1666666670000012  0.8333333329999988  0.0000000000000000
  0.5000000000000000  0.0000000000000000  0.1517305030000031
  0.8333333329999988  0.1666666670000012  0.3034610059999991
  0.1666666670000012  0.3333333329999988  0.4551915090000023
  0.5000000000000000  0.5000000000000000  0.6069220119999983
  0.8333333329999988  0.6666666670000012  0.7586525150000014
  0.5000000000000000  0.5000000000000000  0.0000000000000000
  0.8333333329999988  0.6666666670000012  0.1517305030000031
  0.1666666670000012  0.8333333329999988  0.3034610059999991
  0.5000000000000000  0.0000000000000000  0.4551915090000023
  0.8333333329999988  0.1666666670000012  0.6069220119999983
  0.1666666670000012  0.3333333329999988  0.7586525150000014
  0.8333333329999988  0.1666666670000012  0.0000000000000000
  0.1666666670000012  0.3333333329999988  0.1517305030000031
  0.5000000000000000  0.5000000000000000  0.3034610059999991
  0.8333333329999988  0.6666666670000012  0.4551915090000023
  0.1666666670000012  0.8333333329999988  0.6069220119999983
  0.5000000000000000  0.0000000000000000  0.7586525150000014
  0.0833333329999988  0.9166666670000012  0.0758652510000033
  0.4166666670000012  0.0833333329999988  0.2275957539999993
  0.7500000000000000  0.2500000000000000  0.3793262570000024
  0.0833333329999988  0.4166666670000012  0.5310567599999985
  0.4166666670000012  0.5833333329999988  0.6827872630000016
  0.4166666670000012  0.5833333329999988  0.0758652510000033
  0.7500000000000000  0.7500000000000000  0.2275957539999993
  0.0833333329999988  0.9166666670000012  0.3793262570000024
  0.4166666670000012  0.0833333329999988  0.5310567599999985
  0.7500000000000000  0.2500000000000000  0.6827872630000016
  0.7500000000000000  0.2500000000000000  0.0758652510000033
  0.0833333329999988  0.4166666670000012  0.2275957539999993
  0.4166666670000012  0.5833333329999988  0.3793262570000024
  0.7500000000000000  0.7500000000000000  0.5310567599999985
  0.0833333329999988  0.9166666670000012  0.6827872630000016
  0.2500000000000000  0.7500000000000000  0.0758652510000033
  0.5833333329999988  0.9166666670000012  0.2275957539999993
  0.9166666670000012  0.0833333329999988  0.3793262570000024
  0.2500000000000000  0.2500000000000000  0.5310567599999985
  0.5833333329999988  0.4166666670000012  0.6827872630000016
  0.5833333329999988  0.4166666670000012  0.0758652510000033
  0.9166666670000012  0.5833333329999988  0.2275957539999993
  0.2500000000000000  0.7500000000000000  0.3793262570000024
  0.5833333329999988  0.9166666670000012  0.5310567599999985
  0.9166666670000012  0.0833333329999988  0.6827872630000016
  0.9166666670000012  0.0833333329999988  0.0758652510000033
  0.2500000000000000  0.2500000000000000  0.2275957539999993
  0.5833333329999988  0.4166666670000012  0.3793262570000024
  0.9166666670000012  0.5833333329999988  0.5310567599999985
  0.2500000000000000  0.7500000000000000  0.6827872630000016
  0.0983606559999970  0.0000000000000000  0.8140286109999977
  0.9872495449999974  0.6111111109999996  0.8662667279999994
  0.8761384339999978  0.2222222219999992  0.9185048450000011
  0.5983606559999970  0.5000000000000000  0.8140286109999977
  0.4872495449999974  0.1111111109999996  0.8662667279999994
  0.3761384339999978  0.7222222219999992  0.9185048450000011
  0.2928051000000025  0.3055555560000016  0.8401476700000003
  0.1816939890000029  0.9166666670000012  0.8923857870000020
  0.0705828780000033  0.5277777780000008  0.9446239039999966
  0.7928051000000025  0.8055555560000016  0.8401476700000003
  0.6816939890000029  0.4166666670000012  0.8923857870000020
  0.5705828780000033  0.0277777780000008  0.9446239039999966
 
  0.00000000E+00  0.00000000E+00  0.00000000E+00
  0.00000000E+00  0.00000000E+00  0.00000000E+00
  0.00000000E+00  0.00000000E+00  0.00000000E+00
  0.00000000E+00  0.00000000E+00  0.00000000E+00
  0.00000000E+00  0.00000000E+00  0.00000000E+00
  0.00000000E+00  0.00000000E+00  0.00000000E+00
  0.00000000E+00  0.00000000E+00  0.00000000E+00
  0.00000000E+00  0.00000000E+00  0.00000000E+00
  0.00000000E+00  0.00000000E+00  0.00000000E+00
  0.00000000E+00  0.00000000E+00  0.00000000E+00
  0.00000000E+00  0.00000000E+00  0.00000000E+00
  0.00000000E+00  0.00000000E+00  0.00000000E+00
  0.00000000E+00  0.00000000E+00  0.00000000E+00
  0.00000000E+00  0.00000000E+00  0.00000000E+00
  0.00000000E+00  0.00000000E+00  0.00000000E+00
  0.00000000E+00  0.00000000E+00  0.00000000E+00
  0.00000000E+00  0.00000000E+00  0.00000000E+00
  0.00000000E+00  0.00000000E+00  0.00000000E+00
  0.00000000E+00  0.00000000E+00  0.00000000E+00
  0.00000000E+00  0.00000000E+00  0.00000000E+00
  0.00000000E+00  0.00000000E+00  0.00000000E+00
  0.00000000E+00  0.00000000E+00  0.00000000E+00
  0.00000000E+00  0.00000000E+00  0.00000000E+00
  0.00000000E+00  0.00000000E+00  0.00000000E+00
  0.00000000E+00  0.00000000E+00  0.00000000E+00
  0.00000000E+00  0.00000000E+00  0.00000000E+00
  0.00000000E+00  0.00000000E+00  0.00000000E+00
  0.00000000E+00  0.00000000E+00  0.00000000E+00
  0.00000000E+00  0.00000000E+00  0.00000000E+00
  0.00000000E+00  0.00000000E+00  0.00000000E+00
  0.00000000E+00  0.00000000E+00  0.00000000E+00
  0.00000000E+00  0.00000000E+00  0.00000000E+00
  0.00000000E+00  0.00000000E+00  0.00000000E+00
  0.00000000E+00  0.00000000E+00  0.00000000E+00
  0.00000000E+00  0.00000000E+00  0.00000000E+00
  0.00000000E+00  0.00000000E+00  0.00000000E+00
  0.00000000E+00  0.00000000E+00  0.00000000E+00
  0.00000000E+00  0.00000000E+00  0.00000000E+00
  0.00000000E+00  0.00000000E+00  0.00000000E+00
  0.00000000E+00  0.00000000E+00  0.00000000E+00
  0.00000000E+00  0.00000000E+00  0.00000000E+00
  0.00000000E+00  0.00000000E+00  0.00000000E+00
  0.00000000E+00  0.00000000E+00  0.00000000E+00
  0.00000000E+00  0.00000000E+00  0.00000000E+00
  0.00000000E+00  0.00000000E+00  0.00000000E+00
  0.00000000E+00  0.00000000E+00  0.00000000E+00
  0.00000000E+00  0.00000000E+00  0.00000000E+00
  0.00000000E+00  0.00000000E+00  0.00000000E+00
  0.00000000E+00  0.00000000E+00  0.00000000E+00
  0.00000000E+00  0.00000000E+00  0.00000000E+00
  0.00000000E+00  0.00000000E+00  0.00000000E+00
  0.00000000E+00  0.00000000E+00  0.00000000E+00
  0.00000000E+00  0.00000000E+00  0.00000000E+00
  0.00000000E+00  0.00000000E+00  0.00000000E+00
  0.00000000E+00  0.00000000E+00  0.00000000E+00
  0.00000000E+00  0.00000000E+00  0.00000000E+00
  0.00000000E+00  0.00000000E+00  0.00000000E+00
  0.00000000E+00  0.00000000E+00  0.00000000E+00
  0.00000000E+00  0.00000000E+00  0.00000000E+00
  0.00000000E+00  0.00000000E+00  0.00000000E+00
  0.00000000E+00  0.00000000E+00  0.00000000E+00
  0.00000000E+00  0.00000000E+00  0.00000000E+00
  0.00000000E+00  0.00000000E+00  0.00000000E+00
  0.00000000E+00  0.00000000E+00  0.00000000E+00
  0.00000000E+00  0.00000000E+00  0.00000000E+00
  0.00000000E+00  0.00000000E+00  0.00000000E+00
  0.00000000E+00  0.00000000E+00  0.00000000E+00
  0.00000000E+00  0.00000000E+00  0.00000000E+00
  0.00000000E+00  0.00000000E+00  0.00000000E+00
  0.00000000E+00  0.00000000E+00  0.00000000E+00
  0.00000000E+00  0.00000000E+00  0.00000000E+00
  0.00000000E+00  0.00000000E+00  0.00000000E+00
  0.00000000E+00  0.00000000E+00  0.00000000E+00
  0.00000000E+00  0.00000000E+00  0.00000000E+00
  0.00000000E+00  0.00000000E+00  0.00000000E+00
  0.00000000E+00  0.00000000E+00  0.00000000E+00
  0.00000000E+00  0.00000000E+00  0.00000000E+00
  0.00000000E+00  0.00000000E+00  0.00000000E+00
