Ge+Sn
    1.000000000
   11.315600395    0.000000000    0.000000000
    0.000000000   16.002676010    0.000000000
    0.000000000    0.000000000   25.604215622
Ge  Sn 
96     72
Direct
    0.970662773    0.455994159    0.000000018
    0.720662713    0.080994137    0.078125209
    0.470662773    0.705994129    0.156250417
    0.220662892    0.330994248    0.234375566
    0.970662713    0.955994129    0.312500775
    0.720662713    0.580994129    0.390626043
    0.470662773    0.455994159    0.000000018
    0.220662758    0.080994137    0.078125209
    0.970662773    0.705994129    0.156250417
    0.720662832    0.330994248    0.234375566
    0.470662832    0.955994129    0.312500775
    0.220662773    0.580994129    0.390626043
    0.970662773    0.955994129    0.000000016
    0.720662713    0.580994129    0.078125216
    0.470662773    0.205994129    0.156250402
    0.220662892    0.830994368    0.234375566
    0.970662713    0.455994129    0.312500805
    0.720662713    0.080994129    0.390626013
    0.470662773    0.955994129    0.000000016
    0.220662758    0.580994129    0.078125216
    0.970662773    0.205994129    0.156250402
    0.720662832    0.830994368    0.234375566
    0.470662832    0.455994129    0.312500805
    0.220662773    0.080994129    0.390626013
    0.970662773    0.705994129    0.000000021
    0.720662713    0.330994129    0.078125209
    0.470662773    0.955994129    0.156250402
    0.220662892    0.580994248    0.234375596
    0.970662713    0.205994189    0.312500805
    0.720662713    0.830994129    0.390626043
    0.470662773    0.705994129    0.000000021
    0.220662758    0.330994129    0.078125209
    0.970662773    0.955994129    0.156250402
    0.720662832    0.580994248    0.234375596
    0.470662832    0.205994189    0.312500805
    0.220662773    0.830994129    0.390626043
    0.970662773    0.205994144    0.000000017
    0.720662713    0.830994129    0.078125209
    0.470662773    0.455994129    0.156250402
    0.220662892    0.080994248    0.234375596
    0.970662713    0.705994248    0.312500775
    0.720662713    0.330994129    0.390626013
    0.470662773    0.205994144    0.000000017
    0.220662758    0.830994129    0.078125209
    0.970662773    0.455994129    0.156250402
    0.720662832    0.080994248    0.234375596
    0.470662832    0.705994248    0.312500775
    0.220662773    0.330994129    0.390626013
    0.345662743    0.580994189    0.000000026
    0.095662758    0.205994159    0.078125209
    0.845662773    0.830994129    0.156250402
    0.595662832    0.455994248    0.234375566
    0.345662773    0.080994189    0.312500805
    0.095662713    0.705994129    0.390626043
    0.845662832    0.580994189    0.000000026
    0.595662773    0.205994159    0.078125209
    0.345662802    0.830994129    0.156250402
    0.095662884    0.455994248    0.234375566
    0.845662832    0.080994189    0.312500805
    0.595662773    0.705994129    0.390626043
    0.345662743    0.080994137    0.000000013
    0.095662758    0.705994129    0.078125209
    0.845662773    0.330994129    0.156250402
    0.595662832    0.955994248    0.234375596
    0.345662773    0.580994248    0.312500775
    0.095662713    0.205994010    0.390626013
    0.845662832    0.080994137    0.000000013
    0.595662773    0.705994129    0.078125209
    0.345662802    0.330994129    0.156250402
    0.095662884    0.955994248    0.234375596
    0.845662832    0.580994248    0.312500775
    0.595662773    0.205994010    0.390626013
    0.345662743    0.830994189    0.000000000
    0.095662758    0.455994189    0.078125209
    0.845662773    0.080994174    0.156250402
    0.595662832    0.705994308    0.234375566
    0.345662773    0.330994248    0.312500775
    0.095662713    0.955994129    0.390625983
    0.845662832    0.830994189    0.000000000
    0.595662773    0.455994189    0.078125209
    0.345662802    0.080994174    0.156250402
    0.095662884    0.705994308    0.234375566
    0.845662832    0.330994248    0.312500775
    0.595662773    0.955994129    0.390625983
    0.345662743    0.330994129    0.000000018
    0.095662758    0.955994129    0.078125216
    0.845662773    0.580994129    0.156250402
    0.595662832    0.205994248    0.234375596
    0.345662773    0.830994129    0.312500775
    0.095662713    0.455994129    0.390626013
    0.845662832    0.330994129    0.000000018
    0.595662773    0.955994129    0.078125216
    0.345662802    0.580994129    0.156250402
    0.095662884    0.205994248    0.234375596
    0.845662832    0.830994129    0.312500775
    0.595662773    0.455994129    0.390626013
    0.125000000    0.357602149    0.471299231
    0.125000000    0.607602239    0.560904801
    0.124999881    0.857602358    0.650510371
    0.124999762    0.107602596    0.740115821
    0.124999762    0.357602626    0.829721332
    0.124999762    0.607602715    0.919326842
    0.458333373    0.690935493    0.471299231
    0.458333313    0.940935493    0.560904801
    0.458333313    0.190935731    0.650510371
    0.458333224    0.440935880    0.740115821
    0.458333224    0.690935969    0.829721332
    0.458333164    0.940936089    0.919326842
    0.791666746    0.024268866    0.471299231
    0.791666687    0.274268866    0.560904801
    0.791666806    0.524269104    0.650510371
    0.791666508    0.774269104    0.740115821
    0.791666567    0.024269223    0.829721332
    0.791666567    0.274269462    0.919326842
    0.125000030    0.857602239    0.471299231
    0.125000000    0.107602239    0.560904741
    0.124999881    0.357602388    0.650510371
    0.124999881    0.607602477    0.740115821
    0.124999762    0.857602596    0.829721332
    0.124999762    0.107602715    0.919326842
    0.458333373    0.190935493    0.471299231
    0.458333343    0.440935642    0.560904741
    0.458333373    0.690935850    0.650510371
    0.458333254    0.940935850    0.740115821
    0.458333284    0.190935969    0.829721332
    0.458333105    0.440936238    0.919326842
    0.791666806    0.524268866    0.471299231
    0.791666627    0.774268866    0.560904741
    0.791666687    0.024269104    0.650510371
    0.791666627    0.274269104    0.740115821
    0.791666508    0.524269223    0.829721332
    0.791666567    0.774269342    0.919326842
    0.208333313    0.690935493    0.471299231
    0.208333254    0.940935493    0.560904741
    0.208333284    0.190935731    0.650510371
    0.208333135    0.440935761    0.740115821
    0.208333135    0.690935850    0.829721332
    0.208333135    0.940935969    0.919326842
    0.541666746    0.024268866    0.471299231
    0.541666627    0.274268866    0.560904801
    0.541666627    0.524269104    0.650510371
    0.541666627    0.774269223    0.740115821
    0.541666389    0.024269223    0.829721332
    0.541666508    0.274269342    0.919326842
    0.875000000    0.357602179    0.471299231
    0.875000000    0.607602239    0.560904801
    0.874999940    0.857602358    0.650510371
    0.874999821    0.107602477    0.740115821
    0.874999821    0.357602626    0.829721332
    0.874999821    0.607602715    0.919326842
    0.208333343    0.190935612    0.471299231
    0.208333284    0.440935642    0.560904801
    0.208333224    0.690935731    0.650510311
    0.208333254    0.940936089    0.740115821
    0.208333135    0.190935969    0.829721391
    0.208333075    0.440936238    0.919326842
    0.541666746    0.524268866    0.471299231
    0.541666627    0.774268866    0.560904801
    0.541666567    0.024269104    0.650510371
    0.541666567    0.274269223    0.740115821
    0.541666567    0.524269223    0.829721332
    0.541666448    0.774269342    0.919326842
    0.875000000    0.857602119    0.471299231
    0.874999940    0.107602239    0.560904801
    0.875000000    0.357602388    0.650510371
    0.874999881    0.607602477    0.740115821
    0.874999821    0.857602477    0.829721332
    0.874999762    0.107602715    0.919326842
