Ge+Si
    1.000000000
    8.001338005    0.000000000    0.000000000
    0.000000000   16.002676010    0.000000000
    0.000000000    0.000000000   13.264322281
Ge  Si 
48     24
Direct
    0.008541727    0.995729148    0.000000000
    0.258541703    0.870729148    0.213271350
    0.508541703    0.745729148    0.426542759
    0.508541703    0.245729119    0.000000000
    0.758541644    0.120729133    0.213271350
    0.008541584    0.995729148    0.426542759
    0.008541740    0.495729089    0.000000000
    0.258541703    0.370729119    0.213271350
    0.508541703    0.245729119    0.426542759
    0.508541703    0.745729089    0.000000000
    0.758541644    0.620729089    0.213271350
    0.008541703    0.495729119    0.426542759
    0.008541703    0.120729156    0.106635675
    0.258541703    0.995729148    0.319907069
    0.508541703    0.870729148    0.533178449
    0.508541763    0.370729119    0.106635675
    0.758541703    0.245729148    0.319907069
    0.008541703    0.120729133    0.533178449
    0.008541584    0.620729089    0.106635675
    0.258541584    0.495729089    0.319907069
    0.508541584    0.370729059    0.533178449
    0.508541703    0.870729148    0.106635675
    0.758541703    0.745729148    0.319907069
    0.008541703    0.620729148    0.533178449
    0.508541703    0.995729148    0.000000000
    0.758541644    0.870729148    0.213271350
    0.008541584    0.745729208    0.426542759
    0.008541717    0.245729133    0.000000000
    0.258541703    0.120729133    0.213271350
    0.508541703    0.995729148    0.426542759
    0.508541703    0.495729148    0.000000000
    0.758541703    0.370729148    0.213271350
    0.008541703    0.245729163    0.426542759
    0.008541742    0.745729148    0.000000000
    0.258541673    0.620729148    0.213271350
    0.508541703    0.495729148    0.426542759
    0.508541703    0.120729133    0.106635675
    0.758541703    0.995729148    0.319907069
    0.008541703    0.870729148    0.533178449
    0.008541703    0.370729119    0.106635675
    0.258541584    0.245729119    0.319907069
    0.508541703    0.120729111    0.533178449
    0.508541703    0.620729089    0.106635675
    0.758541644    0.495729119    0.319907069
    0.008541703    0.370729089    0.533178449
    0.008541584    0.870729089    0.106635675
    0.258541584    0.745729089    0.319907069
    0.508541584    0.620729089    0.533178449
    0.132435307    0.478170633    0.645955443
    0.382435381    0.089281797    0.694208980
    0.632435381    0.700392842    0.742462516
    0.882435441    0.311503887    0.790715992
    0.132435501    0.922614872    0.838969529
    0.382435620    0.533725500    0.887222886
    0.882435381    0.228170753    0.645955443
    0.132435381    0.839281678    0.694208980
    0.382435381    0.450392842    0.742462456
    0.632435620    0.061503768    0.790715992
    0.882435501    0.672614753    0.838969409
    0.132435739    0.283725739    0.887222946
    0.382435381    0.228170753    0.645955443
    0.632435381    0.839281738    0.694208980
    0.882435441    0.450392842    0.742462456
    0.132435501    0.061503768    0.790715992
    0.382435501    0.672614753    0.838969409
    0.632435620    0.283725739    0.887222946
    0.632435322    0.478170633    0.645955443
    0.882435322    0.089281797    0.694208980
    0.132435381    0.700392842    0.742462516
    0.382435381    0.311503887    0.790715992
    0.632435739    0.922614753    0.838969409
    0.882435620    0.533725739    0.887222886
