Sn+Ge                                   
   1.00000000000000     
    14.5102920530000006    0.0000000000000000    0.0000000000000000
     0.0000000000000000   19.4676017759999986    0.0000000000000000
     0.0000000000000000    0.0000000000000000   13.6292486190000002
   Sn   Ge
    36   144
Direct
  0.9829056259999973  0.6524212960000000  0.0000000089999972
  0.7829055790000012  0.4857546089999971  0.1064644380000033
  0.5829054120000023  0.3190878930000025  0.2129288320000029
  0.9829056259999973  0.3190880120000017  0.0000000089999972
  0.7829055790000012  0.1524213249999988  0.1064644380000033
  0.5829054120000023  0.9857546089999971  0.2129288320000029
  0.9829056259999973  0.9857547280000034  0.0000000089999972
  0.7829055790000012  0.8190880419999971  0.1064644380000033
  0.5829054120000023  0.6524212960000000  0.2129288320000029
  0.6329056020000010  0.9024214149999992  0.0532321219999972
  0.4329055250000025  0.7357547280000034  0.1596965339999983
  0.2329054329999991  0.5690880419999971  0.2661609350000020
  0.6329056020000010  0.5690879819999992  0.0532321219999972
  0.4329055250000025  0.4024212960000000  0.1596965339999983
  0.2329054329999991  0.2357546089999971  0.2661609350000020
  0.6329056020000010  0.2357547579999988  0.0532321219999972
  0.4329055250000025  0.0690880639999989  0.1596965339999983
  0.2329054329999991  0.9024213550000013  0.2661609350000020
  0.4829055960000019  0.8190879229999979  0.0000000000000000
  0.2829054589999984  0.6524212360000021  0.1064644160000014
  0.0829053519999974  0.4857545790000017  0.2129288759999994
  0.4829055960000019  0.4857546690000021  0.0000000000000000
  0.2829054589999984  0.3190879819999992  0.1064644160000014
  0.0829053519999974  0.1524212810000023  0.2129288759999994
  0.4829055960000019  0.1524213550000013  0.0000000000000000
  0.2829054589999984  0.9857546690000021  0.1064644160000014
  0.0829053519999974  0.8190879819999992  0.2129288759999994
  0.1329056470000012  0.7357546690000021  0.0532321150000001
  0.9329055549999978  0.5690879819999992  0.1596965190000006
  0.7329055069999981  0.4024212960000000  0.2661609350000020
  0.1329056470000012  0.4024213849999967  0.0532321150000001
  0.9329055549999978  0.2357547129999986  0.1596965190000006
  0.7329055069999981  0.0690880120000017  0.2661609350000020
  0.1329056470000012  0.0690880120000017  0.0532321150000001
  0.9329055549999978  0.9024213550000013  0.1596965190000006
  0.7329055069999981  0.7357546089999971  0.2661609350000020
  0.9793784619999997  0.0000000000000000  0.2661609649999974
  0.7293783430000005  0.9999999400000021  0.4129287599999998
  0.4793782830000026  0.9999998810000008  0.5596965550000021
  0.2293782229999977  0.9999998210000030  0.7064642910000032
  0.9793783430000005  0.9999997019999967  0.8532320859999984
  0.7293781039999985  0.9999996419999988  0.9999998810000008
  0.6460450889999976  0.1666666420000027  0.2661609649999974
  0.3960450289999997  0.1666665970000025  0.4129287599999998
  0.1460449400000030  0.1666665230000035  0.5596965550000021
  0.8960449100000005  0.1666664330000032  0.7064642910000032
  0.6460449100000005  0.1666663589999970  0.8532320859999984
  0.3960447910000013  0.1666663290000017  0.9999998810000008
  0.3127117459999980  0.3333333129999971  0.2661609649999974
  0.0627116929999971  0.3333332540000029  0.4129287599999998
  0.8127115959999998  0.3333331640000026  0.5596965550000021
  0.5627115959999998  0.3333331349999966  0.7064642910000032
  0.3127115369999984  0.3333330150000009  0.8532320859999984
  0.0627114770000006  0.3333330150000009  0.9999998810000008
  0.9793784619999997  0.4999999699999975  0.2661609649999974
  0.7293783430000005  0.4999999110000033  0.4129287599999998
  0.4793782229999977  0.4999998509999983  0.5596965550000021
  0.2293782830000026  0.4999997620000016  0.7064642910000032
  0.9793782229999977  0.4999997019999967  0.8532320859999984
  0.7293781039999985  0.4999996419999988  0.9999998810000008
  0.6460450889999976  0.6666666870000029  0.2661609350000020
  0.3960450289999997  0.6666665670000000  0.4129287599999998
  0.1460449249999982  0.6666665079999987  0.5596965550000021
  0.8960449100000005  0.6666664480000009  0.7064642910000032
  0.6460448500000027  0.6666663889999995  0.8532320859999984
  0.3960447910000013  0.6666663290000017  0.9999998810000008
  0.3127117749999968  0.8333333129999971  0.2661609350000020
  0.0627117229999996  0.8333332540000029  0.4129287599999998
  0.8127115959999998  0.8333331939999979  0.5596965550000021
  0.5627115959999998  0.8333330749999988  0.7064642910000032
  0.3127115369999984  0.8333330749999988  0.8532320859999984
  0.0627114770000006  0.8333329559999996  0.9999998810000008
  0.4793784619999997  0.0000000000000000  0.2661609649999974
  0.2293783719999993  0.9999999400000021  0.4129287599999998
  0.9793782830000026  0.9999998810000008  0.5596965550000021
  0.7293782229999977  0.9999998210000030  0.7064642910000032
  0.4793782229999977  0.9999997019999967  0.8532320859999984
  0.2293781039999985  0.9999996419999988  0.9999998810000008
  0.1460451040000024  0.1666666570000004  0.2661609649999974
  0.8960450289999997  0.1666665819999977  0.4129287599999998
  0.6460449699999984  0.1666665230000035  0.5596965550000021
  0.3960449100000005  0.1666664480000009  0.7064642910000032
  0.1460449100000005  0.1666663740000018  0.8532320859999984
  0.8960448500000027  0.1666662989999992  0.9999998810000008
  0.8127118350000018  0.3333333429999996  0.2661609649999974
  0.5627117749999968  0.3333332839999983  0.4129287599999998
  0.3127116860000001  0.3333332240000004  0.5596965550000021
  0.0627116779999994  0.3333331640000026  0.7064643499999974
  0.8127115959999998  0.3333330450000034  0.8532320859999984
  0.5627114770000006  0.3333329860000021  0.9999998810000008
  0.4793784319999972  0.5000000000000000  0.2661609649999974
  0.2293783579999982  0.4999998810000008  0.4129287599999998
  0.9793782830000026  0.4999998210000030  0.5596965550000021
  0.7293782229999977  0.4999997620000016  0.7064643499999974
  0.4793782830000026  0.4999996419999988  0.8532320859999984
  0.2293781039999985  0.4999995829999975  0.9999998810000008
  0.1460451190000001  0.6666666269999979  0.2661609649999974
  0.8960450289999997  0.6666665670000000  0.4129287599999998
  0.6460449699999984  0.6666665079999987  0.5596965550000021
  0.3960449100000005  0.6666664480000009  0.7064643499999974
  0.1460447910000013  0.6666663290000017  0.8532320859999984
  0.8960448500000027  0.6666662689999967  0.9999998810000008
  0.8127117749999968  0.8333333129999971  0.2661609649999974
  0.5627117160000026  0.8333333129999971  0.4129287599999998
  0.3127116260000022  0.8333331349999966  0.5596966150000000
  0.0627115959999998  0.8333331349999966  0.7064643499999974
  0.8127115959999998  0.8333330150000009  0.8532320859999984
  0.5627114770000006  0.8333329559999996  0.9999998810000008
  0.6460452079999968  0.0416666460000030  0.2661609649999974
  0.3960451190000001  0.0416665859999981  0.4129287599999998
  0.1460450289999997  0.0416665039999984  0.5596965550000021
  0.8960450289999997  0.0416664330000032  0.7064642910000032
  0.6460449699999984  0.0416663920000033  0.8532320859999984
  0.3960449100000005  0.0416662949999989  0.9999998810000008
  0.3127117459999980  0.2083333129999971  0.2661609649999974
  0.0627117009999978  0.2083332540000029  0.4129287599999998
  0.8127115959999998  0.2083331500000014  0.5596965550000021
  0.5627115959999998  0.2083331050000012  0.7064642910000032
  0.3127115959999998  0.2083330299999986  0.8532320859999984
  0.0627114770000006  0.2083329559999996  0.0000000000000000
  0.9793784619999997  0.3749999400000021  0.2661609649999974
  0.7293784020000018  0.3749999110000033  0.4129287599999998
  0.4793782830000026  0.3749997910000005  0.5596965550000021
  0.2293782830000026  0.3749997620000016  0.7064642910000032
  0.9793783430000005  0.3749996720000013  0.8532320859999984
  0.7293781039999985  0.3749995829999975  0.0000000000000000
  0.6460451479999989  0.5416666870000029  0.2661609350000020
  0.3960450889999976  0.5416665670000000  0.4129287599999998
  0.1460450140000020  0.5416665079999987  0.5596966150000000
  0.8960450289999997  0.5416664480000009  0.7064642910000032
  0.6460449699999984  0.5416663290000017  0.8532320859999984
  0.3960448500000027  0.5416662689999967  0.9999998810000008
  0.3127117749999968  0.7083332540000029  0.2661609350000020
  0.0627116779999994  0.7083331939999979  0.4129287599999998
  0.8127115959999998  0.7083331349999966  0.5596965550000021
  0.5627115959999998  0.7083330150000009  0.7064642910000032
  0.3127115959999998  0.7083329559999996  0.8532320859999984
  0.0627114770000006  0.7083328960000017  0.9999998810000008
  0.9793785210000010  0.8750000000000000  0.2661609350000020
  0.7293784619999997  0.8749999400000021  0.4129287599999998
  0.4793784020000018  0.8749998810000008  0.5596966150000000
  0.2293783430000005  0.8749997620000016  0.7064642910000032
  0.9793783430000005  0.8749996419999988  0.8532320859999984
  0.7293782229999977  0.8749995829999975  0.9999998810000008
  0.1460450889999976  0.0416666570000004  0.2661609649999974
  0.8960450289999997  0.0416665899999984  0.4129287599999998
  0.6460449699999984  0.0416665230000035  0.5596965550000021
  0.3960449100000005  0.0416664370000035  0.7064642910000032
  0.1460449100000005  0.0416663549999967  0.8532320859999984
  0.8960448500000027  0.0416663029999995  0.9999998810000008
  0.8127117160000026  0.2083333129999971  0.2661609649999974
  0.5627116559999976  0.2083332389999981  0.4129287599999998
  0.3127115670000009  0.2083331790000003  0.5596965550000021
  0.0627115369999984  0.2083330899999964  0.7064642910000032
  0.8127115369999984  0.2083330150000009  0.8532320859999984
  0.5627114770000006  0.2083329559999996  0.9999998810000008
  0.4793784319999972  0.3750000000000000  0.2661609649999974
  0.2293783719999993  0.3749999110000033  0.4129287599999998
  0.9793782830000026  0.3749998210000030  0.5596965550000021
  0.7293782229999977  0.3749997910000005  0.7064642910000032
  0.4793782830000026  0.3749997019999967  0.8532320859999984
  0.2293782229999977  0.3749996130000000  0.9999998810000008
  0.1460451190000001  0.5416666870000029  0.2661609649999974
  0.8960450289999997  0.5416666269999979  0.4129287599999998
  0.6460449100000005  0.5416665079999987  0.5596965550000021
  0.3960449100000005  0.5416664480000009  0.7064642910000032
  0.1460449100000005  0.5416663889999995  0.8532320859999984
  0.8960447310000035  0.5416663889999995  0.9999998810000008
  0.8127118350000018  0.7083333730000021  0.2661609350000020
  0.5627117160000026  0.7083333129999971  0.4129287599999998
  0.3127116559999976  0.7083331939999979  0.5596966150000000
  0.0627116260000022  0.7083331349999966  0.7064643499999974
  0.8127115959999998  0.7083330749999988  0.8532320859999984
  0.5627115369999984  0.7083329559999996  0.9999998810000008
  0.4793784619999997  0.8750000000000000  0.2661609350000020
  0.2293783719999993  0.8749999400000021  0.4129287599999998
  0.9793782830000026  0.8749998810000008  0.5596966150000000
  0.7293783430000005  0.8749998210000030  0.7064643499999974
  0.4793782830000026  0.8749997620000016  0.8532320859999984
  0.2293780449999971  0.8749996419999988  0.9999998810000008
 
  0.00000000E+00  0.00000000E+00  0.00000000E+00
  0.00000000E+00  0.00000000E+00  0.00000000E+00
  0.00000000E+00  0.00000000E+00  0.00000000E+00
  0.00000000E+00  0.00000000E+00  0.00000000E+00
  0.00000000E+00  0.00000000E+00  0.00000000E+00
  0.00000000E+00  0.00000000E+00  0.00000000E+00
  0.00000000E+00  0.00000000E+00  0.00000000E+00
  0.00000000E+00  0.00000000E+00  0.00000000E+00
  0.00000000E+00  0.00000000E+00  0.00000000E+00
  0.00000000E+00  0.00000000E+00  0.00000000E+00
  0.00000000E+00  0.00000000E+00  0.00000000E+00
  0.00000000E+00  0.00000000E+00  0.00000000E+00
  0.00000000E+00  0.00000000E+00  0.00000000E+00
  0.00000000E+00  0.00000000E+00  0.00000000E+00
  0.00000000E+00  0.00000000E+00  0.00000000E+00
  0.00000000E+00  0.00000000E+00  0.00000000E+00
  0.00000000E+00  0.00000000E+00  0.00000000E+00
  0.00000000E+00  0.00000000E+00  0.00000000E+00
  0.00000000E+00  0.00000000E+00  0.00000000E+00
  0.00000000E+00  0.00000000E+00  0.00000000E+00
  0.00000000E+00  0.00000000E+00  0.00000000E+00
  0.00000000E+00  0.00000000E+00  0.00000000E+00
  0.00000000E+00  0.00000000E+00  0.00000000E+00
  0.00000000E+00  0.00000000E+00  0.00000000E+00
  0.00000000E+00  0.00000000E+00  0.00000000E+00
  0.00000000E+00  0.00000000E+00  0.00000000E+00
  0.00000000E+00  0.00000000E+00  0.00000000E+00
  0.00000000E+00  0.00000000E+00  0.00000000E+00
  0.00000000E+00  0.00000000E+00  0.00000000E+00
  0.00000000E+00  0.00000000E+00  0.00000000E+00
  0.00000000E+00  0.00000000E+00  0.00000000E+00
  0.00000000E+00  0.00000000E+00  0.00000000E+00
  0.00000000E+00  0.00000000E+00  0.00000000E+00
  0.00000000E+00  0.00000000E+00  0.00000000E+00
  0.00000000E+00  0.00000000E+00  0.00000000E+00
  0.00000000E+00  0.00000000E+00  0.00000000E+00
  0.00000000E+00  0.00000000E+00  0.00000000E+00
  0.00000000E+00  0.00000000E+00  0.00000000E+00
  0.00000000E+00  0.00000000E+00  0.00000000E+00
  0.00000000E+00  0.00000000E+00  0.00000000E+00
  0.00000000E+00  0.00000000E+00  0.00000000E+00
  0.00000000E+00  0.00000000E+00  0.00000000E+00
  0.00000000E+00  0.00000000E+00  0.00000000E+00
  0.00000000E+00  0.00000000E+00  0.00000000E+00
  0.00000000E+00  0.00000000E+00  0.00000000E+00
  0.00000000E+00  0.00000000E+00  0.00000000E+00
  0.00000000E+00  0.00000000E+00  0.00000000E+00
  0.00000000E+00  0.00000000E+00  0.00000000E+00
  0.00000000E+00  0.00000000E+00  0.00000000E+00
  0.00000000E+00  0.00000000E+00  0.00000000E+00
  0.00000000E+00  0.00000000E+00  0.00000000E+00
  0.00000000E+00  0.00000000E+00  0.00000000E+00
  0.00000000E+00  0.00000000E+00  0.00000000E+00
  0.00000000E+00  0.00000000E+00  0.00000000E+00
  0.00000000E+00  0.00000000E+00  0.00000000E+00
  0.00000000E+00  0.00000000E+00  0.00000000E+00
  0.00000000E+00  0.00000000E+00  0.00000000E+00
  0.00000000E+00  0.00000000E+00  0.00000000E+00
  0.00000000E+00  0.00000000E+00  0.00000000E+00
  0.00000000E+00  0.00000000E+00  0.00000000E+00
  0.00000000E+00  0.00000000E+00  0.00000000E+00
  0.00000000E+00  0.00000000E+00  0.00000000E+00
  0.00000000E+00  0.00000000E+00  0.00000000E+00
  0.00000000E+00  0.00000000E+00  0.00000000E+00
  0.00000000E+00  0.00000000E+00  0.00000000E+00
  0.00000000E+00  0.00000000E+00  0.00000000E+00
  0.00000000E+00  0.00000000E+00  0.00000000E+00
  0.00000000E+00  0.00000000E+00  0.00000000E+00
  0.00000000E+00  0.00000000E+00  0.00000000E+00
  0.00000000E+00  0.00000000E+00  0.00000000E+00
  0.00000000E+00  0.00000000E+00  0.00000000E+00
  0.00000000E+00  0.00000000E+00  0.00000000E+00
  0.00000000E+00  0.00000000E+00  0.00000000E+00
  0.00000000E+00  0.00000000E+00  0.00000000E+00
  0.00000000E+00  0.00000000E+00  0.00000000E+00
  0.00000000E+00  0.00000000E+00  0.00000000E+00
  0.00000000E+00  0.00000000E+00  0.00000000E+00
  0.00000000E+00  0.00000000E+00  0.00000000E+00
  0.00000000E+00  0.00000000E+00  0.00000000E+00
  0.00000000E+00  0.00000000E+00  0.00000000E+00
  0.00000000E+00  0.00000000E+00  0.00000000E+00
  0.00000000E+00  0.00000000E+00  0.00000000E+00
  0.00000000E+00  0.00000000E+00  0.00000000E+00
  0.00000000E+00  0.00000000E+00  0.00000000E+00
  0.00000000E+00  0.00000000E+00  0.00000000E+00
  0.00000000E+00  0.00000000E+00  0.00000000E+00
  0.00000000E+00  0.00000000E+00  0.00000000E+00
  0.00000000E+00  0.00000000E+00  0.00000000E+00
  0.00000000E+00  0.00000000E+00  0.00000000E+00
  0.00000000E+00  0.00000000E+00  0.00000000E+00
  0.00000000E+00  0.00000000E+00  0.00000000E+00
  0.00000000E+00  0.00000000E+00  0.00000000E+00
  0.00000000E+00  0.00000000E+00  0.00000000E+00
  0.00000000E+00  0.00000000E+00  0.00000000E+00
  0.00000000E+00  0.00000000E+00  0.00000000E+00
  0.00000000E+00  0.00000000E+00  0.00000000E+00
  0.00000000E+00  0.00000000E+00  0.00000000E+00
  0.00000000E+00  0.00000000E+00  0.00000000E+00
  0.00000000E+00  0.00000000E+00  0.00000000E+00
  0.00000000E+00  0.00000000E+00  0.00000000E+00
  0.00000000E+00  0.00000000E+00  0.00000000E+00
  0.00000000E+00  0.00000000E+00  0.00000000E+00
  0.00000000E+00  0.00000000E+00  0.00000000E+00
  0.00000000E+00  0.00000000E+00  0.00000000E+00
  0.00000000E+00  0.00000000E+00  0.00000000E+00
  0.00000000E+00  0.00000000E+00  0.00000000E+00
  0.00000000E+00  0.00000000E+00  0.00000000E+00
  0.00000000E+00  0.00000000E+00  0.00000000E+00
  0.00000000E+00  0.00000000E+00  0.00000000E+00
  0.00000000E+00  0.00000000E+00  0.00000000E+00
  0.00000000E+00  0.00000000E+00  0.00000000E+00
  0.00000000E+00  0.00000000E+00  0.00000000E+00
  0.00000000E+00  0.00000000E+00  0.00000000E+00
  0.00000000E+00  0.00000000E+00  0.00000000E+00
  0.00000000E+00  0.00000000E+00  0.00000000E+00
  0.00000000E+00  0.00000000E+00  0.00000000E+00
  0.00000000E+00  0.00000000E+00  0.00000000E+00
  0.00000000E+00  0.00000000E+00  0.00000000E+00
  0.00000000E+00  0.00000000E+00  0.00000000E+00
  0.00000000E+00  0.00000000E+00  0.00000000E+00
  0.00000000E+00  0.00000000E+00  0.00000000E+00
  0.00000000E+00  0.00000000E+00  0.00000000E+00
  0.00000000E+00  0.00000000E+00  0.00000000E+00
  0.00000000E+00  0.00000000E+00  0.00000000E+00
  0.00000000E+00  0.00000000E+00  0.00000000E+00
  0.00000000E+00  0.00000000E+00  0.00000000E+00
  0.00000000E+00  0.00000000E+00  0.00000000E+00
  0.00000000E+00  0.00000000E+00  0.00000000E+00
  0.00000000E+00  0.00000000E+00  0.00000000E+00
  0.00000000E+00  0.00000000E+00  0.00000000E+00
  0.00000000E+00  0.00000000E+00  0.00000000E+00
  0.00000000E+00  0.00000000E+00  0.00000000E+00
  0.00000000E+00  0.00000000E+00  0.00000000E+00
  0.00000000E+00  0.00000000E+00  0.00000000E+00
  0.00000000E+00  0.00000000E+00  0.00000000E+00
  0.00000000E+00  0.00000000E+00  0.00000000E+00
  0.00000000E+00  0.00000000E+00  0.00000000E+00
  0.00000000E+00  0.00000000E+00  0.00000000E+00
  0.00000000E+00  0.00000000E+00  0.00000000E+00
  0.00000000E+00  0.00000000E+00  0.00000000E+00
  0.00000000E+00  0.00000000E+00  0.00000000E+00
  0.00000000E+00  0.00000000E+00  0.00000000E+00
  0.00000000E+00  0.00000000E+00  0.00000000E+00
  0.00000000E+00  0.00000000E+00  0.00000000E+00
  0.00000000E+00  0.00000000E+00  0.00000000E+00
  0.00000000E+00  0.00000000E+00  0.00000000E+00
  0.00000000E+00  0.00000000E+00  0.00000000E+00
  0.00000000E+00  0.00000000E+00  0.00000000E+00
  0.00000000E+00  0.00000000E+00  0.00000000E+00
  0.00000000E+00  0.00000000E+00  0.00000000E+00
  0.00000000E+00  0.00000000E+00  0.00000000E+00
  0.00000000E+00  0.00000000E+00  0.00000000E+00
  0.00000000E+00  0.00000000E+00  0.00000000E+00
  0.00000000E+00  0.00000000E+00  0.00000000E+00
  0.00000000E+00  0.00000000E+00  0.00000000E+00
  0.00000000E+00  0.00000000E+00  0.00000000E+00
  0.00000000E+00  0.00000000E+00  0.00000000E+00
  0.00000000E+00  0.00000000E+00  0.00000000E+00
  0.00000000E+00  0.00000000E+00  0.00000000E+00
  0.00000000E+00  0.00000000E+00  0.00000000E+00
  0.00000000E+00  0.00000000E+00  0.00000000E+00
  0.00000000E+00  0.00000000E+00  0.00000000E+00
  0.00000000E+00  0.00000000E+00  0.00000000E+00
  0.00000000E+00  0.00000000E+00  0.00000000E+00
  0.00000000E+00  0.00000000E+00  0.00000000E+00
  0.00000000E+00  0.00000000E+00  0.00000000E+00
  0.00000000E+00  0.00000000E+00  0.00000000E+00
  0.00000000E+00  0.00000000E+00  0.00000000E+00
  0.00000000E+00  0.00000000E+00  0.00000000E+00
  0.00000000E+00  0.00000000E+00  0.00000000E+00
  0.00000000E+00  0.00000000E+00  0.00000000E+00
  0.00000000E+00  0.00000000E+00  0.00000000E+00
  0.00000000E+00  0.00000000E+00  0.00000000E+00
  0.00000000E+00  0.00000000E+00  0.00000000E+00
  0.00000000E+00  0.00000000E+00  0.00000000E+00
  0.00000000E+00  0.00000000E+00  0.00000000E+00
  0.00000000E+00  0.00000000E+00  0.00000000E+00
  0.00000000E+00  0.00000000E+00  0.00000000E+00
  0.00000000E+00  0.00000000E+00  0.00000000E+00
  0.00000000E+00  0.00000000E+00  0.00000000E+00
