Sn+Sn                                   
   1.00000000000000     
    11.2396240229999993    0.0000000000000000    0.0000000000000000
   -11.2396249770000001   15.8952293400000002    0.0000000000000000
     0.0000000000000000    0.0000000000000000   22.9427909849999985
   Sn
   144
Direct
  0.9820204970000006  0.9820204970000006  0.0000000020000002
  0.0533665419999991  0.4106730519999999  0.0000001189999992
  0.4820203780000014  0.4820202590000022  0.2000000330000020
  0.2320203190000001  0.2320201400000030  0.2999999820000028
  0.9820202590000022  0.9820201400000030  0.4000000059999991
  0.7320202590000022  0.7320200200000002  0.5000000599999979
  0.9820204970000006  0.3153538409999967  0.0000000020000002
  0.7320204970000006  0.0653537880000030  0.0999999940000009
  0.4820203780000014  0.8153536319999972  0.2000000330000020
  0.2320203190000001  0.5653535129999980  0.2999999820000028
  0.9700341220000013  0.9940068129999986  0.5000000599999979
  0.7320202590000022  0.0653533939999988  0.5000000599999979
  0.9820204970000006  0.6486871840000035  0.0000000020000002
  0.7320204970000006  0.3986871239999985  0.0999999940000009
  0.4820203780000014  0.1486870049999993  0.2000000330000020
  0.2320203190000001  0.8986868860000001  0.2999999820000028
  0.9820202590000022  0.6486868860000001  0.4000000059999991
  0.7320202590000022  0.3986867670000009  0.5000000599999979
  0.9820204970000006  0.0653537740000019  0.1000000009999980
  0.2320204820000029  0.8986871239999985  0.0999999940000009
  0.9820203780000014  0.6486870049999993  0.2000000029999995
  0.7320203780000014  0.3986868260000023  0.2999999820000028
  0.4820203190000001  0.1486867670000009  0.4000000059999991
  0.7320202590000022  0.8153535719999994  0.4000000360000016
  0.4820204970000006  0.4820204680000018  0.0000000000000000
  0.2320204820000029  0.2320204379999993  0.0999999940000009
  0.3033666609999983  0.4106730219999974  0.0000001189999992
  0.0533674509999997  0.1606734690000025  0.5000000599999979
  0.8033674959999999  0.1606734840000001  0.5000000599999979
  0.2320202590000022  0.2320200799999981  0.5000000599999979
  0.4820204970000006  0.8153538700000027  0.0000000000000000
  0.2200332880000033  0.2440063660000007  0.0000001189999992
  0.2320204970000006  0.9820204970000006  0.0000000009999965
  0.9820202590000022  0.7320200200000002  0.5000000599999979
  0.4820203190000001  0.8153535129999980  0.4000000059999991
  0.2320202590000022  0.5653533939999988  0.5000000599999979
  0.7320204970000006  0.1486871540000010  0.0000000140000012
  0.4820204680000018  0.8986871239999985  0.1000000009999980
  0.2320203929999991  0.6486870049999993  0.2000000330000020
  0.9820203190000001  0.3986868860000001  0.3000000420000006
  0.2200341819999991  0.9940068129999986  0.5000000599999979
  0.4820202590000022  0.8986867670000009  0.5000000599999979
  0.7320204970000006  0.4820204680000018  0.0000000140000012
  0.4820204680000018  0.2320204529999970  0.1000000009999980
  0.2320203929999991  0.9820203190000001  0.2000000330000020
  0.9820203190000001  0.7320202590000022  0.3000000420000006
  0.7320202590000022  0.4820201400000030  0.4000000360000016
  0.4820202590000022  0.2320200200000002  0.5000000599999979
  0.7320204970000006  0.8153538700000027  0.0000000140000012
  0.4820204680000018  0.5653538700000027  0.1000000009999980
  0.8866999150000012  0.5773396490000025  0.0000001189999992
  0.6367008089999970  0.3273401559999982  0.5000000599999979
  0.2320202590000022  0.8986866469999981  0.5000000599999979
  0.4820202590000022  0.5653534530000002  0.5000000599999979
  0.9820203780000014  0.3153536920000022  0.2000000029999995
  0.9820204970000006  0.7320204970000006  0.1000000009999980
  0.7200332880000033  0.7440063359999982  0.0000001189999992
  0.4700341220000013  0.4940068129999986  0.5000000599999979
  0.2320203190000001  0.9820201400000030  0.4000000059999991
  0.7320203780000014  0.0653535869999970  0.2999999820000028
  0.2320204970000006  0.3153538110000014  0.0000000009999965
  0.4820204970000006  0.1486871689999987  0.0000000000000000
  0.1367001529999996  0.5773396490000025  0.0000001189999992
  0.8867007489999992  0.3273400960000004  0.5000000599999979
  0.2320203190000001  0.3153534530000002  0.4000000059999991
  0.9820202590000022  0.0653533939999988  0.5000000599999979
  0.2320204970000006  0.6486872429999977  0.0000000009999965
  0.4700332880000033  0.2440063210000005  0.0000001189999992
  0.7320203780000014  0.1486869900000016  0.2000000330000020
  0.4820202590000022  0.8986868860000001  0.3000000420000006
  0.2320203190000001  0.6486868860000001  0.4000000059999991
  0.9820202590000022  0.3986867670000009  0.5000000599999979
  0.3033674059999996  0.6606734989999978  0.5000000599999979
  0.8867006300000000  0.5773400659999979  0.6000000829999976
  0.4700338239999979  0.4940066340000016  0.7000000479999997
  0.0533668400000025  0.4106732010000016  0.8000000720000031
  0.6367000340000004  0.3273397680000016  0.9000000360000016
  0.2320204820000029  0.5653537510000035  0.0999999940000009
  0.9820203190000001  0.0653536020000018  0.3000000420000006
  0.2200340480000023  0.2440067380000031  0.6000000240000034
  0.8033671979999966  0.1606733050000031  0.7000000479999997
  0.3867002730000024  0.0773398500000013  0.8000000720000031
  0.9700334070000025  0.9940064549999974  0.9000000360000016
  0.5533665419999991  0.9106730219999974  0.0000001189999992
  0.9820202590000022  0.3153535129999980  0.4000000059999991
  0.5533673170000029  0.9106733799999986  0.6000000240000034
  0.1367005110000008  0.8273399469999987  0.7000000479999997
  0.7200335260000017  0.7440065150000024  0.8000000720000031
  0.3033667799999975  0.6606730820000024  0.9000000360000016
  0.2320203929999991  0.3153537210000010  0.2000000330000020
  0.1367007639999969  0.8273401860000007  0.5000000599999979
  0.7200339440000008  0.7440067530000007  0.6000000240000034
  0.3033671379999987  0.6606733200000008  0.7000000479999997
  0.8867001529999996  0.5773398879999974  0.8000000720000031
  0.4700334070000025  0.4940064250000020  0.9000000360000016
  0.7320204970000006  0.7320204379999993  0.0999999940000009
  0.4820202590000022  0.2320201989999973  0.3000000420000006
  0.0533673349999972  0.4106733799999986  0.6000000829999976
  0.6367005110000008  0.3273399469999987  0.7000000479999997
  0.2200335260000017  0.2440064999999976  0.8000000720000031
  0.8033666609999983  0.1606730669999976  0.9000000360000016
  0.3866999150000012  0.0773396860000020  0.0000001189999992
  0.4820203190000001  0.4820201400000030  0.4000000059999991
  0.3867007200000003  0.0773400739999985  0.6000000240000034
  0.9700338840000029  0.9940066340000016  0.7000000479999997
  0.5533668989999967  0.9106732010000016  0.8000000720000031
  0.1367000939999983  0.8273397680000016  0.9000000360000016
  0.7320203780000014  0.4820203190000001  0.2000000330000020
  0.3867008089999970  0.8273401860000007  0.5000000599999979
  0.9700340030000021  0.7440068129999986  0.6000000240000034
  0.5533671379999987  0.6606733200000008  0.7000000479999997
  0.1367002129999975  0.5773398879999974  0.8000000720000031
  0.7200334070000025  0.4940064250000020  0.9000000360000016
  0.9820203780000014  0.9820203190000001  0.2000000029999995
  0.7200342419999970  0.4940068129999986  0.5000000599999979
  0.3033674059999996  0.4106734100000011  0.6000000829999976
  0.8867005709999987  0.3273399770000012  0.7000000479999997
  0.4700335859999996  0.2440065150000024  0.8000000720000031
  0.0533667799999975  0.1606730820000024  0.9000000360000016
  0.6367000340000004  0.0773396490000025  0.0000001189999992
  0.7320203780000014  0.7320201989999973  0.2999999820000028
  0.6367006300000000  0.0773400440000032  0.6000000240000034
  0.2200338239999979  0.9940066340000016  0.7000000479999997
  0.8033668989999967  0.9106731409999966  0.8000000720000031
  0.3867000340000004  0.8273397090000003  0.9000000360000016
  0.9700334070000025  0.7440063359999982  0.0000001189999992
  0.5533675550000012  0.6606734399999965  0.5000000599999979
  0.1367007639999969  0.5773400659999979  0.6000000829999976
  0.7200338840000029  0.4940066340000016  0.7000001070000010
  0.3033669590000017  0.4106731709999991  0.8000000720000031
  0.8867001529999996  0.3273397390000028  0.9000000360000016
  0.9820204970000006  0.3986870940000031  0.1000000009999980
  0.4820202590000022  0.5653535129999980  0.3000000420000006
  0.4700340030000021  0.2440067080000006  0.6000000240000034
  0.0533671230000010  0.1606732609999995  0.7000000479999997
  0.6367001529999996  0.0773398059999977  0.8000000720000031
  0.2200333480000012  0.9940063949999995  0.9000000360000016
  0.8033665419999991  0.9106729029999983  0.0000001189999992
  0.7320202590000022  0.1486868260000023  0.4000000360000016
  0.8033673759999971  0.9106733799999986  0.6000000240000034
  0.3867005110000008  0.8273400069999965  0.7000000479999997
  0.9700335260000017  0.7440065150000024  0.8000000720000031
  0.5533667799999975  0.6606731409999966  0.9000000360000016
  0.7320203780000014  0.8153536319999972  0.2000000330000020
 
  0.00000000E+00  0.00000000E+00  0.00000000E+00
  0.00000000E+00  0.00000000E+00  0.00000000E+00
  0.00000000E+00  0.00000000E+00  0.00000000E+00
  0.00000000E+00  0.00000000E+00  0.00000000E+00
  0.00000000E+00  0.00000000E+00  0.00000000E+00
  0.00000000E+00  0.00000000E+00  0.00000000E+00
  0.00000000E+00  0.00000000E+00  0.00000000E+00
  0.00000000E+00  0.00000000E+00  0.00000000E+00
  0.00000000E+00  0.00000000E+00  0.00000000E+00
  0.00000000E+00  0.00000000E+00  0.00000000E+00
  0.00000000E+00  0.00000000E+00  0.00000000E+00
  0.00000000E+00  0.00000000E+00  0.00000000E+00
  0.00000000E+00  0.00000000E+00  0.00000000E+00
  0.00000000E+00  0.00000000E+00  0.00000000E+00
  0.00000000E+00  0.00000000E+00  0.00000000E+00
  0.00000000E+00  0.00000000E+00  0.00000000E+00
  0.00000000E+00  0.00000000E+00  0.00000000E+00
  0.00000000E+00  0.00000000E+00  0.00000000E+00
  0.00000000E+00  0.00000000E+00  0.00000000E+00
  0.00000000E+00  0.00000000E+00  0.00000000E+00
  0.00000000E+00  0.00000000E+00  0.00000000E+00
  0.00000000E+00  0.00000000E+00  0.00000000E+00
  0.00000000E+00  0.00000000E+00  0.00000000E+00
  0.00000000E+00  0.00000000E+00  0.00000000E+00
  0.00000000E+00  0.00000000E+00  0.00000000E+00
  0.00000000E+00  0.00000000E+00  0.00000000E+00
  0.00000000E+00  0.00000000E+00  0.00000000E+00
  0.00000000E+00  0.00000000E+00  0.00000000E+00
  0.00000000E+00  0.00000000E+00  0.00000000E+00
  0.00000000E+00  0.00000000E+00  0.00000000E+00
  0.00000000E+00  0.00000000E+00  0.00000000E+00
  0.00000000E+00  0.00000000E+00  0.00000000E+00
  0.00000000E+00  0.00000000E+00  0.00000000E+00
  0.00000000E+00  0.00000000E+00  0.00000000E+00
  0.00000000E+00  0.00000000E+00  0.00000000E+00
  0.00000000E+00  0.00000000E+00  0.00000000E+00
  0.00000000E+00  0.00000000E+00  0.00000000E+00
  0.00000000E+00  0.00000000E+00  0.00000000E+00
  0.00000000E+00  0.00000000E+00  0.00000000E+00
  0.00000000E+00  0.00000000E+00  0.00000000E+00
  0.00000000E+00  0.00000000E+00  0.00000000E+00
  0.00000000E+00  0.00000000E+00  0.00000000E+00
  0.00000000E+00  0.00000000E+00  0.00000000E+00
  0.00000000E+00  0.00000000E+00  0.00000000E+00
  0.00000000E+00  0.00000000E+00  0.00000000E+00
  0.00000000E+00  0.00000000E+00  0.00000000E+00
  0.00000000E+00  0.00000000E+00  0.00000000E+00
  0.00000000E+00  0.00000000E+00  0.00000000E+00
  0.00000000E+00  0.00000000E+00  0.00000000E+00
  0.00000000E+00  0.00000000E+00  0.00000000E+00
  0.00000000E+00  0.00000000E+00  0.00000000E+00
  0.00000000E+00  0.00000000E+00  0.00000000E+00
  0.00000000E+00  0.00000000E+00  0.00000000E+00
  0.00000000E+00  0.00000000E+00  0.00000000E+00
  0.00000000E+00  0.00000000E+00  0.00000000E+00
  0.00000000E+00  0.00000000E+00  0.00000000E+00
  0.00000000E+00  0.00000000E+00  0.00000000E+00
  0.00000000E+00  0.00000000E+00  0.00000000E+00
  0.00000000E+00  0.00000000E+00  0.00000000E+00
  0.00000000E+00  0.00000000E+00  0.00000000E+00
  0.00000000E+00  0.00000000E+00  0.00000000E+00
  0.00000000E+00  0.00000000E+00  0.00000000E+00
  0.00000000E+00  0.00000000E+00  0.00000000E+00
  0.00000000E+00  0.00000000E+00  0.00000000E+00
  0.00000000E+00  0.00000000E+00  0.00000000E+00
  0.00000000E+00  0.00000000E+00  0.00000000E+00
  0.00000000E+00  0.00000000E+00  0.00000000E+00
  0.00000000E+00  0.00000000E+00  0.00000000E+00
  0.00000000E+00  0.00000000E+00  0.00000000E+00
  0.00000000E+00  0.00000000E+00  0.00000000E+00
  0.00000000E+00  0.00000000E+00  0.00000000E+00
  0.00000000E+00  0.00000000E+00  0.00000000E+00
  0.00000000E+00  0.00000000E+00  0.00000000E+00
  0.00000000E+00  0.00000000E+00  0.00000000E+00
  0.00000000E+00  0.00000000E+00  0.00000000E+00
  0.00000000E+00  0.00000000E+00  0.00000000E+00
  0.00000000E+00  0.00000000E+00  0.00000000E+00
  0.00000000E+00  0.00000000E+00  0.00000000E+00
  0.00000000E+00  0.00000000E+00  0.00000000E+00
  0.00000000E+00  0.00000000E+00  0.00000000E+00
  0.00000000E+00  0.00000000E+00  0.00000000E+00
  0.00000000E+00  0.00000000E+00  0.00000000E+00
  0.00000000E+00  0.00000000E+00  0.00000000E+00
  0.00000000E+00  0.00000000E+00  0.00000000E+00
  0.00000000E+00  0.00000000E+00  0.00000000E+00
  0.00000000E+00  0.00000000E+00  0.00000000E+00
  0.00000000E+00  0.00000000E+00  0.00000000E+00
  0.00000000E+00  0.00000000E+00  0.00000000E+00
  0.00000000E+00  0.00000000E+00  0.00000000E+00
  0.00000000E+00  0.00000000E+00  0.00000000E+00
  0.00000000E+00  0.00000000E+00  0.00000000E+00
  0.00000000E+00  0.00000000E+00  0.00000000E+00
  0.00000000E+00  0.00000000E+00  0.00000000E+00
  0.00000000E+00  0.00000000E+00  0.00000000E+00
  0.00000000E+00  0.00000000E+00  0.00000000E+00
  0.00000000E+00  0.00000000E+00  0.00000000E+00
  0.00000000E+00  0.00000000E+00  0.00000000E+00
  0.00000000E+00  0.00000000E+00  0.00000000E+00
  0.00000000E+00  0.00000000E+00  0.00000000E+00
  0.00000000E+00  0.00000000E+00  0.00000000E+00
  0.00000000E+00  0.00000000E+00  0.00000000E+00
  0.00000000E+00  0.00000000E+00  0.00000000E+00
  0.00000000E+00  0.00000000E+00  0.00000000E+00
  0.00000000E+00  0.00000000E+00  0.00000000E+00
  0.00000000E+00  0.00000000E+00  0.00000000E+00
  0.00000000E+00  0.00000000E+00  0.00000000E+00
  0.00000000E+00  0.00000000E+00  0.00000000E+00
  0.00000000E+00  0.00000000E+00  0.00000000E+00
  0.00000000E+00  0.00000000E+00  0.00000000E+00
  0.00000000E+00  0.00000000E+00  0.00000000E+00
  0.00000000E+00  0.00000000E+00  0.00000000E+00
  0.00000000E+00  0.00000000E+00  0.00000000E+00
  0.00000000E+00  0.00000000E+00  0.00000000E+00
  0.00000000E+00  0.00000000E+00  0.00000000E+00
  0.00000000E+00  0.00000000E+00  0.00000000E+00
  0.00000000E+00  0.00000000E+00  0.00000000E+00
  0.00000000E+00  0.00000000E+00  0.00000000E+00
  0.00000000E+00  0.00000000E+00  0.00000000E+00
  0.00000000E+00  0.00000000E+00  0.00000000E+00
  0.00000000E+00  0.00000000E+00  0.00000000E+00
  0.00000000E+00  0.00000000E+00  0.00000000E+00
  0.00000000E+00  0.00000000E+00  0.00000000E+00
  0.00000000E+00  0.00000000E+00  0.00000000E+00
  0.00000000E+00  0.00000000E+00  0.00000000E+00
  0.00000000E+00  0.00000000E+00  0.00000000E+00
  0.00000000E+00  0.00000000E+00  0.00000000E+00
  0.00000000E+00  0.00000000E+00  0.00000000E+00
  0.00000000E+00  0.00000000E+00  0.00000000E+00
  0.00000000E+00  0.00000000E+00  0.00000000E+00
  0.00000000E+00  0.00000000E+00  0.00000000E+00
  0.00000000E+00  0.00000000E+00  0.00000000E+00
  0.00000000E+00  0.00000000E+00  0.00000000E+00
  0.00000000E+00  0.00000000E+00  0.00000000E+00
  0.00000000E+00  0.00000000E+00  0.00000000E+00
  0.00000000E+00  0.00000000E+00  0.00000000E+00
  0.00000000E+00  0.00000000E+00  0.00000000E+00
  0.00000000E+00  0.00000000E+00  0.00000000E+00
  0.00000000E+00  0.00000000E+00  0.00000000E+00
  0.00000000E+00  0.00000000E+00  0.00000000E+00
  0.00000000E+00  0.00000000E+00  0.00000000E+00
  0.00000000E+00  0.00000000E+00  0.00000000E+00
  0.00000000E+00  0.00000000E+00  0.00000000E+00
  0.00000000E+00  0.00000000E+00  0.00000000E+00
  0.00000000E+00  0.00000000E+00  0.00000000E+00
