Ge+Si
    1.000000000
   16.973400116    0.000000000    0.000000000
    0.000000000   16.973400116    0.000000000
    0.000000000    0.000000000   13.861000061
Ge  Si 
108     120
Direct
    0.994305491    0.666666567    0.000000000
    0.827638865    0.666666567    0.204090595
    0.660972118    0.666666567    0.408181220
    0.994305491    0.333333284    0.000000000
    0.827638865    0.333333284    0.204090595
    0.660972118    0.333333284    0.408181220
    0.994305491    0.000000000    0.000000000
    0.827638865    0.000000000    0.204090595
    0.660972118    0.000000000    0.408181220
    0.327638805    0.666666567    0.000000000
    0.160972148    0.666666567    0.204090595
    0.994305432    0.666666567    0.408181220
    0.327638805    0.333333284    0.000000000
    0.160972148    0.333333284    0.204090595
    0.994305432    0.333333284    0.408181220
    0.327638805    0.000000000    0.000000000
    0.160972148    0.000000000    0.204090595
    0.994305432    0.000000000    0.408181220
    0.660972118    0.666666567    0.000000000
    0.494305432    0.666666567    0.204090595
    0.327638745    0.666666567    0.408181220
    0.660972118    0.333333284    0.000000000
    0.494305432    0.333333284    0.204090595
    0.327638745    0.333333284    0.408181220
    0.660972118    0.000000000    0.000000000
    0.494305432    0.000000000    0.204090595
    0.327638745    0.000000000    0.408181220
    0.077638842    0.916666567    0.102045305
    0.910972118    0.916666567    0.306135923
    0.744305491    0.916666567    0.510226548
    0.077638842    0.583333313    0.102045305
    0.910972118    0.583333313    0.306135923
    0.744305491    0.583333313    0.510226548
    0.077638842    0.249999955    0.102045305
    0.910972118    0.249999955    0.306135923
    0.744305491    0.249999955    0.510226548
    0.410972089    0.916666567    0.102045305
    0.244305417    0.916666567    0.306135923
    0.077638723    0.916666567    0.510226548
    0.410972089    0.583333313    0.102045305
    0.244305417    0.583333313    0.306135923
    0.077638723    0.583333313    0.510226548
    0.410972089    0.249999955    0.102045305
    0.244305417    0.249999955    0.306135923
    0.077638723    0.249999955    0.510226548
    0.744305491    0.916666567    0.102045305
    0.577638745    0.916666567    0.306135923
    0.410972059    0.916666567    0.510226548
    0.744305491    0.583333313    0.102045305
    0.577638745    0.583333313    0.306135923
    0.410972059    0.583333313    0.510226548
    0.744305491    0.249999955    0.102045305
    0.577638745    0.249999955    0.306135923
    0.410972059    0.249999955    0.510226548
    0.160972163    0.833333194    0.000000000
    0.994305491    0.833333194    0.204090595
    0.827638805    0.833333194    0.408181220
    0.160972163    0.499999911    0.000000000
    0.994305491    0.499999911    0.204090595
    0.827638805    0.499999911    0.408181220
    0.160972163    0.166666642    0.000000000
    0.994305491    0.166666642    0.204090595
    0.827638805    0.166666642    0.408181220
    0.494305432    0.833333194    0.000000000
    0.327638745    0.833333194    0.204090595
    0.160972074    0.833333194    0.408181220
    0.494305432    0.499999911    0.000000000
    0.327638745    0.499999911    0.204090595
    0.160972074    0.499999911    0.408181220
    0.494305432    0.166666642    0.000000000
    0.327638745    0.166666642    0.204090595
    0.160972074    0.166666642    0.408181220
    0.827638805    0.833333194    0.000000000
    0.660972118    0.833333194    0.204090595
    0.494305432    0.833333194    0.408181220
    0.827638805    0.499999911    0.000000000
    0.660972118    0.499999911    0.204090595
    0.494305432    0.499999911    0.408181220
    0.827638805    0.166666642    0.000000000
    0.660972118    0.166666642    0.204090595
    0.494305432    0.166666642    0.408181220
    0.244305462    0.749999881    0.102045305
    0.077638783    0.749999881    0.306135923
    0.910972118    0.749999881    0.510226548
    0.244305462    0.416666627    0.102045305
    0.077638783    0.416666627    0.306135923
    0.910972118    0.416666627    0.510226548
    0.244305462    0.083333328    0.102045305
    0.077638783    0.083333328    0.306135923
    0.910972118    0.083333328    0.510226548
    0.577638865    0.749999881    0.102045305
    0.410972148    0.749999881    0.306135923
    0.244305447    0.749999881    0.510226548
    0.577638865    0.416666627    0.102045305
    0.410972148    0.416666627    0.306135923
    0.244305447    0.416666627    0.510226548
    0.577638865    0.083333328    0.102045305
    0.410972148    0.083333328    0.306135923
    0.244305447    0.083333328    0.510226548
    0.910972178    0.749999881    0.102045305
    0.744305491    0.749999881    0.306135923
    0.577638745    0.749999881    0.510226548
    0.910972178    0.416666627    0.102045305
    0.744305491    0.416666627    0.306135923
    0.577638745    0.416666627    0.510226548
    0.910972178    0.083333328    0.102045305
    0.744305491    0.083333328    0.306135923
    0.577638745    0.083333328    0.510226548
    0.996404350    0.974830687    0.510226607
    0.946404338    0.624830604    0.706135988
    0.896404266    0.274830461    0.902045488
    0.096404403    0.674830735    0.510226607
    0.046404336    0.324830651    0.706135988
    0.996404231    0.974830508    0.902045488
    0.196404412    0.374830663    0.510226607
    0.146404341    0.024830597    0.706135988
    0.096404262    0.674830437    0.902045488
    0.296404392    0.074830659    0.510226607
    0.246404305    0.724830627    0.706135988
    0.196404234    0.374830425    0.902045488
    0.396404445    0.774830699    0.510226607
    0.346404374    0.424830586    0.706135988
    0.296404302    0.074830458    0.902045488
    0.496404380    0.474830687    0.510226607
    0.446404308    0.124830604    0.706135988
    0.396404237    0.774830461    0.902045488
    0.596404374    0.174830645    0.510226607
    0.546404302    0.824830592    0.706135988
    0.496404260    0.474830449    0.902045488
    0.696404517    0.874830782    0.510226607
    0.646404445    0.524830639    0.706135988
    0.596404374    0.174830541    0.902045488
    0.796404421    0.574830711    0.510226607
    0.746404350    0.224830613    0.706135988
    0.696404278    0.874830484    0.902045488
    0.896404505    0.274830699    0.510226607
    0.846404433    0.924830616    0.706135988
    0.796404362    0.574830472    0.902045488
    0.996404409    0.224830672    0.608181298
    0.946404278    0.874830544    0.804090679
    0.896404266    0.524830461    1.000000000
    0.096404366    0.924830616    0.608181298
    0.046404287    0.574830532    0.804090679
    0.996404231    0.224830389    1.000000000
    0.196404412    0.624830663    0.608181298
    0.146404341    0.274830550    0.804090679
    0.096404262    0.924830496    1.000000000
    0.296404421    0.324830621    0.608181298
    0.246404335    0.974830508    0.804090679
    0.196404263    0.624830484    1.000000000
    0.396404415    0.024830639    0.608181298
    0.346404314    0.674830556    0.804090679
    0.296404243    0.324830472    1.000000000
    0.496404499    0.724830687    0.608181298
    0.446404427    0.374830574    0.804090679
    0.396404356    0.024830524    1.000000000
    0.596404374    0.424830586    0.608181298
    0.546404302    0.074830495    0.804090679
    0.496404260    0.724830449    1.000000000
    0.696404517    0.124830663    0.608181298
    0.646404386    0.774830580    0.804090679
    0.596404374    0.424830496    1.000000000
    0.796404481    0.824830711    0.608181298
    0.746404409    0.474830568    0.804090679
    0.696404338    0.124830484    1.000000000
    0.896404445    0.524830639    0.608181298
    0.846404374    0.174830541    0.804090679
    0.796404302    0.824830472    1.000000000
    0.996404409    0.474830687    0.510226607
    0.946404338    0.124830604    0.706135988
    0.896404266    0.774830461    0.902045488
    0.096404381    0.174830660    0.510226607
    0.046404313    0.824830592    0.706135988
    0.996404231    0.474830449    0.902045488
    0.196404412    0.874830663    0.510226607
    0.146404326    0.524830580    0.706135988
    0.096404262    0.174830437    0.902045488
    0.296404421    0.574830651    0.510226607
    0.246404320    0.224830598    0.706135988
    0.196404248    0.874830484    0.902045488
    0.396404445    0.274830669    0.510226607
    0.346404374    0.924830616    0.706135988
    0.296404302    0.574830472    0.902045488
    0.496404409    0.974830627    0.510226607
    0.446404338    0.624830544    0.706135988
    0.396404237    0.274830401    0.902045488
    0.596404374    0.674830675    0.510226607
    0.546404302    0.324830592    0.706135988
    0.496404231    0.974830449    0.902045488
    0.696404397    0.374830633    0.510226607
    0.646404326    0.024830561    0.706135988
    0.596404254    0.674830437    0.902045488
    0.796404421    0.074830636    0.510226607
    0.746404350    0.724830508    0.706135988
    0.696404278    0.374830425    0.902045488
    0.896404505    0.774830699    0.510226607
    0.846404433    0.424830616    0.706135988
    0.796404362    0.074830480    0.902045488
    0.996404350    0.724830747    0.608181298
    0.946404278    0.374830604    0.804090679
    0.896404266    0.024830539    1.000000000
    0.096404389    0.424830675    0.608181298
    0.046404306    0.074830569    0.804090679
    0.996404231    0.724830508    1.000000000
    0.196404412    0.124830656    0.608181298
    0.146404341    0.774830580    0.804090679
    0.096404269    0.424830496    1.000000000
    0.296404392    0.824830711    0.608181298
    0.246404320    0.474830568    0.804090679
    0.196404248    0.124830484    1.000000000
    0.396404415    0.524830759    0.608181298
    0.346404344    0.174830645    0.804090679
    0.296404272    0.824830592    1.000000000
    0.496404409    0.224830642    0.608181298
    0.446404338    0.874830544    0.804090679
    0.396404237    0.524830461    1.000000000
    0.596404433    0.924830675    0.608181298
    0.546404362    0.574830592    0.804090679
    0.496404290    0.224830508    1.000000000
    0.696404457    0.624830723    0.608181298
    0.646404386    0.274830580    0.804090679
    0.596404314    0.924830556    1.000000000
    0.796404362    0.324830621    0.608181298
    0.746404290    0.974830508    0.804090679
    0.696404219    0.624830484    1.000000000
    0.896404386    0.024830626    0.608181298
    0.846404314    0.674830556    0.804090679
    0.796404243    0.324830413    1.000000000
