Si+C
    1.000000000
   12.144085884    0.000000000    0.000000000
    0.000000000   16.293001175    0.000000000
    0.000000000    0.000000000    9.341293335
Si  C  
36     264
Direct
    0.982905626    0.652421355    0.000000002
    0.782905579    0.485754639    0.130004391
    0.582905412    0.319087952    0.260008782
    0.982905626    0.319088012    0.000000002
    0.782905579    0.152421340    0.130004391
    0.582905412    0.985754669    0.260008782
    0.982905626    0.985754728    0.000000002
    0.782905579    0.819088042    0.130004391
    0.582905412    0.652421355    0.260008782
    0.632905662    0.902421415    0.065002054
    0.432905585    0.735754728    0.195006445
    0.232905522    0.569088042    0.325010836
    0.632905662    0.569088042    0.065002054
    0.432905585    0.402421355    0.195006445
    0.232905522    0.235754684    0.325010836
    0.632905662    0.235754773    0.065002054
    0.432905585    0.069088079    0.195006445
    0.232905522    0.902421415    0.325010836
    0.482905626    0.819087923    0.000000000
    0.282905549    0.652421296    0.130004391
    0.082905442    0.485754550    0.260008782
    0.482905626    0.485754669    0.000000000
    0.282905549    0.319087982    0.130004391
    0.082905442    0.152421311    0.260008782
    0.482905626    0.152421370    0.000000000
    0.282905549    0.985754669    0.130004391
    0.082905442    0.819087982    0.260008782
    0.132905677    0.735754669    0.065002069
    0.932905555    0.569087923    0.195006445
    0.732905507    0.402421296    0.325010836
    0.132905677    0.402421385    0.065002069
    0.932905555    0.235754684    0.195006445
    0.732905507    0.069088019    0.325010836
    0.132905677    0.069088019    0.065002069
    0.932905555    0.902421296    0.195006445
    0.732905507    0.735754669    0.325010836
    0.977272689    0.997159064    0.325010836
    0.795454383    0.974431694    0.460008681
    0.613636076    0.951704323    0.595006466
    0.431817830    0.928976953    0.730004311
    0.249999404    0.906249642    0.865002155
    0.068181157    0.883522272    0.999999881
    0.704545379    0.088068157    0.325010836
    0.522727132    0.065340795    0.460008681
    0.340908825    0.042613428    0.595006466
    0.159090519    0.019886052    0.730004311
    0.977272213    0.997158706    0.865002155
    0.795453846    0.974431336    1.000000000
    0.431818157    0.178977221    0.325010836
    0.249999836    0.156249866    0.460008681
    0.068181552    0.133522511    0.595006466
    0.886363268    0.110795125    0.730004311
    0.704544902    0.088067755    0.865002155
    0.522726536    0.065340385    1.000000000
    0.159090877    0.269886345    0.325010836
    0.977272570    0.247158974    0.460008681
    0.795454264    0.224431604    0.595006466
    0.613636017    0.201704219    0.730004311
    0.431817651    0.178976879    0.865002155
    0.249999285    0.156249523    1.000000000
    0.886363626    0.360795408    0.325010836
    0.704545259    0.338068008    0.460008681
    0.522727013    0.315340668    0.595006406
    0.340908676    0.292613298    0.730004311
    0.159090355    0.269885927    0.865002155
    0.977272034    0.247158542    1.000000000
    0.613636315    0.451704502    0.325010836
    0.431817979    0.428977102    0.460008681
    0.249999702    0.406249762    0.595006406
    0.068181403    0.383522391    0.730004311
    0.886363089    0.360795021    0.865002155
    0.704544723    0.338067651    1.000000000
    0.340909094    0.542613626    0.325010836
    0.159090757    0.519886255    0.460008681
    0.977272451    0.497158885    0.595006406
    0.795454204    0.474431485    0.730004311
    0.613635778    0.451704174    0.865002155
    0.431817532    0.428976774    1.000000000
    0.068181835    0.633522689    0.325010836
    0.886363506    0.610795319    0.460008681
    0.704545259    0.588067949    0.595006406
    0.522727013    0.565340519    0.730004311
    0.340908587    0.542613208    0.865002155
    0.159090221    0.519885838    1.000000000
    0.795454502    0.724431753    0.325010836
    0.613636196    0.701704383    0.460008621
    0.431817859    0.678977013    0.595006466
    0.249999568    0.656249642    0.730004311
    0.068181254    0.633522272    0.865002155
    0.886362910    0.610794902    1.000000000
    0.522727251    0.815340936    0.325010836
    0.340908945    0.792613506    0.460008621
    0.159090668    0.769886196    0.595006466
    0.977272332    0.747158825    0.730004311
    0.795454025    0.724431455    0.865002155
    0.613635719    0.701704025    1.000000000
    0.249999985    0.906249940    0.325010836
    0.068181679    0.883522570    0.460008621
    0.886363387    0.860795200    0.595006466
    0.704545021    0.838067830    0.730004311
    0.522726774    0.815340459    0.865002155
    0.340908408    0.792613089    1.000000000
    0.340909064    0.042613614    0.325010836
    0.159090772    0.019886252    0.460008681
    0.977272451    0.997158885    0.595006466
    0.795454144    0.974431515    0.730004311
    0.613635838    0.951704144    0.865002155
    0.431817472    0.928976774    1.000000000
    0.068181798    0.133522719    0.325010836
    0.886363506    0.110795349    0.460008681
    0.704545200    0.088067979    0.595006466
    0.522726893    0.065340601    0.730004311
    0.340908527    0.042613238    0.865002155
    0.159090161    0.019885853    1.000000000
    0.795454502    0.224431783    0.325010836
    0.613636196    0.201704413    0.460008681
    0.431817830    0.178977042    0.595006466
    0.249999568    0.156249672    0.730004311
    0.068181224    0.133522302    0.865002155
    0.886362910    0.110794947    1.000000000
    0.522727251    0.315340877    0.325010836
    0.340908915    0.292613477    0.460008681
    0.159090623    0.269886106    0.595006466
    0.977272332    0.247158751    0.730004311
    0.795454025    0.224431396    0.865002155
    0.613635659    0.201704010    1.000000000
    0.249999985    0.406250000    0.325010836
    0.068181664    0.383522630    0.460008681
    0.886363387    0.360795259    0.595006466
    0.704545081    0.338067889    0.730004311
    0.522726715    0.315340549    0.865002155
    0.340908408    0.292613149    1.000000000
    0.977272689    0.497159064    0.325010836
    0.795454383    0.474431664    0.460008681
    0.613636136    0.451704293    0.595006466
    0.431817770    0.428976923    0.730004311
    0.249999464    0.406249553    0.865002155
    0.068181157    0.383522213    1.000000000
    0.704545438    0.588068187    0.325010836
    0.522727132    0.565340757    0.460008681
    0.340908825    0.542613387    0.595006526
    0.159090519    0.519886076    0.730004311
    0.977272213    0.497158706    0.865002155
    0.795453846    0.474431306    1.000000000
    0.431818157    0.678977251    0.325010836
    0.249999836    0.656249881    0.460008681
    0.068181559    0.633522511    0.595006526
    0.886363268    0.610795140    0.730004311
    0.704544902    0.588067770    0.865002155
    0.522726595    0.565340400    1.000000000
    0.159090906    0.769886255    0.325010836
    0.977272570    0.747158885    0.460008681
    0.795454264    0.724431515    0.595006466
    0.613636017    0.701704144    0.730004311
    0.431817651    0.678976834    0.865002155
    0.249999285    0.656249404    1.000000000
    0.886363566    0.860795319    0.325010836
    0.704545200    0.838068008    0.460008681
    0.522726893    0.815340638    0.595006466
    0.340908617    0.792613268    0.730004311
    0.159090295    0.769885898    0.865002155
    0.977271914    0.747158468    1.000000000
    0.613636315    0.951704502    0.325010836
    0.431818008    0.928977132    0.460008621
    0.249999747    0.906249821    0.595006466
    0.068181418    0.883522332    0.730004311
    0.886363089    0.860795021    0.865002155
    0.704544783    0.838067651    0.999999881
    0.727272689    0.997159064    0.325010836
    0.545454383    0.974431694    0.460008681
    0.363636106    0.951704323    0.595006466
    0.181817815    0.928976953    0.730004311
    0.999999464    0.906249583    0.865002155
    0.818181157    0.883522213    1.000000000
    0.454545379    0.088068157    0.325010836
    0.272727072    0.065340795    0.460008681
    0.090908781    0.042613428    0.595006466
    0.909090459    0.019886060    0.730004311
    0.727272153    0.997158706    0.865002155
    0.545453787    0.974431336    1.000000000
    0.181818128    0.178977236    0.325010836
    0.999999821    0.156249881    0.460008681
    0.818181515    0.133522525    0.595006466
    0.636363268    0.110795140    0.730004311
    0.454544902    0.088067807    0.865002155
    0.272726595    0.065340422    1.000000000
    0.909090877    0.269886345    0.325010836
    0.727272570    0.247158930    0.460008681
    0.545454264    0.224431589    0.595006466
    0.363636017    0.201704219    0.730004311
    0.181817651    0.178976849    0.865002155
    0.999999285    0.156249493    1.000000000
    0.636363626    0.360795438    0.325010836
    0.454545289    0.338068038    0.460008681
    0.272727013    0.315340668    0.595006466
    0.090908699    0.292613328    0.730004311
    0.909090340    0.269885927    0.865002155
    0.727272034    0.247158587    1.000000000
    0.363636315    0.451704502    0.325010836
    0.181817994    0.428977102    0.460008681
    0.999999702    0.406249732    0.595006406
    0.818181396    0.383522362    0.730004311
    0.636363029    0.360795021    0.865002155
    0.454544723    0.338067621    1.000000000
    0.090909071    0.542613626    0.325010836
    0.909090757    0.519886255    0.460008681
    0.727272451    0.497158885    0.595006466
    0.545454144    0.474431515    0.730004311
    0.363635898    0.451704115    0.865002155
    0.181817472    0.428976744    1.000000000
    0.818181813    0.633522689    0.325010836
    0.636363447    0.610795259    0.460008681
    0.454545170    0.588067949    0.595006466
    0.272726864    0.565340579    0.730004311
    0.090908550    0.542613208    0.865002155
    0.909090221    0.519885838    1.000000000
    0.545454502    0.724431753    0.325010836
    0.363636196    0.701704383    0.460008681
    0.181817919    0.678977013    0.595006466
    0.999999642    0.656249642    0.730004311
    0.818181276    0.633522332    0.865002155
    0.636362910    0.610794902    1.000000000
    0.272727251    0.815340877    0.325010836
    0.090908907    0.792613506    0.460008681
    0.909090638    0.769886136    0.595006466
    0.727272272    0.747158766    0.730004311
    0.545453966    0.724431455    0.865002155
    0.363635719    0.701703966    1.000000000
    0.000000000    0.906249881    0.325010836
    0.818181634    0.883522511    0.460008681
    0.636363387    0.860795140    0.595006466
    0.454545081    0.838067710    0.730004311
    0.272726774    0.815340400    0.865002155
    0.090908349    0.792613029    1.000000000
    0.090909064    0.042613622    0.325010836
    0.909090757    0.019886252    0.460008681
    0.727272451    0.997158885    0.595006466
    0.545454144    0.974431515    0.730004311
    0.363635838    0.951704144    0.865002155
    0.181817472    0.928976774    1.000000000
    0.818181753    0.133522719    0.325010836
    0.636363387    0.110795349    0.460008681
    0.454545140    0.088067979    0.595006466
    0.272726834    0.065340616    0.730004311
    0.090908483    0.042613246    0.865002155
    0.909090161    0.019885877    1.000000000
    0.545454562    0.224431798    0.325010836
    0.363636225    0.201704413    0.460008681
    0.181817919    0.178977057    0.595006466
    0.999999642    0.156249702    0.730004311
    0.818181276    0.133522332    0.865002155
    0.636362910    0.110794954    1.000000000
    0.272727281    0.315340877    0.325010836
    0.090908952    0.292613506    0.460008681
    0.909090638    0.269886136    0.595006466
    0.727272391    0.247158766    0.730004311
    0.545454025    0.224431410    0.865002155
    0.363635719    0.201704055    1.000000000
    0.000000000    0.406250000    0.325010836
    0.818181694    0.383522600    0.460008681
    0.636363387    0.360795259    0.595006466
    0.454545140    0.338067859    0.730004311
    0.272726774    0.315340489    0.865002155
    0.090908468    0.292613149    1.000000000
    0.727272630    0.497159034    0.325010836
    0.545454323    0.474431634    0.460008681
    0.363636017    0.451704293    0.595006526
    0.181817725    0.428976923    0.730004311
    0.999999404    0.406249583    0.865002155
    0.818181038    0.383522183    1.000000000
    0.454545468    0.588068187    0.325010836
    0.272727132    0.565340757    0.460008681
    0.090908855    0.542613447    0.595006526
    0.909090579    0.519886076    0.730004311
    0.727272213    0.497158736    0.865002155
    0.545453846    0.474431306    1.000000000
    0.181818172    0.678977311    0.325010836
    0.999999881    0.656249881    0.460008681
    0.818181574    0.633522570    0.595006526
    0.636363268    0.610795140    0.730004311
    0.454544902    0.588067830    0.865002155
    0.272726595    0.565340459    1.000000000
    0.909090936    0.769886315    0.325010836
    0.727272570    0.747158945    0.460008621
    0.545454264    0.724431634    0.595006466
    0.363635987    0.701704204    0.730004311
    0.181817666    0.678976893    0.865002155
    0.999999344    0.656249523    1.000000000
    0.636363506    0.860795379    0.325010836
    0.454545230    0.838068008    0.460008621
    0.272726923    0.815340638    0.595006466
    0.090908617    0.792613268    0.730004311
    0.909090281    0.769885898    0.865002155
    0.727271974    0.747158527    1.000000000
    0.363636345    0.951704502    0.325010836
    0.181818038    0.928977132    0.460008621
    0.999999762    0.906249762    0.595006466
    0.818181396    0.883522391    0.730004311
    0.636363029    0.860795081    0.865002155
    0.454544842    0.838067710    1.000000000
