Sn+Ge
    1.000000000
   12.978400230    0.000000000    0.000000000
  -12.978400230   12.978400230    0.000000000
    0.000000000    0.000000000   19.583751678
Sn  Ge 
48     60
Direct
    0.492552608    0.000000000    0.000000000
    0.242552638    0.000000000    0.165678188
    0.992552698    0.000000000    0.331356287
    0.992552638    0.000000000    0.000000000
    0.742552638    0.000000000    0.165678188
    0.492552757    0.000000000    0.331356287
    0.492552608    0.499999970    0.000000000
    0.242552638    0.499999970    0.165678188
    0.992552698    0.499999970    0.331356287
    0.992552638    0.499999970    0.000000000
    0.742552638    0.499999970    0.165678188
    0.492552698    0.499999970    0.331356287
    0.492552608    0.124999993    0.082839087
    0.242552668    0.124999993    0.248517260
    0.992552638    0.124999993    0.414195418
    0.992552638    0.124999993    0.082839087
    0.742552757    0.124999993    0.248517260
    0.492552698    0.124999993    0.414195418
    0.492552578    0.624999940    0.082839087
    0.242552638    0.624999940    0.248517260
    0.992552638    0.624999940    0.414195418
    0.992552638    0.624999940    0.082839087
    0.742552698    0.624999940    0.248517260
    0.492552698    0.624999940    0.414195418
    0.492552638    0.249999985    0.000000000
    0.242552638    0.249999985    0.165678188
    0.992552698    0.249999985    0.331356287
    0.992552638    0.249999985    0.000000000
    0.742552638    0.249999985    0.165678188
    0.492552757    0.249999985    0.331356287
    0.492552608    0.749999940    0.000000000
    0.242552593    0.749999940    0.165678188
    0.992552698    0.749999940    0.331356287
    0.992552638    0.749999940    0.000000000
    0.742552638    0.749999940    0.165678188
    0.492552698    0.749999940    0.331356287
    0.492552608    0.374999970    0.082839087
    0.242552668    0.374999970    0.248517260
    0.992552638    0.374999970    0.414195418
    0.992552638    0.374999970    0.082839087
    0.742552757    0.374999970    0.248517260
    0.492552698    0.374999970    0.414195418
    0.492552608    0.874999940    0.082839087
    0.242552698    0.874999940    0.248517260
    0.992552638    0.874999940    0.414195418
    0.992552638    0.874999940    0.082839087
    0.742552757    0.874999940    0.248517260
    0.492552757    0.874999940    0.414195418
    0.943870127    0.678826511    0.526533484
    0.843870103    0.778826535    0.670984805
    0.743870020    0.878826618    0.815436304
    0.143870115    0.478826523    0.526533484
    0.043870091    0.578826547    0.670984805
    0.943870068    0.678826571    0.815436304
    0.743870199    0.878826618    0.526533484
    0.643870115    0.978826642    0.670984805
    0.543870091    0.078826666    0.815436304
    0.543870151    0.078826547    0.526533484
    0.443870127    0.178826571    0.670984805
    0.343870103    0.278826594    0.815436304
    0.343870133    0.278826594    0.526533484
    0.243870109    0.378826618    0.670984805
    0.143870115    0.478826612    0.815436304
    0.043870211    0.828826547    0.598759174
    0.943870127    0.928826571    0.743210614
    0.843870103    0.028826594    0.887661994
    0.243870139    0.628826559    0.598759174
    0.143870115    0.728826582    0.743210614
    0.043870091    0.828826606    0.887661994
    0.843870163    0.028826594    0.598759174
    0.743870080    0.128826618    0.743210614
    0.643870056    0.228826642    0.887661994
    0.643870175    0.228826523    0.598759174
    0.543870151    0.328826547    0.743210614
    0.443870068    0.428826690    0.887661994
    0.443870068    0.428826690    0.598759174
    0.343870044    0.528826714    0.743210614
    0.243869990    0.628826737    0.887661994
    0.543870151    0.578826547    0.526533484
    0.443870127    0.678826571    0.670984805
    0.343870103    0.778826594    0.815436304
    0.343870133    0.778826594    0.526533484
    0.243870109    0.878826618    0.670984805
    0.143869996    0.978826642    0.815436304
    0.943870127    0.178826571    0.526533484
    0.843870103    0.278826594    0.670984805
    0.743870080    0.378826618    0.815436304
    0.143870115    0.978826523    0.526533484
    0.043870091    0.078826547    0.670984805
    0.943870068    0.178826690    0.815436304
    0.743870080    0.378826618    0.526533484
    0.643870056    0.478826612    0.670984805
    0.543869972    0.578826785    0.815436304
    0.843870163    0.528826535    0.598759174
    0.743870080    0.628826618    0.743210614
    0.643870056    0.728826642    0.887661994
    0.643870115    0.728826523    0.598759174
    0.543870091    0.828826606    0.743210614
    0.443870068    0.928826630    0.887661994
    0.443870127    0.928826571    0.598759174
    0.343870074    0.028826594    0.743210614
    0.243870050    0.128826618    0.887661994
    0.043870211    0.328826666    0.598759174
    0.943870187    0.428826690    0.743210614
    0.843870163    0.528826714    0.887661994
    0.243870080    0.128826618    0.598759174
    0.143869996    0.228826642    0.743210614
    0.043869972    0.328826666    0.887661994
