Sn+Ge
    1.000000000
   19.467599869    0.000000000    0.000000000
   -6.489200115   18.354230881    0.000000000
    0.000000000    0.000000000   25.800941467
Sn  Ge 
144     192
Direct
    0.991010249    0.985017061    0.000000004
    0.866010249    0.776683688    0.088922285
    0.741010189    0.568350196    0.177844614
    0.616010189    0.360016763    0.266766876
    0.491010129    0.151683390    0.355689168
    0.366010129    0.943349957    0.444611520
    0.991010249    0.318350405    0.000000004
    0.866010249    0.110017046    0.088922285
    0.741010189    0.901683569    0.177844614
    0.616010189    0.693350196    0.266766876
    0.491010129    0.485016763    0.355689168
    0.366010129    0.276683390    0.444611520
    0.991010249    0.651683807    0.000000004
    0.866010249    0.443350375    0.088922285
    0.741010189    0.235016942    0.177844614
    0.616010189    0.026683522    0.266766876
    0.491010129    0.818350136    0.355689168
    0.366010129    0.610016704    0.444611520
    0.491010249    0.151683748    0.000000008
    0.366010249    0.943350375    0.088922285
    0.241010204    0.735016942    0.177844599
    0.116010167    0.526683450    0.266766876
    0.991010189    0.318350077    0.355689168
    0.866010129    0.110016644    0.444611490
    0.491010249    0.485017061    0.000000008
    0.366010249    0.276683688    0.088922285
    0.241010204    0.068350248    0.177844599
    0.116010167    0.860016823    0.266766876
    0.991010189    0.651683450    0.355689168
    0.866010129    0.443350077    0.444611490
    0.491010249    0.818350375    0.000000008
    0.366010249    0.610017002    0.088922285
    0.241010204    0.401683569    0.177844599
    0.116010167    0.193350136    0.266766876
    0.991010189    0.985016763    0.355689168
    0.866010129    0.776683331    0.444611490
    0.241010249    0.068350412    0.000000003
    0.116010241    0.860017061    0.088922285
    0.991010189    0.651683569    0.177844599
    0.866010189    0.443350077    0.266766876
    0.741010189    0.235016763    0.355689168
    0.616010129    0.026683331    0.444611520
    0.241010249    0.401683748    0.000000003
    0.116010241    0.193350390    0.088922285
    0.991010189    0.985016942    0.177844599
    0.866010189    0.776683509    0.266766876
    0.741010189    0.568350077    0.355689168
    0.616010129    0.360016704    0.444611520
    0.241010249    0.735017121    0.000000003
    0.116010241    0.526683748    0.088922285
    0.991010189    0.318350255    0.177844599
    0.866010189    0.110016860    0.266766876
    0.741010189    0.901683509    0.355689168
    0.616010129    0.693350077    0.444611520
    0.741010249    0.235017091    0.000000008
    0.616010249    0.026683707    0.088922299
    0.491010219    0.818350196    0.177844614
    0.366010159    0.610016763    0.266766906
    0.241010159    0.401683450    0.355689198
    0.116010115    0.193350017    0.444611520
    0.741010249    0.568350375    0.000000008
    0.616010249    0.360017031    0.088922299
    0.491010219    0.151683584    0.177844614
    0.366010159    0.943350136    0.266766906
    0.241010159    0.735016763    0.355689198
    0.116010115    0.526683331    0.444611520
    0.741010249    0.901683807    0.000000008
    0.616010249    0.693350375    0.088922299
    0.491010219    0.485016942    0.177844614
    0.366010159    0.276683509    0.266766906
    0.241010159    0.068350151    0.355689198
    0.116010115    0.860016704    0.444611520
    0.366010249    0.026683766    0.000000016
    0.241010234    0.818350375    0.088922292
    0.116010197    0.610016942    0.177844614
    0.991010129    0.401683509    0.266766906
    0.866010129    0.193350136    0.355689198
    0.741010129    0.985016704    0.444611520
    0.366010249    0.360017091    0.000000016
    0.241010234    0.151683733    0.088922292
    0.116010197    0.943350315    0.177844614
    0.991010129    0.735016823    0.266766906
    0.866010129    0.526683450    0.355689198
    0.741010129    0.318350077    0.444611520
    0.366010249    0.693350494    0.000000016
    0.241010234    0.485017091    0.088922292
    0.116010197    0.276683658    0.177844614
    0.991010129    0.068350218    0.266766906
    0.866010129    0.860016823    0.355689198
    0.741010129    0.651683390    0.444611520
    0.866010308    0.193350419    0.000000000
    0.741010308    0.985017061    0.088922292
    0.616010249    0.776683569    0.177844614
    0.491010189    0.568350196    0.266766906
    0.366010189    0.360016763    0.355689198
    0.241010144    0.151683331    0.444611520
    0.866010308    0.526683807    0.000000000
    0.741010308    0.318350405    0.088922292
    0.616010249    0.110016957    0.177844614
    0.491010189    0.901683569    0.266766906
    0.366010189    0.693350196    0.355689198
    0.241010144    0.485016704    0.444611520
    0.866010308    0.860017121    0.000000000
    0.741010308    0.651683688    0.088922292
    0.616010249    0.443350285    0.177844614
    0.491010189    0.235016838    0.266766906
    0.366010189    0.026683476    0.355689198
    0.241010144    0.818350077    0.444611520
    0.116010249    0.276683748    0.000000003
    0.991010249    0.068350360    0.088922292
    0.866010189    0.860016942    0.177844614
    0.741010129    0.651683450    0.266766906
    0.616010189    0.443350077    0.355689168
    0.491010129    0.235016644    0.444611520
    0.116010249    0.610017121    0.000000003
    0.991010249    0.401683718    0.088922292
    0.866010189    0.193350270    0.177844614
    0.741010129    0.985016823    0.266766906
    0.616010189    0.776683450    0.355689168
    0.491010129    0.568350017    0.444611520
    0.116010249    0.943350375    0.000000003
    0.991010249    0.735016942    0.088922292
    0.866010189    0.526683509    0.177844614
    0.741010129    0.318350136    0.266766906
    0.616010189    0.110016756    0.355689168
    0.491010129    0.901683331    0.444611520
    0.616010249    0.110017069    0.000000013
    0.491010249    0.901683688    0.088922292
    0.366010189    0.693350196    0.177844614
    0.241010159    0.485016763    0.266766906
    0.116010159    0.276683450    0.355689198
    0.991010129    0.068350017    0.444611520
    0.616010249    0.443350375    0.000000013
    0.491010249    0.235017002    0.088922292
    0.366010189    0.026683571    0.177844614
    0.241010159    0.818350136    0.266766906
    0.116010159    0.610016704    0.355689198
    0.991010129    0.401683331    0.444611520
    0.616010249    0.776683748    0.000000013
    0.491010249    0.568350375    0.088922292
    0.366010189    0.360016853    0.177844614
    0.241010159    0.151683450    0.266766906
    0.116010159    0.943350077    0.355689198
    0.991010129    0.735016644    0.444611520
    0.182987452    0.930411637    0.528481901
    0.995487452    0.867911637    0.606011450
    0.807987452    0.805411637    0.683541059
    0.620487452    0.742911637    0.761070490
    0.432987452    0.680411637    0.838600039
    0.245487452    0.617911637    0.916129470
    0.932987452    0.680411637    0.528481901
    0.745487452    0.617911637    0.606011450
    0.557987452    0.555411637    0.683541059
    0.370487452    0.492911637    0.761070490
    0.182987452    0.430411637    0.838600039
    0.995487452    0.367911637    0.916129470
    0.682987452    0.930411637    0.528481901
    0.495487452    0.867911637    0.606011510
    0.307987452    0.805411637    0.683541000
    0.120487452    0.742911637    0.761070490
    0.932987452    0.680411637    0.838600039
    0.745487452    0.617911637    0.916129470
    0.432987452    0.680411637    0.528481901
    0.245487452    0.617911637    0.606011510
    0.057987452    0.555411637    0.683541000
    0.870487452    0.492911637    0.761070490
    0.682987452    0.430411637    0.838599980
    0.495487452    0.367911637    0.916129470
    0.182987452    0.430411637    0.528481901
    0.995487452    0.367911637    0.606011510
    0.807987452    0.305411607    0.683541000
    0.620487452    0.242911607    0.761070490
    0.432987452    0.180411577    0.838599980
    0.245487452    0.117911577    0.916129470
    0.932987452    0.180411577    0.528481901
    0.745487452    0.117911577    0.606011510
    0.557987452    0.055411577    0.683541000
    0.370487452    0.992911637    0.761070490
    0.182987452    0.930411696    0.838599980
    0.995487452    0.867911637    0.916129470
    0.682987452    0.430411637    0.528481901
    0.495487452    0.367911637    0.606011450
    0.307987452    0.305411637    0.683541000
    0.120487452    0.242911637    0.761070490
    0.932987452    0.180411577    0.838600039
    0.745487452    0.117911577    0.916129470
    0.432987452    0.180411577    0.528481901
    0.245487452    0.117911577    0.606011450
    0.057987452    0.055411577    0.683541000
    0.870487452    0.992911637    0.761070490
    0.682987452    0.930411696    0.838600039
    0.495487452    0.867911637    0.916129470
    0.057987452    0.055411577    0.528481901
    0.870487452    0.992911637    0.606011450
    0.682987452    0.930411637    0.683541000
    0.495487452    0.867911637    0.761070430
    0.307987452    0.805411637    0.838599980
    0.120487452    0.742911637    0.916129470
    0.557987452    0.055411577    0.528481901
    0.370487452    0.992911637    0.606011510
    0.182987452    0.930411577    0.683541059
    0.995487452    0.867911637    0.761070490
    0.807987452    0.805411637    0.838600039
    0.620487452    0.742911577    0.916129470
    0.307987452    0.805411637    0.528481901
    0.120487452    0.742911637    0.606011510
    0.932987452    0.680411637    0.683541000
    0.745487452    0.617911637    0.761070490
    0.557987452    0.555411637    0.838599980
    0.370487452    0.492911637    0.916129470
    0.057987452    0.555411637    0.528481901
    0.870487452    0.492911637    0.606011510
    0.682987452    0.430411637    0.683541000
    0.495487452    0.367911637    0.761070490
    0.307987452    0.305411637    0.838600039
    0.120487452    0.242911622    0.916129470
    0.807987452    0.805411637    0.528481901
    0.620487452    0.742911637    0.606011510
    0.432987452    0.680411577    0.683541000
    0.245487452    0.617911577    0.761070490
    0.057987452    0.555411577    0.838599980
    0.870487452    0.492911577    0.916129470
    0.557987452    0.555411637    0.528481901
    0.370487452    0.492911637    0.606011510
    0.182987452    0.430411577    0.683541000
    0.995487452    0.367911607    0.761070490
    0.807987452    0.305411607    0.838599980
    0.620487452    0.242911592    0.916129470
    0.307987452    0.305411637    0.528481901
    0.120487452    0.242911637    0.606011510
    0.932987452    0.180411577    0.683541000
    0.745487452    0.117911577    0.761070490
    0.557987452    0.055411696    0.838600039
    0.370487452    0.992911637    0.916129470
    0.807987452    0.305411577    0.528481901
    0.620487452    0.242911592    0.606011510
    0.432987452    0.180411577    0.683541000
    0.245487452    0.117911577    0.761070490
    0.057987571    0.055411577    0.838600099
    0.870487452    0.992911577    0.916129470
    0.182987452    0.055411577    0.528481901
    0.995487452    0.992911637    0.606011510
    0.807987452    0.930411637    0.683541000
    0.620487452    0.867911637    0.761070490
    0.432987452    0.805411637    0.838599980
    0.245487452    0.742911637    0.916129470
    0.932987452    0.805411637    0.528481901
    0.745487452    0.742911637    0.606011510
    0.557987452    0.680411637    0.683541000
    0.370487452    0.617911637    0.761070490
    0.182987452    0.555411637    0.838599980
    0.995487452    0.492911637    0.916129470
    0.682987452    0.055411577    0.528481901
    0.495487452    0.992911577    0.606011510
    0.307987332    0.930411577    0.683541000
    0.120487452    0.867911637    0.761070490
    0.932987452    0.805411637    0.838600039
    0.745487452    0.742911637    0.916129470
    0.432987452    0.805411637    0.528481901
    0.245487452    0.742911637    0.606011450
    0.057987452    0.680411637    0.683541000
    0.870487452    0.617911637    0.761070490
    0.682987452    0.555411637    0.838600039
    0.495487452    0.492911577    0.916129470
    0.182987452    0.555411637    0.528481901
    0.995487452    0.492911637    0.606011450
    0.807987452    0.430411637    0.683541000
    0.620487452    0.367911637    0.761070490
    0.432987452    0.305411637    0.838600039
    0.245487452    0.242911622    0.916129470
    0.932987452    0.305411637    0.528481901
    0.745487452    0.242911622    0.606011450
    0.557987452    0.180411577    0.683541000
    0.370487452    0.117911577    0.761070490
    0.182987452    0.055411696    0.838600039
    0.995487452    0.992911637    0.916129470
    0.682987452    0.555411637    0.528481901
    0.495487452    0.492911637    0.606011510
    0.307987452    0.430411577    0.683541059
    0.120487452    0.367911607    0.761070490
    0.932987452    0.305411607    0.838600039
    0.745487452    0.242911607    0.916129470
    0.432987452    0.305411637    0.528481901
    0.245487452    0.242911622    0.606011510
    0.057987452    0.180411577    0.683541059
    0.870487452    0.117911577    0.761070490
    0.682987452    0.055411696    0.838600039
    0.495487452    0.992911637    0.916129470
    0.307987452    0.930411637    0.528481901
    0.120487452    0.867911637    0.606011510
    0.932987452    0.805411637    0.683541000
    0.745487452    0.742911577    0.761070490
    0.557987452    0.680411577    0.838599980
    0.370487452    0.617911577    0.916129470
    0.057987452    0.680411637    0.528481901
    0.870487452    0.617911637    0.606011510
    0.682987452    0.555411637    0.683541000
    0.495487452    0.492911637    0.761070490
    0.307987452    0.430411637    0.838599980
    0.120487452    0.367911577    0.916129470
    0.807987452    0.930411696    0.528481901
    0.620487452    0.867911696    0.606011510
    0.432987452    0.805411696    0.683541000
    0.245487571    0.742911637    0.761070490
    0.057987571    0.680411696    0.838600039
    0.870487452    0.617911637    0.916129470
    0.557987452    0.680411696    0.528481901
    0.370487452    0.617911637    0.606011510
    0.182987452    0.555411637    0.683541000
    0.995487452    0.492911637    0.761070490
    0.807987452    0.430411637    0.838600039
    0.620487452    0.367911637    0.916129470
    0.307987452    0.430411637    0.528481901
    0.120487452    0.367911637    0.606011510
    0.932987452    0.305411637    0.683541000
    0.745487452    0.242911622    0.761070490
    0.557987452    0.180411577    0.838600039
    0.370487452    0.117911577    0.916129470
    0.057987452    0.180411577    0.528481901
    0.870487452    0.117911577    0.606011510
    0.682987452    0.055411577    0.683541000
    0.495487452    0.992911637    0.761070490
    0.307987452    0.930411696    0.838600039
    0.120487452    0.867911637    0.916129470
    0.807987452    0.430411696    0.528481901
    0.620487452    0.367911637    0.606011510
    0.432987452    0.305411607    0.683541000
    0.245487452    0.242911622    0.761070490
    0.057987571    0.180411577    0.838600039
    0.870487452    0.117911577    0.916129470
    0.557987452    0.180411577    0.528481901
    0.370487452    0.117911577    0.606011510
    0.182987452    0.055411577    0.683541000
    0.995487452    0.992911637    0.761070490
    0.807987452    0.930411637    0.838600039
    0.620487452    0.867911577    0.916129470
