fcc Si+fcc Ge
    1.000000000
    7.749890322    0.000000000    0.000000000
   -3.874945161   11.624835483    0.000000000
    0.000000000    0.000000000   18.633333333
Si    Ge   
12     66
Direct
    0.000000000    0.000000000    0.000000000
    0.388888889    0.277777778    0.049016100
    0.777777778    0.555555556    0.098032200
    0.500000000    0.000000000    0.000000000
    0.888888889    0.277777778    0.049016100
    0.277777778    0.555555556    0.098032200
    0.694444444    0.888888889    0.024508050
    0.083333333    0.166666667    0.073524150
    0.472222222    0.444444444    0.122540250
    0.194444444    0.888888889    0.024508050
    0.583333333    0.166666667    0.073524150
    0.972222222    0.444444444    0.122540250
    0.157894737    0.393442623    0.181574240
    0.324561404    0.226775956    0.333452594
    0.491228070    0.060109290    0.485330948
    0.657894737    0.893442623    0.637209302
    0.824561404    0.726775956    0.789087657
    0.991228070    0.560109290    0.940966011
    0.824561404    0.726775956    0.181574240
    0.991228070    0.560109290    0.333452594
    0.157894737    0.393442623    0.485330948
    0.324561404    0.226775956    0.637209302
    0.491228070    0.060109290    0.789087657
    0.657894737    0.893442623    0.940966011
    0.491228070    0.060109290    0.181574240
    0.657894737    0.893442623    0.333452594
    0.824561404    0.726775956    0.485330948
    0.991228070    0.560109290    0.637209302
    0.157894737    0.393442623    0.789087657
    0.324561404    0.226775956    0.940966011
    0.657894737    0.393442623    0.181574240
    0.824561404    0.226775956    0.333452594
    0.991228070    0.060109290    0.485330948
    0.157894737    0.893442623    0.637209302
    0.324561404    0.726775956    0.789087657
    0.491228070    0.560109290    0.940966011
    0.324561404    0.726775956    0.181574240
    0.491228070    0.560109290    0.333452594
    0.657894737    0.393442623    0.485330948
    0.824561404    0.226775956    0.637209302
    0.991228070    0.060109290    0.789087657
    0.157894737    0.893442623    0.940966011
    0.991228070    0.060109290    0.181574240
    0.157894737    0.893442623    0.333452594
    0.324561404    0.726775956    0.485330948
    0.491228070    0.560109290    0.637209302
    0.657894737    0.393442623    0.789087657
    0.824561404    0.226775956    0.940966011
    0.241228070    0.560109290    0.257513417
    0.407894737    0.393442623    0.409391771
    0.574561404    0.226775956    0.561270125
    0.741228070    0.060109290    0.713148479
    0.907894737    0.893442623    0.865026834
    0.907894737    0.893442623    0.257513417
    0.074561404    0.726775956    0.409391771
    0.241228070    0.560109290    0.561270125
    0.407894737    0.393442623    0.713148479
    0.574561404    0.226775956    0.865026834
    0.574561404    0.226775956    0.257513417
    0.741228070    0.060109290    0.409391771
    0.907894737    0.893442623    0.561270125
    0.074561404    0.726775956    0.713148479
    0.241228070    0.560109290    0.865026834
    0.741228070    0.560109290    0.257513417
    0.907894737    0.393442623    0.409391771
    0.074561404    0.226775956    0.561270125
    0.241228070    0.060109290    0.713148479
    0.407894737    0.893442623    0.865026834
    0.407894737    0.893442623    0.257513417
    0.574561404    0.726775956    0.409391771
    0.741228070    0.560109290    0.561270125
    0.907894737    0.393442623    0.713148479
    0.074561404    0.226775956    0.865026834
    0.074561404    0.226775956    0.257513417
    0.241228070    0.060109290    0.409391771
    0.407894737    0.893442623    0.561270125
    0.574561404    0.726775956    0.713148479
    0.741228070    0.560109290    0.865026834
