Ge+Sn
    1.000000000
   16.002676010    0.000000000    0.000000000
    8.001338005   13.858724594    0.000000000
    0.000000000    0.000000000   20.304012299
Ge  Sn 
96     72
Direct
    0.310883224    0.310883164    0.321762353
    0.977550030    0.977550030    0.000000025
    0.644216537    0.644216597    0.160881206
    0.810883164    0.310883164    0.321762353
    0.477550000    0.977550030    0.000000033
    0.144216582    0.644216597    0.160881206
    0.310883164    0.810883164    0.321762353
    0.977550030    0.477550000    0.000000031
    0.644216597    0.144216582    0.160881206
    0.810883164    0.810883164    0.321762353
    0.477550000    0.477550000    0.000000000
    0.144216567    0.144216567    0.160881177
    0.477549791    0.477549732    0.361982673
    0.144216686    0.144216612    0.040220331
    0.810883284    0.810883224    0.201101482
    0.977549791    0.477549672    0.361982673
    0.644216657    0.144216627    0.040220331
    0.310883284    0.810883224    0.201101482
    0.477549672    0.977549791    0.361982673
    0.144216627    0.644216657    0.040220331
    0.810883224    0.310883284    0.201101482
    0.977549672    0.977549791    0.361982644
    0.644216597    0.644216657    0.040220331
    0.310883164    0.310883254    0.201101452
    0.560883164    0.560883164    0.321762383
    0.227550015    0.227550015    0.000000035
    0.894216597    0.894216597    0.160881177
    0.060883213    0.560883164    0.321762413
    0.727550030    0.227550045    0.000000035
    0.394216597    0.894216597    0.160881206
    0.560883164    0.060883176    0.321762353
    0.227550015    0.727549970    0.000000012
    0.894216537    0.394216597    0.160881177
    0.060883190    0.060883105    0.321762353
    0.727550030    0.727549911    0.000000023
    0.394216627    0.394216567    0.160881206
    0.727549791    0.727549791    0.361982644
    0.394216627    0.394216627    0.040220268
    0.060883194    0.060883190    0.201101452
    0.227549791    0.727549791    0.361982644
    0.894216597    0.394216627    0.040220287
    0.560883164    0.060883190    0.201101452
    0.727549791    0.227549851    0.361982644
    0.394216627    0.894216657    0.040220287
    0.060883202    0.560883284    0.201101452
    0.227549851    0.227549851    0.361982644
    0.894216716    0.894216657    0.040220276
    0.560883284    0.560883284    0.201101452
    0.310883164    0.560883164    0.321762353
    0.977550030    0.227550015    0.000000020
    0.644216537    0.894216597    0.160881206
    0.810883164    0.560883164    0.321762383
    0.477550030    0.227550015    0.000000027
    0.144216597    0.894216597    0.160881206
    0.310883164    0.060883176    0.321762353
    0.977550030    0.727549970    0.000000027
    0.644216597    0.394216597    0.160881206
    0.810883164    0.060883090    0.321762353
    0.477550000    0.727549911    0.000000023
    0.144216612    0.394216537    0.160881177
    0.477549791    0.727549791    0.361982644
    0.144216612    0.394216597    0.040220287
    0.810883164    0.060883190    0.201101452
    0.977549732    0.727549791    0.361982644
    0.644216597    0.394216627    0.040220287
    0.310883164    0.060883190    0.201101452
    0.477549732    0.227549851    0.361982614
    0.144216627    0.894216657    0.040220276
    0.810883164    0.560883284    0.201101452
    0.977549791    0.227549851    0.361982614
    0.644216657    0.894216657    0.040220268
    0.310883224    0.560883284    0.201101452
    0.560883105    0.310883164    0.321762353
    0.227550015    0.977550030    0.000000022
    0.894216597    0.644216597    0.160881206
    0.060883183    0.310883164    0.321762383
    0.727549970    0.977550030    0.000000029
    0.394216627    0.644216597    0.160881206
    0.560883164    0.810883164    0.321762383
    0.227550000    0.477550000    0.000000031
    0.894216597    0.144216582    0.160881206
    0.060883179    0.810883105    0.321762353
    0.727549970    0.477549940    0.000000014
    0.394216597    0.144216537    0.160881177
    0.727549791    0.477549851    0.361982673
    0.394216686    0.144216716    0.040220316
    0.060883284    0.810883343    0.201101482
    0.227549672    0.477549851    0.361982673
    0.894216657    0.144216731    0.040220324
    0.560883284    0.810883343    0.201101452
    0.727549791    0.977549851    0.361982644
    0.394216686    0.644216716    0.040220331
    0.060883276    0.310883373    0.201101482
    0.227549732    0.977549791    0.361982673
    0.894216657    0.644216657    0.040220316
    0.560883284    0.310883284    0.201101452
    0.974673390    0.899371088    0.842448235
    0.308006704    0.899371088    0.473403841
    0.641340017    0.899371088    0.657926023
    0.308006704    0.232704401    0.842448235
    0.641340077    0.232704401    0.473403841
    0.974673390    0.232704401    0.657926023
    0.641340077    0.566037774    0.842448235
    0.974673390    0.566037774    0.473403811
    0.308006704    0.566037774    0.657926023
    0.308006704    0.899371088    0.888578892
    0.641340017    0.899371088    0.519534409
    0.974673390    0.899371088    0.704056621
    0.641340077    0.232704401    0.888578892
    0.974673450    0.232704401    0.519534409
    0.308006823    0.232704401    0.704056621
    0.974673212    0.566037774    0.888578773
    0.308006704    0.566037774    0.519534349
    0.641340077    0.566037774    0.704056621
    0.141340017    0.066037774    0.842448235
    0.474673390    0.066037774    0.473403841
    0.808006704    0.066037774    0.657926023
    0.474673450    0.399371147    0.842448235
    0.808006644    0.399371028    0.473403841
    0.141340017    0.399371028    0.657926083
    0.808006704    0.732704401    0.842448235
    0.141340017    0.732704401    0.473403841
    0.474673450    0.732704401    0.657926023
    0.474673331    0.066037774    0.888578892
    0.808006704    0.066037774    0.519534349
    0.141340017    0.066037774    0.704056561
    0.808006585    0.399371147    0.888578892
    0.141340017    0.399371147    0.519534349
    0.474673212    0.399371147    0.704056501
    0.141340017    0.732704401    0.888578832
    0.474673331    0.732704401    0.519534290
    0.808006704    0.732704401    0.704056561
    0.474673450    0.899371088    0.842448235
    0.808006704    0.899371088    0.473403841
    0.141340017    0.899371088    0.657926023
    0.808006704    0.232704401    0.842448235
    0.141340017    0.232704401    0.473403841
    0.474673450    0.232704401    0.657926023
    0.141340017    0.566037774    0.842448235
    0.474673390    0.566037774    0.473403841
    0.808006704    0.566037774    0.657926023
    0.808006704    0.899371088    0.888578832
    0.141340017    0.899371088    0.519534349
    0.474673331    0.899371088    0.704056501
    0.141340017    0.232704401    0.888578892
    0.474673331    0.232704401    0.519534349
    0.808006644    0.232704401    0.704056561
    0.474673331    0.566037774    0.888578773
    0.808006704    0.566037774    0.519534290
    0.141340017    0.566037774    0.704056561
    0.641340077    0.066037774    0.842448235
    0.974673390    0.066037774    0.473403841
    0.308006704    0.066037774    0.657926023
    0.974673390    0.399371147    0.842448235
    0.308006704    0.399371028    0.473403841
    0.641340017    0.399371028    0.657926023
    0.308006704    0.732704401    0.842448294
    0.641340017    0.732704401    0.473403811
    0.974673331    0.732704401    0.657926023
    0.974673331    0.066037774    0.888578892
    0.308006704    0.066037774    0.519534349
    0.641339958    0.066037774    0.704056561
    0.308006704    0.399371028    0.888578892
    0.641340017    0.399371028    0.519534409
    0.974673390    0.399371028    0.704056621
    0.641339958    0.732704401    0.888578892
    0.974673331    0.732704401    0.519534409
    0.308006704    0.732704401    0.704056621
