Si+C                                    
   1.00000000000000     
    13.3031797409999992    0.0000000000000000    0.0000000000000000
     6.6515893940000002   14.8734064099999994    0.0000000000000000
     0.0000000000000000    0.0000000000000000    8.1924057010000002
   Si   C 
    36    84
Direct
  0.2832494969999999  0.6416247490000018  0.0000000459999967
  0.8165827990000025  0.4082912800000003  0.1482360059999976
  0.3499159810000023  0.1749577670000022  0.2964720129999989
  0.6165827510000028  0.3082913759999997  0.0000000550000010
  0.1499160529999983  0.0749579299999965  0.1482360059999976
  0.6832492349999981  0.8416244390000003  0.2964719830000035
  0.9499161239999978  0.9749580619999989  0.0000000389999997
  0.4832494850000018  0.7416245940000010  0.1482360059999976
  0.0165826679999981  0.5082911249999995  0.2964719830000035
  0.7999162670000004  0.7749580139999992  0.0741178769999991
  0.3332495089999981  0.5416245460000013  0.2223538759999997
  0.8665827510000028  0.3082910780000034  0.3705898819999973
  0.1332496850000027  0.4416247609999999  0.0741178990000009
  0.6665829419999980  0.2082912770000007  0.2223538759999997
  0.1999162440000006  0.9749577640000027  0.3705898819999973
  0.4665828939999983  0.1082915369999995  0.0741178990000009
  0.9999161360000031  0.8749580380000026  0.2223538759999997
  0.5332493780000007  0.6416245699999976  0.3705898819999973
  0.7832495569999978  0.6416247490000018  0.0000000000000000
  0.3165828289999979  0.4082912800000003  0.1482359919999965
  0.8499160410000002  0.1749577819999999  0.2964720129999989
  0.1165827960000030  0.3082914049999985  0.0000000550000010
  0.6499160529999983  0.0749579519999983  0.1482360360000001
  0.1832492950000031  0.8416244980000016  0.2964720129999989
  0.4499161239999978  0.9749580619999989  0.0000000550000010
  0.9832494260000004  0.7416245940000010  0.1482360360000001
  0.5165826679999981  0.5082911249999995  0.2964720129999989
  0.2999161779999966  0.7749581340000020  0.0741178990000009
  0.8332494499999967  0.5416246650000005  0.2223539049999985
  0.3665826920000015  0.3082911970000026  0.3705898520000019
  0.6332494019999970  0.4416247309999974  0.0741179139999986
  0.1665826440000018  0.2082912620000030  0.2223539049999985
  0.6999159459999973  0.9749578240000005  0.3705898230000031
  0.9665827159999978  0.1082915510000007  0.0741178990000009
  0.4999159569999989  0.8749580380000026  0.2223539049999985
  0.0332492590000015  0.6416246289999989  0.3705898819999973
  0.0122321839999984  0.1450181009999980  0.5636028050000021
  0.9836605189999972  0.4164467160000029  0.6609566209999969
  0.9550889730000023  0.6878753299999971  0.7583102580000016
  0.1550892590000004  0.2878752350000013  0.5636028050000021
  0.1265177129999984  0.5593038800000016  0.6609566209999969
  0.0979461740000005  0.8307325239999983  0.7583102580000016
  0.2979463929999966  0.4307323990000000  0.5636028050000021
  0.2693748470000017  0.7021610139999979  0.6609566209999969
  0.2408033159999974  0.9735897179999995  0.7583103179999995
  0.4408035280000036  0.5735895629999987  0.5636028050000021
  0.4122319820000016  0.8450182079999990  0.6609566209999969
  0.3836604359999995  0.1164468529999994  0.7583103179999995
  0.5836606619999998  0.7164466979999986  0.5636028050000021
  0.5550890559999999  0.9878752830000010  0.6609566209999969
  0.5265175099999979  0.2593039269999977  0.7583103179999995
  0.7265177969999996  0.8593037719999970  0.5636028050000021
  0.6979462500000011  0.1307324169999973  0.6609566209999969
  0.6693747039999991  0.4021610019999997  0.7583102580000016
  0.8693749899999972  0.0021610260000031  0.5636028050000021
  0.8408034440000023  0.2735896109999985  0.6609566209999969
  0.8122317790000011  0.5450181960000009  0.7583103179999995
  0.1050892989999994  0.8878750800000006  0.6122796539999982
  0.0765177609999981  0.1593036650000030  0.7096333499999972
  0.0479462589999997  0.4307323689999976  0.8069871069999976
  0.2479463960000032  0.0307323930000010  0.6122796539999982
  0.2193748500000012  0.3021609780000034  0.7096332910000029
  0.1908032890000015  0.5735896830000016  0.8069871069999976
  0.3908035760000033  0.1735894680000030  0.6122796539999982
  0.3622319700000034  0.4450181719999975  0.7096332910000029
  0.3336603639999964  0.7164467569999999  0.8069871069999976
  0.5336606500000016  0.3164465429999979  0.6122796539999982
  0.5050891639999975  0.5878751870000016  0.7096333499999972
  0.4765174979999998  0.8593037130000027  0.8069871069999976
  0.6765177850000015  0.4593038260000029  0.6122796539999982
  0.6479462389999995  0.7307324410000007  0.7096333499999972
  0.6193746920000009  0.0021611450000023  0.8069871069999976
  0.8193749189999977  0.6021609310000002  0.6122796539999982
  0.7908033730000028  0.8735895749999969  0.7096333499999972
  0.7622318860000021  0.1450182199999972  0.8069871069999976
  0.9622321129999989  0.7450180649999965  0.6122796539999982
  0.9336606259999982  0.0164467099999968  0.7096333499999972
  0.9050889609999970  0.2878751750000035  0.8069871069999976
  0.0836606550000027  0.7164466380000007  0.5636028050000021
  0.0550891350000029  0.9878752830000010  0.6609566209999969
  0.0265175509999978  0.2593039269999977  0.7583102580000016
  0.2265177969999996  0.8593037719999970  0.5636028050000021
  0.1979462649999988  0.1307324169999973  0.6609566209999969
  0.1693747790000018  0.4021611209999989  0.7583103179999995
  0.3693749899999972  0.0021609069999968  0.5636028050000021
  0.3408035040000001  0.2735896109999985  0.6609566209999969
  0.3122318389999990  0.5450181960000009  0.7583102580000016
  0.5122321249999970  0.1450181009999980  0.5636028050000021
  0.4836605189999972  0.4164467160000029  0.6609566209999969
  0.4550890330000001  0.6878753299999971  0.7583103179999995
  0.6550892590000004  0.2878751750000035  0.5636028050000021
  0.6265177129999984  0.5593038199999967  0.6609566209999969
  0.5979461670000035  0.8307324649999970  0.7583103179999995
  0.7979464530000016  0.4307323990000000  0.5636028050000021
  0.7693748470000017  0.7021610139999979  0.6609566209999969
  0.7408033609999976  0.9735896589999982  0.7583103179999995
  0.9408035869999978  0.5735895039999974  0.5636028050000021
  0.9122319820000016  0.8450181480000012  0.6609566209999969
  0.8836604359999995  0.1164467329999965  0.7583103179999995
  0.0336606879999977  0.3164465730000003  0.6122796539999982
  0.0050891639999975  0.5878751870000016  0.7096332910000029
  0.9765175579999976  0.8593038320000019  0.8069871069999976
  0.1765178440000028  0.4593036170000033  0.6122796539999982
  0.1479462980000008  0.7307322619999965  0.7096333499999972
  0.1193747590000029  0.0021609069999968  0.8069871069999976
  0.3193749790000027  0.6021609310000002  0.6122796539999982
  0.2908034319999970  0.8735895160000027  0.7096333499999972
  0.2622318270000008  0.1450181009999980  0.8069871069999976
  0.4622321129999989  0.7450180049999986  0.6122796539999982
  0.4336605669999969  0.0164465900000010  0.7096332910000029
  0.4050890210000020  0.2878751750000035  0.8069871069999976
  0.6050891880000009  0.8878750209999993  0.6122796539999982
  0.5765177010000002  0.1593036650000030  0.7096332910000029
  0.5479461549999982  0.4307323689999976  0.8069871069999976
  0.7479463219999971  0.0307322740000018  0.6122796539999982
  0.7193747760000022  0.3021609780000034  0.7096333499999972
  0.6908032300000002  0.5735894439999996  0.8069871069999976
  0.8908035159999983  0.1735893489999967  0.6122796539999982
  0.8622319099999984  0.4450179339999991  0.7096332910000029
  0.8336603050000022  0.7164465190000016  0.8069871069999976
 
  0.00000000E+00  0.00000000E+00  0.00000000E+00
  0.00000000E+00  0.00000000E+00  0.00000000E+00
  0.00000000E+00  0.00000000E+00  0.00000000E+00
  0.00000000E+00  0.00000000E+00  0.00000000E+00
  0.00000000E+00  0.00000000E+00  0.00000000E+00
  0.00000000E+00  0.00000000E+00  0.00000000E+00
  0.00000000E+00  0.00000000E+00  0.00000000E+00
  0.00000000E+00  0.00000000E+00  0.00000000E+00
  0.00000000E+00  0.00000000E+00  0.00000000E+00
  0.00000000E+00  0.00000000E+00  0.00000000E+00
  0.00000000E+00  0.00000000E+00  0.00000000E+00
  0.00000000E+00  0.00000000E+00  0.00000000E+00
  0.00000000E+00  0.00000000E+00  0.00000000E+00
  0.00000000E+00  0.00000000E+00  0.00000000E+00
  0.00000000E+00  0.00000000E+00  0.00000000E+00
  0.00000000E+00  0.00000000E+00  0.00000000E+00
  0.00000000E+00  0.00000000E+00  0.00000000E+00
  0.00000000E+00  0.00000000E+00  0.00000000E+00
  0.00000000E+00  0.00000000E+00  0.00000000E+00
  0.00000000E+00  0.00000000E+00  0.00000000E+00
  0.00000000E+00  0.00000000E+00  0.00000000E+00
  0.00000000E+00  0.00000000E+00  0.00000000E+00
  0.00000000E+00  0.00000000E+00  0.00000000E+00
  0.00000000E+00  0.00000000E+00  0.00000000E+00
  0.00000000E+00  0.00000000E+00  0.00000000E+00
  0.00000000E+00  0.00000000E+00  0.00000000E+00
  0.00000000E+00  0.00000000E+00  0.00000000E+00
  0.00000000E+00  0.00000000E+00  0.00000000E+00
  0.00000000E+00  0.00000000E+00  0.00000000E+00
  0.00000000E+00  0.00000000E+00  0.00000000E+00
  0.00000000E+00  0.00000000E+00  0.00000000E+00
  0.00000000E+00  0.00000000E+00  0.00000000E+00
  0.00000000E+00  0.00000000E+00  0.00000000E+00
  0.00000000E+00  0.00000000E+00  0.00000000E+00
  0.00000000E+00  0.00000000E+00  0.00000000E+00
  0.00000000E+00  0.00000000E+00  0.00000000E+00
  0.00000000E+00  0.00000000E+00  0.00000000E+00
  0.00000000E+00  0.00000000E+00  0.00000000E+00
  0.00000000E+00  0.00000000E+00  0.00000000E+00
  0.00000000E+00  0.00000000E+00  0.00000000E+00
  0.00000000E+00  0.00000000E+00  0.00000000E+00
  0.00000000E+00  0.00000000E+00  0.00000000E+00
  0.00000000E+00  0.00000000E+00  0.00000000E+00
  0.00000000E+00  0.00000000E+00  0.00000000E+00
  0.00000000E+00  0.00000000E+00  0.00000000E+00
  0.00000000E+00  0.00000000E+00  0.00000000E+00
  0.00000000E+00  0.00000000E+00  0.00000000E+00
  0.00000000E+00  0.00000000E+00  0.00000000E+00
  0.00000000E+00  0.00000000E+00  0.00000000E+00
  0.00000000E+00  0.00000000E+00  0.00000000E+00
  0.00000000E+00  0.00000000E+00  0.00000000E+00
  0.00000000E+00  0.00000000E+00  0.00000000E+00
  0.00000000E+00  0.00000000E+00  0.00000000E+00
  0.00000000E+00  0.00000000E+00  0.00000000E+00
  0.00000000E+00  0.00000000E+00  0.00000000E+00
  0.00000000E+00  0.00000000E+00  0.00000000E+00
  0.00000000E+00  0.00000000E+00  0.00000000E+00
  0.00000000E+00  0.00000000E+00  0.00000000E+00
  0.00000000E+00  0.00000000E+00  0.00000000E+00
  0.00000000E+00  0.00000000E+00  0.00000000E+00
  0.00000000E+00  0.00000000E+00  0.00000000E+00
  0.00000000E+00  0.00000000E+00  0.00000000E+00
  0.00000000E+00  0.00000000E+00  0.00000000E+00
  0.00000000E+00  0.00000000E+00  0.00000000E+00
  0.00000000E+00  0.00000000E+00  0.00000000E+00
  0.00000000E+00  0.00000000E+00  0.00000000E+00
  0.00000000E+00  0.00000000E+00  0.00000000E+00
  0.00000000E+00  0.00000000E+00  0.00000000E+00
  0.00000000E+00  0.00000000E+00  0.00000000E+00
  0.00000000E+00  0.00000000E+00  0.00000000E+00
  0.00000000E+00  0.00000000E+00  0.00000000E+00
  0.00000000E+00  0.00000000E+00  0.00000000E+00
  0.00000000E+00  0.00000000E+00  0.00000000E+00
  0.00000000E+00  0.00000000E+00  0.00000000E+00
  0.00000000E+00  0.00000000E+00  0.00000000E+00
  0.00000000E+00  0.00000000E+00  0.00000000E+00
  0.00000000E+00  0.00000000E+00  0.00000000E+00
  0.00000000E+00  0.00000000E+00  0.00000000E+00
  0.00000000E+00  0.00000000E+00  0.00000000E+00
  0.00000000E+00  0.00000000E+00  0.00000000E+00
  0.00000000E+00  0.00000000E+00  0.00000000E+00
  0.00000000E+00  0.00000000E+00  0.00000000E+00
  0.00000000E+00  0.00000000E+00  0.00000000E+00
  0.00000000E+00  0.00000000E+00  0.00000000E+00
  0.00000000E+00  0.00000000E+00  0.00000000E+00
  0.00000000E+00  0.00000000E+00  0.00000000E+00
  0.00000000E+00  0.00000000E+00  0.00000000E+00
  0.00000000E+00  0.00000000E+00  0.00000000E+00
  0.00000000E+00  0.00000000E+00  0.00000000E+00
  0.00000000E+00  0.00000000E+00  0.00000000E+00
  0.00000000E+00  0.00000000E+00  0.00000000E+00
  0.00000000E+00  0.00000000E+00  0.00000000E+00
  0.00000000E+00  0.00000000E+00  0.00000000E+00
  0.00000000E+00  0.00000000E+00  0.00000000E+00
  0.00000000E+00  0.00000000E+00  0.00000000E+00
  0.00000000E+00  0.00000000E+00  0.00000000E+00
  0.00000000E+00  0.00000000E+00  0.00000000E+00
  0.00000000E+00  0.00000000E+00  0.00000000E+00
  0.00000000E+00  0.00000000E+00  0.00000000E+00
  0.00000000E+00  0.00000000E+00  0.00000000E+00
  0.00000000E+00  0.00000000E+00  0.00000000E+00
  0.00000000E+00  0.00000000E+00  0.00000000E+00
  0.00000000E+00  0.00000000E+00  0.00000000E+00
  0.00000000E+00  0.00000000E+00  0.00000000E+00
  0.00000000E+00  0.00000000E+00  0.00000000E+00
  0.00000000E+00  0.00000000E+00  0.00000000E+00
  0.00000000E+00  0.00000000E+00  0.00000000E+00
  0.00000000E+00  0.00000000E+00  0.00000000E+00
  0.00000000E+00  0.00000000E+00  0.00000000E+00
  0.00000000E+00  0.00000000E+00  0.00000000E+00
  0.00000000E+00  0.00000000E+00  0.00000000E+00
  0.00000000E+00  0.00000000E+00  0.00000000E+00
  0.00000000E+00  0.00000000E+00  0.00000000E+00
  0.00000000E+00  0.00000000E+00  0.00000000E+00
  0.00000000E+00  0.00000000E+00  0.00000000E+00
  0.00000000E+00  0.00000000E+00  0.00000000E+00
  0.00000000E+00  0.00000000E+00  0.00000000E+00
  0.00000000E+00  0.00000000E+00  0.00000000E+00
  0.00000000E+00  0.00000000E+00  0.00000000E+00
  0.00000000E+00  0.00000000E+00  0.00000000E+00
