Si Ge
 1.0000000000000000
     7.6805944439999996    0.0000000000000000    0.0000000000000000
     0.0000000000000000   16.2929992679999991    0.0000000000000000
     0.0000000000000000    0.0000000000000000   16.6729927059999987
 Si  Ge 
  72  48
Direct
  1.0212199953119636  0.9734612733227075  0.0251344953577328
  0.7134383870565805  0.8135644057302792  0.1412344500022237
  0.4682479779449717  0.6557829192393131  0.2463795021911698
  0.2202027240190768  0.4851006926505367  0.3440939778439079
  0.9707130453811673  0.3175319687904393  0.4397139728873790
  0.6924921029184360  0.1580498306466287  0.5492992388583665
  0.9839306103571948  0.3398539516422005  0.0341122257436404
  0.7343053310141152  0.1458155325998935  0.1146209124457607
  0.4674561914544231  0.9894645305020174  0.2258714607659978
  0.2218791437980955  0.8134731408629046  0.3526830773005418
  0.9818409877249693  0.6392292554705188  0.4580292582571294
  0.7570544141410286  0.4631595967611877  0.5580577800489473
  0.9153963291823318  0.6612195192038762  0.0305063944542790
  0.3677198792382197  0.1235627484606631  0.9856991584515828
  0.4665591366715101  0.3283708181699714  0.2252920008441446
  0.2177492145018907  0.1589519494789247  0.3285523405674609
  0.5910537803308349  0.6311964444691920  0.5909097085557572
  0.7023163070176370  0.8303077724950054  0.5414297686457402
  0.5220209164684767  0.9567720940297969  0.0275200977720910
  0.1690987100537717  1.0364879708360630  0.9205224762438018
  0.9657697646458112  0.6529293909004982  0.2558901689671822
  0.7168050552205992  0.4863382766775520  0.3563181658025837
  0.4280110916851869  0.5404348347409346  0.6675272825963159
  0.1801790542960862  0.1649942130203617  0.5591472963619631
  0.4608679622393198  0.3335024599586618  0.0233758635335107
  0.6663867180398385  0.5836142904803826  0.0260158984056549
  0.9644599507260515  0.9874975461888476  0.2339378615013416
  0.7201770994418052  0.8239604302702188  0.3472436220903685
  0.9428558464605499  0.0792550643569090  0.5702991297259320
  0.2728354227372741  0.4733991439915052  0.5645435597131953
  0.4123346355521461  0.6625136396955074  0.0190889390999500
  0.1601611341839108  0.5859434203182663  0.0029922410376404
  0.9707338723717598  0.3269753317493788  0.2287755171870186
  0.7195245839023755  0.1683647251011920  0.3177727844732532
  0.4324885314174032  0.0869292939617125  0.5494820288290184
  0.2140102163903068  0.8401565886784381  0.5080389662937317
  0.7232807347545352  0.2703219068899832  0.0458529001057601
  0.2591764275651099  0.8910244993960664  0.0424526657214454
  0.2185309569787048  0.9160947104521543  0.2556303248670210
  0.9645138144151677  0.7430451453540535  0.3610513324621223
  0.5086084345736200  0.3848367506136494  0.5576743552160136
  0.7238992769182021  0.5696894522640477  0.4697882035933383
  0.2286357807759432  0.1508261472162123  0.1264684439473762
  0.4363992307834415  0.4250252678746299  0.1274330975801043
  0.2197238160523915  0.2494802363466769  0.2240903072684496
  0.9615356853109031  0.0885769891204707  0.3289856910391630
  0.7023509107768040  0.9258458639966310  0.4405626213225907
  0.4471600848449483  0.7554663999416442  0.5438618347524928
  0.7142544844632498  0.9108173555023718  0.2390069111272733
  0.4659084781638743  0.7362783672851279  0.1346657690063095
  0.2182750823565552  0.5808935251301158  0.2440347890521651
  1.0206328208170279  0.3969828869233168  0.5505336367798285
  0.7266750723594363  0.2373565644294728  0.4368713131484364
  0.4656814024267923  1.0106019383915386  0.4336489865145132
  0.2185891472889611  0.2499291763603632  0.0269521961209866
  0.9848592687361114  0.0699220203463928  0.1230658523744109
  0.7837311812293624  0.8855751895752777  0.0278198814878607
  0.4775936717460797  0.7425945805188719  0.3533785470513200
  0.2328128631715875  0.5629461907717535  0.4589163953716771
  0.9664140283558964  0.4110720330899320  0.3388261695314922
  0.2063075653227768  0.5136410983684901  0.1236979629327143
  0.9671064678226934  0.4315139173706412  0.1379911579191247
  0.7188416183542008  0.2537114056998208  0.2078777957354871
  0.4746916013394477  0.0900191749167153  0.3211859386822635
  0.2100147149495780  0.9428495151874366  0.4113759951386309
  0.9620425672003243  0.7641227411578642  0.5227942153864125
  0.4813912605626930  0.0698265090353150  0.1100899329856784
  0.9590266365926007  0.7348034948143127  0.1455545188760584
  0.7145882568019781  0.5794319482961557  0.2546289503529402
  0.4707974964716651  0.4092911331486428  0.3374360770426919
  0.2125062027714818  0.2363684028143985  0.4420273699489175
  0.4717969669770020  0.6466589909129253  0.4536452296390116
  1.0018094444426913  0.5233921249263596  0.6498404036619199
  0.8583853429226961  0.0607962819493156  0.7117207019657392
  0.5323546275601688  0.7210528261148565  0.8934226892758289
  0.9501403741760938  1.0088065570777001  0.4454931022395241
  0.1432089990556375  0.3453005202628422  0.7581075503081057
  1.0281723700388421  0.9771546489065092  0.8070337144514949
  1.0187963206903972  0.9229503300707050  0.6016818544404963
  0.8021872492975953  0.5987441283265234  0.8010010222850469
  0.5353057614446728  0.1842257488261906  0.8834544345326303
  0.5826938560169208  0.2671220691165494  0.6326566864581931
  0.0359474687662015  0.7930647987884554  0.7045174499147489
  0.8757466760974270  0.4511703500909477  0.8551876849199621
  0.1982790869806433  0.4919373706603998  0.7608507054262454
  1.1351560182161426  0.1290501324062431  0.7769951540155742
  0.8078985117390702  0.7660730863655119  0.9468579527079181
  0.7756257985168549  0.6903731128268914  0.6874531333091017
  0.4069661193350941  0.3044040078372566  0.8289960474297405
  0.2113387173761457  0.8128349438609376  0.1570607665182515
  0.2440281022494795  0.9209248724305960  0.7154213845926495
  1.1019210284160676  0.6054475247806697  0.8564338960596081
  0.7970170467344061  0.1574104794961193  0.9609273353420709
  0.8224359014528497  0.2144137950151013  0.7226191850638838
  0.3897244461623671  0.8481342941530845  0.8278055936743546
  0.1123517931184041  0.4477689795016322  0.9554088614781971
  1.0723761581481674  0.6628959616264949  0.6166223452742664
  0.6575009546412570  0.3511207039413685  0.7557094669602182
  0.4490510959655058  0.9795324852330757  0.8865923310434879
  1.0288927025244479  0.2818703409561728  0.6324613143944242
  0.6331477728812972  0.8150535994547108  0.7355500711671773
  0.4066814119947015  0.4253611960775077  0.9116692557853981
  0.4673328446214187  0.3123747087165047  0.4392431682047416
  0.3654921727712552  0.0615121647057195  0.6922232531985555
  1.0433388728207280  0.7566092897079196  0.8467396128565901
  0.4070917803439613  0.9397203197689015  0.5853971871948959
  0.3755037785765469  0.6347364378420514  0.7814694131831198
  1.0858379249798205  0.1866514525212182  0.9114109123734855
  0.3378001996201709  0.7378399694864003  0.6772745410272299
  0.9012012961055960  0.2946349546501765  0.8456112006532058
  0.7612787849388655  1.0121225237774567  0.9282428018866592
  0.3075885489165411  0.2250932907326942  0.6868502019229157
  0.8061518470630111  0.8787427190231031  0.8422932658866329
  0.7158987048663019  0.4400387331883147  0.9822916897985581
  0.7054658119645751  0.4862500543986104  0.7038265733482642
  0.5893877273384213  0.0750730880813390  0.7895644867471205
  0.2562990586595847  0.7839953621574000  0.9504914163641831
  0.6999561495496709  0.9315152592564589  0.6507224109586683
  0.5551506067456743  0.5561185122497154  0.8860899065756916
  0.6983170362273425  0.4992701526893389  0.1402851061848284
