fcc Si+fcc Ge                           
   1.00000000000000     
     5.4800000000000004    0.0000000000000000    0.0000000000000000
     0.0000000000000000    5.4800000000000004    0.0000000000000000
     0.0000000000000000    0.0000000000000000   28.8500000000000014
   Si   Ge
    22    22
Direct
  0.0000000000000000  0.0000000000000000  0.0000000000000000
  0.5000000000000000  0.0000000000000000  0.0949740029999973
  0.0000000000000000  0.0000000000000000  0.1899480069999981
  0.5000000000000000  0.0000000000000000  0.2849220100000025
  0.0000000000000000  0.0000000000000000  0.3798960140000034
  0.5000000000000000  0.0000000000000000  0.4748700170000006
  0.5000000000000000  0.5000000000000000  0.0000000000000000
  0.0000000000000000  0.5000000000000000  0.0949740029999973
  0.5000000000000000  0.5000000000000000  0.1899480069999981
  0.0000000000000000  0.5000000000000000  0.2849220100000025
  0.5000000000000000  0.5000000000000000  0.3798960140000034
  0.0000000000000000  0.5000000000000000  0.4748700170000006
  0.2500000000000000  0.2500000000000000  0.0474870019999969
  0.7500000000000000  0.2500000000000000  0.1424610050000013
  0.2500000000000000  0.2500000000000000  0.2374350090000021
  0.7500000000000000  0.2500000000000000  0.3324090119999994
  0.2500000000000000  0.2500000000000000  0.4273830160000003
  0.7500000000000000  0.7500000000000000  0.0474870019999969
  0.2500000000000000  0.7500000000000000  0.1424610050000013
  0.7500000000000000  0.7500000000000000  0.2374350090000021
  0.2500000000000000  0.7500000000000000  0.3324090119999994
  0.7500000000000000  0.7500000000000000  0.4273830160000003
  0.6944444439999984  0.1851851850000017  0.5412478340000035
  0.1944444439999984  0.1851851850000017  0.6393414209999975
  0.6944444439999984  0.1851851850000017  0.7374350090000021
  0.1944444439999984  0.1851851850000017  0.8355285960000032
  0.6944444439999984  0.1851851850000017  0.9336221840000007
  0.1944444439999984  0.6851851850000017  0.5412478340000035
  0.6944444439999984  0.6851851850000017  0.6393414209999975
  0.1944444439999984  0.6851851850000017  0.7374350090000021
  0.6944444439999984  0.6851851850000017  0.8355285960000032
  0.1944444439999984  0.6851851850000017  0.9336221840000007
  0.4444444439999984  0.4351851850000017  0.4922010399999976
  0.9444444439999984  0.4351851850000017  0.5902946269999987
  0.4444444439999984  0.4351851850000017  0.6883882150000034
  0.9444444439999984  0.4351851850000017  0.7864818019999973
  0.4444444439999984  0.4351851850000017  0.8845753900000020
  0.9444444439999984  0.4351851850000017  0.9826689770000030
  0.9444444439999984  0.9351851850000017  0.4922010399999976
  0.4444444439999984  0.9351851850000017  0.5902946269999987
  0.9444444439999984  0.9351851850000017  0.6883882150000034
  0.4444444439999984  0.9351851850000017  0.7864818019999973
  0.9444444439999984  0.9351851850000017  0.8845753900000020
  0.4444444439999984  0.9351851850000017  0.9826689770000030
 
  0.00000000E+00  0.00000000E+00  0.00000000E+00
  0.00000000E+00  0.00000000E+00  0.00000000E+00
  0.00000000E+00  0.00000000E+00  0.00000000E+00
  0.00000000E+00  0.00000000E+00  0.00000000E+00
  0.00000000E+00  0.00000000E+00  0.00000000E+00
  0.00000000E+00  0.00000000E+00  0.00000000E+00
  0.00000000E+00  0.00000000E+00  0.00000000E+00
  0.00000000E+00  0.00000000E+00  0.00000000E+00
  0.00000000E+00  0.00000000E+00  0.00000000E+00
  0.00000000E+00  0.00000000E+00  0.00000000E+00
  0.00000000E+00  0.00000000E+00  0.00000000E+00
  0.00000000E+00  0.00000000E+00  0.00000000E+00
  0.00000000E+00  0.00000000E+00  0.00000000E+00
  0.00000000E+00  0.00000000E+00  0.00000000E+00
  0.00000000E+00  0.00000000E+00  0.00000000E+00
  0.00000000E+00  0.00000000E+00  0.00000000E+00
  0.00000000E+00  0.00000000E+00  0.00000000E+00
  0.00000000E+00  0.00000000E+00  0.00000000E+00
  0.00000000E+00  0.00000000E+00  0.00000000E+00
  0.00000000E+00  0.00000000E+00  0.00000000E+00
  0.00000000E+00  0.00000000E+00  0.00000000E+00
  0.00000000E+00  0.00000000E+00  0.00000000E+00
  0.00000000E+00  0.00000000E+00  0.00000000E+00
  0.00000000E+00  0.00000000E+00  0.00000000E+00
  0.00000000E+00  0.00000000E+00  0.00000000E+00
  0.00000000E+00  0.00000000E+00  0.00000000E+00
  0.00000000E+00  0.00000000E+00  0.00000000E+00
  0.00000000E+00  0.00000000E+00  0.00000000E+00
  0.00000000E+00  0.00000000E+00  0.00000000E+00
  0.00000000E+00  0.00000000E+00  0.00000000E+00
  0.00000000E+00  0.00000000E+00  0.00000000E+00
  0.00000000E+00  0.00000000E+00  0.00000000E+00
  0.00000000E+00  0.00000000E+00  0.00000000E+00
  0.00000000E+00  0.00000000E+00  0.00000000E+00
  0.00000000E+00  0.00000000E+00  0.00000000E+00
  0.00000000E+00  0.00000000E+00  0.00000000E+00
  0.00000000E+00  0.00000000E+00  0.00000000E+00
  0.00000000E+00  0.00000000E+00  0.00000000E+00
  0.00000000E+00  0.00000000E+00  0.00000000E+00
  0.00000000E+00  0.00000000E+00  0.00000000E+00
  0.00000000E+00  0.00000000E+00  0.00000000E+00
  0.00000000E+00  0.00000000E+00  0.00000000E+00
  0.00000000E+00  0.00000000E+00  0.00000000E+00
  0.00000000E+00  0.00000000E+00  0.00000000E+00
