Sn+Ge
    1.000000000
   19.467599869    0.000000000    0.000000000
   -6.489200115   18.354230881    0.000000000
    0.000000000    0.000000000   25.800941467
Sn  Ge 
144     192
Direct
    0.991010249    0.985017061    0.000000004
    0.866010249    0.776683688    0.088922285
    0.741010189    0.568350196    0.177844614
    0.616010189    0.360016763    0.266766876
    0.491010129    0.151683390    0.355689168
    0.366010129    0.943349957    0.444611520
    0.991010249    0.318350405    0.000000004
    0.866010249    0.110017046    0.088922285
    0.741010189    0.901683569    0.177844614
    0.616010189    0.693350196    0.266766876
    0.491010129    0.485016763    0.355689168
    0.366010129    0.276683390    0.444611520
    0.991010249    0.651683807    0.000000004
    0.866010249    0.443350375    0.088922285
    0.741010189    0.235016942    0.177844614
    0.616010189    0.026683522    0.266766876
    0.491010129    0.818350136    0.355689168
    0.366010129    0.610016704    0.444611520
    0.491010249    0.151683748    0.000000008
    0.366010249    0.943350375    0.088922285
    0.241010204    0.735016942    0.177844599
    0.116010167    0.526683450    0.266766876
    0.991010189    0.318350077    0.355689168
    0.866010129    0.110016644    0.444611490
    0.491010249    0.485017061    0.000000008
    0.366010249    0.276683688    0.088922285
    0.241010204    0.068350248    0.177844599
    0.116010167    0.860016823    0.266766876
    0.991010189    0.651683450    0.355689168
    0.866010129    0.443350077    0.444611490
    0.491010249    0.818350375    0.000000008
    0.366010249    0.610017002    0.088922285
    0.241010204    0.401683569    0.177844599
    0.116010167    0.193350136    0.266766876
    0.991010189    0.985016763    0.355689168
    0.866010129    0.776683331    0.444611490
    0.241010249    0.068350412    0.000000003
    0.116010241    0.860017061    0.088922285
    0.991010189    0.651683569    0.177844599
    0.866010189    0.443350077    0.266766876
    0.741010189    0.235016763    0.355689168
    0.616010129    0.026683331    0.444611520
    0.241010249    0.401683748    0.000000003
    0.116010241    0.193350390    0.088922285
    0.991010189    0.985016942    0.177844599
    0.866010189    0.776683509    0.266766876
    0.741010189    0.568350077    0.355689168
    0.616010129    0.360016704    0.444611520
    0.241010249    0.735017121    0.000000003
    0.116010241    0.526683748    0.088922285
    0.991010189    0.318350255    0.177844599
    0.866010189    0.110016860    0.266766876
    0.741010189    0.901683509    0.355689168
    0.616010129    0.693350077    0.444611520
    0.741010249    0.235017091    0.000000008
    0.616010249    0.026683707    0.088922299
    0.491010219    0.818350196    0.177844614
    0.366010159    0.610016763    0.266766906
    0.241010159    0.401683450    0.355689198
    0.116010115    0.193350017    0.444611520
    0.741010249    0.568350375    0.000000008
    0.616010249    0.360017031    0.088922299
    0.491010219    0.151683584    0.177844614
    0.366010159    0.943350136    0.266766906
    0.241010159    0.735016763    0.355689198
    0.116010115    0.526683331    0.444611520
    0.741010249    0.901683807    0.000000008
    0.616010249    0.693350375    0.088922299
    0.491010219    0.485016942    0.177844614
    0.366010159    0.276683509    0.266766906
    0.241010159    0.068350151    0.355689198
    0.116010115    0.860016704    0.444611520
    0.366010249    0.026683766    0.000000016
    0.241010234    0.818350375    0.088922292
    0.116010197    0.610016942    0.177844614
    0.991010129    0.401683509    0.266766906
    0.866010129    0.193350136    0.355689198
    0.741010129    0.985016704    0.444611520
    0.366010249    0.360017091    0.000000016
    0.241010234    0.151683733    0.088922292
    0.116010197    0.943350315    0.177844614
    0.991010129    0.735016823    0.266766906
    0.866010129    0.526683450    0.355689198
    0.741010129    0.318350077    0.444611520
    0.366010249    0.693350494    0.000000016
    0.241010234    0.485017091    0.088922292
    0.116010197    0.276683658    0.177844614
    0.991010129    0.068350218    0.266766906
    0.866010129    0.860016823    0.355689198
    0.741010129    0.651683390    0.444611520
    0.866010308    0.193350419    0.000000000
    0.741010308    0.985017061    0.088922292
    0.616010249    0.776683569    0.177844614
    0.491010189    0.568350196    0.266766906
    0.366010189    0.360016763    0.355689198
    0.241010144    0.151683331    0.444611520
    0.866010308    0.526683807    0.000000000
    0.741010308    0.318350405    0.088922292
    0.616010249    0.110016957    0.177844614
    0.491010189    0.901683569    0.266766906
    0.366010189    0.693350196    0.355689198
    0.241010144    0.485016704    0.444611520
    0.866010308    0.860017121    0.000000000
    0.741010308    0.651683688    0.088922292
    0.616010249    0.443350285    0.177844614
    0.491010189    0.235016838    0.266766906
    0.366010189    0.026683476    0.355689198
    0.241010144    0.818350077    0.444611520
    0.116010249    0.276683748    0.000000003
    0.991010249    0.068350360    0.088922292
    0.866010189    0.860016942    0.177844614
    0.741010129    0.651683450    0.266766906
    0.616010189    0.443350077    0.355689168
    0.491010129    0.235016644    0.444611520
    0.116010249    0.610017121    0.000000003
    0.991010249    0.401683718    0.088922292
    0.866010189    0.193350270    0.177844614
    0.741010129    0.985016823    0.266766906
    0.616010189    0.776683450    0.355689168
    0.491010129    0.568350017    0.444611520
    0.116010249    0.943350375    0.000000003
    0.991010249    0.735016942    0.088922292
    0.866010189    0.526683509    0.177844614
    0.741010129    0.318350136    0.266766906
    0.616010189    0.110016756    0.355689168
    0.491010129    0.901683331    0.444611520
    0.616010249    0.110017069    0.000000013
    0.491010249    0.901683688    0.088922292
    0.366010189    0.693350196    0.177844614
    0.241010159    0.485016763    0.266766906
    0.116010159    0.276683450    0.355689198
    0.991010129    0.068350017    0.444611520
    0.616010249    0.443350375    0.000000013
    0.491010249    0.235017002    0.088922292
    0.366010189    0.026683571    0.177844614
    0.241010159    0.818350136    0.266766906
    0.116010159    0.610016704    0.355689198
    0.991010129    0.401683331    0.444611520
    0.616010249    0.776683748    0.000000013
    0.491010249    0.568350375    0.088922292
    0.366010189    0.360016853    0.177844614
    0.241010159    0.151683450    0.266766906
    0.116010159    0.943350077    0.355689198
    0.991010129    0.735016644    0.444611520
    0.935564756    0.847937405    0.528481901
    0.748064756    0.785437405    0.606011450
    0.560564756    0.722937405    0.683541059
    0.373064756    0.660437405    0.761070490
    0.185564756    0.597937405    0.838600039
    0.998064756    0.535437405    0.916129470
    0.685564756    0.597937405    0.528481901
    0.498064756    0.535437405    0.606011450
    0.310564756    0.472937405    0.683541059
    0.123064756    0.410437405    0.761070490
    0.935564816    0.347937405    0.838600039
    0.748064756    0.285437435    0.916129470
    0.435564756    0.847937405    0.528481901
    0.248064756    0.785437405    0.606011510
    0.060564756    0.722937405    0.683541000
    0.873064756    0.660437405    0.761070490
    0.685564756    0.597937405    0.838600039
    0.498064756    0.535437405    0.916129470
    0.185564756    0.597937405    0.528481901
    0.998064756    0.535437405    0.606011510
    0.810564756    0.472937405    0.683541000
    0.623064756    0.410437405    0.761070490
    0.435564756    0.347937405    0.838599980
    0.248064756    0.285437405    0.916129470
    0.935564756    0.347937405    0.528481901
    0.748064756    0.285437405    0.606011510
    0.560564756    0.222937375    0.683541000
    0.373064756    0.160437375    0.761070490
    0.185564756    0.097937346    0.838599980
    0.998064756    0.035437346    0.916129470
    0.685564756    0.097937346    0.528481901
    0.498064756    0.035437346    0.606011510
    0.310564756    0.972937405    0.683541000
    0.123064756    0.910437405    0.761070490
    0.935564816    0.847937465    0.838599980
    0.748064756    0.785437405    0.916129470
    0.435564756    0.347937405    0.528481901
    0.248064756    0.285437435    0.606011450
    0.060564756    0.222937405    0.683541000
    0.873064756    0.160437405    0.761070490
    0.685564756    0.097937346    0.838600039
    0.498064756    0.035437346    0.916129470
    0.185564756    0.097937346    0.528481901
    0.998064756    0.035437346    0.606011450
    0.810564756    0.972937405    0.683541000
    0.623064756    0.910437405    0.761070490
    0.435564756    0.847937465    0.838600039
    0.248064756    0.785437405    0.916129470
    0.810564756    0.972937405    0.528481901
    0.623064756    0.910437405    0.606011450
    0.435564756    0.847937405    0.683541000
    0.248064756    0.785437405    0.761070430
    0.060564756    0.722937405    0.838599980
    0.873064756    0.660437405    0.916129470
    0.310564756    0.972937405    0.528481901
    0.123064756    0.910437405    0.606011510
    0.935564697    0.847937346    0.683541059
    0.748064756    0.785437405    0.761070490
    0.560564756    0.722937405    0.838600039
    0.373064756    0.660437346    0.916129470
    0.060564756    0.722937405    0.528481901
    0.873064756    0.660437405    0.606011510
    0.685564756    0.597937405    0.683541000
    0.498064756    0.535437405    0.761070490
    0.310564756    0.472937405    0.838599980
    0.123064756    0.410437405    0.916129470
    0.810564756    0.472937435    0.528481901
    0.623064756    0.410437405    0.606011510
    0.435564756    0.347937405    0.683541000
    0.248064756    0.285437405    0.761070490
    0.060564756    0.222937405    0.838600039
    0.873064756    0.160437390    0.916129470
    0.560564756    0.722937405    0.528481901
    0.373064756    0.660437405    0.606011510
    0.185564756    0.597937346    0.683541000
    0.998064756    0.535437346    0.761070490
    0.810564816    0.472937375    0.838599980
    0.623064756    0.410437375    0.916129470
    0.310564756    0.472937405    0.528481901
    0.123064756    0.410437405    0.606011510
    0.935564756    0.347937375    0.683541000
    0.748064756    0.285437375    0.761070490
    0.560564756    0.222937375    0.838599980
    0.373064756    0.160437375    0.916129470
    0.060564756    0.222937420    0.528481901
    0.873064756    0.160437405    0.606011510
    0.685564756    0.097937346    0.683541000
    0.498064756    0.035437346    0.761070490
    0.310564756    0.972937465    0.838600039
    0.123064756    0.910437405    0.916129470
    0.560564756    0.222937346    0.528481901
    0.373064756    0.160437375    0.606011510
    0.185564756    0.097937346    0.683541000
    0.998064816    0.035437346    0.761070490
    0.810564816    0.972937346    0.838600099
    0.623064756    0.910437346    0.916129470
    0.935564756    0.972937405    0.528481901
    0.748064756    0.910437405    0.606011510
    0.560564756    0.847937405    0.683541000
    0.373064756    0.785437405    0.761070490
    0.185564756    0.722937405    0.838599980
    0.998064697    0.660437405    0.916129470
    0.685564756    0.722937405    0.528481901
    0.498064756    0.660437405    0.606011510
    0.310564756    0.597937405    0.683541000
    0.123064756    0.535437405    0.761070490
    0.935564816    0.472937435    0.838599980
    0.748064756    0.410437435    0.916129470
    0.435564756    0.972937405    0.528481901
    0.248064756    0.910437346    0.606011510
    0.060564637    0.847937346    0.683541000
    0.873064756    0.785437405    0.761070490
    0.685564756    0.722937405    0.838600039
    0.498064756    0.660437405    0.916129470
    0.185564756    0.722937405    0.528481901
    0.998064756    0.660437405    0.606011450
    0.810564697    0.597937405    0.683541000
    0.623064756    0.535437405    0.761070490
    0.435564756    0.472937405    0.838600039
    0.248064756    0.410437375    0.916129470
    0.935564756    0.472937405    0.528481901
    0.748064756    0.410437405    0.606011450
    0.560564756    0.347937405    0.683541000
    0.373064756    0.285437405    0.761070490
    0.185564756    0.222937405    0.838600039
    0.998064756    0.160437405    0.916129470
    0.685564756    0.222937405    0.528481901
    0.498064756    0.160437390    0.606011450
    0.310564756    0.097937346    0.683541000
    0.123064756    0.035437346    0.761070490
    0.935564816    0.972937465    0.838600039
    0.748064756    0.910437405    0.916129470
    0.435564756    0.472937405    0.528481901
    0.248064756    0.410437405    0.606011510
    0.060564756    0.347937375    0.683541059
    0.873064756    0.285437375    0.761070490
    0.685564756    0.222937390    0.838600039
    0.498064756    0.160437375    0.916129470
    0.185564756    0.222937405    0.528481901
    0.998064756    0.160437405    0.606011510
    0.810564756    0.097937346    0.683541059
    0.623064756    0.035437346    0.761070490
    0.435564756    0.972937465    0.838600039
    0.248064756    0.910437405    0.916129470
    0.060564756    0.847937405    0.528481901
    0.873064756    0.785437405    0.606011510
    0.685564756    0.722937405    0.683541000
    0.498064756    0.660437346    0.761070490
    0.310564756    0.597937346    0.838599980
    0.123064756    0.535437346    0.916129470
    0.810564756    0.597937405    0.528481901
    0.623064756    0.535437405    0.606011510
    0.435564756    0.472937405    0.683541000
    0.248064756    0.410437405    0.761070490
    0.060564756    0.347937405    0.838599980
    0.873064756    0.285437375    0.916129470
    0.560564756    0.847937465    0.528481901
    0.373064756    0.785437465    0.606011510
    0.185564756    0.722937465    0.683541000
    0.998064876    0.660437405    0.761070490
    0.810564876    0.597937465    0.838600039
    0.623064756    0.535437405    0.916129470
    0.310564756    0.597937465    0.528481901
    0.123064756    0.535437405    0.606011510
    0.935564756    0.472937405    0.683541000
    0.748064756    0.410437405    0.761070490
    0.560564756    0.347937435    0.838600039
    0.373064756    0.285437405    0.916129470
    0.060564756    0.347937405    0.528481901
    0.873064756    0.285437405    0.606011510
    0.685564756    0.222937405    0.683541000
    0.498064756    0.160437405    0.761070490
    0.310564756    0.097937346    0.838600039
    0.123064756    0.035437346    0.916129470
    0.810564756    0.097937346    0.528481901
    0.623064756    0.035437346    0.606011510
    0.435564756    0.972937405    0.683541000
    0.248064756    0.910437405    0.761070490
    0.060564756    0.847937465    0.838600039
    0.873064756    0.785437405    0.916129470
    0.560564756    0.347937465    0.528481901
    0.373064756    0.285437435    0.606011510
    0.185564756    0.222937390    0.683541000
    0.998064756    0.160437390    0.761070490
    0.810564876    0.097937346    0.838600039
    0.623064756    0.035437346    0.916129470
    0.310564756    0.097937346    0.528481901
    0.123064756    0.035437346    0.606011510
    0.935564756    0.972937346    0.683541000
    0.748064756    0.910437405    0.761070490
    0.560564756    0.847937405    0.838600039
    0.373064756    0.785437346    0.916129470
