Si+Ge                                   
   1.00000000000000     
    17.1743316650000004    0.0000000000000000    0.0000000000000000
     0.0000000000000000   17.1743297579999989    0.0000000000000000
     0.0000000000000000    0.0000000000000000   17.8610000609999986
   Si   Ge
   120   108
Direct
  0.9964043499999988  0.9748306870000008  0.0000000000000000
  0.9464043380000007  0.6248306040000031  0.1520351619999971
  0.8964042659999976  0.2748304610000005  0.3040703830000027
  0.0964044030000011  0.6748307350000005  0.0000000000000000
  0.0464043360000019  0.3248306509999992  0.1520351619999971
  0.9964042309999996  0.9748305079999966  0.3040703830000027
  0.1964044119999997  0.3748306629999973  0.0000000000000000
  0.1464043410000002  0.0248305969999976  0.1520351619999971
  0.0964042620000001  0.6748304369999971  0.3040703830000027
  0.2964043919999995  0.0748306589999999  0.0000000000000000
  0.2464043049999987  0.7248306270000029  0.1520351619999971
  0.1964042339999992  0.3748304249999990  0.3040703830000027
  0.3964044450000017  0.7748306989999989  0.0000000000000000
  0.3464043740000022  0.4248305859999988  0.1520351619999971
  0.2964043019999991  0.0748304580000010  0.3040703830000027
  0.4964043800000013  0.4748306870000008  0.0000000000000000
  0.4464043079999982  0.1248306040000031  0.1520351619999971
  0.3964042369999987  0.7748304610000005  0.3040703830000027
  0.5964043740000022  0.1748306450000001  0.0000000000000000
  0.5464043019999991  0.8248305919999979  0.1520351619999971
  0.4964042599999985  0.4748304490000024  0.3040703830000027
  0.6964045169999977  0.8748307819999965  0.0000000000000000
  0.6464044450000017  0.5248306390000010  0.1520351619999971
  0.5964043740000022  0.1748305409999986  0.3040703830000027
  0.7964044209999983  0.5748307109999971  0.0000000000000000
  0.7464043499999988  0.2248306130000017  0.1520351619999971
  0.6964042780000028  0.8748304840000003  0.3040703830000027
  0.8964045049999996  0.2748306989999989  0.0000000000000000
  0.8464044330000036  0.9248306160000013  0.1520351619999971
  0.7964043619999970  0.5748304720000021  0.3040703830000027
  0.9964044090000002  0.2248306720000031  0.0760176109999975
  0.9464042780000028  0.8748305439999982  0.2280527650000010
  0.8964042659999976  0.5248304610000005  0.3800879120000005
  0.0964043660000016  0.9248306160000013  0.0760176109999975
  0.0464042870000014  0.5748305320000000  0.2280527650000010
  0.9964042309999996  0.2248303889999974  0.3800879120000005
  0.1964044119999997  0.6248306629999973  0.0760176109999975
  0.1464043410000002  0.2748305499999972  0.2280527650000010
  0.0964042620000001  0.9248304959999984  0.3800879120000005
  0.2964044209999983  0.3248306209999967  0.0760176109999975
  0.2464043350000011  0.9748305079999966  0.2280527650000010
  0.1964042629999980  0.6248304840000003  0.3800879120000005
  0.3964044149999992  0.0248306390000010  0.0760176109999975
  0.3464043139999973  0.6748305560000034  0.2280527650000010
  0.2964042429999978  0.3248304720000021  0.3800879120000005
  0.4964044990000005  0.7248306870000008  0.0760176109999975
  0.4464044269999974  0.3748305740000006  0.2280527650000010
  0.3964043559999979  0.0248305240000022  0.3800879120000005
  0.5964043740000022  0.4248305859999988  0.0760176109999975
  0.5464043019999991  0.0748304950000005  0.2280527650000010
  0.4964042599999985  0.7248304490000024  0.3800879120000005
  0.6964045169999977  0.1248306629999973  0.0760176109999975
  0.6464043860000004  0.7748305799999997  0.2280527650000010
  0.5964043740000022  0.4248304959999984  0.3800879120000005
  0.7964044810000033  0.8248307109999971  0.0760176109999975
  0.7464044090000002  0.4748305680000016  0.2280527650000010
  0.6964043380000007  0.1248304840000003  0.3800879120000005
  0.8964044450000017  0.5248306390000010  0.0760176109999975
  0.8464043740000022  0.1748305409999986  0.2280527650000010
  0.7964043019999991  0.8248304720000021  0.3800879120000005
  0.9964044090000002  0.4748306870000008  0.0000000000000000
  0.9464043380000007  0.1248306040000031  0.1520351619999971
  0.8964042659999976  0.7748304610000005  0.3040703830000027
  0.0964043809999993  0.1748306599999978  0.0000000000000000
  0.0464043129999965  0.8248305919999979  0.1520351619999971
  0.9964042309999996  0.4748304490000024  0.3040703830000027
  0.1964044119999997  0.8748306629999973  0.0000000000000000
  0.1464043260000025  0.5248305799999997  0.1520351619999971
  0.0964042620000001  0.1748304369999971  0.3040703830000027
  0.2964044209999983  0.5748306509999992  0.0000000000000000
  0.2464043200000035  0.2248305979999969  0.1520351619999971
  0.1964042480000003  0.8748304840000003  0.3040703830000027
  0.3964044450000017  0.2748306690000035  0.0000000000000000
  0.3464043740000022  0.9248306160000013  0.1520351619999971
  0.2964043019999991  0.5748304720000021  0.3040703830000027
  0.4964044090000002  0.9748306270000029  0.0000000000000000
  0.4464043380000007  0.6248305439999982  0.1520351619999971
  0.3964042369999987  0.2748304010000027  0.3040703830000027
  0.5964043740000022  0.6748306750000026  0.0000000000000000
  0.5464043019999991  0.3248305919999979  0.1520351619999971
  0.4964042309999996  0.9748304490000024  0.3040703830000027
  0.6964043970000020  0.3748306330000020  0.0000000000000000
  0.6464043260000025  0.0248305610000017  0.1520351619999971
  0.5964042539999994  0.6748304369999971  0.3040703830000027
  0.7964044209999983  0.0748306360000015  0.0000000000000000
  0.7464043499999988  0.7248305079999966  0.1520351619999971
  0.6964042780000028  0.3748304249999990  0.3040703830000027
  0.8964045049999996  0.7748306989999989  0.0000000000000000
  0.8464044330000036  0.4248306160000013  0.1520351619999971
  0.7964043619999970  0.0748304800000028  0.3040703830000027
  0.9964043499999988  0.7248307469999986  0.0760176109999975
  0.9464042780000028  0.3748306040000031  0.2280527650000010
  0.8964042659999976  0.0248305389999999  0.3800879120000005
  0.0964043889999999  0.4248306750000026  0.0760176109999975
  0.0464043059999995  0.0748305689999995  0.2280527650000010
  0.9964042309999996  0.7248305079999966  0.3800879120000005
  0.1964044119999997  0.1248306560000003  0.0760176109999975
  0.1464043410000002  0.7748305799999997  0.2280527650000010
  0.0964042689999971  0.4248304959999984  0.3800879120000005
  0.2964043919999995  0.8248307109999971  0.0760176109999975
  0.2464043200000035  0.4748305680000016  0.2280527650000010
  0.1964042480000003  0.1248304840000003  0.3800879120000005
  0.3964044149999992  0.5248307589999968  0.0760176109999975
  0.3464043439999998  0.1748306450000001  0.2280527650000010
  0.2964042719999966  0.8248305919999979  0.3800879120000005
  0.4964044090000002  0.2248306420000006  0.0760176109999975
  0.4464043380000007  0.8748305439999982  0.2280527650000010
  0.3964042369999987  0.5248304610000005  0.3800879120000005
  0.5964044330000036  0.9248306750000026  0.0760176109999975
  0.5464043619999970  0.5748305919999979  0.2280527650000010
  0.4964042900000010  0.2248305079999966  0.3800879120000005
  0.6964044569999999  0.6248307230000023  0.0760176109999975
  0.6464043860000004  0.2748305799999997  0.2280527650000010
  0.5964043139999973  0.9248305560000034  0.3800879120000005
  0.7964043619999970  0.3248306209999967  0.0760176109999975
  0.7464042900000010  0.9748305079999966  0.2280527650000010
  0.6964042190000015  0.6248304840000003  0.3800879120000005
  0.8964043860000004  0.0248306260000035  0.0760176109999975
  0.8464043139999973  0.6748305560000034  0.2280527650000010
  0.7964042429999978  0.3248304130000008  0.3800879120000005
  0.0878727440000020  0.7485378980000021  0.4920637310000018
  0.9212061169999970  0.7485378980000021  0.6504479050000000
  0.7545393709999999  0.7485378980000021  0.8088321090000008
  0.0878727440000020  0.4152046439999992  0.4920637310000018
  0.9212061169999970  0.4152046439999992  0.6504479050000000
  0.7545393709999999  0.4152046439999992  0.8088321090000008
  0.0878727440000020  0.0818713459999998  0.4920637310000018
  0.9212061169999970  0.0818713459999998  0.6504479050000000
  0.7545393709999999  0.0818713459999998  0.8088321090000008
  0.4212060569999991  0.7485378980000021  0.4920637310000018
  0.2545393999999987  0.7485378980000021  0.6504479050000000
  0.0878727440000020  0.7485378980000021  0.8088321090000008
  0.4212060569999991  0.4152046439999992  0.4920637310000018
  0.2545393999999987  0.4152046439999992  0.6504479050000000
  0.0878727440000020  0.4152046439999992  0.8088321090000008
  0.4212060569999991  0.0818713459999998  0.4920637310000018
  0.2545393999999987  0.0818713459999998  0.6504479050000000
  0.0878727440000020  0.0818713459999998  0.8088321090000008
  0.7545393709999999  0.7485378980000021  0.4920637310000018
  0.5878726839999970  0.7485378980000021  0.6504479050000000
  0.4212059970000013  0.7485378980000021  0.8088321090000008
  0.7545393709999999  0.4152046439999992  0.4920637310000018
  0.5878726839999970  0.4152046439999992  0.6504479050000000
  0.4212059970000013  0.4152046439999992  0.8088321090000008
  0.7545393709999999  0.0818713459999998  0.4920637310000018
  0.5878726839999970  0.0818713459999998  0.6504479050000000
  0.4212059970000013  0.0818713459999998  0.8088321090000008
  0.1712060870000016  0.9985378980000021  0.5712558029999997
  0.0045393709999999  0.9985378980000021  0.7296400070000004
  0.8378727440000020  0.9985378980000021  0.8880241510000033
  0.1712060870000016  0.6652046439999992  0.5712558029999997
  0.0045393709999999  0.6652046439999992  0.7296400070000004
  0.8378727440000020  0.6652046439999992  0.8880241510000033
  0.1712060870000016  0.3318713009999996  0.5712558029999997
  0.0045393709999999  0.3318713009999996  0.7296400070000004
  0.8378727440000020  0.3318713009999996  0.8880241510000033
  0.5045393709999999  0.9985378980000021  0.5712558029999997
  0.3378726839999970  0.9985378980000021  0.7296400070000004
  0.1712059680000024  0.9985378980000021  0.8880241510000033
  0.5045393709999999  0.6652046439999992  0.5712558029999997
  0.3378726839999970  0.6652046439999992  0.7296400070000004
  0.1712059680000024  0.6652046439999992  0.8880241510000033
  0.5045393709999999  0.3318713009999996  0.5712558029999997
  0.3378726839999970  0.3318713009999996  0.7296400070000004
  0.1712059680000024  0.3318713009999996  0.8880241510000033
  0.8378727440000020  0.9985378980000021  0.5712558029999997
  0.6712059970000013  0.9985378980000021  0.7296400070000004
  0.5045393110000020  0.9985378980000021  0.8880241510000033
  0.8378727440000020  0.6652046439999992  0.5712558029999997
  0.6712059970000013  0.6652046439999992  0.7296400070000004
  0.5045393110000020  0.6652046439999992  0.8880241510000033
  0.8378727440000020  0.3318713009999996  0.5712558029999997
  0.6712059970000013  0.3318713009999996  0.7296400070000004
  0.5045393110000020  0.3318713009999996  0.8880241510000033
  0.2545394300000012  0.9152045250000000  0.4920637310000018
  0.0878727440000020  0.9152045250000000  0.6504479050000000
  0.9212060569999991  0.9152045250000000  0.8088321090000008
  0.2545394300000012  0.5818712709999971  0.4920637310000018
  0.0878727440000020  0.5818712709999971  0.6504479050000000
  0.9212060569999991  0.5818712709999971  0.8088321090000008
  0.2545394300000012  0.2485379869999989  0.4920637310000018
  0.0878727440000020  0.2485379869999989  0.6504479050000000
  0.9212060569999991  0.2485379869999989  0.8088321090000008
  0.5878726839999970  0.9152045250000000  0.4920637310000018
  0.4212059970000013  0.9152045250000000  0.6504479050000000
  0.2545393110000020  0.9152045250000000  0.8088321090000008
  0.5878726839999970  0.5818712709999971  0.4920637310000018
  0.4212059970000013  0.5818712709999971  0.6504479050000000
  0.2545393110000020  0.5818712709999971  0.8088321090000008
  0.5878726839999970  0.2485379869999989  0.4920637310000018
  0.4212059970000013  0.2485379869999989  0.6504479050000000
  0.2545393110000020  0.2485379869999989  0.8088321090000008
  0.9212060569999991  0.9152045250000000  0.4920637310000018
  0.7545393709999999  0.9152045250000000  0.6504479050000000
  0.5878726839999970  0.9152045250000000  0.8088321090000008
  0.9212060569999991  0.5818712709999971  0.4920637310000018
  0.7545393709999999  0.5818712709999971  0.6504479050000000
  0.5878726839999970  0.5818712709999971  0.8088321090000008
  0.9212060569999991  0.2485379869999989  0.4920637310000018
  0.7545393709999999  0.2485379869999989  0.6504479050000000
  0.5878726839999970  0.2485379869999989  0.8088321090000008
  0.3378727139999995  0.8318712120000029  0.5712558029999997
  0.1712060269999967  0.8318712120000029  0.7296400070000004
  0.0045393709999999  0.8318712120000029  0.8880241510000033
  0.3378727139999995  0.4985379580000000  0.5712558029999997
  0.1712060269999967  0.4985379580000000  0.7296400070000004
  0.0045393709999999  0.4985379580000000  0.8880241510000033
  0.3378727139999995  0.1652046740000017  0.5712558029999997
  0.1712060269999967  0.1652046740000017  0.7296400070000004
  0.0045393709999999  0.1652046740000017  0.8880241510000033
  0.6712061169999970  0.8318712120000029  0.5712558029999997
  0.5045393709999999  0.8318712120000029  0.7296400070000004
  0.3378726839999970  0.8318712120000029  0.8880241510000033
  0.6712061169999970  0.4985379580000000  0.5712558029999997
  0.5045393709999999  0.4985379580000000  0.7296400070000004
  0.3378726839999970  0.4985379580000000  0.8880241510000033
  0.6712061169999970  0.1652046740000017  0.5712558029999997
  0.5045393709999999  0.1652046740000017  0.7296400070000004
  0.3378726839999970  0.1652046740000017  0.8880241510000033
  0.0045394899999991  0.8318712120000029  0.5712558029999997
  0.8378727440000020  0.8318712120000029  0.7296400070000004
  0.6712059970000013  0.8318712120000029  0.8880241510000033
  0.0045394899999991  0.4985379580000000  0.5712558029999997
  0.8378727440000020  0.4985379580000000  0.7296400070000004
  0.6712059970000013  0.4985379580000000  0.8880241510000033
  0.0045394899999991  0.1652046740000017  0.5712558029999997
  0.8378727440000020  0.1652046740000017  0.7296400070000004
  0.6712059970000013  0.1652046740000017  0.8880241510000033
 
  0.00000000E+00  0.00000000E+00  0.00000000E+00
  0.00000000E+00  0.00000000E+00  0.00000000E+00
  0.00000000E+00  0.00000000E+00  0.00000000E+00
  0.00000000E+00  0.00000000E+00  0.00000000E+00
  0.00000000E+00  0.00000000E+00  0.00000000E+00
  0.00000000E+00  0.00000000E+00  0.00000000E+00
  0.00000000E+00  0.00000000E+00  0.00000000E+00
  0.00000000E+00  0.00000000E+00  0.00000000E+00
  0.00000000E+00  0.00000000E+00  0.00000000E+00
  0.00000000E+00  0.00000000E+00  0.00000000E+00
  0.00000000E+00  0.00000000E+00  0.00000000E+00
  0.00000000E+00  0.00000000E+00  0.00000000E+00
  0.00000000E+00  0.00000000E+00  0.00000000E+00
  0.00000000E+00  0.00000000E+00  0.00000000E+00
  0.00000000E+00  0.00000000E+00  0.00000000E+00
  0.00000000E+00  0.00000000E+00  0.00000000E+00
  0.00000000E+00  0.00000000E+00  0.00000000E+00
  0.00000000E+00  0.00000000E+00  0.00000000E+00
  0.00000000E+00  0.00000000E+00  0.00000000E+00
  0.00000000E+00  0.00000000E+00  0.00000000E+00
  0.00000000E+00  0.00000000E+00  0.00000000E+00
  0.00000000E+00  0.00000000E+00  0.00000000E+00
  0.00000000E+00  0.00000000E+00  0.00000000E+00
  0.00000000E+00  0.00000000E+00  0.00000000E+00
  0.00000000E+00  0.00000000E+00  0.00000000E+00
  0.00000000E+00  0.00000000E+00  0.00000000E+00
  0.00000000E+00  0.00000000E+00  0.00000000E+00
  0.00000000E+00  0.00000000E+00  0.00000000E+00
  0.00000000E+00  0.00000000E+00  0.00000000E+00
  0.00000000E+00  0.00000000E+00  0.00000000E+00
  0.00000000E+00  0.00000000E+00  0.00000000E+00
  0.00000000E+00  0.00000000E+00  0.00000000E+00
  0.00000000E+00  0.00000000E+00  0.00000000E+00
  0.00000000E+00  0.00000000E+00  0.00000000E+00
  0.00000000E+00  0.00000000E+00  0.00000000E+00
  0.00000000E+00  0.00000000E+00  0.00000000E+00
  0.00000000E+00  0.00000000E+00  0.00000000E+00
  0.00000000E+00  0.00000000E+00  0.00000000E+00
  0.00000000E+00  0.00000000E+00  0.00000000E+00
  0.00000000E+00  0.00000000E+00  0.00000000E+00
  0.00000000E+00  0.00000000E+00  0.00000000E+00
  0.00000000E+00  0.00000000E+00  0.00000000E+00
  0.00000000E+00  0.00000000E+00  0.00000000E+00
  0.00000000E+00  0.00000000E+00  0.00000000E+00
  0.00000000E+00  0.00000000E+00  0.00000000E+00
  0.00000000E+00  0.00000000E+00  0.00000000E+00
  0.00000000E+00  0.00000000E+00  0.00000000E+00
  0.00000000E+00  0.00000000E+00  0.00000000E+00
  0.00000000E+00  0.00000000E+00  0.00000000E+00
  0.00000000E+00  0.00000000E+00  0.00000000E+00
  0.00000000E+00  0.00000000E+00  0.00000000E+00
  0.00000000E+00  0.00000000E+00  0.00000000E+00
  0.00000000E+00  0.00000000E+00  0.00000000E+00
  0.00000000E+00  0.00000000E+00  0.00000000E+00
  0.00000000E+00  0.00000000E+00  0.00000000E+00
  0.00000000E+00  0.00000000E+00  0.00000000E+00
  0.00000000E+00  0.00000000E+00  0.00000000E+00
  0.00000000E+00  0.00000000E+00  0.00000000E+00
  0.00000000E+00  0.00000000E+00  0.00000000E+00
  0.00000000E+00  0.00000000E+00  0.00000000E+00
  0.00000000E+00  0.00000000E+00  0.00000000E+00
  0.00000000E+00  0.00000000E+00  0.00000000E+00
  0.00000000E+00  0.00000000E+00  0.00000000E+00
  0.00000000E+00  0.00000000E+00  0.00000000E+00
  0.00000000E+00  0.00000000E+00  0.00000000E+00
  0.00000000E+00  0.00000000E+00  0.00000000E+00
  0.00000000E+00  0.00000000E+00  0.00000000E+00
  0.00000000E+00  0.00000000E+00  0.00000000E+00
  0.00000000E+00  0.00000000E+00  0.00000000E+00
  0.00000000E+00  0.00000000E+00  0.00000000E+00
  0.00000000E+00  0.00000000E+00  0.00000000E+00
  0.00000000E+00  0.00000000E+00  0.00000000E+00
  0.00000000E+00  0.00000000E+00  0.00000000E+00
  0.00000000E+00  0.00000000E+00  0.00000000E+00
  0.00000000E+00  0.00000000E+00  0.00000000E+00
  0.00000000E+00  0.00000000E+00  0.00000000E+00
  0.00000000E+00  0.00000000E+00  0.00000000E+00
  0.00000000E+00  0.00000000E+00  0.00000000E+00
  0.00000000E+00  0.00000000E+00  0.00000000E+00
  0.00000000E+00  0.00000000E+00  0.00000000E+00
  0.00000000E+00  0.00000000E+00  0.00000000E+00
  0.00000000E+00  0.00000000E+00  0.00000000E+00
  0.00000000E+00  0.00000000E+00  0.00000000E+00
  0.00000000E+00  0.00000000E+00  0.00000000E+00
  0.00000000E+00  0.00000000E+00  0.00000000E+00
  0.00000000E+00  0.00000000E+00  0.00000000E+00
  0.00000000E+00  0.00000000E+00  0.00000000E+00
  0.00000000E+00  0.00000000E+00  0.00000000E+00
  0.00000000E+00  0.00000000E+00  0.00000000E+00
  0.00000000E+00  0.00000000E+00  0.00000000E+00
  0.00000000E+00  0.00000000E+00  0.00000000E+00
  0.00000000E+00  0.00000000E+00  0.00000000E+00
  0.00000000E+00  0.00000000E+00  0.00000000E+00
  0.00000000E+00  0.00000000E+00  0.00000000E+00
  0.00000000E+00  0.00000000E+00  0.00000000E+00
  0.00000000E+00  0.00000000E+00  0.00000000E+00
  0.00000000E+00  0.00000000E+00  0.00000000E+00
  0.00000000E+00  0.00000000E+00  0.00000000E+00
  0.00000000E+00  0.00000000E+00  0.00000000E+00
  0.00000000E+00  0.00000000E+00  0.00000000E+00
  0.00000000E+00  0.00000000E+00  0.00000000E+00
  0.00000000E+00  0.00000000E+00  0.00000000E+00
  0.00000000E+00  0.00000000E+00  0.00000000E+00
  0.00000000E+00  0.00000000E+00  0.00000000E+00
  0.00000000E+00  0.00000000E+00  0.00000000E+00
  0.00000000E+00  0.00000000E+00  0.00000000E+00
  0.00000000E+00  0.00000000E+00  0.00000000E+00
  0.00000000E+00  0.00000000E+00  0.00000000E+00
  0.00000000E+00  0.00000000E+00  0.00000000E+00
  0.00000000E+00  0.00000000E+00  0.00000000E+00
  0.00000000E+00  0.00000000E+00  0.00000000E+00
  0.00000000E+00  0.00000000E+00  0.00000000E+00
  0.00000000E+00  0.00000000E+00  0.00000000E+00
  0.00000000E+00  0.00000000E+00  0.00000000E+00
  0.00000000E+00  0.00000000E+00  0.00000000E+00
  0.00000000E+00  0.00000000E+00  0.00000000E+00
  0.00000000E+00  0.00000000E+00  0.00000000E+00
  0.00000000E+00  0.00000000E+00  0.00000000E+00
  0.00000000E+00  0.00000000E+00  0.00000000E+00
  0.00000000E+00  0.00000000E+00  0.00000000E+00
  0.00000000E+00  0.00000000E+00  0.00000000E+00
  0.00000000E+00  0.00000000E+00  0.00000000E+00
  0.00000000E+00  0.00000000E+00  0.00000000E+00
  0.00000000E+00  0.00000000E+00  0.00000000E+00
  0.00000000E+00  0.00000000E+00  0.00000000E+00
  0.00000000E+00  0.00000000E+00  0.00000000E+00
  0.00000000E+00  0.00000000E+00  0.00000000E+00
  0.00000000E+00  0.00000000E+00  0.00000000E+00
  0.00000000E+00  0.00000000E+00  0.00000000E+00
  0.00000000E+00  0.00000000E+00  0.00000000E+00
  0.00000000E+00  0.00000000E+00  0.00000000E+00
  0.00000000E+00  0.00000000E+00  0.00000000E+00
  0.00000000E+00  0.00000000E+00  0.00000000E+00
  0.00000000E+00  0.00000000E+00  0.00000000E+00
  0.00000000E+00  0.00000000E+00  0.00000000E+00
  0.00000000E+00  0.00000000E+00  0.00000000E+00
  0.00000000E+00  0.00000000E+00  0.00000000E+00
  0.00000000E+00  0.00000000E+00  0.00000000E+00
  0.00000000E+00  0.00000000E+00  0.00000000E+00
  0.00000000E+00  0.00000000E+00  0.00000000E+00
  0.00000000E+00  0.00000000E+00  0.00000000E+00
  0.00000000E+00  0.00000000E+00  0.00000000E+00
  0.00000000E+00  0.00000000E+00  0.00000000E+00
  0.00000000E+00  0.00000000E+00  0.00000000E+00
  0.00000000E+00  0.00000000E+00  0.00000000E+00
  0.00000000E+00  0.00000000E+00  0.00000000E+00
  0.00000000E+00  0.00000000E+00  0.00000000E+00
  0.00000000E+00  0.00000000E+00  0.00000000E+00
  0.00000000E+00  0.00000000E+00  0.00000000E+00
  0.00000000E+00  0.00000000E+00  0.00000000E+00
  0.00000000E+00  0.00000000E+00  0.00000000E+00
  0.00000000E+00  0.00000000E+00  0.00000000E+00
  0.00000000E+00  0.00000000E+00  0.00000000E+00
  0.00000000E+00  0.00000000E+00  0.00000000E+00
  0.00000000E+00  0.00000000E+00  0.00000000E+00
  0.00000000E+00  0.00000000E+00  0.00000000E+00
  0.00000000E+00  0.00000000E+00  0.00000000E+00
  0.00000000E+00  0.00000000E+00  0.00000000E+00
  0.00000000E+00  0.00000000E+00  0.00000000E+00
  0.00000000E+00  0.00000000E+00  0.00000000E+00
  0.00000000E+00  0.00000000E+00  0.00000000E+00
  0.00000000E+00  0.00000000E+00  0.00000000E+00
  0.00000000E+00  0.00000000E+00  0.00000000E+00
  0.00000000E+00  0.00000000E+00  0.00000000E+00
  0.00000000E+00  0.00000000E+00  0.00000000E+00
  0.00000000E+00  0.00000000E+00  0.00000000E+00
  0.00000000E+00  0.00000000E+00  0.00000000E+00
  0.00000000E+00  0.00000000E+00  0.00000000E+00
  0.00000000E+00  0.00000000E+00  0.00000000E+00
  0.00000000E+00  0.00000000E+00  0.00000000E+00
  0.00000000E+00  0.00000000E+00  0.00000000E+00
  0.00000000E+00  0.00000000E+00  0.00000000E+00
  0.00000000E+00  0.00000000E+00  0.00000000E+00
  0.00000000E+00  0.00000000E+00  0.00000000E+00
  0.00000000E+00  0.00000000E+00  0.00000000E+00
  0.00000000E+00  0.00000000E+00  0.00000000E+00
  0.00000000E+00  0.00000000E+00  0.00000000E+00
  0.00000000E+00  0.00000000E+00  0.00000000E+00
  0.00000000E+00  0.00000000E+00  0.00000000E+00
  0.00000000E+00  0.00000000E+00  0.00000000E+00
  0.00000000E+00  0.00000000E+00  0.00000000E+00
  0.00000000E+00  0.00000000E+00  0.00000000E+00
  0.00000000E+00  0.00000000E+00  0.00000000E+00
  0.00000000E+00  0.00000000E+00  0.00000000E+00
  0.00000000E+00  0.00000000E+00  0.00000000E+00
  0.00000000E+00  0.00000000E+00  0.00000000E+00
  0.00000000E+00  0.00000000E+00  0.00000000E+00
  0.00000000E+00  0.00000000E+00  0.00000000E+00
  0.00000000E+00  0.00000000E+00  0.00000000E+00
  0.00000000E+00  0.00000000E+00  0.00000000E+00
  0.00000000E+00  0.00000000E+00  0.00000000E+00
  0.00000000E+00  0.00000000E+00  0.00000000E+00
  0.00000000E+00  0.00000000E+00  0.00000000E+00
  0.00000000E+00  0.00000000E+00  0.00000000E+00
  0.00000000E+00  0.00000000E+00  0.00000000E+00
  0.00000000E+00  0.00000000E+00  0.00000000E+00
  0.00000000E+00  0.00000000E+00  0.00000000E+00
  0.00000000E+00  0.00000000E+00  0.00000000E+00
  0.00000000E+00  0.00000000E+00  0.00000000E+00
  0.00000000E+00  0.00000000E+00  0.00000000E+00
  0.00000000E+00  0.00000000E+00  0.00000000E+00
  0.00000000E+00  0.00000000E+00  0.00000000E+00
  0.00000000E+00  0.00000000E+00  0.00000000E+00
  0.00000000E+00  0.00000000E+00  0.00000000E+00
  0.00000000E+00  0.00000000E+00  0.00000000E+00
  0.00000000E+00  0.00000000E+00  0.00000000E+00
  0.00000000E+00  0.00000000E+00  0.00000000E+00
  0.00000000E+00  0.00000000E+00  0.00000000E+00
  0.00000000E+00  0.00000000E+00  0.00000000E+00
  0.00000000E+00  0.00000000E+00  0.00000000E+00
  0.00000000E+00  0.00000000E+00  0.00000000E+00
  0.00000000E+00  0.00000000E+00  0.00000000E+00
  0.00000000E+00  0.00000000E+00  0.00000000E+00
  0.00000000E+00  0.00000000E+00  0.00000000E+00
  0.00000000E+00  0.00000000E+00  0.00000000E+00
  0.00000000E+00  0.00000000E+00  0.00000000E+00
  0.00000000E+00  0.00000000E+00  0.00000000E+00
  0.00000000E+00  0.00000000E+00  0.00000000E+00
  0.00000000E+00  0.00000000E+00  0.00000000E+00
  0.00000000E+00  0.00000000E+00  0.00000000E+00
  0.00000000E+00  0.00000000E+00  0.00000000E+00
  0.00000000E+00  0.00000000E+00  0.00000000E+00
  0.00000000E+00  0.00000000E+00  0.00000000E+00
  0.00000000E+00  0.00000000E+00  0.00000000E+00
  0.00000000E+00  0.00000000E+00  0.00000000E+00
  0.00000000E+00  0.00000000E+00  0.00000000E+00
  0.00000000E+00  0.00000000E+00  0.00000000E+00
  0.00000000E+00  0.00000000E+00  0.00000000E+00
