Ge+Ge
    1.000000000
   12.651226044    0.000000000    0.000000000
  -10.120981216    7.590735435    0.000000000
    0.000000000    0.000000000   11.810113907
Ge 
48
Direct
    0.344722271    0.672361135    0.000000000
    0.678055644    0.839027822    0.239531964
    0.011389017    0.005694628    0.479063958
    0.011388971    0.005694487    0.000000000
    0.344722331    0.172361225    0.239531964
    0.678055704    0.339027971    0.479063958
    0.678055644    0.339027822    0.000000000
    0.011388898    0.505694509    0.239531964
    0.344722390    0.672361314    0.479063958
    0.094722271    0.922361135    0.119765982
    0.428055644    0.089027882    0.359297961
    0.761389017    0.255694628    0.598829985
    0.428055644    0.589027882    0.119765982
    0.761389017    0.755694568    0.359297961
    0.094722390    0.922361374    0.598829985
    0.761388898    0.255694479    0.119765982
    0.094722390    0.422361225    0.359297961
    0.428055644    0.589027941    0.598829985
    0.178055570    0.839027703    0.000000000
    0.511388958    0.005694509    0.239531964
    0.844722271    0.172361135    0.479063958
    0.511388958    0.505694509    0.000000000
    0.844722271    0.672361195    0.239531964
    0.178055644    0.839027941    0.479063958
    0.844722331    0.172361180    0.000000000
    0.178055644    0.339027911    0.239531964
    0.511389017    0.505694628    0.479063958
    0.261388958    0.755694449    0.119765982
    0.594722331    0.922361195    0.359297961
    0.928055763    0.089028001    0.598829985
    0.594722331    0.422361165    0.119765982
    0.928055704    0.589027882    0.359297961
    0.261389017    0.755694628    0.598829985
    0.928055644    0.089027874    0.119765982
    0.261389017    0.255694628    0.359297961
    0.594722390    0.422361344    0.598829985
    0.314781666    0.200941920    0.699609995
    0.203670502    0.812052906    0.779453993
    0.092559338    0.423164010    0.859297991
    0.814781547    0.700941861    0.699609995
    0.703670382    0.312052906    0.779453993
    0.592559218    0.923163950    0.859297991
    0.009225845    0.006497383    0.739531875
    0.898114800    0.617608428    0.819375992
    0.787003577    0.228719592    0.899219990
    0.509225965    0.506497383    0.739531875
    0.398114860    0.117608428    0.819375992
    0.287003756    0.728719413    0.899219990
