Si+Si                                   
   1.00000000000000     
     7.6805944439999996    0.0000000000000000    0.0000000000000000
    -3.8402969840000001   11.5208911900000004    0.0000000000000000
     0.0000000000000000    0.0000000000000000    9.0516691209999998
   Si
    48
Direct
  0.0059322899999970  0.9940677290000011  0.0000000000000000
  0.1725990030000020  0.8274010419999982  0.2999998929999990
  0.3392657340000014  0.6607342960000011  0.5999998449999993
  0.6725989580000018  0.3274010419999982  0.0000000000000000
  0.8392657039999989  0.1607343410000013  0.2999998929999990
  0.0059324500000031  0.9940676690000032  0.5999998449999993
  0.3392656449999976  0.6607344150000003  0.0000000000000000
  0.5059323309999968  0.4940676989999986  0.2999998929999990
  0.6725990770000010  0.3274010120000028  0.5999998449999993
  0.0892656589999987  0.1607343700000001  0.1499999609999989
  0.2559323910000018  0.9940676690000032  0.4499998989999980
  0.4225991369999988  0.8274009820000003  0.7499998210000030
  0.7559322709999989  0.4940677290000011  0.1499999609999989
  0.9225990179999997  0.3274010419999982  0.4499998989999980
  0.0892657039999989  0.1607343259999965  0.7499998210000030
  0.4225989279999993  0.8274011020000032  0.1499999609999989
  0.5892657039999989  0.6607344749999982  0.4499998989999980
  0.7559324500000031  0.4940677290000011  0.7499998210000030
  0.5059323309999968  0.9940677290000011  0.0000000000000000
  0.6725990179999997  0.8274010419999982  0.2999998929999990
  0.8392657639999968  0.6607342960000011  0.5999998449999993
  0.1725989729999995  0.3274010419999982  0.0000000000000000
  0.3392656740000035  0.1607343700000001  0.2999998929999990
  0.5059323910000018  0.9940676690000032  0.5999998449999993
  0.8392655849999997  0.6607344150000003  0.0000000000000000
  0.0059323309999968  0.4940676989999986  0.2999998929999990
  0.1725989580000018  0.3274009820000003  0.5999998449999993
  0.5892656449999976  0.1607343550000024  0.1499999609999989
  0.7559323910000018  0.9940676690000032  0.4499998989999980
  0.9225991369999988  0.8274009229999990  0.7499998210000030
  0.2559322709999989  0.4940677290000011  0.1499999609999989
  0.4225990469999985  0.3274010419999982  0.4499998989999980
  0.5892657639999968  0.1607343259999965  0.7499998210000030
  0.9225989580000018  0.8274011609999974  0.1499999609999989
  0.0892657039999989  0.6607344150000003  0.4499998989999980
  0.2559324500000031  0.4940676989999986  0.7499998210000030
  0.9893847700000009  0.0265381170000012  0.7499998210000030
  0.8782735469999992  0.3043159249999974  0.8499998449999993
  0.7671623829999987  0.5820937160000028  0.9499999880000018
  0.4893847410000021  0.0265381130000009  0.7499998210000030
  0.3782735469999992  0.3043159249999974  0.8499998449999993
  0.2671623230000009  0.5820936559999978  0.9499999880000018
  0.6838291879999971  0.9154269699999986  0.7999998929999990
  0.5727179650000025  0.1932047609999969  0.8999999170000024
  0.4616067709999996  0.4709825520000024  0.9999999400000021
  0.1838291589999983  0.9154270289999999  0.7999998929999990
  0.0727179650000025  0.1932047609999969  0.8999999170000024
  0.9616067409999971  0.4709825520000024  0.9999999400000021
 
  0.00000000E+00  0.00000000E+00  0.00000000E+00
  0.00000000E+00  0.00000000E+00  0.00000000E+00
  0.00000000E+00  0.00000000E+00  0.00000000E+00
  0.00000000E+00  0.00000000E+00  0.00000000E+00
  0.00000000E+00  0.00000000E+00  0.00000000E+00
  0.00000000E+00  0.00000000E+00  0.00000000E+00
  0.00000000E+00  0.00000000E+00  0.00000000E+00
  0.00000000E+00  0.00000000E+00  0.00000000E+00
  0.00000000E+00  0.00000000E+00  0.00000000E+00
  0.00000000E+00  0.00000000E+00  0.00000000E+00
  0.00000000E+00  0.00000000E+00  0.00000000E+00
  0.00000000E+00  0.00000000E+00  0.00000000E+00
  0.00000000E+00  0.00000000E+00  0.00000000E+00
  0.00000000E+00  0.00000000E+00  0.00000000E+00
  0.00000000E+00  0.00000000E+00  0.00000000E+00
  0.00000000E+00  0.00000000E+00  0.00000000E+00
  0.00000000E+00  0.00000000E+00  0.00000000E+00
  0.00000000E+00  0.00000000E+00  0.00000000E+00
  0.00000000E+00  0.00000000E+00  0.00000000E+00
  0.00000000E+00  0.00000000E+00  0.00000000E+00
  0.00000000E+00  0.00000000E+00  0.00000000E+00
  0.00000000E+00  0.00000000E+00  0.00000000E+00
  0.00000000E+00  0.00000000E+00  0.00000000E+00
  0.00000000E+00  0.00000000E+00  0.00000000E+00
  0.00000000E+00  0.00000000E+00  0.00000000E+00
  0.00000000E+00  0.00000000E+00  0.00000000E+00
  0.00000000E+00  0.00000000E+00  0.00000000E+00
  0.00000000E+00  0.00000000E+00  0.00000000E+00
  0.00000000E+00  0.00000000E+00  0.00000000E+00
  0.00000000E+00  0.00000000E+00  0.00000000E+00
  0.00000000E+00  0.00000000E+00  0.00000000E+00
  0.00000000E+00  0.00000000E+00  0.00000000E+00
  0.00000000E+00  0.00000000E+00  0.00000000E+00
  0.00000000E+00  0.00000000E+00  0.00000000E+00
  0.00000000E+00  0.00000000E+00  0.00000000E+00
  0.00000000E+00  0.00000000E+00  0.00000000E+00
  0.00000000E+00  0.00000000E+00  0.00000000E+00
  0.00000000E+00  0.00000000E+00  0.00000000E+00
  0.00000000E+00  0.00000000E+00  0.00000000E+00
  0.00000000E+00  0.00000000E+00  0.00000000E+00
  0.00000000E+00  0.00000000E+00  0.00000000E+00
  0.00000000E+00  0.00000000E+00  0.00000000E+00
  0.00000000E+00  0.00000000E+00  0.00000000E+00
  0.00000000E+00  0.00000000E+00  0.00000000E+00
  0.00000000E+00  0.00000000E+00  0.00000000E+00
  0.00000000E+00  0.00000000E+00  0.00000000E+00
  0.00000000E+00  0.00000000E+00  0.00000000E+00
  0.00000000E+00  0.00000000E+00  0.00000000E+00
