Si+Si
    1.000000000
    7.680594444    0.000000000    0.000000000
   -3.840296984   11.520891190    0.000000000
    0.000000000    0.000000000    9.051669121
Si 
48
Direct
    0.005932290    0.994067729    0.000000000
    0.172599003    0.827401042    0.299999893
    0.339265734    0.660734296    0.599999845
    0.672598958    0.327401042    0.000000000
    0.839265704    0.160734341    0.299999893
    0.005932450    0.994067669    0.599999845
    0.339265645    0.660734415    0.000000000
    0.505932331    0.494067699    0.299999893
    0.672599077    0.327401012    0.599999845
    0.089265659    0.160734370    0.149999961
    0.255932391    0.994067669    0.449999899
    0.422599137    0.827400982    0.749999821
    0.755932271    0.494067729    0.149999961
    0.922599018    0.327401042    0.449999899
    0.089265704    0.160734326    0.749999821
    0.422598928    0.827401102    0.149999961
    0.589265704    0.660734475    0.449999899
    0.755932450    0.494067729    0.749999821
    0.505932331    0.994067729    0.000000000
    0.672599018    0.827401042    0.299999893
    0.839265764    0.660734296    0.599999845
    0.172598973    0.327401042    0.000000000
    0.339265674    0.160734370    0.299999893
    0.505932391    0.994067669    0.599999845
    0.839265585    0.660734415    0.000000000
    0.005932331    0.494067699    0.299999893
    0.172598958    0.327400982    0.599999845
    0.589265645    0.160734355    0.149999961
    0.755932391    0.994067669    0.449999899
    0.922599137    0.827400923    0.749999821
    0.255932271    0.494067729    0.149999961
    0.422599047    0.327401042    0.449999899
    0.589265764    0.160734326    0.749999821
    0.922598958    0.827401161    0.149999961
    0.089265704    0.660734415    0.449999899
    0.255932450    0.494067699    0.749999821
    0.989384770    0.026538117    0.749999821
    0.878273547    0.304315925    0.849999845
    0.767162383    0.582093716    0.949999988
    0.489384741    0.026538113    0.749999821
    0.378273547    0.304315925    0.849999845
    0.267162323    0.582093656    0.949999988
    0.683829188    0.915426970    0.799999893
    0.572717965    0.193204761    0.899999917
    0.461606771    0.470982552    0.999999940
    0.183829159    0.915427029    0.799999893
    0.072717965    0.193204761    0.899999917
    0.961606741    0.470982552    0.999999940
