Si Ge
 1.0000000000000000
     6.7899855669949698    0.0000000000000000    0.0000000000000000
     5.6583213058291406    3.7533057429418140    0.0000000000000000
     0.0000000000000000    0.0000000000000000   17.4237834782885486
 Si  Ge 
  10  10
Cartesian
  0.6173919950252600 -0.0061486101067374 -0.0916228498809753
  2.8807205173569166  0.6762706158826834  0.3176788003833386
  9.6707060843518864  2.7235282938509462  1.5455837511762811
 11.9340346066835430  3.4059475198403661  1.9548854014405952
  6.2757133008544006  1.6998994548668140  3.1827903522335372
  8.5390418231860590  2.3823186808562351  3.5920920024978513
  2.8807205173569153  0.6762706158826832  4.8199969532907936
  5.1440490396885732  1.3586898418721038  5.2292986035551081
 11.9340346066835412  3.4059475198403657  6.4572035543480499
  1.7490562561910883  0.3350610028879715  6.8665052046123636
  0.5386196814927871 -0.0874689470003020  8.4015321916107464
  2.8019482038244434  0.5949502789891188  8.8280199885159938
  9.5919337708194110  2.6422079569573809 10.1074833792317342
 11.8552622931510694  3.3246271829468017 10.5339711761369799
  6.1969409873219279  1.6185791179732498 11.8134345668527203
  8.4602695096535836  2.3009983439626707 12.2399223637579659
  2.8019482038244443  0.5949502789891183 13.5193857544737064
  5.0652767261561014  1.2773695049785390 13.9458735513789520
 11.8552622931510694  3.3246271829468017 15.2253369420946925
  1.6702839426586162  0.2537406659944084 15.6518247389999381
