Si+C
    1.000000000
   13.303179741    0.000000000    0.000000000
    6.651589394   11.520891190    0.000000000
    0.000000000    0.000000000   21.679414749
Si  C  
72     308
Direct
    0.000000000    0.681493819    0.289268851
    0.000000000    0.014827055    0.000000008
    0.000000000    0.348160446    0.144634441
    0.333333343    0.014827132    0.289268851
    0.333333343    0.348160386    0.000000009
    0.333333343    0.681493819    0.144634441
    0.666666687    0.348160386    0.289268821
    0.666666687    0.681493759    0.000000006
    0.666666687    0.014827132    0.144634441
    0.000000000    0.014827251    0.325427473
    0.000000000    0.348160416    0.036158621
    0.000000000    0.681493819    0.180793047
    0.333333343    0.348160505    0.325427443
    0.333333343    0.681493819    0.036158621
    0.333333343    0.014827132    0.180793032
    0.666666746    0.681493998    0.325427473
    0.666666746    0.014827132    0.036158621
    0.666666746    0.348160505    0.180793062
    0.166666672    0.848160446    0.289268821
    0.166666672    0.181493714    0.000000004
    0.166666672    0.514827132    0.144634441
    0.500000060    0.181493759    0.289268821
    0.500000000    0.514827073    0.000000001
    0.500000000    0.848160505    0.144634441
    0.833333373    0.514827251    0.289268851
    0.833333373    0.848160446    0.000000000
    0.833333373    0.181493759    0.144634411
    0.166666687    0.181493759    0.325427383
    0.166666687    0.514827073    0.036158580
    0.166666687    0.848160505    0.180793002
    0.500000000    0.514827132    0.325427383
    0.500000000    0.848160326    0.036158577
    0.500000000    0.181493759    0.180793017
    0.833333313    0.848160446    0.325427383
    0.833333313    0.181493714    0.036158577
    0.833333313    0.514827132    0.180793047
    0.000000000    0.181493759    0.289268821
    0.000000000    0.514827073    0.000000011
    0.000000000    0.848160446    0.144634441
    0.333333343    0.514827251    0.289268851
    0.333333343    0.848160505    0.000000016
    0.333333343    0.181493878    0.144634470
    0.666666687    0.848160446    0.289268821
    0.666666687    0.181493714    0.000000001
    0.666666687    0.514827132    0.144634441
    0.000000014    0.514827251    0.325427443
    0.000000014    0.848160446    0.036158580
    0.000000014    0.181493878    0.180793032
    0.333333373    0.848160446    0.325427443
    0.333333373    0.181493714    0.036158580
    0.333333373    0.514827073    0.180793002
    0.666666746    0.181493878    0.325427443
    0.666666746    0.514827073    0.036158580
    0.666666746    0.848160505    0.180793017
    0.166666672    0.348160386    0.289268821
    0.166666672    0.681493759    0.000000009
    0.166666672    0.014827132    0.144634470
    0.500000000    0.681493759    0.289268851
    0.500000000    0.014827051    0.000000009
    0.500000000    0.348160475    0.144634441
    0.833333313    0.014827132    0.289268821
    0.833333313    0.348160416    0.000000006
    0.833333313    0.681493759    0.144634426
    0.166666687    0.681493878    0.325427473
    0.166666687    0.014827132    0.036158640
    0.166666687    0.348160386    0.180793032
    0.500000000    0.014827251    0.325427473
    0.500000000    0.348160416    0.036158610
    0.500000000    0.681493759    0.180793032
    0.833333373    0.348160505    0.325427443
    0.833333373    0.681493700    0.036158621
    0.833333373    0.014827013    0.180793032
    0.080466069    0.987919211    0.900184870
    0.032847166    0.226014853    0.425242722
    0.842370987    0.178395748    0.520231128
    0.651894748    0.130776525    0.615219593
    0.461418480    0.083157420    0.710208058
    0.270942301    0.035538316    0.805196404
    0.223323196    0.273633450    0.900184870
    0.175704360    0.511729121    0.425242722
    0.985228121    0.464109987    0.520231187
    0.794751942    0.416490853    0.615219593
    0.604275644    0.368871719    0.710208058
    0.413799435    0.321252584    0.805196464
    0.366180331    0.559347749    0.900184870
    0.318561494    0.797443449    0.425242752
    0.128085256    0.749824286    0.520231187
    0.937609076    0.702205122    0.615219593
    0.747132719    0.654586017    0.710208058
    0.556656599    0.606966853    0.805196404
    0.651894629    0.130776286    0.900184870
    0.604275763    0.368871987    0.425242752
    0.413799524    0.321252853    0.520231128
    0.223323315    0.273633718    0.615219593
    0.032847047    0.226014495    0.710208058
    0.842370868    0.178395391    0.805196404
    0.509037435    0.845061958    0.900184870
    0.461418599    0.083157659    0.425242722
    0.270942390    0.035538554    0.520231128
    0.080466159    0.987919331    0.615219593
    0.889990032    0.940300226    0.710207939
    0.699513733    0.892681122    0.805196464
    0.794751763    0.416490555    0.900184870
    0.747132897    0.654586256    0.425242752
    0.556656718    0.606967092    0.520231128
    0.366180450    0.559347987    0.615219593
    0.175704271    0.511728823    0.710207999
    0.985228002    0.464109689    0.805196464
    0.937608838    0.702204823    0.900184870
    0.889990032    0.940300524    0.425242722
    0.699513793    0.892681420    0.520231128
    0.509037554    0.845062256    0.615219593
    0.318561226    0.797443151    0.710208058
    0.128085047    0.749824047    0.805196404
    0.128085315    0.749824345    0.448989779
    0.937609076    0.702205241    0.543978274
    0.747132838    0.654586077    0.638966739
    0.556656599    0.606966972    0.733955085
    0.366180211    0.559347749    0.828943610
    0.413799554    0.321252942    0.448989779
    0.223323345    0.273633808    0.543978274
    0.032847166    0.226014614    0.638966739
    0.842370868    0.178395510    0.733955085
    0.651894510    0.130776405    0.828943610
    0.270942420    0.035538673    0.448989809
    0.080466203    0.987919509    0.543978274
    0.889990032    0.940300345    0.638966739
    0.699513733    0.892681241    0.733955085
    0.509037435    0.845062077    0.828943610
    0.556656718    0.606967211    0.448989779
    0.366180480    0.559348106    0.543978274
    0.175704271    0.511728942    0.638966739
    0.985228002    0.464109808    0.733955085
    0.794751704    0.416490614    0.828943610
    0.699513853    0.892681479    0.448989809
    0.509037614    0.845062315    0.543978333
    0.318561375    0.797443211    0.638966739
    0.128085107    0.749824107    0.733955085
    0.937608838    0.702204943    0.828943610
    0.985228181    0.464110017    0.448989809
    0.794751942    0.416490912    0.543978274
    0.604275763    0.368871778    0.638966739
    0.413799435    0.321252644    0.733955085
    0.223323137    0.273633480    0.828943610
    0.842370987    0.178395748    0.448989809
    0.651894748    0.130776525    0.543978274
    0.461418450    0.083157420    0.638966739
    0.270942241    0.035538316    0.733955085
    0.080466002    0.987919211    0.828943551
    0.151894599    0.130776286    0.900184929
    0.104275785    0.368871987    0.425242752
    0.913799584    0.321252823    0.520231128
    0.723323345    0.273633718    0.615219593
    0.532847047    0.226014495    0.710208058
    0.342370838    0.178395391    0.805196464
    0.294751734    0.416490614    0.900184870
    0.247132927    0.654586256    0.425242752
    0.056656681    0.606967151    0.520231187
    0.866180480    0.559347987    0.615219593
    0.675704181    0.511728883    0.710208058
    0.485227972    0.464109778    0.805196404
    0.580466032    0.987919211    0.900184870
    0.532847166    0.226014853    0.425242752
    0.342370927    0.178395748    0.520231128
    0.151894733    0.130776525    0.615219593
    0.961418450    0.083157420    0.710208058
    0.770942271    0.035538316    0.805196404
    0.437608808    0.702204823    0.900184929
    0.389990002    0.940300524    0.425242752
    0.199513793    0.892681420    0.520231187
    0.009037495    0.845062315    0.615219593
    0.818561375    0.797443151    0.710207999
    0.628085077    0.749823987    0.805196464
    0.723323166    0.273633420    0.900184870
    0.675704360    0.511729121    0.425242722
    0.485228151    0.464109957    0.520231128
    0.294751883    0.416490853    0.615219593
    0.104275741    0.368871719    0.710207939
    0.913799465    0.321252555    0.805196404
    0.866180360    0.559347749    0.900184810
    0.818561554    0.797443449    0.425242692
    0.628085315    0.749824286    0.520231128
    0.437609047    0.702205122    0.615219593
    0.247132778    0.654585958    0.710208058
    0.056656592    0.606966853    0.805196404
    0.009037495    0.845061958    0.900184870
    0.961418688    0.083157659    0.425242722
    0.770942450    0.035538435    0.520231128
    0.580466270    0.987919390    0.615219593
    0.389989913    0.940300286    0.710208058
    0.199513733    0.892681181    0.805196404
    0.056656741    0.606967151    0.448989779
    0.866180480    0.559348047    0.543978274
    0.675704300    0.511728883    0.638966739
    0.485228032    0.464109778    0.733955085
    0.294751793    0.416490614    0.828943491
    0.199513882    0.892681479    0.448989779
    0.009037614    0.845062315    0.543978274
    0.818561435    0.797443211    0.638966739
    0.628085196    0.749824047    0.733955026
    0.437608927    0.702204943    0.828943491
    0.485228121    0.464110017    0.448989779
    0.294751883    0.416490912    0.543978274
    0.104275659    0.368871808    0.638966739
    0.913799465    0.321252674    0.733955085
    0.723323286    0.273633510    0.828943491
    0.342370987    0.178395748    0.448989809
    0.151894748    0.130776644    0.543978274
    0.961418569    0.083157539    0.638966739
    0.770942330    0.035538316    0.733955085
    0.580466092    0.987919271    0.828943551
    0.628085256    0.749824405    0.448989809
    0.437609017    0.702205241    0.543978274
    0.247132808    0.654586136    0.638966739
    0.056656558    0.606966972    0.733955085
    0.866180360    0.559347868    0.828943551
    0.913799644    0.321252942    0.448989779
    0.723323405    0.273633838    0.543978274
    0.532847166    0.226014614    0.638966739
    0.342370927    0.178395510    0.733955026
    0.151894659    0.130776405    0.828943491
    0.770942450    0.035538554    0.448989779
    0.580466211    0.987919450    0.543978274
    0.389989913    0.940300345    0.638966739
    0.199513704    0.892681181    0.733955026
    0.009037495    0.845062077    0.828943551
    0.151894599    0.630776286    0.900184870
    0.104275785    0.868871987    0.425242752
    0.913799584    0.821252823    0.520231128
    0.723323405    0.773633718    0.615219593
    0.532847047    0.726014555    0.710208058
    0.342370898    0.678395450    0.805196404
    0.437608868    0.202204823    0.900184870
    0.389990032    0.440300524    0.425242752
    0.199513823    0.392681420    0.520231128
    0.009037614    0.345062256    0.615219593
    0.818561316    0.297443122    0.710208058
    0.628085196    0.249823987    0.805196404
    0.294751734    0.916490555    0.900184870
    0.247132957    0.154586196    0.425242722
    0.056656733    0.106967092    0.520231128
    0.866180480    0.059347987    0.615219593
    0.675704300    0.011728764    0.710207939
    0.485227972    0.964109659    0.805196404
    0.580465972    0.487919092    0.900184870
    0.532847166    0.726014793    0.425242722
    0.342370927    0.678395629    0.520231128
    0.151894689    0.630776525    0.615219593
    0.961418569    0.583157420    0.710207939
    0.770942271    0.535538197    0.805196464
    0.866180241    0.059347749    0.900184870
    0.818561435    0.297443390    0.425242722
    0.628085256    0.249824256    0.520231128
    0.437608987    0.202205062    0.615219593
    0.247132808    0.154585958    0.710207939
    0.056656487    0.106966853    0.805196464
    0.723323226    0.773633480    0.900184810
    0.675704420    0.011729121    0.425242722
    0.485228121    0.964110017    0.520231128
    0.294751912    0.916490912    0.615219593
    0.104275621    0.868871748    0.710208058
    0.913799465    0.821252644    0.805196404
    0.009037495    0.345062017    0.900184870
    0.961418688    0.583157718    0.425242752
    0.770942390    0.535538554    0.520231187
    0.580466211    0.487919390    0.615219653
    0.389989853    0.440300286    0.710208058
    0.199513704    0.392681152    0.805196464
    0.199513853    0.392681479    0.448989779
    0.009037614    0.345062375    0.543978274
    0.818561435    0.297443211    0.638966739
    0.628085196    0.249824107    0.733955026
    0.437608927    0.202204943    0.828943491
    0.056656733    0.106967211    0.448989779
    0.866180480    0.059347987    0.543978274
    0.675704300    0.011728883    0.638966739
    0.485228032    0.964109778    0.733955085
    0.294751793    0.916490674    0.828943491
    0.342371017    0.678395748    0.448989779
    0.151894763    0.630776644    0.543978274
    0.961418569    0.583157539    0.638966739
    0.770942390    0.535538375    0.733955085
    0.580466092    0.487919271    0.828943491
    0.628085315    0.249824375    0.448989779
    0.437608987    0.202205181    0.543978274
    0.247132838    0.154586077    0.638966739
    0.056656569    0.106966972    0.733955085
    0.866180360    0.059347868    0.828943491
    0.485228121    0.964110076    0.448989779
    0.294751883    0.916490972    0.543978274
    0.104275666    0.868871808    0.638966739
    0.913799465    0.821252644    0.733955026
    0.723323166    0.773633540    0.828943551
    0.770942450    0.535538614    0.448989779
    0.580466151    0.487919509    0.543978274
    0.389989972    0.440300405    0.638966739
    0.199513704    0.392681271    0.733955026
    0.009037495    0.345062137    0.828943551
    0.913799465    0.821252942    0.448989809
    0.723323226    0.773633838    0.543978274
    0.532846987    0.726014674    0.638966739
    0.342370749    0.678395510    0.733955085
    0.151894510    0.630776405    0.828943491
    0.080466069    0.487919152    0.900184929
    0.032847166    0.726014793    0.425242722
    0.842370987    0.678395629    0.520231128
    0.651894808    0.630776525    0.615219593
    0.461418480    0.583157361    0.710208058
    0.270942301    0.535538256    0.805196404
    0.366180331    0.059347749    0.900184870
    0.318561494    0.297443420    0.425242722
    0.128085256    0.249824286    0.520231128
    0.937609076    0.202205181    0.615219593
    0.747132778    0.154585958    0.710208058
    0.556656539    0.106966853    0.805196404
    0.223323137    0.773633361    0.900184870
    0.175704330    0.011729002    0.425242722
    0.985228121    0.964109957    0.520231128
    0.794751883    0.916490793    0.615219593
    0.604275763    0.868871629    0.710207999
    0.413799375    0.821252525    0.805196464
    0.509037435    0.345061958    0.900184870
    0.461418629    0.583157659    0.425242722
    0.270942420    0.535538554    0.520231128
    0.080466166    0.487919390    0.615219593
    0.889990032    0.440300286    0.710207939
    0.699513733    0.392681092    0.805196404
    0.651894629    0.630776286    0.900184810
    0.604275823    0.868871987    0.425242722
    0.413799524    0.821252882    0.520231128
    0.223323345    0.773633718    0.615219593
    0.032847047    0.726014555    0.710208058
    0.842370868    0.678395450    0.805196404
    0.937608838    0.202204823    0.900184870
    0.889990032    0.440300524    0.425242722
    0.699513793    0.392681420    0.520231128
    0.509037614    0.345062286    0.615219593
    0.318561226    0.297443122    0.710208058
    0.128085077    0.249824017    0.805196464
    0.794751704    0.916490555    0.900184929
    0.747132897    0.154586196    0.425242752
    0.556656659    0.106967092    0.520231128
    0.366180390    0.059347868    0.615219653
    0.175704122    0.011728764    0.710208058
    0.985227942    0.964109719    0.805196404
    0.128085315    0.249824375    0.448989809
    0.937609136    0.202205181    0.543978274
    0.747132897    0.154586077    0.638966739
    0.556656659    0.106966972    0.733955085
    0.366180271    0.059347749    0.828943610
    0.270942479    0.535538614    0.448989779
    0.080466226    0.487919509    0.543978333
    0.889990032    0.440300375    0.638966739
    0.699513733    0.392681241    0.733955085
    0.509037435    0.345062077    0.828943610
    0.413799554    0.821252942    0.448989809
    0.223323315    0.773633838    0.543978274
    0.032847047    0.726014674    0.638966739
    0.842370868    0.678395510    0.733955085
    0.651894510    0.630776405    0.828943610
    0.699513853    0.392681479    0.448989779
    0.509037614    0.345062375    0.543978274
    0.318561405    0.297443211    0.638966739
    0.128085136    0.249824092    0.733955085
    0.937608838    0.202204943    0.828943610
    0.556656718    0.106967211    0.448989809
    0.366180450    0.059347987    0.543978333
    0.175704241    0.011728883    0.638966739
    0.985228002    0.964109838    0.733955085
    0.794751704    0.916490674    0.828943610
    0.842370987    0.678395748    0.448989809
    0.651894748    0.630776644    0.543978274
    0.461418509    0.583157480    0.638966739
    0.270942241    0.535538316    0.733955085
    0.080465928    0.487919211    0.828943610
    0.985228300    0.964110076    0.448989809
    0.794752061    0.916490972    0.543978274
    0.604275823    0.868871808    0.638966739
    0.413799495    0.821252644    0.733955085
    0.223323256    0.773633480    0.828943610
