fcc Si+fcc Ge
    1.000000000
   17.329281578    0.000000000    0.000000000
    0.000000000   17.329281578    0.000000000
    0.000000000    0.000000000   21.574622889
Si    Ge   
220     72
Direct
    0.975000000    0.925000000    0.063500531
    0.925000000    0.775000000    0.190501592
    0.875000000    0.625000000    0.317502653
    0.825000000    0.475000000    0.444503714
    0.775000000    0.325000000    0.571504775
    0.075000000    0.225000000    0.063500531
    0.025000000    0.075000000    0.190501592
    0.975000000    0.925000000    0.317502653
    0.925000000    0.775000000    0.444503714
    0.875000000    0.625000000    0.571504775
    0.375000000    0.125000000    0.063500531
    0.325000000    0.975000000    0.190501592
    0.275000000    0.825000000    0.317502653
    0.225000000    0.675000000    0.444503714
    0.175000000    0.525000000    0.571504775
    0.675000000    0.025000000    0.063500531
    0.625000000    0.875000000    0.190501592
    0.575000000    0.725000000    0.317502653
    0.525000000    0.575000000    0.444503714
    0.475000000    0.425000000    0.571504775
    0.175000000    0.525000000    0.063500531
    0.125000000    0.375000000    0.190501592
    0.075000000    0.225000000    0.317502653
    0.025000000    0.075000000    0.444503714
    0.975000000    0.925000000    0.571504775
    0.475000000    0.425000000    0.063500531
    0.425000000    0.275000000    0.190501592
    0.375000000    0.125000000    0.317502653
    0.325000000    0.975000000    0.444503714
    0.275000000    0.825000000    0.571504775
    0.775000000    0.325000000    0.063500531
    0.725000000    0.175000000    0.190501592
    0.675000000    0.025000000    0.317502653
    0.625000000    0.875000000    0.444503714
    0.575000000    0.725000000    0.571504775
    0.275000000    0.825000000    0.063500531
    0.225000000    0.675000000    0.190501592
    0.175000000    0.525000000    0.317502653
    0.125000000    0.375000000    0.444503714
    0.075000000    0.225000000    0.571504775
    0.575000000    0.725000000    0.063500531
    0.525000000    0.575000000    0.190501592
    0.475000000    0.425000000    0.317502653
    0.425000000    0.275000000    0.444503714
    0.375000000    0.125000000    0.571504775
    0.875000000    0.625000000    0.063500531
    0.825000000    0.475000000    0.190501592
    0.775000000    0.325000000    0.317502653
    0.725000000    0.175000000    0.444503714
    0.675000000    0.025000000    0.571504775
    0.175000000    0.025000000    0.063500531
    0.125000000    0.875000000    0.190501592
    0.075000000    0.725000000    0.317502653
    0.025000000    0.575000000    0.444503714
    0.975000000    0.425000000    0.571504775
    0.475000000    0.925000000    0.063500531
    0.425000000    0.775000000    0.190501592
    0.375000000    0.625000000    0.317502653
    0.325000000    0.475000000    0.444503714
    0.275000000    0.325000000    0.571504775
    0.975000000    0.425000000    0.063500531
    0.925000000    0.275000000    0.190501592
    0.875000000    0.125000000    0.317502653
    0.825000000    0.975000000    0.444503714
    0.775000000    0.825000000    0.571504775
    0.275000000    0.325000000    0.063500531
    0.225000000    0.175000000    0.190501592
    0.175000000    0.025000000    0.317502653
    0.125000000    0.875000000    0.444503714
    0.075000000    0.725000000    0.571504775
    0.575000000    0.225000000    0.063500531
    0.525000000    0.075000000    0.190501592
    0.475000000    0.925000000    0.317502653
    0.425000000    0.775000000    0.444503714
    0.375000000    0.625000000    0.571504775
    0.875000000    0.125000000    0.063500531
    0.825000000    0.975000000    0.190501592
    0.775000000    0.825000000    0.317502653
    0.725000000    0.675000000    0.444503714
    0.675000000    0.525000000    0.571504775
    0.075000000    0.725000000    0.063500531
    0.025000000    0.575000000    0.190501592
    0.975000000    0.425000000    0.317502653
    0.925000000    0.275000000    0.444503714
    0.875000000    0.125000000    0.571504775
    0.375000000    0.625000000    0.063500531
    0.325000000    0.475000000    0.190501592
    0.275000000    0.325000000    0.317502653
    0.225000000    0.175000000    0.444503714
    0.175000000    0.025000000    0.571504775
    0.675000000    0.525000000    0.063500531
    0.625000000    0.375000000    0.190501592
    0.575000000    0.225000000    0.317502653
    0.525000000    0.075000000    0.444503714
    0.475000000    0.925000000    0.571504775
    0.775000000    0.825000000    0.063500531
    0.725000000    0.675000000    0.190501592
    0.675000000    0.525000000    0.317502653
    0.625000000    0.375000000    0.444503714
    0.575000000    0.225000000    0.571504775
    0.125000000    0.125000000    0.000000000
    0.075000000    0.975000000    0.127001061
    0.025000000    0.825000000    0.254002122
    0.975000000    0.675000000    0.381003183
    0.925000000    0.525000000    0.508004244
    0.875000000    0.375000000    0.635005306
    0.225000000    0.425000000    0.000000000
    0.175000000    0.275000000    0.127001061
    0.125000000    0.125000000    0.254002122
    0.075000000    0.975000000    0.381003183
    0.025000000    0.825000000    0.508004244
    0.975000000    0.675000000    0.635005306
    0.525000000    0.325000000    0.000000000
    0.475000000    0.175000000    0.127001061
    0.425000000    0.025000000    0.254002122
    0.375000000    0.875000000    0.381003183
    0.325000000    0.725000000    0.508004244
    0.275000000    0.575000000    0.635005306
    0.825000000    0.225000000    0.000000000
    0.775000000    0.075000000    0.127001061
    0.725000000    0.925000000    0.254002122
    0.675000000    0.775000000    0.381003183
    0.625000000    0.625000000    0.508004244
    0.575000000    0.475000000    0.635005306
    0.025000000    0.825000000    0.000000000
    0.975000000    0.675000000    0.127001061
    0.925000000    0.525000000    0.254002122
    0.875000000    0.375000000    0.381003183
    0.825000000    0.225000000    0.508004244
    0.775000000    0.075000000    0.635005306
    0.325000000    0.725000000    0.000000000
    0.275000000    0.575000000    0.127001061
    0.225000000    0.425000000    0.254002122
    0.175000000    0.275000000    0.381003183
    0.125000000    0.125000000    0.508004244
    0.075000000    0.975000000    0.635005306
    0.625000000    0.625000000    0.000000000
    0.575000000    0.475000000    0.127001061
    0.525000000    0.325000000    0.254002122
    0.475000000    0.175000000    0.381003183
    0.425000000    0.025000000    0.508004244
    0.375000000    0.875000000    0.635005306
    0.925000000    0.525000000    0.000000000
    0.875000000    0.375000000    0.127001061
    0.825000000    0.225000000    0.254002122
    0.775000000    0.075000000    0.381003183
    0.725000000    0.925000000    0.508004244
    0.675000000    0.775000000    0.635005306
    0.425000000    0.025000000    0.000000000
    0.375000000    0.875000000    0.127001061
    0.325000000    0.725000000    0.254002122
    0.275000000    0.575000000    0.381003183
    0.225000000    0.425000000    0.508004244
    0.175000000    0.275000000    0.635005306
    0.725000000    0.925000000    0.000000000
    0.675000000    0.775000000    0.127001061
    0.625000000    0.625000000    0.254002122
    0.575000000    0.475000000    0.381003183
    0.525000000    0.325000000    0.508004244
    0.475000000    0.175000000    0.635005306
    0.025000000    0.325000000    0.000000000
    0.975000000    0.175000000    0.127001061
    0.925000000    0.025000000    0.254002122
    0.875000000    0.875000000    0.381003183
    0.825000000    0.725000000    0.508004244
    0.775000000    0.575000000    0.635005306
    0.325000000    0.225000000    0.000000000
    0.275000000    0.075000000    0.127001061
    0.225000000    0.925000000    0.254002122
    0.175000000    0.775000000    0.381003183
    0.125000000    0.625000000    0.508004244
    0.075000000    0.475000000    0.635005306
    0.625000000    0.125000000    0.000000000
    0.575000000    0.975000000    0.127001061
    0.525000000    0.825000000    0.254002122
    0.475000000    0.675000000    0.381003183
    0.425000000    0.525000000    0.508004244
    0.375000000    0.375000000    0.635005306
    0.125000000    0.625000000    0.000000000
    0.075000000    0.475000000    0.127001061
    0.025000000    0.325000000    0.254002122
    0.975000000    0.175000000    0.381003183
    0.925000000    0.025000000    0.508004244
    0.875000000    0.875000000    0.635005306
    0.425000000    0.525000000    0.000000000
    0.375000000    0.375000000    0.127001061
    0.325000000    0.225000000    0.254002122
    0.275000000    0.075000000    0.381003183
    0.225000000    0.925000000    0.508004244
    0.175000000    0.775000000    0.635005306
    0.725000000    0.425000000    0.000000000
    0.675000000    0.275000000    0.127001061
    0.625000000    0.125000000    0.254002122
    0.575000000    0.975000000    0.381003183
    0.525000000    0.825000000    0.508004244
    0.475000000    0.675000000    0.635005306
    0.225000000    0.925000000    0.000000000
    0.175000000    0.775000000    0.127001061
    0.125000000    0.625000000    0.254002122
    0.075000000    0.475000000    0.381003183
    0.025000000    0.325000000    0.508004244
    0.975000000    0.175000000    0.635005306
    0.525000000    0.825000000    0.000000000
    0.475000000    0.675000000    0.127001061
    0.425000000    0.525000000    0.254002122
    0.375000000    0.375000000    0.381003183
    0.325000000    0.225000000    0.508004244
    0.275000000    0.075000000    0.635005306
    0.825000000    0.725000000    0.000000000
    0.775000000    0.575000000    0.127001061
    0.725000000    0.425000000    0.254002122
    0.675000000    0.275000000    0.381003183
    0.625000000    0.125000000    0.508004244
    0.575000000    0.975000000    0.635005306
    0.925000000    0.025000000    0.000000000
    0.875000000    0.875000000    0.127001061
    0.825000000    0.725000000    0.254002122
    0.775000000    0.575000000    0.381003183
    0.725000000    0.425000000    0.508004244
    0.675000000    0.275000000    0.635005306
    0.259689922    0.029069767    0.921203721
    0.093023256    0.779069767    0.713801584
    0.926356589    0.629069767    0.755282012
    0.759689922    0.479069767    0.796762439
    0.593023256    0.329069767    0.838242866
    0.426356589    0.179069767    0.879723294
    0.593023256    0.029069767    0.921203721
    0.426356589    0.779069767    0.713801584
    0.259689922    0.629069767    0.755282012
    0.093023256    0.479069767    0.796762439
    0.926356589    0.329069767    0.838242866
    0.759689922    0.179069767    0.879723294
    0.926356589    0.029069767    0.921203721
    0.759689922    0.779069767    0.713801584
    0.593023256    0.629069767    0.755282012
    0.426356589    0.479069767    0.796762439
    0.259689922    0.329069767    0.838242866
    0.093023256    0.179069767    0.879723294
    0.259689922    0.529069767    0.921203721
    0.093023256    0.279069767    0.713801584
    0.926356589    0.129069767    0.755282012
    0.759689922    0.979069767    0.796762439
    0.593023256    0.829069767    0.838242866
    0.426356589    0.679069767    0.879723294
    0.593023256    0.529069767    0.921203721
    0.426356589    0.279069767    0.713801584
    0.259689922    0.129069767    0.755282012
    0.093023256    0.979069767    0.796762439
    0.926356589    0.829069767    0.838242866
    0.759689922    0.679069767    0.879723294
    0.926356589    0.529069767    0.921203721
    0.759689922    0.279069767    0.713801584
    0.593023256    0.129069767    0.755282012
    0.426356589    0.979069767    0.796762439
    0.259689922    0.829069767    0.838242866
    0.093023256    0.679069767    0.879723294
    0.343023256    0.779069767    0.921203721
    0.176356589    0.529069767    0.713801584
    0.009689922    0.379069767    0.755282012
    0.843023256    0.229069767    0.796762439
    0.676356589    0.079069767    0.838242866
    0.509689922    0.929069767    0.879723294
    0.676356589    0.779069767    0.921203721
    0.509689922    0.529069767    0.713801584
    0.343023256    0.379069767    0.755282012
    0.176356589    0.229069767    0.796762439
    0.009689922    0.079069767    0.838242866
    0.843023256    0.929069767    0.879723294
    0.009689922    0.779069767    0.921203721
    0.843023256    0.529069767    0.713801584
    0.676356589    0.379069767    0.755282012
    0.509689922    0.229069767    0.796762439
    0.343023256    0.079069767    0.838242866
    0.176356589    0.929069767    0.879723294
    0.343023256    0.279069767    0.921203721
    0.176356589    0.029069767    0.713801584
    0.009689922    0.879069767    0.755282012
    0.843023256    0.729069767    0.796762439
    0.676356589    0.579069767    0.838242866
    0.509689922    0.429069767    0.879723294
    0.676356589    0.279069767    0.921203721
    0.509689922    0.029069767    0.713801584
    0.343023256    0.879069767    0.755282012
    0.176356589    0.729069767    0.796762439
    0.009689922    0.579069767    0.838242866
    0.843023256    0.429069767    0.879723294
    0.009689922    0.279069767    0.921203721
    0.843023256    0.029069767    0.713801584
    0.676356589    0.879069767    0.755282012
    0.509689922    0.729069767    0.796762439
    0.343023256    0.579069767    0.838242866
    0.176356589    0.429069767    0.879723294
