Si+Ge                                   
   1.00000000000000     
    16.2930011750000006    0.0000000000000000    0.0000000000000000
     0.0000000000000000   16.2930011750000006    0.0000000000000000
     0.0000000000000000    0.0000000000000000   10.1226444240000006
   Si   Ge
   108    48
Direct
  0.0000000000000000  0.9940677290000011  0.0000000000000000
  0.0000000000000000  0.8274010419999982  0.2682599720000027
  0.0000000000000000  0.6607342960000011  0.5365200040000033
  0.3333333429999996  0.9940677290000011  0.0000000000000000
  0.3333333429999996  0.8274010419999982  0.2682599720000027
  0.3333333429999996  0.6607342960000011  0.5365200040000033
  0.6666666870000029  0.9940677290000011  0.0000000000000000
  0.6666666870000029  0.8274010419999982  0.2682599720000027
  0.6666666870000029  0.6607342960000011  0.5365200040000033
  0.0000000000000000  0.3274010419999982  0.0000000000000000
  0.0000000000000000  0.1607343700000001  0.2682599720000027
  0.0000000000000000  0.9940676690000032  0.5365200040000033
  0.3333333429999996  0.3274010419999982  0.0000000000000000
  0.3333333429999996  0.1607343700000001  0.2682599720000027
  0.3333333429999996  0.9940676690000032  0.5365200040000033
  0.6666666870000029  0.3274010419999982  0.0000000000000000
  0.6666666870000029  0.1607343700000001  0.2682599720000027
  0.6666666870000029  0.9940676690000032  0.5365200040000033
  0.0000000000000000  0.6607344150000003  0.0000000000000000
  0.0000000000000000  0.4940676989999986  0.2682599720000027
  0.0000000000000000  0.3274010419999982  0.5365200040000033
  0.3333333429999996  0.6607344150000003  0.0000000000000000
  0.3333333429999996  0.4940676989999986  0.2682599720000027
  0.3333333429999996  0.3274010419999982  0.5365200040000033
  0.6666666870000029  0.6607344150000003  0.0000000000000000
  0.6666666870000029  0.4940676989999986  0.2682599720000027
  0.6666666870000029  0.3274010419999982  0.5365200040000033
  0.0833333360000026  0.0774010490000023  0.1341300010000026
  0.0833333360000026  0.9107343550000024  0.4023899139999969
  0.0833333360000026  0.7440676690000032  0.6706499459999975
  0.4166666870000029  0.0774010490000023  0.1341300010000026
  0.4166666870000029  0.9107343550000024  0.4023899139999969
  0.4166666870000029  0.7440676690000032  0.6706499459999975
  0.7500000000000000  0.0774010490000023  0.1341300010000026
  0.7500000000000000  0.9107343550000024  0.4023899139999969
  0.7500000000000000  0.7440676690000032  0.6706499459999975
  0.0833333360000026  0.4107343550000024  0.1341300010000026
  0.0833333360000026  0.2440676690000032  0.4023899139999969
  0.0833333360000026  0.0774009820000003  0.6706499459999975
  0.4166666870000029  0.4107343550000024  0.1341300010000026
  0.4166666870000029  0.2440676690000032  0.4023899139999969
  0.4166666870000029  0.0774009820000003  0.6706499459999975
  0.7500000000000000  0.4107343550000024  0.1341300010000026
  0.7500000000000000  0.2440676690000032  0.4023899139999969
  0.7500000000000000  0.0774009820000003  0.6706499459999975
  0.0833333360000026  0.7440677290000011  0.1341300010000026
  0.0833333360000026  0.5774010419999982  0.4023899139999969
  0.0833333360000026  0.4107343550000024  0.6706499459999975
  0.4166666870000029  0.7440677290000011  0.1341300010000026
  0.4166666870000029  0.5774010419999982  0.4023899139999969
  0.4166666870000029  0.4107343550000024  0.6706499459999975
  0.7500000000000000  0.7440677290000011  0.1341300010000026
  0.7500000000000000  0.5774010419999982  0.4023899139999969
  0.7500000000000000  0.4107343550000024  0.6706499459999975
  0.1666666719999981  0.1607343849999978  0.0000000000000000
  0.1666666719999981  0.9940676690000032  0.2682599720000027
  0.1666666719999981  0.8274009820000003  0.5365200040000033
  0.5000000000000000  0.1607343849999978  0.0000000000000000
  0.5000000000000000  0.9940676690000032  0.2682599720000027
  0.5000000000000000  0.8274009820000003  0.5365200040000033
  0.8333333730000021  0.1607343849999978  0.0000000000000000
  0.8333333730000021  0.9940676690000032  0.2682599720000027
  0.8333333730000021  0.8274009820000003  0.5365200040000033
  0.1666666719999981  0.4940676989999986  0.0000000000000000
  0.1666666719999981  0.3274010419999982  0.2682599720000027
  0.1666666719999981  0.1607343109999988  0.5365200040000033
  0.5000000000000000  0.4940676989999986  0.0000000000000000
  0.5000000000000000  0.3274010419999982  0.2682599720000027
  0.5000000000000000  0.1607343109999988  0.5365200040000033
  0.8333333730000021  0.4940676989999986  0.0000000000000000
  0.8333333730000021  0.3274010419999982  0.2682599720000027
  0.8333333730000021  0.1607343109999988  0.5365200040000033
  0.1666666719999981  0.8274010419999982  0.0000000000000000
  0.1666666719999981  0.6607343550000024  0.2682599720000027
  0.1666666719999981  0.4940676390000007  0.5365200040000033
  0.5000000000000000  0.8274010419999982  0.0000000000000000
  0.5000000000000000  0.6607343550000024  0.2682599720000027
  0.5000000000000000  0.4940676390000007  0.5365200040000033
  0.8333333730000021  0.8274010419999982  0.0000000000000000
  0.8333333730000021  0.6607343550000024  0.2682599720000027
  0.8333333730000021  0.4940676390000007  0.5365200040000033
  0.2500000000000000  0.2440677140000034  0.1341300010000026
  0.2500000000000000  0.0774010270000005  0.4023899139999969
  0.2500000000000000  0.9107343550000024  0.6706499459999975
  0.5833333730000021  0.2440677140000034  0.1341300010000026
  0.5833333730000021  0.0774010270000005  0.4023899139999969
  0.5833333730000021  0.9107343550000024  0.6706499459999975
  0.9166666870000029  0.2440677140000034  0.1341300010000026
  0.9166666870000029  0.0774010270000005  0.4023899139999969
  0.9166666870000029  0.9107343550000024  0.6706499459999975
  0.2500000000000000  0.5774011609999974  0.1341300010000026
  0.2500000000000000  0.4107344450000028  0.4023899139999969
  0.2500000000000000  0.2440677430000022  0.6706499459999975
  0.5833333730000021  0.5774011609999974  0.1341300010000026
  0.5833333730000021  0.4107344450000028  0.4023899139999969
  0.5833333730000021  0.2440677430000022  0.6706499459999975
  0.9166666870000029  0.5774011609999974  0.1341300010000026
  0.9166666870000029  0.4107344450000028  0.4023899139999969
  0.9166666870000029  0.2440677430000022  0.6706499459999975
  0.2500000000000000  0.9107343550000024  0.1341300010000026
  0.2500000000000000  0.7440676690000032  0.4023899139999969
  0.2500000000000000  0.5774010419999982  0.6706499459999975
  0.5833333730000021  0.9107343550000024  0.1341300010000026
  0.5833333730000021  0.7440676690000032  0.4023899139999969
  0.5833333730000021  0.5774010419999982  0.6706499459999975
  0.9166666870000029  0.9107343550000024  0.1341300010000026
  0.9166666870000029  0.7440676690000032  0.4023899139999969
  0.9166666870000029  0.5774010419999982  0.6706499459999975
  0.4132376909999991  0.9100242849999987  0.6706500049999988
  0.0382377210000016  0.5211353299999999  0.7365200520000030
  0.6632377509999969  0.1322464349999990  0.8023899789999973
  0.2882378099999983  0.7433575390000016  0.8682600260000015
  0.9132378099999983  0.3544685840000028  0.9341300729999986
  0.5382376909999991  0.9655795099999978  0.0000000000000000
  0.9132377509999969  0.9100242849999987  0.6706500049999988
  0.5382378099999983  0.5211353299999999  0.7365200520000030
  0.1632377509999969  0.1322463750000011  0.8023899789999973
  0.7882378099999983  0.7433575390000016  0.8682600260000015
  0.4132379289999975  0.3544685840000028  0.9341300729999986
  0.0382378099999983  0.9655795099999978  0.0000000000000000
  0.7882376909999991  0.6600242259999973  0.6706500049999988
  0.4132377509999969  0.2711353299999999  0.7365200520000030
  0.0382377800000029  0.8822463750000011  0.8023899789999973
  0.6632378700000032  0.4933575390000016  0.8682601450000007
  0.2882379890000024  0.1044686440000007  0.9341300729999986
  0.9132376909999991  0.7155795099999978  0.0000000000000000
  0.2882376909999991  0.6600242259999973  0.6706500049999988
  0.9132377509999969  0.2711352709999986  0.7365200520000030
  0.5382377509999969  0.8822463150000033  0.8023899789999973
  0.1632378099999983  0.4933574800000002  0.8682600260000015
  0.7882379289999975  0.1044685239999978  0.9341300729999986
  0.4132376909999991  0.7155793909999986  0.0000000000000000
  0.5382376909999991  0.6600242259999973  0.6706500049999988
  0.1632377059999968  0.2711352999999974  0.7365200520000030
  0.7882377509999969  0.8822463150000033  0.8023899789999973
  0.4132378099999983  0.4933574800000002  0.8682600260000015
  0.0382379289999975  0.1044685840000028  0.9341300729999986
  0.6632376909999991  0.7155793909999986  0.0000000000000000
  0.0382377020000035  0.6600242259999973  0.6706500049999988
  0.6632377509999969  0.2711353299999999  0.7365200520000030
  0.2882377509999969  0.8822463750000011  0.8023899789999973
  0.9132378099999983  0.4933574800000002  0.8682601450000007
  0.5382379289999975  0.1044685840000028  0.9341300729999986
  0.1632378099999983  0.7155795099999978  0.0000000000000000
  0.6632376310000012  0.9100242849999987  0.6706500049999988
  0.2882376909999991  0.5211353299999999  0.7365200520000030
  0.9132376909999991  0.1322464349999990  0.8023899789999973
  0.5382378099999983  0.7433574200000024  0.8682600260000015
  0.1632379289999975  0.3544685840000028  0.9341300729999986
  0.7882376909999991  0.9655795099999978  0.0000000000000000
  0.1632377059999968  0.9100242849999987  0.6706500049999988
  0.7882377509999969  0.5211353299999999  0.7365200520000030
  0.4132378099999983  0.1322464349999990  0.8023899789999973
  0.0382378700000032  0.7433575390000016  0.8682600260000015
  0.6632379289999975  0.3544685840000028  0.9341300729999986
  0.2882376909999991  0.9655795099999978  0.0000000000000000
 
  0.00000000E+00  0.00000000E+00  0.00000000E+00
  0.00000000E+00  0.00000000E+00  0.00000000E+00
  0.00000000E+00  0.00000000E+00  0.00000000E+00
  0.00000000E+00  0.00000000E+00  0.00000000E+00
  0.00000000E+00  0.00000000E+00  0.00000000E+00
  0.00000000E+00  0.00000000E+00  0.00000000E+00
  0.00000000E+00  0.00000000E+00  0.00000000E+00
  0.00000000E+00  0.00000000E+00  0.00000000E+00
  0.00000000E+00  0.00000000E+00  0.00000000E+00
  0.00000000E+00  0.00000000E+00  0.00000000E+00
  0.00000000E+00  0.00000000E+00  0.00000000E+00
  0.00000000E+00  0.00000000E+00  0.00000000E+00
  0.00000000E+00  0.00000000E+00  0.00000000E+00
  0.00000000E+00  0.00000000E+00  0.00000000E+00
  0.00000000E+00  0.00000000E+00  0.00000000E+00
  0.00000000E+00  0.00000000E+00  0.00000000E+00
  0.00000000E+00  0.00000000E+00  0.00000000E+00
  0.00000000E+00  0.00000000E+00  0.00000000E+00
  0.00000000E+00  0.00000000E+00  0.00000000E+00
  0.00000000E+00  0.00000000E+00  0.00000000E+00
  0.00000000E+00  0.00000000E+00  0.00000000E+00
  0.00000000E+00  0.00000000E+00  0.00000000E+00
  0.00000000E+00  0.00000000E+00  0.00000000E+00
  0.00000000E+00  0.00000000E+00  0.00000000E+00
  0.00000000E+00  0.00000000E+00  0.00000000E+00
  0.00000000E+00  0.00000000E+00  0.00000000E+00
  0.00000000E+00  0.00000000E+00  0.00000000E+00
  0.00000000E+00  0.00000000E+00  0.00000000E+00
  0.00000000E+00  0.00000000E+00  0.00000000E+00
  0.00000000E+00  0.00000000E+00  0.00000000E+00
  0.00000000E+00  0.00000000E+00  0.00000000E+00
  0.00000000E+00  0.00000000E+00  0.00000000E+00
  0.00000000E+00  0.00000000E+00  0.00000000E+00
  0.00000000E+00  0.00000000E+00  0.00000000E+00
  0.00000000E+00  0.00000000E+00  0.00000000E+00
  0.00000000E+00  0.00000000E+00  0.00000000E+00
  0.00000000E+00  0.00000000E+00  0.00000000E+00
  0.00000000E+00  0.00000000E+00  0.00000000E+00
  0.00000000E+00  0.00000000E+00  0.00000000E+00
  0.00000000E+00  0.00000000E+00  0.00000000E+00
  0.00000000E+00  0.00000000E+00  0.00000000E+00
  0.00000000E+00  0.00000000E+00  0.00000000E+00
  0.00000000E+00  0.00000000E+00  0.00000000E+00
  0.00000000E+00  0.00000000E+00  0.00000000E+00
  0.00000000E+00  0.00000000E+00  0.00000000E+00
  0.00000000E+00  0.00000000E+00  0.00000000E+00
  0.00000000E+00  0.00000000E+00  0.00000000E+00
  0.00000000E+00  0.00000000E+00  0.00000000E+00
  0.00000000E+00  0.00000000E+00  0.00000000E+00
  0.00000000E+00  0.00000000E+00  0.00000000E+00
  0.00000000E+00  0.00000000E+00  0.00000000E+00
  0.00000000E+00  0.00000000E+00  0.00000000E+00
  0.00000000E+00  0.00000000E+00  0.00000000E+00
  0.00000000E+00  0.00000000E+00  0.00000000E+00
  0.00000000E+00  0.00000000E+00  0.00000000E+00
  0.00000000E+00  0.00000000E+00  0.00000000E+00
  0.00000000E+00  0.00000000E+00  0.00000000E+00
  0.00000000E+00  0.00000000E+00  0.00000000E+00
  0.00000000E+00  0.00000000E+00  0.00000000E+00
  0.00000000E+00  0.00000000E+00  0.00000000E+00
  0.00000000E+00  0.00000000E+00  0.00000000E+00
  0.00000000E+00  0.00000000E+00  0.00000000E+00
  0.00000000E+00  0.00000000E+00  0.00000000E+00
  0.00000000E+00  0.00000000E+00  0.00000000E+00
  0.00000000E+00  0.00000000E+00  0.00000000E+00
  0.00000000E+00  0.00000000E+00  0.00000000E+00
  0.00000000E+00  0.00000000E+00  0.00000000E+00
  0.00000000E+00  0.00000000E+00  0.00000000E+00
  0.00000000E+00  0.00000000E+00  0.00000000E+00
  0.00000000E+00  0.00000000E+00  0.00000000E+00
  0.00000000E+00  0.00000000E+00  0.00000000E+00
  0.00000000E+00  0.00000000E+00  0.00000000E+00
  0.00000000E+00  0.00000000E+00  0.00000000E+00
  0.00000000E+00  0.00000000E+00  0.00000000E+00
  0.00000000E+00  0.00000000E+00  0.00000000E+00
  0.00000000E+00  0.00000000E+00  0.00000000E+00
  0.00000000E+00  0.00000000E+00  0.00000000E+00
  0.00000000E+00  0.00000000E+00  0.00000000E+00
  0.00000000E+00  0.00000000E+00  0.00000000E+00
  0.00000000E+00  0.00000000E+00  0.00000000E+00
  0.00000000E+00  0.00000000E+00  0.00000000E+00
  0.00000000E+00  0.00000000E+00  0.00000000E+00
  0.00000000E+00  0.00000000E+00  0.00000000E+00
  0.00000000E+00  0.00000000E+00  0.00000000E+00
  0.00000000E+00  0.00000000E+00  0.00000000E+00
  0.00000000E+00  0.00000000E+00  0.00000000E+00
  0.00000000E+00  0.00000000E+00  0.00000000E+00
  0.00000000E+00  0.00000000E+00  0.00000000E+00
  0.00000000E+00  0.00000000E+00  0.00000000E+00
  0.00000000E+00  0.00000000E+00  0.00000000E+00
  0.00000000E+00  0.00000000E+00  0.00000000E+00
  0.00000000E+00  0.00000000E+00  0.00000000E+00
  0.00000000E+00  0.00000000E+00  0.00000000E+00
  0.00000000E+00  0.00000000E+00  0.00000000E+00
  0.00000000E+00  0.00000000E+00  0.00000000E+00
  0.00000000E+00  0.00000000E+00  0.00000000E+00
  0.00000000E+00  0.00000000E+00  0.00000000E+00
  0.00000000E+00  0.00000000E+00  0.00000000E+00
  0.00000000E+00  0.00000000E+00  0.00000000E+00
  0.00000000E+00  0.00000000E+00  0.00000000E+00
  0.00000000E+00  0.00000000E+00  0.00000000E+00
  0.00000000E+00  0.00000000E+00  0.00000000E+00
  0.00000000E+00  0.00000000E+00  0.00000000E+00
  0.00000000E+00  0.00000000E+00  0.00000000E+00
  0.00000000E+00  0.00000000E+00  0.00000000E+00
  0.00000000E+00  0.00000000E+00  0.00000000E+00
  0.00000000E+00  0.00000000E+00  0.00000000E+00
  0.00000000E+00  0.00000000E+00  0.00000000E+00
  0.00000000E+00  0.00000000E+00  0.00000000E+00
  0.00000000E+00  0.00000000E+00  0.00000000E+00
  0.00000000E+00  0.00000000E+00  0.00000000E+00
  0.00000000E+00  0.00000000E+00  0.00000000E+00
  0.00000000E+00  0.00000000E+00  0.00000000E+00
  0.00000000E+00  0.00000000E+00  0.00000000E+00
  0.00000000E+00  0.00000000E+00  0.00000000E+00
  0.00000000E+00  0.00000000E+00  0.00000000E+00
  0.00000000E+00  0.00000000E+00  0.00000000E+00
  0.00000000E+00  0.00000000E+00  0.00000000E+00
  0.00000000E+00  0.00000000E+00  0.00000000E+00
  0.00000000E+00  0.00000000E+00  0.00000000E+00
  0.00000000E+00  0.00000000E+00  0.00000000E+00
  0.00000000E+00  0.00000000E+00  0.00000000E+00
  0.00000000E+00  0.00000000E+00  0.00000000E+00
  0.00000000E+00  0.00000000E+00  0.00000000E+00
  0.00000000E+00  0.00000000E+00  0.00000000E+00
  0.00000000E+00  0.00000000E+00  0.00000000E+00
  0.00000000E+00  0.00000000E+00  0.00000000E+00
  0.00000000E+00  0.00000000E+00  0.00000000E+00
  0.00000000E+00  0.00000000E+00  0.00000000E+00
  0.00000000E+00  0.00000000E+00  0.00000000E+00
  0.00000000E+00  0.00000000E+00  0.00000000E+00
  0.00000000E+00  0.00000000E+00  0.00000000E+00
  0.00000000E+00  0.00000000E+00  0.00000000E+00
  0.00000000E+00  0.00000000E+00  0.00000000E+00
  0.00000000E+00  0.00000000E+00  0.00000000E+00
  0.00000000E+00  0.00000000E+00  0.00000000E+00
  0.00000000E+00  0.00000000E+00  0.00000000E+00
  0.00000000E+00  0.00000000E+00  0.00000000E+00
  0.00000000E+00  0.00000000E+00  0.00000000E+00
  0.00000000E+00  0.00000000E+00  0.00000000E+00
  0.00000000E+00  0.00000000E+00  0.00000000E+00
  0.00000000E+00  0.00000000E+00  0.00000000E+00
  0.00000000E+00  0.00000000E+00  0.00000000E+00
  0.00000000E+00  0.00000000E+00  0.00000000E+00
  0.00000000E+00  0.00000000E+00  0.00000000E+00
  0.00000000E+00  0.00000000E+00  0.00000000E+00
  0.00000000E+00  0.00000000E+00  0.00000000E+00
  0.00000000E+00  0.00000000E+00  0.00000000E+00
  0.00000000E+00  0.00000000E+00  0.00000000E+00
  0.00000000E+00  0.00000000E+00  0.00000000E+00
  0.00000000E+00  0.00000000E+00  0.00000000E+00
  0.00000000E+00  0.00000000E+00  0.00000000E+00
  0.00000000E+00  0.00000000E+00  0.00000000E+00
  0.00000000E+00  0.00000000E+00  0.00000000E+00
  0.00000000E+00  0.00000000E+00  0.00000000E+00
  0.00000000E+00  0.00000000E+00  0.00000000E+00
