Si+Ge
    1.000000000
   16.293001175    0.000000000    0.000000000
    0.000000000   16.293001175    0.000000000
    0.000000000    0.000000000   10.122644424
Si  Ge 
108     48
Direct
    0.000000000    0.994067729    0.000000000
    0.000000000    0.827401042    0.268259972
    0.000000000    0.660734296    0.536520004
    0.333333343    0.994067729    0.000000000
    0.333333343    0.827401042    0.268259972
    0.333333343    0.660734296    0.536520004
    0.666666687    0.994067729    0.000000000
    0.666666687    0.827401042    0.268259972
    0.666666687    0.660734296    0.536520004
    0.000000000    0.327401042    0.000000000
    0.000000000    0.160734370    0.268259972
    0.000000000    0.994067669    0.536520004
    0.333333343    0.327401042    0.000000000
    0.333333343    0.160734370    0.268259972
    0.333333343    0.994067669    0.536520004
    0.666666687    0.327401042    0.000000000
    0.666666687    0.160734370    0.268259972
    0.666666687    0.994067669    0.536520004
    0.000000000    0.660734415    0.000000000
    0.000000000    0.494067699    0.268259972
    0.000000000    0.327401042    0.536520004
    0.333333343    0.660734415    0.000000000
    0.333333343    0.494067699    0.268259972
    0.333333343    0.327401042    0.536520004
    0.666666687    0.660734415    0.000000000
    0.666666687    0.494067699    0.268259972
    0.666666687    0.327401042    0.536520004
    0.083333336    0.077401049    0.134130001
    0.083333336    0.910734355    0.402389914
    0.083333336    0.744067669    0.670649946
    0.416666687    0.077401049    0.134130001
    0.416666687    0.910734355    0.402389914
    0.416666687    0.744067669    0.670649946
    0.750000000    0.077401049    0.134130001
    0.750000000    0.910734355    0.402389914
    0.750000000    0.744067669    0.670649946
    0.083333336    0.410734355    0.134130001
    0.083333336    0.244067669    0.402389914
    0.083333336    0.077400982    0.670649946
    0.416666687    0.410734355    0.134130001
    0.416666687    0.244067669    0.402389914
    0.416666687    0.077400982    0.670649946
    0.750000000    0.410734355    0.134130001
    0.750000000    0.244067669    0.402389914
    0.750000000    0.077400982    0.670649946
    0.083333336    0.744067729    0.134130001
    0.083333336    0.577401042    0.402389914
    0.083333336    0.410734355    0.670649946
    0.416666687    0.744067729    0.134130001
    0.416666687    0.577401042    0.402389914
    0.416666687    0.410734355    0.670649946
    0.750000000    0.744067729    0.134130001
    0.750000000    0.577401042    0.402389914
    0.750000000    0.410734355    0.670649946
    0.166666672    0.160734385    0.000000000
    0.166666672    0.994067669    0.268259972
    0.166666672    0.827400982    0.536520004
    0.500000000    0.160734385    0.000000000
    0.500000000    0.994067669    0.268259972
    0.500000000    0.827400982    0.536520004
    0.833333373    0.160734385    0.000000000
    0.833333373    0.994067669    0.268259972
    0.833333373    0.827400982    0.536520004
    0.166666672    0.494067699    0.000000000
    0.166666672    0.327401042    0.268259972
    0.166666672    0.160734311    0.536520004
    0.500000000    0.494067699    0.000000000
    0.500000000    0.327401042    0.268259972
    0.500000000    0.160734311    0.536520004
    0.833333373    0.494067699    0.000000000
    0.833333373    0.327401042    0.268259972
    0.833333373    0.160734311    0.536520004
    0.166666672    0.827401042    0.000000000
    0.166666672    0.660734355    0.268259972
    0.166666672    0.494067639    0.536520004
    0.500000000    0.827401042    0.000000000
    0.500000000    0.660734355    0.268259972
    0.500000000    0.494067639    0.536520004
    0.833333373    0.827401042    0.000000000
    0.833333373    0.660734355    0.268259972
    0.833333373    0.494067639    0.536520004
    0.250000000    0.244067714    0.134130001
    0.250000000    0.077401027    0.402389914
    0.250000000    0.910734355    0.670649946
    0.583333373    0.244067714    0.134130001
    0.583333373    0.077401027    0.402389914
    0.583333373    0.910734355    0.670649946
    0.916666687    0.244067714    0.134130001
    0.916666687    0.077401027    0.402389914
    0.916666687    0.910734355    0.670649946
    0.250000000    0.577401161    0.134130001
    0.250000000    0.410734445    0.402389914
    0.250000000    0.244067743    0.670649946
    0.583333373    0.577401161    0.134130001
    0.583333373    0.410734445    0.402389914
    0.583333373    0.244067743    0.670649946
    0.916666687    0.577401161    0.134130001
    0.916666687    0.410734445    0.402389914
    0.916666687    0.244067743    0.670649946
    0.250000000    0.910734355    0.134130001
    0.250000000    0.744067669    0.402389914
    0.250000000    0.577401042    0.670649946
    0.583333373    0.910734355    0.134130001
    0.583333373    0.744067669    0.402389914
    0.583333373    0.577401042    0.670649946
    0.916666687    0.910734355    0.134130001
    0.916666687    0.744067669    0.402389914
    0.916666687    0.577401042    0.670649946
    0.413237691    0.910024285    0.670650005
    0.038237721    0.521135330    0.736520052
    0.663237751    0.132246435    0.802389979
    0.288237810    0.743357539    0.868260026
    0.913237810    0.354468584    0.934130073
    0.538237691    0.965579510    1.000000000
    0.913237751    0.910024285    0.670650005
    0.538237810    0.521135330    0.736520052
    0.163237751    0.132246375    0.802389979
    0.788237810    0.743357539    0.868260026
    0.413237929    0.354468584    0.934130073
    0.038237810    0.965579510    1.000000000
    0.788237691    0.660024226    0.670650005
    0.413237751    0.271135330    0.736520052
    0.038237780    0.882246375    0.802389979
    0.663237870    0.493357539    0.868260145
    0.288237989    0.104468644    0.934130073
    0.913237691    0.715579510    1.000000000
    0.288237691    0.660024226    0.670650005
    0.913237751    0.271135271    0.736520052
    0.538237751    0.882246315    0.802389979
    0.163237810    0.493357480    0.868260026
    0.788237929    0.104468524    0.934130073
    0.413237691    0.715579391    1.000000000
    0.538237691    0.660024226    0.670650005
    0.163237706    0.271135300    0.736520052
    0.788237751    0.882246315    0.802389979
    0.413237810    0.493357480    0.868260026
    0.038237929    0.104468584    0.934130073
    0.663237691    0.715579391    1.000000000
    0.038237702    0.660024226    0.670650005
    0.663237751    0.271135330    0.736520052
    0.288237751    0.882246375    0.802389979
    0.913237810    0.493357480    0.868260145
    0.538237929    0.104468584    0.934130073
    0.163237810    0.715579510    1.000000000
    0.663237631    0.910024285    0.670650005
    0.288237691    0.521135330    0.736520052
    0.913237691    0.132246435    0.802389979
    0.538237810    0.743357420    0.868260026
    0.163237929    0.354468584    0.934130073
    0.788237691    0.965579510    1.000000000
    0.163237706    0.910024285    0.670650005
    0.788237751    0.521135330    0.736520052
    0.413237810    0.132246435    0.802389979
    0.038237870    0.743357539    0.868260026
    0.663237929    0.354468584    0.934130073
    0.288237691    0.965579510    1.000000000
