Si+C
    1.000000000
   16.293001175    0.000000000    0.000000000
  -10.862000465   12.144085884    0.000000000
    0.000000000    0.000000000    5.029924393
Si  C  
36     84
Direct
    0.982905626    0.641025126    0.000000003
    0.782905579    0.341025025    0.241436869
    0.582905412    0.041024935    0.482873738
    0.982905626    0.307691783    0.000000003
    0.782905579    0.007691715    0.241436869
    0.582905412    0.707691669    0.482873738
    0.982905626    0.974358499    0.000000003
    0.782905579    0.674358368    0.241436869
    0.582905412    0.374358296    0.482873738
    0.632905662    0.657691717    0.120718174
    0.432905585    0.357691616    0.362155080
    0.232905522    0.057691578    0.603591859
    0.632905662    0.324358463    0.120718174
    0.432905585    0.024358369    0.362155080
    0.232905522    0.724358320    0.603591859
    0.632905662    0.991025209    0.120718174
    0.432905585    0.691025138    0.362155080
    0.232905522    0.391025066    0.603591859
    0.482905626    0.807691753    0.000000000
    0.282905549    0.507691622    0.241436869
    0.082905442    0.207691610    0.482873738
    0.482905626    0.474358439    0.000000000
    0.282905549    0.174358353    0.241436869
    0.082905442    0.874358296    0.482873738
    0.482905626    0.141025141    0.000000000
    0.282905549    0.841025054    0.241436869
    0.082905442    0.541024983    0.482873738
    0.132905677    0.824358523    0.120718203
    0.932905555    0.524358392    0.362155080
    0.732905507    0.224358380    0.603591859
    0.132905677    0.491025209    0.120718203
    0.932905555    0.191025108    0.362155080
    0.732905507    0.891025126    0.603591859
    0.132905677    0.157691956    0.120718203
    0.932905555    0.857691884    0.362155080
    0.732905507    0.557691932    0.603591859
    0.024814771    0.997080624    0.603591859
    0.267672002    0.968509138    0.762155235
    0.510529220    0.939937651    0.920718491
    0.310529053    0.139937758    0.603591859
    0.553386271    0.111366265    0.762155235
    0.796243489    0.082794800    0.920718491
    0.596243262    0.282794863    0.603591859
    0.839100540    0.254223377    0.762155235
    0.081957817    0.225651920    0.920718491
    0.881957650    0.425652057    0.603591859
    0.124814868    0.397080570    0.762155235
    0.367672205    0.368509114    0.920718491
    0.167671904    0.568509161    0.603591859
    0.410529137    0.539937735    0.762155235
    0.653386354    0.511366248    0.920718491
    0.453386217    0.711366355    0.603591859
    0.696243465    0.682794869    0.762155235
    0.939100683    0.654223382    0.920718491
    0.739100456    0.854223490    0.603591859
    0.981957674    0.825651944    0.762155235
    0.224814892    0.797080517    0.920718491
    0.860528946    0.089937761    0.682873547
    0.103386283    0.061366286    0.841436684
    0.346243501    0.032794774    0.999999940
    0.146243155    0.232794896    0.682873428
    0.389100432    0.204223424    0.841436684
    0.631957650    0.175651908    1.000000000
    0.431957513    0.375652075    0.682873428
    0.674814761    0.347080588    0.841436684
    0.917672038    0.318509102    1.000000000
    0.717671871    0.518509209    0.682873428
    0.960529149    0.489937693    0.841436684
    0.203386426    0.461366296    1.000000000
    0.003386021    0.661366343    0.682873428
    0.246243358    0.632794857    0.841436684
    0.489100456    0.604223371    1.000000000
    0.289100468    0.804223478    0.682873547
    0.531957746    0.775651932    0.841436684
    0.774814963    0.747080505    0.999999940
    0.574814618    0.947080553    0.682873547
    0.817671835    0.918509126    0.841436684
    0.060529113    0.889937639    0.999999940
    0.667672038    0.068509206    0.603591859
    0.910529137    0.039937701    0.762155235
    0.153386474    0.011366275    0.920718491
    0.953386366    0.211366355    0.603591859
    0.196243525    0.182794839    0.762155235
    0.439100623    0.154223353    0.920718491
    0.239100501    0.354223490    0.603591859
    0.481957734    0.325652003    0.762155235
    0.724814951    0.297080517    0.920718491
    0.524814725    0.497080624    0.603591859
    0.767672002    0.468509138    0.762155235
    0.010529280    0.439937681    0.920718491
    0.810529053    0.639937758    0.603591859
    0.053386331    0.611366332    0.762155235
    0.296243429    0.582794785    0.920718491
    0.096243337    0.782794952    0.603591859
    0.339100569    0.754223526    0.762155235
    0.581957877    0.725652039    0.920718491
    0.381957620    0.925652087    0.603591859
    0.624814808    0.897080660    0.762155235
    0.867672145    0.868509173    0.920718491
    0.217671931    0.018509198    0.682873428
    0.460529178    0.989937663    0.841436684
    0.703386486    0.961366236    1.000000000
    0.503386080    0.161366343    0.682873428
    0.746243358    0.132794842    0.841436684
    0.989100575    0.104223393    0.999999940
    0.789100349    0.304223448    0.682873428
    0.031957746    0.275652021    0.841436803
    0.274814963    0.247080564    0.999999940
    0.074814558    0.447080612    0.682873428
    0.317671895    0.418509156    0.841436684
    0.560529113    0.389937639    0.999999940
    0.360529006    0.589937687    0.682873428
    0.603386343    0.561366200    0.841436684
    0.846243560    0.532794774    1.000000000
    0.646243334    0.732794881    0.682873428
    0.889100611    0.704223394    0.841436684
    0.131957889    0.675652027    1.000000000
    0.931957483    0.875652015    0.682873428
    0.174814820    0.847080588    0.841436684
    0.417672038    0.818509102    1.000000000
