Si+C
    1.000000000
   13.303179741    0.000000000    0.000000000
   -6.651589394   14.873406410    0.000000000
    0.000000000    0.000000000    8.192404747
Si  C  
36     84
Direct
    0.017094348    0.991452813    0.000000000
    0.217094451    0.891452730    0.148235962
    0.417094558    0.791452646    0.296471924
    0.017094348    0.324786127    0.000000000
    0.217094451    0.224786043    0.148235962
    0.417094558    0.124785945    0.296471924
    0.017094348    0.658119500    0.000000000
    0.217094451    0.558119357    0.148235962
    0.417094558    0.458119243    0.296471924
    0.367094278    0.191452786    0.074117832
    0.567094386    0.091452695    0.222353816
    0.767094493    0.991452634    0.370589793
    0.367094278    0.524786055    0.074117832
    0.567094386    0.424786001    0.222353816
    0.767094493    0.324785918    0.370589793
    0.367094278    0.858119428    0.074117832
    0.567094386    0.758119226    0.222353816
    0.767094493    0.658119202    0.370589793
    0.517094374    0.991452813    0.000000004
    0.717094421    0.891452670    0.148235947
    0.917094529    0.791452587    0.296471924
    0.517094374    0.324786127    0.000000004
    0.717094421    0.224786013    0.148235947
    0.917094529    0.124785922    0.296471924
    0.517094374    0.658119380    0.000000004
    0.717094421    0.558119297    0.148235947
    0.917094529    0.458119243    0.296471924
    0.867094278    0.191452801    0.074117839
    0.067094445    0.091452725    0.222353831
    0.267094374    0.991452634    0.370589733
    0.867094278    0.524786115    0.074117839
    0.067094445    0.424786001    0.222353831
    0.267094374    0.324785918    0.370589733
    0.867094278    0.858119488    0.074117839
    0.067094445    0.758119345    0.222353831
    0.267094374    0.658119261    0.370589733
    0.765663147    0.962914050    0.758310199
    0.137091637    0.991485596    0.563602746
    0.451377392    0.977199912    0.660956562
    0.908520222    0.820056856    0.758310258
    0.279948711    0.848628461    0.563602746
    0.594234467    0.834342659    0.660956562
    0.051377296    0.677199781    0.758310199
    0.422805905    0.705771327    0.563602746
    0.737091660    0.691485584    0.660956562
    0.194234610    0.534342647    0.758310199
    0.565663099    0.562914193    0.563602746
    0.879948854    0.548628390    0.660956562
    0.337091684    0.391485512    0.758310199
    0.708520174    0.420057058    0.563602746
    0.022805929    0.405771315    0.660956562
    0.479948759    0.248628348    0.758310199
    0.851377249    0.277199924    0.563602746
    0.165663004    0.262914151    0.660956562
    0.622806072    0.105771184    0.758310199
    0.994234443    0.134342790    0.563602746
    0.308520198    0.120056987    0.660956562
    0.315663099    0.062914133    0.806986868
    0.687091351    0.091485620    0.612279594
    0.001377344    0.077199936    0.709633291
    0.458520174    0.920056880    0.806986988
    0.829948425    0.948628426    0.612279594
    0.144234180    0.934342623    0.709633231
    0.601377487    0.777199805    0.806986988
    0.972805798    0.805771291    0.612279594
    0.287091732    0.791485608    0.709633231
    0.744234562    0.634342730    0.806986988
    0.115662813    0.662914217    0.612279594
    0.429948807    0.648628473    0.709633231
    0.887091398    0.491485536    0.806986988
    0.258520007    0.520057082    0.612279594
    0.572805762    0.505771339    0.709633291
    0.029948711    0.348628342    0.806986988
    0.401377201    0.377199948    0.612279594
    0.715662956    0.362914145    0.709633291
    0.172806025    0.205771267    0.806986988
    0.544234276    0.234342799    0.612279594
    0.858520031    0.220057040    0.709633291
    0.265663147    0.962914050    0.758310258
    0.637091637    0.991485715    0.563602746
    0.951377392    0.977199852    0.660956562
    0.408520460    0.820056856    0.758310258
    0.779948950    0.848628521    0.563602746
    0.094234467    0.834342659    0.660956562
    0.551377535    0.677199721    0.758310258
    0.922806025    0.705771387    0.563602746
    0.237091780    0.691485584    0.660956562
    0.694234610    0.534342706    0.758310258
    0.065662980    0.562914252    0.563602746
    0.379948854    0.548628449    0.660956562
    0.837091684    0.391485453    0.758310199
    0.208520174    0.420057058    0.563602746
    0.522805929    0.405771255    0.660956562
    0.979948819    0.248628348    0.758310199
    0.351377249    0.277199924    0.563602746
    0.665663123    0.262914121    0.660956562
    0.122806072    0.105771184    0.758310199
    0.494234443    0.134342790    0.563602746
    0.808520317    0.120056987    0.660956562
    0.815662980    0.062914133    0.806986988
    0.187091470    0.091485620    0.612279594
    0.501377225    0.077199817    0.709633291
    0.958520055    0.920056999    0.806986988
    0.329948545    0.948628545    0.612279594
    0.644234300    0.934342742    0.709633291
    0.101377249    0.777199805    0.806986868
    0.472805738    0.805771291    0.612279594
    0.787091613    0.791485548    0.709633291
    0.244234562    0.634342611    0.806986988
    0.615662932    0.662914157    0.612279594
    0.929948688    0.648628354    0.709633291
    0.387091637    0.491485536    0.806986988
    0.758519888    0.520057023    0.612279654
    0.072805882    0.505771279    0.709633291
    0.529948950    0.348628372    0.806987107
    0.901377201    0.377199948    0.612279594
    0.215662956    0.362914175    0.709633291
    0.672806025    0.205771282    0.806986868
    0.044234276    0.234342784    0.612279594
    0.358520269    0.220057070    0.709633291
