Sn+Sn                                   
   1.00000000000000     
     9.1771144870000008    0.0000000000000000    0.0000000000000000
    -4.5885577199999998   13.7656726840000001    0.0000000000000000
     0.0000000000000000    0.0000000000000000   10.8153333660000008
   Sn
    48
Direct
  0.0049649059999979  0.9950351119999965  0.0000000000000000
  0.1716316340000006  0.8283684250000007  0.3000000420000006
  0.3382982910000010  0.6617017980000028  0.5999999639999984
  0.6716315749999993  0.3283684250000007  0.0000000000000000
  0.8382983210000035  0.1617017239999967  0.3000000420000006
  0.0049650670000005  0.9950351119999965  0.5999999639999984
  0.3382982609999985  0.6617017390000015  0.0000000000000000
  0.5049649480000014  0.4950350519999986  0.3000000420000006
  0.6716316939999984  0.3283684250000007  0.5999999639999984
  0.0882982609999985  0.1617017390000015  0.1499999910000014
  0.2549649480000014  0.9950351119999965  0.4500000179999972
  0.4216316939999984  0.8283683659999994  0.7500000599999979
  0.7549648279999985  0.4950350820000011  0.1499999910000014
  0.9216314549999964  0.3283684250000007  0.4500000179999972
  0.0882983210000035  0.1617017390000015  0.7500000599999979
  0.4216316039999981  0.8283684849999986  0.1499999910000014
  0.5882982609999985  0.6617017980000028  0.4500000179999972
  0.7549651269999984  0.4950351419999990  0.7500000599999979
  0.5049648880000035  0.9950351119999965  0.0000000000000000
  0.6716316340000006  0.8283684250000007  0.3000000420000006
  0.8382983210000035  0.6617017390000015  0.5999999639999984
  0.1716315899999969  0.3283684250000007  0.0000000000000000
  0.3382983210000035  0.1617017390000015  0.3000000420000006
  0.5049650070000027  0.9950351119999965  0.5999999639999984
  0.8382982609999985  0.6617017390000015  0.0000000000000000
  0.0049649480000014  0.4950350519999986  0.3000000420000006
  0.1716315749999993  0.3283683659999994  0.5999999639999984
  0.5882982019999972  0.1617017239999967  0.1499999910000014
  0.7549649480000014  0.9950350519999986  0.4500000179999972
  0.9216316340000006  0.8283683659999994  0.7500000599999979
  0.2549648580000010  0.4950350820000011  0.1499999910000014
  0.4216315749999993  0.3283684250000007  0.4500000179999972
  0.5882983210000035  0.1617017089999990  0.7500000599999979
  0.9216316340000006  0.8283684849999986  0.1499999910000014
  0.0882983210000035  0.6617018580000007  0.4500000179999972
  0.2549651859999997  0.4950351720000015  0.7500000599999979
  0.9893847700000009  0.0265381170000012  0.7500000599999979
  0.8782736060000005  0.3043159249999974  0.8500001430000026
  0.7671625019999979  0.5820936559999978  0.9500001669999989
  0.4893847109999996  0.0265381170000012  0.7500000599999979
  0.3782735759999980  0.3043159249999974  0.8500001430000026
  0.2671624720000025  0.5820936559999978  0.9500001669999989
  0.6838291290000029  0.9154269100000008  0.8000001309999973
  0.5727179049999975  0.1932046410000012  0.9000000950000029
  0.4616068600000034  0.4709826710000016  0.0000002379999984
  0.1838291290000029  0.9154269100000008  0.8000001309999973
  0.0727180239999967  0.1932046410000012  0.9000000950000029
  0.9616069790000026  0.4709826710000016  0.0000001189999992
 
  0.00000000E+00  0.00000000E+00  0.00000000E+00
  0.00000000E+00  0.00000000E+00  0.00000000E+00
  0.00000000E+00  0.00000000E+00  0.00000000E+00
  0.00000000E+00  0.00000000E+00  0.00000000E+00
  0.00000000E+00  0.00000000E+00  0.00000000E+00
  0.00000000E+00  0.00000000E+00  0.00000000E+00
  0.00000000E+00  0.00000000E+00  0.00000000E+00
  0.00000000E+00  0.00000000E+00  0.00000000E+00
  0.00000000E+00  0.00000000E+00  0.00000000E+00
  0.00000000E+00  0.00000000E+00  0.00000000E+00
  0.00000000E+00  0.00000000E+00  0.00000000E+00
  0.00000000E+00  0.00000000E+00  0.00000000E+00
  0.00000000E+00  0.00000000E+00  0.00000000E+00
  0.00000000E+00  0.00000000E+00  0.00000000E+00
  0.00000000E+00  0.00000000E+00  0.00000000E+00
  0.00000000E+00  0.00000000E+00  0.00000000E+00
  0.00000000E+00  0.00000000E+00  0.00000000E+00
  0.00000000E+00  0.00000000E+00  0.00000000E+00
  0.00000000E+00  0.00000000E+00  0.00000000E+00
  0.00000000E+00  0.00000000E+00  0.00000000E+00
  0.00000000E+00  0.00000000E+00  0.00000000E+00
  0.00000000E+00  0.00000000E+00  0.00000000E+00
  0.00000000E+00  0.00000000E+00  0.00000000E+00
  0.00000000E+00  0.00000000E+00  0.00000000E+00
  0.00000000E+00  0.00000000E+00  0.00000000E+00
  0.00000000E+00  0.00000000E+00  0.00000000E+00
  0.00000000E+00  0.00000000E+00  0.00000000E+00
  0.00000000E+00  0.00000000E+00  0.00000000E+00
  0.00000000E+00  0.00000000E+00  0.00000000E+00
  0.00000000E+00  0.00000000E+00  0.00000000E+00
  0.00000000E+00  0.00000000E+00  0.00000000E+00
  0.00000000E+00  0.00000000E+00  0.00000000E+00
  0.00000000E+00  0.00000000E+00  0.00000000E+00
  0.00000000E+00  0.00000000E+00  0.00000000E+00
  0.00000000E+00  0.00000000E+00  0.00000000E+00
  0.00000000E+00  0.00000000E+00  0.00000000E+00
  0.00000000E+00  0.00000000E+00  0.00000000E+00
  0.00000000E+00  0.00000000E+00  0.00000000E+00
  0.00000000E+00  0.00000000E+00  0.00000000E+00
  0.00000000E+00  0.00000000E+00  0.00000000E+00
  0.00000000E+00  0.00000000E+00  0.00000000E+00
  0.00000000E+00  0.00000000E+00  0.00000000E+00
  0.00000000E+00  0.00000000E+00  0.00000000E+00
  0.00000000E+00  0.00000000E+00  0.00000000E+00
  0.00000000E+00  0.00000000E+00  0.00000000E+00
  0.00000000E+00  0.00000000E+00  0.00000000E+00
  0.00000000E+00  0.00000000E+00  0.00000000E+00
  0.00000000E+00  0.00000000E+00  0.00000000E+00
