Sn+Sn
    1.000000000
    9.177114487    0.000000000    0.000000000
   -4.588557720   13.765672684    0.000000000
    0.000000000    0.000000000   10.815333366
Sn 
48
Direct
    0.004964906    0.995035112    0.000000000
    0.171631634    0.828368425    0.300000042
    0.338298291    0.661701798    0.599999964
    0.671631575    0.328368425    0.000000000
    0.838298321    0.161701724    0.300000042
    0.004965067    0.995035112    0.599999964
    0.338298261    0.661701739    0.000000000
    0.504964948    0.495035052    0.300000042
    0.671631694    0.328368425    0.599999964
    0.088298261    0.161701739    0.149999991
    0.254964948    0.995035112    0.450000018
    0.421631694    0.828368366    0.750000060
    0.754964828    0.495035082    0.149999991
    0.921631455    0.328368425    0.450000018
    0.088298321    0.161701739    0.750000060
    0.421631604    0.828368485    0.149999991
    0.588298261    0.661701798    0.450000018
    0.754965127    0.495035142    0.750000060
    0.504964888    0.995035112    0.000000000
    0.671631634    0.828368425    0.300000042
    0.838298321    0.661701739    0.599999964
    0.171631590    0.328368425    0.000000000
    0.338298321    0.161701739    0.300000042
    0.504965007    0.995035112    0.599999964
    0.838298261    0.661701739    0.000000000
    0.004964948    0.495035052    0.300000042
    0.171631575    0.328368366    0.599999964
    0.588298202    0.161701724    0.149999991
    0.754964948    0.995035052    0.450000018
    0.921631634    0.828368366    0.750000060
    0.254964858    0.495035082    0.149999991
    0.421631575    0.328368425    0.450000018
    0.588298321    0.161701709    0.750000060
    0.921631634    0.828368485    0.149999991
    0.088298321    0.661701858    0.450000018
    0.254965186    0.495035172    0.750000060
    0.989384770    0.026538117    0.750000060
    0.878273606    0.304315925    0.850000143
    0.767162502    0.582093656    0.950000167
    0.489384711    0.026538117    0.750000060
    0.378273576    0.304315925    0.850000143
    0.267162472    0.582093656    0.950000167
    0.683829129    0.915426910    0.800000131
    0.572717905    0.193204641    0.900000095
    0.461606860    0.470982671    1.000000238
    0.183829129    0.915426910    0.800000131
    0.072718024    0.193204641    0.900000095
    0.961606979    0.470982671    1.000000119
