Si+Ge                                   
   1.00000000000000     
    17.1743316650000004    0.0000000000000000    0.0000000000000000
     0.0000000000000000   17.1743297579999989    0.0000000000000000
     0.0000000000000000    0.0000000000000000   11.2616443630000003
   Si   Ge
   120    72
Direct
  0.9982203249999984  0.9946609140000007  0.0000000000000000
  0.9482202530000023  0.8446608779999991  0.2411282059999991
  0.8982201809999992  0.6946609020000025  0.4822564420000006
  0.0982203109999986  0.2946609560000013  0.0000000000000000
  0.0482202399999991  0.1446609349999974  0.2411282059999991
  0.9982201460000013  0.9946609140000007  0.4822564420000006
  0.3982203300000009  0.1946609769999981  0.0000000000000000
  0.3482202590000014  0.0446609299999992  0.2411282059999991
  0.2982201869999983  0.8946608899999973  0.4822564420000006
  0.6982203720000015  0.0946609599999988  0.0000000000000000
  0.6482203010000021  0.9446609020000025  0.2411282059999991
  0.5982202289999989  0.7946608660000010  0.4822564420000006
  0.1982203130000002  0.5946609969999983  0.0000000000000000
  0.1482202409999971  0.4446609620000004  0.2411282059999991
  0.0982201699999976  0.2946609259999988  0.4822564420000006
  0.4982203539999972  0.4946609440000032  0.0000000000000000
  0.4482202829999977  0.3446609080000016  0.2411282059999991
  0.3982201809999992  0.1946608570000024  0.4822564420000006
  0.7982203360000000  0.3946610090000036  0.0000000000000000
  0.7482202650000005  0.2446609739999985  0.2411282059999991
  0.6982201929999974  0.0946609300000034  0.4822564420000006
  0.2982203070000011  0.8946609500000022  0.0000000000000000
  0.2482202349999980  0.7446609739999985  0.2411282059999991
  0.1982201490000008  0.5946608779999991  0.4822564420000006
  0.5982202889999968  0.7946609850000002  0.0000000000000000
  0.5482202170000008  0.6446609500000022  0.2411282059999991
  0.4982201460000013  0.4946608839999982  0.4822564420000006
  0.8982203600000034  0.6946609620000004  0.0000000000000000
  0.8482202889999968  0.5446609259999988  0.2411282059999991
  0.7982202170000008  0.3946608600000019  0.4822564420000006
  0.0982203040000016  0.0446609520000010  0.1205641179999972
  0.0482202359999988  0.8946609500000022  0.3616923390000011
  0.9982201460000013  0.7446608540000028  0.6028205750000026
  0.1982203270000014  0.3446609969999983  0.1205641179999972
  0.1482202560000019  0.1946609319999979  0.3616923390000011
  0.0982201699999976  0.0446608740000016  0.6028205750000026
  0.4982203539999972  0.2446609879999997  0.1205641179999972
  0.4482202829999977  0.0946609300000034  0.3616923390000011
  0.3982201809999992  0.9446609020000025  0.6028205750000026
  0.7982203959999978  0.1446609799999976  0.1205641179999972
  0.7482203249999984  0.9946609140000007  0.3616923390000011
  0.6982202530000023  0.8446608779999991  0.6028205750000026
  0.9982203249999984  0.7446609739999985  0.1205641179999972
  0.9482202530000023  0.5946609379999970  0.3616923390000011
  0.8982201809999992  0.4446609020000025  0.6028205750000026
  0.2982203070000011  0.6446609500000022  0.1205641179999972
  0.2482202500000028  0.4946609140000007  0.3616923390000011
  0.1982201639999985  0.3446608779999991  0.6028205750000026
  0.5982203479999981  0.5446609259999988  0.1205641179999972
  0.5482202769999986  0.3946609199999997  0.3616923390000011
  0.4982201759999967  0.2446608690000005  0.6028205750000026
  0.8982203010000021  0.4446610210000017  0.1205641179999972
  0.8482202289999989  0.2946609850000002  0.3616923390000011
  0.7982201579999995  0.1446609349999974  0.6028205750000026
  0.3982203300000009  0.9446610210000017  0.1205641179999972
  0.3482202590000014  0.7946609850000002  0.3616923390000011
  0.2982201869999983  0.6446609500000022  0.6028205750000026
  0.6982204319999994  0.8446610570000033  0.1205641179999972
  0.6482203600000034  0.6946609620000004  0.3616923390000011
  0.5982202289999989  0.5446609259999988  0.6028205750000026
  0.1982203130000002  0.0946609530000018  0.0000000000000000
  0.1482202409999971  0.9446609020000025  0.2411282059999991
  0.0982201619999969  0.7946608660000010  0.4822564420000006
  0.4982203249999984  0.9946609739999985  0.0000000000000000
  0.4482202530000023  0.8446608779999991  0.2411282059999991
  0.3982202110000017  0.6946608419999976  0.4822564420000006
  0.9982203249999984  0.4946609440000032  0.0000000000000000
  0.9482202530000023  0.3446609379999970  0.2411282059999991
  0.8982201809999992  0.1946608720000000  0.4822564420000006
  0.2982203360000000  0.3946610090000036  0.0000000000000000
  0.2482202650000005  0.2446609879999997  0.2411282059999991
  0.1982201779999997  0.0946609300000034  0.4822564420000006
  0.5982203479999981  0.2946609560000013  0.0000000000000000
  0.5482202769999986  0.1446609349999974  0.2411282059999991
  0.4982202050000026  0.9946608540000028  0.4822564420000006
  0.8982204200000012  0.1946609170000002  0.0000000000000000
  0.8482203479999981  0.0446609110000011  0.2411282059999991
  0.7982202769999986  0.8946608299999994  0.4822564420000006
  0.0982202960000009  0.7946610449999980  0.0000000000000000
  0.0482202399999991  0.6446610090000036  0.2411282059999991
  0.9982201460000013  0.4946609440000032  0.4822564420000006
  0.3982203300000009  0.6946610210000017  0.0000000000000000
  0.3482202590000014  0.5446610449999980  0.2411282059999991
  0.2982201869999983  0.3946609500000022  0.4822564420000006
  0.6982203130000002  0.5946609969999983  0.0000000000000000
  0.6482202409999971  0.4446609620000004  0.2411282059999991
  0.5982202289999989  0.2946608960000034  0.4822564420000006
  0.7982203360000000  0.8946610690000014  0.0000000000000000
  0.7482202650000005  0.7446609739999985  0.2411282059999991
  0.6982201929999974  0.5946609969999983  0.4822564420000006
  0.9982203249999984  0.2446609289999984  0.1205641179999972
  0.9482202530000023  0.0946609009999975  0.3616923390000011
  0.8982201219999979  0.9446608419999976  0.6028205750000026
  0.2982203360000000  0.1446609649999999  0.1205641179999972
  0.2482202650000005  0.9946609140000007  0.3616923390000011
  0.1982201779999997  0.8446608779999991  0.6028205750000026
  0.5982203479999981  0.0446609589999980  0.1205641179999972
  0.5482202769999986  0.8946609500000022  0.3616923390000011
  0.4982202050000026  0.7446608540000028  0.6028205750000026
  0.0982203040000016  0.5446609259999988  0.1205641179999972
  0.0482202399999991  0.3946609199999997  0.3616923390000011
  0.9982201460000013  0.2446608540000028  0.6028205750000026
  0.3982203010000021  0.4446609620000004  0.1205641179999972
  0.3482202590000014  0.2946609259999988  0.3616923390000011
  0.2982201869999983  0.1446608600000019  0.6028205750000026
  0.6982203720000015  0.3446609379999970  0.1205641179999972
  0.6482203010000021  0.1946609020000025  0.3616923390000011
  0.5982202289999989  0.0446608439999991  0.6028205750000026
  0.1982203130000002  0.8446610570000033  0.1205641179999972
  0.1482202560000019  0.6946610210000017  0.3616923390000011
  0.0982201619999969  0.5446609259999988  0.6028205750000026
  0.4982202950000030  0.7446609140000007  0.1205641179999972
  0.4482202530000023  0.5946608779999991  0.3616923390000011
  0.3982201520000004  0.4446608129999987  0.6028205750000026
  0.7982203360000000  0.6446609500000022  0.1205641179999972
  0.7482202650000005  0.4946609140000007  0.3616923390000011
  0.6982201929999974  0.3446608479999966  0.6028205750000026
  0.8982203010000021  0.9446610210000017  0.1205641179999972
  0.8482202289999989  0.7946610449999980  0.3616923390000011
  0.7982201579999995  0.6446609500000022  0.6028205750000026
  0.1303789620000018  0.8262044189999997  0.9999998810000008
  0.9637124540000030  0.0762038980000028  0.6028205750000026
  0.7970457079999989  0.4262040260000006  0.6822564009999965
  0.6303790210000031  0.7762041089999983  0.7616922859999988
  0.4637122749999989  0.1262043710000000  0.8411281110000033
  0.2970455290000018  0.4762046339999984  0.9205640549999998
  0.4637122749999989  0.8262044189999997  0.9999998810000008
  0.2970457670000002  0.0762038980000028  0.6028205750000026
  0.1303790959999986  0.4262040260000006  0.6822564009999965
  0.9637123939999981  0.7762041089999983  0.7616922859999988
  0.7970456480000010  0.1262043710000000  0.8411281110000033
  0.6303789019999968  0.4762046339999984  0.9205640549999998
  0.7970456480000010  0.8262044189999997  0.9999998810000008
  0.6303791400000023  0.0762038980000028  0.6028205750000026
  0.4637124540000030  0.4262040260000006  0.6822564009999965
  0.2970457380000013  0.7762041089999983  0.7616922859999988
  0.1303790059999983  0.1262043710000000  0.8411281110000033
  0.9637122749999989  0.4762046339999984  0.9205640549999998
  0.2137122150000010  0.5762047770000009  0.0000000000000000
  0.0470457670000002  0.8262039419999994  0.6028205750000026
  0.8803790810000010  0.1762042049999977  0.6822564009999965
  0.7137123349999968  0.5262042279999974  0.7616922859999988
  0.5470456480000010  0.8762044910000029  0.8411281110000033
  0.3803789620000018  0.2262046339999984  0.9205640549999998
  0.5470455880000031  0.5762047770000009  0.0000000000000000
  0.3803791110000034  0.8262039419999994  0.6028205750000026
  0.2137124090000029  0.1762042049999977  0.6822564009999965
  0.0470457260000003  0.5262042279999974  0.7616922859999988
  0.8803790210000031  0.8762044910000029  0.8411281110000033
  0.7137122749999989  0.2262046339999984  0.9205640549999998
  0.8803789019999968  0.5762047770000009  0.0000000000000000
  0.7137123939999981  0.8262039419999994  0.6028205750000026
  0.5470457079999989  0.1762042049999977  0.6822564009999965
  0.3803790509999985  0.5262042279999974  0.7616922859999988
  0.2137123199999991  0.8762044910000029  0.8411281110000033
  0.0470456150000018  0.2262046339999984  0.9205640549999998
  0.1303789019999968  0.3262045379999989  0.9999998810000008
  0.9637123939999981  0.5762039419999994  0.6028205750000026
  0.7970457079999989  0.9262041449999998  0.6822565200000028
  0.6303790210000031  0.2762041089999983  0.7616922859999988
  0.4637122749999989  0.6262043710000000  0.8411281110000033
  0.2970455880000031  0.9762043950000034  0.9205640549999998
  0.4637122150000010  0.3262045379999989  0.9999998810000008
  0.2970457670000002  0.5762039419999994  0.6028205750000026
  0.1303790660000033  0.9262041449999998  0.6822565200000028
  0.9637123939999981  0.2762041089999983  0.7616922859999988
  0.7970456480000010  0.6262043710000000  0.8411281110000033
  0.6303789620000018  0.9762043950000034  0.9205640549999998
  0.7970455880000031  0.3262045379999989  0.9999998810000008
  0.6303790810000010  0.5762039419999994  0.6028205750000026
  0.4637124240000006  0.9262041449999998  0.6822565200000028
  0.2970457380000013  0.2762041089999983  0.7616922859999988
  0.1303790059999983  0.6262043710000000  0.8411281110000033
  0.9637122749999989  0.9762043950000034  0.9205640549999998
  0.2137122749999989  0.0762045379999989  0.9999998810000008
  0.0470457710000005  0.3262039119999969  0.6028205750000026
  0.8803790810000010  0.6762040260000006  0.6822564009999965
  0.7137123349999968  0.0262041089999983  0.7616923450000002
  0.5470456480000010  0.3762042520000008  0.8411281110000033
  0.3803789019999968  0.7262046339999984  0.9205639360000006
  0.5470456480000010  0.0762045379999989  0.9999998810000008
  0.3803791110000034  0.3262039119999969  0.6028205750000026
  0.2137124389999983  0.6762040260000006  0.6822564009999965
  0.0470457300000007  0.0262041089999983  0.7616923450000002
  0.8803790210000031  0.3762042520000008  0.8411281110000033
  0.7137122150000010  0.7262046339999984  0.9205639360000006
  0.8803789620000018  0.0762045379999989  0.9999998810000008
  0.7137124540000030  0.3262039119999969  0.6028205750000026
  0.5470457079999989  0.6762040260000006  0.6822564009999965
  0.3803790509999985  0.0262041089999983  0.7616923450000002
  0.2137123199999991  0.3762042520000008  0.8411281110000033
  0.0470455700000016  0.7262046339999984  0.9205639360000006
 
  0.00000000E+00  0.00000000E+00  0.00000000E+00
  0.00000000E+00  0.00000000E+00  0.00000000E+00
  0.00000000E+00  0.00000000E+00  0.00000000E+00
  0.00000000E+00  0.00000000E+00  0.00000000E+00
  0.00000000E+00  0.00000000E+00  0.00000000E+00
  0.00000000E+00  0.00000000E+00  0.00000000E+00
  0.00000000E+00  0.00000000E+00  0.00000000E+00
  0.00000000E+00  0.00000000E+00  0.00000000E+00
  0.00000000E+00  0.00000000E+00  0.00000000E+00
  0.00000000E+00  0.00000000E+00  0.00000000E+00
  0.00000000E+00  0.00000000E+00  0.00000000E+00
  0.00000000E+00  0.00000000E+00  0.00000000E+00
  0.00000000E+00  0.00000000E+00  0.00000000E+00
  0.00000000E+00  0.00000000E+00  0.00000000E+00
  0.00000000E+00  0.00000000E+00  0.00000000E+00
  0.00000000E+00  0.00000000E+00  0.00000000E+00
  0.00000000E+00  0.00000000E+00  0.00000000E+00
  0.00000000E+00  0.00000000E+00  0.00000000E+00
  0.00000000E+00  0.00000000E+00  0.00000000E+00
  0.00000000E+00  0.00000000E+00  0.00000000E+00
  0.00000000E+00  0.00000000E+00  0.00000000E+00
  0.00000000E+00  0.00000000E+00  0.00000000E+00
  0.00000000E+00  0.00000000E+00  0.00000000E+00
  0.00000000E+00  0.00000000E+00  0.00000000E+00
  0.00000000E+00  0.00000000E+00  0.00000000E+00
  0.00000000E+00  0.00000000E+00  0.00000000E+00
  0.00000000E+00  0.00000000E+00  0.00000000E+00
  0.00000000E+00  0.00000000E+00  0.00000000E+00
  0.00000000E+00  0.00000000E+00  0.00000000E+00
  0.00000000E+00  0.00000000E+00  0.00000000E+00
  0.00000000E+00  0.00000000E+00  0.00000000E+00
  0.00000000E+00  0.00000000E+00  0.00000000E+00
  0.00000000E+00  0.00000000E+00  0.00000000E+00
  0.00000000E+00  0.00000000E+00  0.00000000E+00
  0.00000000E+00  0.00000000E+00  0.00000000E+00
  0.00000000E+00  0.00000000E+00  0.00000000E+00
  0.00000000E+00  0.00000000E+00  0.00000000E+00
  0.00000000E+00  0.00000000E+00  0.00000000E+00
  0.00000000E+00  0.00000000E+00  0.00000000E+00
  0.00000000E+00  0.00000000E+00  0.00000000E+00
  0.00000000E+00  0.00000000E+00  0.00000000E+00
  0.00000000E+00  0.00000000E+00  0.00000000E+00
  0.00000000E+00  0.00000000E+00  0.00000000E+00
  0.00000000E+00  0.00000000E+00  0.00000000E+00
  0.00000000E+00  0.00000000E+00  0.00000000E+00
  0.00000000E+00  0.00000000E+00  0.00000000E+00
  0.00000000E+00  0.00000000E+00  0.00000000E+00
  0.00000000E+00  0.00000000E+00  0.00000000E+00
  0.00000000E+00  0.00000000E+00  0.00000000E+00
  0.00000000E+00  0.00000000E+00  0.00000000E+00
  0.00000000E+00  0.00000000E+00  0.00000000E+00
  0.00000000E+00  0.00000000E+00  0.00000000E+00
  0.00000000E+00  0.00000000E+00  0.00000000E+00
  0.00000000E+00  0.00000000E+00  0.00000000E+00
  0.00000000E+00  0.00000000E+00  0.00000000E+00
  0.00000000E+00  0.00000000E+00  0.00000000E+00
  0.00000000E+00  0.00000000E+00  0.00000000E+00
  0.00000000E+00  0.00000000E+00  0.00000000E+00
  0.00000000E+00  0.00000000E+00  0.00000000E+00
  0.00000000E+00  0.00000000E+00  0.00000000E+00
  0.00000000E+00  0.00000000E+00  0.00000000E+00
  0.00000000E+00  0.00000000E+00  0.00000000E+00
  0.00000000E+00  0.00000000E+00  0.00000000E+00
  0.00000000E+00  0.00000000E+00  0.00000000E+00
  0.00000000E+00  0.00000000E+00  0.00000000E+00
  0.00000000E+00  0.00000000E+00  0.00000000E+00
  0.00000000E+00  0.00000000E+00  0.00000000E+00
  0.00000000E+00  0.00000000E+00  0.00000000E+00
  0.00000000E+00  0.00000000E+00  0.00000000E+00
  0.00000000E+00  0.00000000E+00  0.00000000E+00
  0.00000000E+00  0.00000000E+00  0.00000000E+00
  0.00000000E+00  0.00000000E+00  0.00000000E+00
  0.00000000E+00  0.00000000E+00  0.00000000E+00
  0.00000000E+00  0.00000000E+00  0.00000000E+00
  0.00000000E+00  0.00000000E+00  0.00000000E+00
  0.00000000E+00  0.00000000E+00  0.00000000E+00
  0.00000000E+00  0.00000000E+00  0.00000000E+00
  0.00000000E+00  0.00000000E+00  0.00000000E+00
  0.00000000E+00  0.00000000E+00  0.00000000E+00
  0.00000000E+00  0.00000000E+00  0.00000000E+00
  0.00000000E+00  0.00000000E+00  0.00000000E+00
  0.00000000E+00  0.00000000E+00  0.00000000E+00
  0.00000000E+00  0.00000000E+00  0.00000000E+00
  0.00000000E+00  0.00000000E+00  0.00000000E+00
  0.00000000E+00  0.00000000E+00  0.00000000E+00
  0.00000000E+00  0.00000000E+00  0.00000000E+00
  0.00000000E+00  0.00000000E+00  0.00000000E+00
  0.00000000E+00  0.00000000E+00  0.00000000E+00
  0.00000000E+00  0.00000000E+00  0.00000000E+00
  0.00000000E+00  0.00000000E+00  0.00000000E+00
  0.00000000E+00  0.00000000E+00  0.00000000E+00
  0.00000000E+00  0.00000000E+00  0.00000000E+00
  0.00000000E+00  0.00000000E+00  0.00000000E+00
  0.00000000E+00  0.00000000E+00  0.00000000E+00
  0.00000000E+00  0.00000000E+00  0.00000000E+00
  0.00000000E+00  0.00000000E+00  0.00000000E+00
  0.00000000E+00  0.00000000E+00  0.00000000E+00
  0.00000000E+00  0.00000000E+00  0.00000000E+00
  0.00000000E+00  0.00000000E+00  0.00000000E+00
  0.00000000E+00  0.00000000E+00  0.00000000E+00
  0.00000000E+00  0.00000000E+00  0.00000000E+00
  0.00000000E+00  0.00000000E+00  0.00000000E+00
  0.00000000E+00  0.00000000E+00  0.00000000E+00
  0.00000000E+00  0.00000000E+00  0.00000000E+00
  0.00000000E+00  0.00000000E+00  0.00000000E+00
  0.00000000E+00  0.00000000E+00  0.00000000E+00
  0.00000000E+00  0.00000000E+00  0.00000000E+00
  0.00000000E+00  0.00000000E+00  0.00000000E+00
  0.00000000E+00  0.00000000E+00  0.00000000E+00
  0.00000000E+00  0.00000000E+00  0.00000000E+00
  0.00000000E+00  0.00000000E+00  0.00000000E+00
  0.00000000E+00  0.00000000E+00  0.00000000E+00
  0.00000000E+00  0.00000000E+00  0.00000000E+00
  0.00000000E+00  0.00000000E+00  0.00000000E+00
  0.00000000E+00  0.00000000E+00  0.00000000E+00
  0.00000000E+00  0.00000000E+00  0.00000000E+00
  0.00000000E+00  0.00000000E+00  0.00000000E+00
  0.00000000E+00  0.00000000E+00  0.00000000E+00
  0.00000000E+00  0.00000000E+00  0.00000000E+00
  0.00000000E+00  0.00000000E+00  0.00000000E+00
  0.00000000E+00  0.00000000E+00  0.00000000E+00
  0.00000000E+00  0.00000000E+00  0.00000000E+00
  0.00000000E+00  0.00000000E+00  0.00000000E+00
  0.00000000E+00  0.00000000E+00  0.00000000E+00
  0.00000000E+00  0.00000000E+00  0.00000000E+00
  0.00000000E+00  0.00000000E+00  0.00000000E+00
  0.00000000E+00  0.00000000E+00  0.00000000E+00
  0.00000000E+00  0.00000000E+00  0.00000000E+00
  0.00000000E+00  0.00000000E+00  0.00000000E+00
  0.00000000E+00  0.00000000E+00  0.00000000E+00
  0.00000000E+00  0.00000000E+00  0.00000000E+00
  0.00000000E+00  0.00000000E+00  0.00000000E+00
  0.00000000E+00  0.00000000E+00  0.00000000E+00
  0.00000000E+00  0.00000000E+00  0.00000000E+00
  0.00000000E+00  0.00000000E+00  0.00000000E+00
  0.00000000E+00  0.00000000E+00  0.00000000E+00
  0.00000000E+00  0.00000000E+00  0.00000000E+00
  0.00000000E+00  0.00000000E+00  0.00000000E+00
  0.00000000E+00  0.00000000E+00  0.00000000E+00
  0.00000000E+00  0.00000000E+00  0.00000000E+00
  0.00000000E+00  0.00000000E+00  0.00000000E+00
  0.00000000E+00  0.00000000E+00  0.00000000E+00
  0.00000000E+00  0.00000000E+00  0.00000000E+00
  0.00000000E+00  0.00000000E+00  0.00000000E+00
  0.00000000E+00  0.00000000E+00  0.00000000E+00
  0.00000000E+00  0.00000000E+00  0.00000000E+00
  0.00000000E+00  0.00000000E+00  0.00000000E+00
  0.00000000E+00  0.00000000E+00  0.00000000E+00
  0.00000000E+00  0.00000000E+00  0.00000000E+00
  0.00000000E+00  0.00000000E+00  0.00000000E+00
  0.00000000E+00  0.00000000E+00  0.00000000E+00
  0.00000000E+00  0.00000000E+00  0.00000000E+00
  0.00000000E+00  0.00000000E+00  0.00000000E+00
  0.00000000E+00  0.00000000E+00  0.00000000E+00
  0.00000000E+00  0.00000000E+00  0.00000000E+00
  0.00000000E+00  0.00000000E+00  0.00000000E+00
  0.00000000E+00  0.00000000E+00  0.00000000E+00
  0.00000000E+00  0.00000000E+00  0.00000000E+00
  0.00000000E+00  0.00000000E+00  0.00000000E+00
  0.00000000E+00  0.00000000E+00  0.00000000E+00
  0.00000000E+00  0.00000000E+00  0.00000000E+00
  0.00000000E+00  0.00000000E+00  0.00000000E+00
  0.00000000E+00  0.00000000E+00  0.00000000E+00
  0.00000000E+00  0.00000000E+00  0.00000000E+00
  0.00000000E+00  0.00000000E+00  0.00000000E+00
  0.00000000E+00  0.00000000E+00  0.00000000E+00
  0.00000000E+00  0.00000000E+00  0.00000000E+00
  0.00000000E+00  0.00000000E+00  0.00000000E+00
  0.00000000E+00  0.00000000E+00  0.00000000E+00
  0.00000000E+00  0.00000000E+00  0.00000000E+00
  0.00000000E+00  0.00000000E+00  0.00000000E+00
  0.00000000E+00  0.00000000E+00  0.00000000E+00
  0.00000000E+00  0.00000000E+00  0.00000000E+00
  0.00000000E+00  0.00000000E+00  0.00000000E+00
  0.00000000E+00  0.00000000E+00  0.00000000E+00
  0.00000000E+00  0.00000000E+00  0.00000000E+00
  0.00000000E+00  0.00000000E+00  0.00000000E+00
  0.00000000E+00  0.00000000E+00  0.00000000E+00
  0.00000000E+00  0.00000000E+00  0.00000000E+00
  0.00000000E+00  0.00000000E+00  0.00000000E+00
  0.00000000E+00  0.00000000E+00  0.00000000E+00
  0.00000000E+00  0.00000000E+00  0.00000000E+00
  0.00000000E+00  0.00000000E+00  0.00000000E+00
  0.00000000E+00  0.00000000E+00  0.00000000E+00
  0.00000000E+00  0.00000000E+00  0.00000000E+00
  0.00000000E+00  0.00000000E+00  0.00000000E+00
  0.00000000E+00  0.00000000E+00  0.00000000E+00
  0.00000000E+00  0.00000000E+00  0.00000000E+00
  0.00000000E+00  0.00000000E+00  0.00000000E+00
  0.00000000E+00  0.00000000E+00  0.00000000E+00
  0.00000000E+00  0.00000000E+00  0.00000000E+00
  0.00000000E+00  0.00000000E+00  0.00000000E+00
