Sn+Sn                                   
   1.00000000000000     
    14.5102920530000006    0.0000000000000000    0.0000000000000000
   -11.6082344059999993    8.7061758040000008    0.0000000000000000
     0.0000000000000000    0.0000000000000000   10.8153333660000008
   Sn
    48
Direct
  0.3432631490000020  0.6716315150000014  0.0000000000000000
  0.6765965219999970  0.8382983210000035  0.3000000420000006
  0.0099297759999999  0.0049650670000005  0.5999999639999984
  0.0099298080000025  0.0049649059999979  0.0000000000000000
  0.3432631490000020  0.1716316489999983  0.3000000420000006
  0.6765964029999978  0.3382983509999988  0.5999999639999984
  0.6765965219999970  0.3382982310000031  0.0000000000000000
  0.0099297759999999  0.5049649480000014  0.3000000420000006
  0.3432631490000020  0.6716316939999984  0.5999999639999984
  0.0932631490000020  0.9216315749999993  0.1499999910000014
  0.4265964029999978  0.0882983210000035  0.4500000179999972
  0.7599297759999999  0.2549650670000005  0.7500000599999979
  0.4265964330000003  0.5882982019999972  0.1499999910000014
  0.7599297169999986  0.7549649480000014  0.4500000179999972
  0.0932631490000020  0.9216317529999998  0.7500000599999979
  0.7599297759999999  0.2549648880000035  0.1499999910000014
  0.0932630300000028  0.4216316039999981  0.4500000179999972
  0.4265964029999978  0.5882983210000035  0.7500000599999979
  0.1765964630000028  0.8382982019999972  0.0000000000000000
  0.5099297759999999  0.0049649480000014  0.3000000420000006
  0.8432630900000007  0.1716315749999993  0.5999999639999984
  0.5099297759999999  0.5049648880000035  0.0000000000000000
  0.8432631490000020  0.6716316340000006  0.3000000420000006
  0.1765964029999978  0.8382983210000035  0.5999999639999984
  0.8432632089999998  0.1716315899999969  0.0000000000000000
  0.1765965219999970  0.3382983210000035  0.3000000420000006
  0.5099297759999999  0.5049650070000027  0.5999999639999984
  0.2599297459999974  0.7549648279999985  0.1499999910000014
  0.5932630300000028  0.9216315150000014  0.4500000179999972
  0.9265964029999978  0.0882983210000035  0.7500000599999979
  0.5932631490000020  0.4216315749999993  0.1499999910000014
  0.9265964029999978  0.5882982609999985  0.4500000179999972
  0.2599297759999999  0.7549650070000027  0.7500000599999979
  0.9265964630000028  0.0882982839999968  0.1499999910000014
  0.2599296570000007  0.2549649779999967  0.4500000179999972
  0.5932631490000020  0.4216317529999998  0.7500000599999979
  0.9893847700000009  0.9628466369999984  0.7500000599999979
  0.8782736060000005  0.5739576819999996  0.8500001430000026
  0.7671624420000001  0.1850687860000022  0.9500001669999989
  0.4893847109999996  0.4628465770000005  0.7500000599999979
  0.3782735469999992  0.0739576519999972  0.8500001430000026
  0.2671623829999987  0.6850687270000009  0.9500001669999989
  0.6838291290000029  0.7684021589999972  0.8000000720000031
  0.5727179650000025  0.3795132640000034  0.9000002149999986
  0.4616067409999971  0.9906243089999975  0.0000002379999984
  0.1838291589999983  0.2684021290000018  0.8000000720000031
  0.0727180020000020  0.8795132039999984  0.9000000950000029
  0.9616068010000021  0.4906241890000018  0.0000002379999984
 
  0.00000000E+00  0.00000000E+00  0.00000000E+00
  0.00000000E+00  0.00000000E+00  0.00000000E+00
  0.00000000E+00  0.00000000E+00  0.00000000E+00
  0.00000000E+00  0.00000000E+00  0.00000000E+00
  0.00000000E+00  0.00000000E+00  0.00000000E+00
  0.00000000E+00  0.00000000E+00  0.00000000E+00
  0.00000000E+00  0.00000000E+00  0.00000000E+00
  0.00000000E+00  0.00000000E+00  0.00000000E+00
  0.00000000E+00  0.00000000E+00  0.00000000E+00
  0.00000000E+00  0.00000000E+00  0.00000000E+00
  0.00000000E+00  0.00000000E+00  0.00000000E+00
  0.00000000E+00  0.00000000E+00  0.00000000E+00
  0.00000000E+00  0.00000000E+00  0.00000000E+00
  0.00000000E+00  0.00000000E+00  0.00000000E+00
  0.00000000E+00  0.00000000E+00  0.00000000E+00
  0.00000000E+00  0.00000000E+00  0.00000000E+00
  0.00000000E+00  0.00000000E+00  0.00000000E+00
  0.00000000E+00  0.00000000E+00  0.00000000E+00
  0.00000000E+00  0.00000000E+00  0.00000000E+00
  0.00000000E+00  0.00000000E+00  0.00000000E+00
  0.00000000E+00  0.00000000E+00  0.00000000E+00
  0.00000000E+00  0.00000000E+00  0.00000000E+00
  0.00000000E+00  0.00000000E+00  0.00000000E+00
  0.00000000E+00  0.00000000E+00  0.00000000E+00
  0.00000000E+00  0.00000000E+00  0.00000000E+00
  0.00000000E+00  0.00000000E+00  0.00000000E+00
  0.00000000E+00  0.00000000E+00  0.00000000E+00
  0.00000000E+00  0.00000000E+00  0.00000000E+00
  0.00000000E+00  0.00000000E+00  0.00000000E+00
  0.00000000E+00  0.00000000E+00  0.00000000E+00
  0.00000000E+00  0.00000000E+00  0.00000000E+00
  0.00000000E+00  0.00000000E+00  0.00000000E+00
  0.00000000E+00  0.00000000E+00  0.00000000E+00
  0.00000000E+00  0.00000000E+00  0.00000000E+00
  0.00000000E+00  0.00000000E+00  0.00000000E+00
  0.00000000E+00  0.00000000E+00  0.00000000E+00
  0.00000000E+00  0.00000000E+00  0.00000000E+00
  0.00000000E+00  0.00000000E+00  0.00000000E+00
  0.00000000E+00  0.00000000E+00  0.00000000E+00
  0.00000000E+00  0.00000000E+00  0.00000000E+00
  0.00000000E+00  0.00000000E+00  0.00000000E+00
  0.00000000E+00  0.00000000E+00  0.00000000E+00
  0.00000000E+00  0.00000000E+00  0.00000000E+00
  0.00000000E+00  0.00000000E+00  0.00000000E+00
  0.00000000E+00  0.00000000E+00  0.00000000E+00
  0.00000000E+00  0.00000000E+00  0.00000000E+00
  0.00000000E+00  0.00000000E+00  0.00000000E+00
  0.00000000E+00  0.00000000E+00  0.00000000E+00
