Ge+Ge
    1.000000000
   12.651226044    0.000000000    0.000000000
  -10.120981216    7.590735435    0.000000000
    0.000000000    0.000000000    9.429668427
Ge 
48
Direct
    0.962846637    0.989384770    0.000000000
    0.573957682    0.878273606    0.100000039
    0.185068727    0.767162442    0.200000033
    0.462846637    0.489384741    0.000000003
    0.073957674    0.378273606    0.100000039
    0.685068727    0.267162442    0.200000033
    0.768402100    0.683829188    0.050000019
    0.379513144    0.572718024    0.150000036
    0.990624189    0.461606801    0.250000089
    0.268402159    0.183829173    0.050000008
    0.879513204    0.072718009    0.150000036
    0.490624189    0.961606801    0.250000089
    0.344722271    0.672361135    0.250000060
    0.678055644    0.839027822    0.550000072
    0.011389017    0.005694628    0.850000024
    0.011388971    0.005694487    0.250000060
    0.344722331    0.172361225    0.550000072
    0.678055704    0.339027971    0.850000024
    0.678055644    0.339027822    0.250000060
    0.011388898    0.505694509    0.550000072
    0.344722390    0.672361314    0.850000024
    0.094722271    0.922361135    0.400000036
    0.428055644    0.089027882    0.699999988
    0.761389017    0.255694628    1.000000000
    0.428055644    0.589027882    0.400000036
    0.761389017    0.755694568    0.699999988
    0.094722390    0.922361374    1.000000000
    0.761388898    0.255694479    0.400000036
    0.094722390    0.422361225    0.699999988
    0.428055644    0.589027941    1.000000000
    0.178055570    0.839027703    0.250000060
    0.511388958    0.005694509    0.550000072
    0.844722271    0.172361135    0.850000024
    0.511388958    0.505694509    0.250000060
    0.844722271    0.672361195    0.550000072
    0.178055644    0.839027941    0.850000024
    0.844722331    0.172361180    0.250000060
    0.178055644    0.339027911    0.550000072
    0.511389017    0.505694628    0.850000024
    0.261388958    0.755694449    0.400000036
    0.594722331    0.922361195    0.699999988
    0.928055763    0.089028001    1.000000000
    0.594722331    0.422361165    0.400000036
    0.928055704    0.589027882    0.699999988
    0.261389017    0.755694628    1.000000000
    0.928055644    0.089027874    0.400000036
    0.261389017    0.255694628    0.699999988
    0.594722390    0.422361344    1.000000000
