Sn+Sn
    1.000000000
    6.489200115    0.000000000    0.000000000
    0.000000000    6.489200115    0.000000000
    0.000000000    0.000000000   16.222999573
Sn 
24
Direct
    0.264894694    0.749999940    0.099999994
    0.264894605    0.749999940    1.000000000
    0.264894605    0.749999940    0.500000000
    0.014894711    0.000000000    0.000000000
    0.764894545    0.749999940    0.299999982
    0.014894485    0.000000000    0.399999917
    0.514894664    0.499999970    0.000000000
    0.014894724    0.499999970    0.200000003
    0.514894485    0.499999970    0.399999917
    0.764894664    0.249999985    0.099999994
    0.014894711    0.000000000    0.500000000
    0.764894485    0.249999985    0.500000000
    0.264894485    0.249999985    0.299999982
    0.514894664    0.000000000    0.700000048
    0.014894485    0.000000000    0.899999976
    0.264894694    0.749999940    0.599999964
    0.764894545    0.749999940    0.800000012
    0.514894664    0.000000000    0.200000003
    0.514894664    0.499999970    0.500000000
    0.014894724    0.499999970    0.700000048
    0.514894485    0.499999970    0.899999976
    0.764894664    0.249999985    0.599999964
    0.264894485    0.249999985    0.800000012
    0.764894485    0.249999985    1.000000000
