Sn+Ge
    1.000000000
   12.978400230    0.000000000    0.000000000
    0.000000000   12.978400230    0.000000000
    0.000000000    0.000000000   19.583751678
Sn  Ge 
48     60
Direct
    0.992552638    0.499999970    0.000000000
    0.742552638    0.499999970    0.165678188
    0.492552757    0.499999970    0.331356287
    0.992552638    0.000000000    0.000000000
    0.742552638    0.000000000    0.165678188
    0.492552757    0.000000000    0.331356287
    0.492552608    0.499999970    0.000000000
    0.242552638    0.499999970    0.165678188
    0.992552698    0.499999970    0.331356287
    0.492552608    0.000000000    0.000000000
    0.242552638    0.000000000    0.165678188
    0.992552698    0.000000000    0.331356287
    0.117552646    0.874999940    0.082839087
    0.867552757    0.874999940    0.248517260
    0.617552698    0.874999940    0.414195418
    0.117552646    0.374999970    0.082839087
    0.867552757    0.374999970    0.248517260
    0.617552698    0.374999970    0.414195418
    0.617552578    0.874999940    0.082839087
    0.367552698    0.874999940    0.248517260
    0.117552668    0.874999940    0.414195418
    0.617552578    0.374999970    0.082839087
    0.367552698    0.374999970    0.248517260
    0.117552668    0.374999970    0.414195418
    0.242552638    0.749999940    0.000000000
    0.992552638    0.749999940    0.165678188
    0.742552757    0.749999940    0.331356287
    0.242552638    0.249999985    0.000000000
    0.992552638    0.249999985    0.165678188
    0.742552757    0.249999985    0.331356287
    0.742552578    0.749999940    0.000000000
    0.492552608    0.749999940    0.165678188
    0.242552698    0.749999940    0.331356287
    0.742552578    0.249999985    0.000000000
    0.492552608    0.249999985    0.165678188
    0.242552698    0.249999985    0.331356287
    0.367552638    0.624999940    0.082839087
    0.117552713    0.624999940    0.248517260
    0.867552698    0.624999940    0.414195418
    0.367552638    0.124999993    0.082839087
    0.117552713    0.124999993    0.248517260
    0.867552698    0.124999993    0.414195418
    0.867552638    0.624999940    0.082839087
    0.617552757    0.624999940    0.248517260
    0.367552698    0.624999940    0.414195418
    0.867552638    0.124999993    0.082839087
    0.617552757    0.124999993    0.248517260
    0.367552698    0.124999993    0.414195418
    0.821705401    0.228313297    0.526533484
    0.821705461    0.728313327    0.670984805
    0.821705461    0.228313357    0.815436304
    0.021705389    0.828313231    0.526533484
    0.021705389    0.328313261    0.670984805
    0.021705508    0.828313231    0.815436304
    0.221705437    0.428313285    0.526533484
    0.221705437    0.928313255    0.670984805
    0.221705437    0.428313285    0.815436304
    0.421705484    0.028313279    0.526533484
    0.421705484    0.528313279    0.670984805
    0.421705604    0.028313279    0.815436304
    0.621705294    0.628313303    0.526533484
    0.621705413    0.128313184    0.670984805
    0.621705413    0.628313303    0.815436304
    0.971705437    0.178313136    0.598759174
    0.971705437    0.678313255    0.743210614
    0.971705496    0.178313255    0.887661994
    0.171705365    0.778313279    0.598759174
    0.171705484    0.278313309    0.743210614
    0.171705484    0.778313279    0.887661994
    0.371705294    0.378313214    0.598759174
    0.371705294    0.878313303    0.743210614
    0.371705413    0.378313214    0.887661994
    0.571705461    0.978313327    0.598759174
    0.571705580    0.478313357    0.743210614
    0.571705580    0.978313327    0.887661994
    0.771705508    0.578313291    0.598759174
    0.771705508    0.078313231    0.743210614
    0.771705627    0.578313231    0.887661994
    0.921705425    0.528313279    0.526533484
    0.921705484    0.028313279    0.670984805
    0.921705544    0.528313160    0.815436304
    0.121705413    0.128313184    0.526533484
    0.121705532    0.628313184    0.670984805
    0.121705532    0.128313184    0.815436304
    0.321705341    0.728313327    0.526533484
    0.321705461    0.228313237    0.670984805
    0.321705580    0.728313327    0.815436304
    0.521705389    0.328313291    0.526533484
    0.521705389    0.828313231    0.670984805
    0.521705627    0.328313261    0.815436304
    0.721705437    0.928313255    0.526533484
    0.721705437    0.428313285    0.670984805
    0.721705556    0.928313136    0.815436304
    0.871705413    0.878313303    0.598759174
    0.871705472    0.378313333    0.743210614
    0.871705532    0.878313303    0.887661994
    0.071705341    0.478313297    0.598759174
    0.071705461    0.978313327    0.743210614
    0.071705580    0.478313357    0.887661994
    0.271705389    0.078313231    0.598759174
    0.271705389    0.578313231    0.743210614
    0.271705508    0.078313231    0.887661994
    0.471705437    0.678313315    0.598759174
    0.471705437    0.178313255    0.743210614
    0.471705437    0.678313375    0.887661994
    0.671705484    0.278313309    0.598759174
    0.671705484    0.778313279    0.743210614
    0.671705723    0.278313309    0.887661994
