Sn+Si
    1.000000000
   19.467599869    0.000000000    0.000000000
    0.000000000   19.467599869    0.000000000
    0.000000000    0.000000000   19.300252914
Sn  Si 
108     156
Direct
    0.652316332    0.565981567    0.886011779
    0.828368425    0.666666687    0.168111786
    0.661701739    0.666666687    0.336223543
    0.883085549    0.412135422    0.886011779
    0.828368425    0.333333343    0.168111786
    0.661701739    0.333333343    0.336223543
    0.995035112    0.000000000    0.000000000
    0.113854766    0.258289337    0.886011779
    0.017701149    0.739058495    0.534267545
    0.328368455    0.666666687    0.000000000
    0.161701739    0.666666687    0.168111786
    0.995035112    0.666666687    0.336223543
    0.328368455    0.333333343    0.000000000
    0.998470128    0.835212350    0.886011779
    0.995035112    0.333333343    0.336223543
    0.960008562    0.027520061    0.886011779
    0.161701739    0.000000000    0.168111786
    0.995035112    0.000000000    0.336223543
    0.661701798    0.666666687    0.000000000
    0.498470068    0.335212380    0.886011779
    0.328368455    0.666666687    0.336223543
    0.661701798    0.333333343    0.000000000
    0.421547055    0.719827771    0.886011779
    0.328368455    0.333333343    0.336223543
    0.036931634    0.642904758    0.886011779
    0.498470426    0.835212350    0.745314062
    0.328368455    0.000000000    0.336223543
    0.078368433    0.916666746    0.084055893
    0.911701798    0.916666746    0.252167612
    0.402316451    0.815981507    0.534267545
    0.078368433    0.583333433    0.084055893
    0.748470306    0.085212208    0.534267545
    0.633085728    0.662135422    0.534267545
    0.078368433    0.250000000    0.084055893
    0.911701798    0.250000000    0.252167612
    0.745035052    0.250000000    0.420279443
    0.411701769    0.916666746    0.084055893
    0.248470306    0.585212350    0.534267545
    0.078368381    0.916666746    0.420279443
    0.344624043    0.104443185    0.886011779
    0.171547294    0.969827712    0.534267545
    0.078368381    0.583333433    0.420279443
    0.411701769    0.250000000    0.084055893
    0.248470306    0.085212342    0.674965203
    0.710008860    0.277519971    0.534267545
    0.745035172    0.916666746    0.084055893
    0.578368545    0.916666746    0.252167612
    0.411701798    0.916666746    0.420279443
    0.383085728    0.912135482    0.886011779
    0.578368545    0.583333433    0.252167612
    0.411701798    0.583333433    0.420279443
    0.745035172    0.250000000    0.084055893
    0.863854945    0.508289218    0.534267545
    0.786931872    0.892904580    0.534267545
    0.161701769    0.833333313    0.000000000
    0.995035052    0.833333313    0.168111786
    0.828368425    0.833333313    0.336223543
    0.161701769    0.500000000    0.000000000
    0.995035052    0.500000000    0.168111786
    0.828368425    0.500000000    0.336223543
    0.161701769    0.166666672    0.000000000
    0.806162417    0.796750903    0.886011779
    0.828368425    0.166666672    0.336223543
    0.613854647    0.758289278    0.886011779
    0.017700911    0.739058614    0.815662920
    0.094624281    0.354443043    0.534267545
    0.495035112    0.500000000    0.000000000
    0.328368425    0.500000000    0.168111786
    0.161701754    0.500000000    0.336223543
    0.495035112    0.166666672    0.000000000
    0.844624043    0.604443133    0.886011779
    0.161701754    0.166666672    0.336223543
    0.828368545    0.833333313    0.000000000
    0.460008502    0.527520061    0.886011779
    0.133085728    0.162135303    0.534267545
    0.536931634    0.142904639    0.886011779
    0.661701858    0.500000000    0.168111786
    0.495035201    0.500000000    0.336223543
    0.828368545    0.166666672    0.000000000
    0.690777779    0.373673856    0.886011779
    0.495035201    0.166666672    0.336223543
    0.245035097    0.750000060    0.084055893
    0.078368433    0.750000060    0.252167612
    0.911701739    0.750000060    0.420279443
    0.245035097    0.416666716    0.084055893
    0.594624162    0.854443133    0.534267545
    0.911701739    0.416666716    0.420279443
    0.245035097    0.083333343    0.084055893
    0.767701089    0.989058375    0.604616404
    0.911701739    0.083333343    0.420279443
    0.578368485    0.750000060    0.084055893
    0.411701858    0.750000060    0.252167612
    0.245035127    0.750000060    0.420279443
    0.578368485    0.416666716    0.084055893
    0.440778017    0.623673797    0.534267545
    0.245035127    0.416666716    0.420279443
    0.578368485    0.083333343    0.084055893
    0.210008860    0.777519882    0.534267545
    0.363854885    0.008289218    0.534267545
    0.267701030    0.489058524    0.886011779
    0.745035052    0.750000060    0.252167612
    0.286931992    0.392904580    0.534267545
    0.911701739    0.416666716    0.084055893
    0.556162596    0.046750784    0.534267545
    0.578368366    0.416666716    0.420279443
    0.911701739    0.083333343    0.084055893
    0.745035052    0.083333343    0.252167612
    0.578368366    0.083333343    0.420279443
    0.517701149    0.239058375    0.534267545
    0.402316570    0.315981507    0.674965203
    0.286931753    0.392904669    0.815662920
    0.671547413    0.469827592    0.534267545
    0.556162596    0.546750665    0.674965203
    0.440778017    0.623673856    0.815662920
    0.495035201    0.833333313    0.336223543
    0.017701030    0.239058435    0.674965203
    0.902316332    0.315981567    0.815662920
    0.578368366    0.750000060    0.420279443
    0.171547174    0.469827712    0.674965203
    0.056162477    0.546750844    0.815662920
    0.411701858    0.416666716    0.252167612
    0.325393319    0.700596929    0.674965203
    0.210008621    0.777520061    0.815662920
    0.078368433    0.416666716    0.252167612
    0.479239464    0.931366265    0.674965203
    0.363854766    0.008289337    0.815662920
    0.911701798    0.583333433    0.252167612
    0.633085608    0.162135333    0.674965203
    0.517700911    0.239058465    0.815662920
    0.902316451    0.315981477    0.534267545
    0.786931813    0.392904609    0.674965203
    0.671547055    0.469827741    0.815662920
    0.056162596    0.546750724    0.534267545
    0.940777957    0.623673856    0.674965203
    0.825393200    0.700596988    0.815662920
    0.411701858    0.083333343    0.252167612
    0.094624162    0.854443014    0.674965203
    0.979239404    0.931366146    0.815662920
    0.245035127    0.083333343    0.420279443
    0.245035097    0.250000000    0.252167612
    0.133085489    0.162135482    0.815662920
    0.825393379    0.700596869    0.534267545
    0.710008621    0.777520001    0.674965203
    0.594624043    0.854443192    0.815662920
    0.979239583    0.931366086    0.534267545
    0.863854885    0.008289099    0.674965203
    0.748470068    0.085212342    0.815662920
    0.729239464    0.181366086    0.604616404
    0.613854885    0.258289218    0.745314062
    0.495035112    0.666666687    0.168111786
    0.344624162    0.104443066    0.604616404
    0.229239464    0.181366205    0.745314062
    0.828368425    0.000000000    0.168111786
    0.498470426    0.335212231    0.604616404
    0.383085728    0.412135392    0.745314062
    0.911701739    0.750000060    0.084055893
    0.652316570    0.565981448    0.604616404
    0.536931753    0.642904639    0.745314062
    0.495035112    0.333333343    0.168111786
    0.113855004    0.258289158    0.604616404
    0.998470306    0.335212290    0.745314062
    0.995035112    0.333333343    0.000000000
    0.267701149    0.489058465    0.604616404
    0.152316332    0.565981567    0.745314062
    0.661701798    0.000000000    0.000000000
    0.421547174    0.719827652    0.604616404
    0.306162596    0.796750784    0.745314062
    0.190777779    0.873673916    0.886011779
    0.575393438    0.950596929    0.604616404
    0.460008621    0.027520061    0.745314062
    0.411701769    0.583333433    0.084055893
    0.883085728    0.412135333    0.604616404
    0.767701030    0.489058435    0.745314062
    0.995035112    0.666666687    0.000000000
    0.036931872    0.642904639    0.604616404
    0.921547174    0.719827712    0.745314062
    0.995035052    0.166666672    0.168111786
    0.190778017    0.873673797    0.604616404
    0.075393319    0.950596929    0.745314062
    0.328368455    0.000000000    0.000000000
    0.806162596    0.796750724    0.604616404
    0.690777898    0.873673916    0.745314062
    0.575393200    0.950596988    0.886011779
    0.960008800    0.027519941    0.604616404
    0.844624043    0.104443066    0.745314062
    0.729239345    0.181366205    0.886011779
    0.078368381    0.250000000    0.420279443
    0.594624043    0.354443103    0.674965203
    0.479239464    0.431366265    0.815662920
    0.325393438    0.200596869    0.534267545
    0.210008621    0.277520001    0.674965203
    0.094624043    0.354443133    0.815662920
    0.479239702    0.431366175    0.534267545
    0.363854885    0.508289278    0.674965203
    0.248470187    0.585212469    0.815662920
    0.745035052    0.583333433    0.420279443
    0.517701030    0.739058554    0.674965203
    0.402316332    0.815981686    0.815662920
    0.940778017    0.123673767    0.534267545
    0.825393319    0.200596899    0.674965203
    0.710008621    0.277520031    0.815662920
    0.161701754    0.833333313    0.336223543
    0.979239523    0.431366175    0.674965203
    0.863854825    0.508289278    0.815662920
    0.245035097    0.916666746    0.252167612
    0.133085608    0.662135482    0.674965203
    0.328368425    0.833333313    0.168111786
    0.745035052    0.916666746    0.420279443
    0.286931753    0.892904639    0.674965203
    0.171547055    0.969827771    0.815662920
    0.745035052    0.416666716    0.252167612
    0.440778017    0.123673908    0.674965203
    0.325393200    0.200597048    0.815662920
    0.578368545    0.250000000    0.252167612
    0.748470306    0.585212350    0.674965203
    0.633085489    0.662135482    0.815662920
    0.661701739    0.000000000    0.336223543
    0.902316451    0.815981627    0.674965203
    0.786931753    0.892904758    0.815662920
    0.245035097    0.583333433    0.252167612
    0.056162596    0.046750784    0.674965203
    0.940777898    0.123673908    0.815662920
    0.411701798    0.250000000    0.420279443
    0.671547174    0.969827712    0.674965203
    0.556162357    0.046750784    0.815662920
    0.536931992    0.142904535    0.604616404
    0.421547174    0.219827682    0.745314062
    0.306162596    0.296750814    0.886011779
    0.690778017    0.373673767    0.604616404
    0.575393200    0.450596929    0.745314062
    0.661701858    0.833333313    0.168111786
    0.306162715    0.296750695    0.604616404
    0.190778017    0.373673826    0.745314062
    0.075393319    0.450596988    0.886011779
    0.460008860    0.527519941    0.604616404
    0.344624281    0.604443073    0.745314062
    0.229239464    0.681366205    0.886011779
    0.613855124    0.758289218    0.604616404
    0.495035112    0.000000000    0.168111786
    0.745035172    0.583333433    0.084055893
    0.921547294    0.219827563    0.604616404
    0.806162536    0.296750695    0.745314062
    0.661701858    0.166666672    0.168111786
    0.075393438    0.450596869    0.604616404
    0.960008740    0.527520001    0.745314062
    0.328368425    0.166666672    0.168111786
    0.229239583    0.681366086    0.604616404
    0.113854885    0.758289218    0.745314062
    0.161701739    0.333333343    0.168111786
    0.383085728    0.912135422    0.604616404
    0.267701149    0.989058554    0.745314062
    0.152316332    0.065981627    0.886011779
    0.844624162    0.604443014    0.604616404
    0.729239464    0.681366146    0.745314062
    0.495035112    0.833333313    0.000000000
    0.998470306    0.835212231    0.604616404
    0.883085608    0.912135363    0.745314062
    0.767700911    0.989058554    0.886011779
    0.152316570    0.065981507    0.604616404
    0.036931872    0.142904758    0.745314062
    0.921547115    0.219827890    0.886011779
    0.078368433    0.083333343    0.252167612
    0.652316332    0.065981507    0.745314062
    0.828368545    0.500000000    0.000000000
