fcc Si+fcc Ge                           
   1.00000000000000     
     5.4800000000000004    0.0000000000000000    0.0000000000000000
     0.0000000000000000   16.4400000000000013    0.0000000000000000
     0.0000000000000000    0.0000000000000000   27.7055609539999992
   Si   Ge
    66    48
Direct
  0.0000000000000000  0.0000000000000000  0.0000000000000000
  0.5000000000000000  0.0000000000000000  0.0988971129999996
  0.0000000000000000  0.0000000000000000  0.1977942270000028
  0.5000000000000000  0.0000000000000000  0.2966913400000024
  0.0000000000000000  0.0000000000000000  0.3955884530000020
  0.5000000000000000  0.0000000000000000  0.4944855660000016
  0.0000000000000000  0.3333333329999988  0.0000000000000000
  0.5000000000000000  0.3333333329999988  0.0988971129999996
  0.0000000000000000  0.3333333329999988  0.1977942270000028
  0.5000000000000000  0.3333333329999988  0.2966913400000024
  0.0000000000000000  0.3333333329999988  0.3955884530000020
  0.5000000000000000  0.3333333329999988  0.4944855660000016
  0.0000000000000000  0.6666666670000012  0.0000000000000000
  0.5000000000000000  0.6666666670000012  0.0988971129999996
  0.0000000000000000  0.6666666670000012  0.1977942270000028
  0.5000000000000000  0.6666666670000012  0.2966913400000024
  0.0000000000000000  0.6666666670000012  0.3955884530000020
  0.5000000000000000  0.6666666670000012  0.4944855660000016
  0.5000000000000000  0.1666666670000012  0.0000000000000000
  0.0000000000000000  0.1666666670000012  0.0988971129999996
  0.5000000000000000  0.1666666670000012  0.1977942270000028
  0.0000000000000000  0.1666666670000012  0.2966913400000024
  0.5000000000000000  0.1666666670000012  0.3955884530000020
  0.0000000000000000  0.1666666670000012  0.4944855660000016
  0.5000000000000000  0.5000000000000000  0.0000000000000000
  0.0000000000000000  0.5000000000000000  0.0988971129999996
  0.5000000000000000  0.5000000000000000  0.1977942270000028
  0.0000000000000000  0.5000000000000000  0.2966913400000024
  0.5000000000000000  0.5000000000000000  0.3955884530000020
  0.0000000000000000  0.5000000000000000  0.4944855660000016
  0.5000000000000000  0.8333333329999988  0.0000000000000000
  0.0000000000000000  0.8333333329999988  0.0988971129999996
  0.5000000000000000  0.8333333329999988  0.1977942270000028
  0.0000000000000000  0.8333333329999988  0.2966913400000024
  0.5000000000000000  0.8333333329999988  0.3955884530000020
  0.0000000000000000  0.8333333329999988  0.4944855660000016
  0.2500000000000000  0.0833333329999988  0.0494485569999981
  0.7500000000000000  0.0833333329999988  0.1483456699999977
  0.2500000000000000  0.0833333329999988  0.2472427829999972
  0.7500000000000000  0.0833333329999988  0.3461398959999968
  0.2500000000000000  0.0833333329999988  0.4450370100000001
  0.2500000000000000  0.4166666670000012  0.0494485569999981
  0.7500000000000000  0.4166666670000012  0.1483456699999977
  0.2500000000000000  0.4166666670000012  0.2472427829999972
  0.7500000000000000  0.4166666670000012  0.3461398959999968
  0.2500000000000000  0.4166666670000012  0.4450370100000001
  0.2500000000000000  0.7500000000000000  0.0494485569999981
  0.7500000000000000  0.7500000000000000  0.1483456699999977
  0.2500000000000000  0.7500000000000000  0.2472427829999972
  0.7500000000000000  0.7500000000000000  0.3461398959999968
  0.2500000000000000  0.7500000000000000  0.4450370100000001
  0.7500000000000000  0.2500000000000000  0.0494485569999981
  0.2500000000000000  0.2500000000000000  0.1483456699999977
  0.7500000000000000  0.2500000000000000  0.2472427829999972
  0.2500000000000000  0.2500000000000000  0.3461398959999968
  0.7500000000000000  0.2500000000000000  0.4450370100000001
  0.7500000000000000  0.5833333329999988  0.0494485569999981
  0.2500000000000000  0.5833333329999988  0.1483456699999977
  0.7500000000000000  0.5833333329999988  0.2472427829999972
  0.2500000000000000  0.5833333329999988  0.3461398959999968
  0.7500000000000000  0.5833333329999988  0.4450370100000001
  0.7500000000000000  0.9166666670000012  0.0494485569999981
  0.2500000000000000  0.9166666670000012  0.1483456699999977
  0.7500000000000000  0.9166666670000012  0.2472427829999972
  0.2500000000000000  0.9166666670000012  0.3461398959999968
  0.7500000000000000  0.9166666670000012  0.4450370100000001
  0.0000000000000000  0.2515337419999994  0.5666732400000001
  0.5000000000000000  0.8765337419999994  0.6389010569999982
  0.0000000000000000  0.5015337419999994  0.7111288750000000
  0.5000000000000000  0.1265337419999994  0.7833566919999981
  0.0000000000000000  0.7515337419999994  0.8555845090000034
  0.5000000000000000  0.3765337419999994  0.9278123260000015
  0.0000000000000000  0.7515337419999994  0.5666732400000001
  0.5000000000000000  0.3765337419999994  0.6389010569999982
  0.0000000000000000  0.0015337419999994  0.7111288750000000
  0.5000000000000000  0.6265337419999994  0.7833566919999981
  0.0000000000000000  0.2515337419999994  0.8555845090000034
  0.5000000000000000  0.8765337419999994  0.9278123260000015
  0.0000000000000000  0.5015337419999994  0.5666732400000001
  0.5000000000000000  0.1265337419999994  0.6389010569999982
  0.0000000000000000  0.7515337419999994  0.7111288750000000
  0.5000000000000000  0.3765337419999994  0.7833566919999981
  0.0000000000000000  0.0015337419999994  0.8555845090000034
  0.5000000000000000  0.6265337419999994  0.9278123260000015
  0.0000000000000000  0.0015337419999994  0.5666732400000001
  0.5000000000000000  0.6265337419999994  0.6389010569999982
  0.0000000000000000  0.2515337419999994  0.7111288750000000
  0.5000000000000000  0.8765337419999994  0.7833566919999981
  0.0000000000000000  0.5015337419999994  0.8555845090000034
  0.5000000000000000  0.1265337419999994  0.9278123260000015
  0.7500000000000000  0.6265337419999994  0.5666732400000001
  0.2500000000000000  0.2515337419999994  0.6389010569999982
  0.7500000000000000  0.8765337419999994  0.7111288750000000
  0.2500000000000000  0.5015337419999994  0.7833566919999981
  0.7500000000000000  0.1265337419999994  0.8555845090000034
  0.2500000000000000  0.7515337419999994  0.9278123260000015
  0.7500000000000000  0.1265337419999994  0.5666732400000001
  0.2500000000000000  0.7515337419999994  0.6389010569999982
  0.7500000000000000  0.3765337419999994  0.7111288750000000
  0.2500000000000000  0.0015337419999994  0.7833566919999981
  0.7500000000000000  0.6265337419999994  0.8555845090000034
  0.2500000000000000  0.2515337419999994  0.9278123260000015
  0.7500000000000000  0.3765337419999994  0.5666732400000001
  0.2500000000000000  0.0015337419999994  0.6389010569999982
  0.7500000000000000  0.6265337419999994  0.7111288750000000
  0.2500000000000000  0.2515337419999994  0.7833566919999981
  0.7500000000000000  0.8765337419999994  0.8555845090000034
  0.2500000000000000  0.5015337419999994  0.9278123260000015
  0.7500000000000000  0.8765337419999994  0.5666732400000001
  0.2500000000000000  0.5015337419999994  0.6389010569999982
  0.7500000000000000  0.1265337419999994  0.7111288750000000
  0.2500000000000000  0.7515337419999994  0.7833566919999981
  0.7500000000000000  0.3765337419999994  0.8555845090000034
  0.2500000000000000  0.0015337419999994  0.9278123260000015
 
  0.00000000E+00  0.00000000E+00  0.00000000E+00
  0.00000000E+00  0.00000000E+00  0.00000000E+00
  0.00000000E+00  0.00000000E+00  0.00000000E+00
  0.00000000E+00  0.00000000E+00  0.00000000E+00
  0.00000000E+00  0.00000000E+00  0.00000000E+00
  0.00000000E+00  0.00000000E+00  0.00000000E+00
  0.00000000E+00  0.00000000E+00  0.00000000E+00
  0.00000000E+00  0.00000000E+00  0.00000000E+00
  0.00000000E+00  0.00000000E+00  0.00000000E+00
  0.00000000E+00  0.00000000E+00  0.00000000E+00
  0.00000000E+00  0.00000000E+00  0.00000000E+00
  0.00000000E+00  0.00000000E+00  0.00000000E+00
  0.00000000E+00  0.00000000E+00  0.00000000E+00
  0.00000000E+00  0.00000000E+00  0.00000000E+00
  0.00000000E+00  0.00000000E+00  0.00000000E+00
  0.00000000E+00  0.00000000E+00  0.00000000E+00
  0.00000000E+00  0.00000000E+00  0.00000000E+00
  0.00000000E+00  0.00000000E+00  0.00000000E+00
  0.00000000E+00  0.00000000E+00  0.00000000E+00
  0.00000000E+00  0.00000000E+00  0.00000000E+00
  0.00000000E+00  0.00000000E+00  0.00000000E+00
  0.00000000E+00  0.00000000E+00  0.00000000E+00
  0.00000000E+00  0.00000000E+00  0.00000000E+00
  0.00000000E+00  0.00000000E+00  0.00000000E+00
  0.00000000E+00  0.00000000E+00  0.00000000E+00
  0.00000000E+00  0.00000000E+00  0.00000000E+00
  0.00000000E+00  0.00000000E+00  0.00000000E+00
  0.00000000E+00  0.00000000E+00  0.00000000E+00
  0.00000000E+00  0.00000000E+00  0.00000000E+00
  0.00000000E+00  0.00000000E+00  0.00000000E+00
  0.00000000E+00  0.00000000E+00  0.00000000E+00
  0.00000000E+00  0.00000000E+00  0.00000000E+00
  0.00000000E+00  0.00000000E+00  0.00000000E+00
  0.00000000E+00  0.00000000E+00  0.00000000E+00
  0.00000000E+00  0.00000000E+00  0.00000000E+00
  0.00000000E+00  0.00000000E+00  0.00000000E+00
  0.00000000E+00  0.00000000E+00  0.00000000E+00
  0.00000000E+00  0.00000000E+00  0.00000000E+00
  0.00000000E+00  0.00000000E+00  0.00000000E+00
  0.00000000E+00  0.00000000E+00  0.00000000E+00
  0.00000000E+00  0.00000000E+00  0.00000000E+00
  0.00000000E+00  0.00000000E+00  0.00000000E+00
  0.00000000E+00  0.00000000E+00  0.00000000E+00
  0.00000000E+00  0.00000000E+00  0.00000000E+00
  0.00000000E+00  0.00000000E+00  0.00000000E+00
  0.00000000E+00  0.00000000E+00  0.00000000E+00
  0.00000000E+00  0.00000000E+00  0.00000000E+00
  0.00000000E+00  0.00000000E+00  0.00000000E+00
  0.00000000E+00  0.00000000E+00  0.00000000E+00
  0.00000000E+00  0.00000000E+00  0.00000000E+00
  0.00000000E+00  0.00000000E+00  0.00000000E+00
  0.00000000E+00  0.00000000E+00  0.00000000E+00
  0.00000000E+00  0.00000000E+00  0.00000000E+00
  0.00000000E+00  0.00000000E+00  0.00000000E+00
  0.00000000E+00  0.00000000E+00  0.00000000E+00
  0.00000000E+00  0.00000000E+00  0.00000000E+00
  0.00000000E+00  0.00000000E+00  0.00000000E+00
  0.00000000E+00  0.00000000E+00  0.00000000E+00
  0.00000000E+00  0.00000000E+00  0.00000000E+00
  0.00000000E+00  0.00000000E+00  0.00000000E+00
  0.00000000E+00  0.00000000E+00  0.00000000E+00
  0.00000000E+00  0.00000000E+00  0.00000000E+00
  0.00000000E+00  0.00000000E+00  0.00000000E+00
  0.00000000E+00  0.00000000E+00  0.00000000E+00
  0.00000000E+00  0.00000000E+00  0.00000000E+00
  0.00000000E+00  0.00000000E+00  0.00000000E+00
  0.00000000E+00  0.00000000E+00  0.00000000E+00
  0.00000000E+00  0.00000000E+00  0.00000000E+00
  0.00000000E+00  0.00000000E+00  0.00000000E+00
  0.00000000E+00  0.00000000E+00  0.00000000E+00
  0.00000000E+00  0.00000000E+00  0.00000000E+00
  0.00000000E+00  0.00000000E+00  0.00000000E+00
  0.00000000E+00  0.00000000E+00  0.00000000E+00
  0.00000000E+00  0.00000000E+00  0.00000000E+00
  0.00000000E+00  0.00000000E+00  0.00000000E+00
  0.00000000E+00  0.00000000E+00  0.00000000E+00
  0.00000000E+00  0.00000000E+00  0.00000000E+00
  0.00000000E+00  0.00000000E+00  0.00000000E+00
  0.00000000E+00  0.00000000E+00  0.00000000E+00
  0.00000000E+00  0.00000000E+00  0.00000000E+00
  0.00000000E+00  0.00000000E+00  0.00000000E+00
  0.00000000E+00  0.00000000E+00  0.00000000E+00
  0.00000000E+00  0.00000000E+00  0.00000000E+00
  0.00000000E+00  0.00000000E+00  0.00000000E+00
  0.00000000E+00  0.00000000E+00  0.00000000E+00
  0.00000000E+00  0.00000000E+00  0.00000000E+00
  0.00000000E+00  0.00000000E+00  0.00000000E+00
  0.00000000E+00  0.00000000E+00  0.00000000E+00
  0.00000000E+00  0.00000000E+00  0.00000000E+00
  0.00000000E+00  0.00000000E+00  0.00000000E+00
  0.00000000E+00  0.00000000E+00  0.00000000E+00
  0.00000000E+00  0.00000000E+00  0.00000000E+00
  0.00000000E+00  0.00000000E+00  0.00000000E+00
  0.00000000E+00  0.00000000E+00  0.00000000E+00
  0.00000000E+00  0.00000000E+00  0.00000000E+00
  0.00000000E+00  0.00000000E+00  0.00000000E+00
  0.00000000E+00  0.00000000E+00  0.00000000E+00
  0.00000000E+00  0.00000000E+00  0.00000000E+00
  0.00000000E+00  0.00000000E+00  0.00000000E+00
  0.00000000E+00  0.00000000E+00  0.00000000E+00
  0.00000000E+00  0.00000000E+00  0.00000000E+00
  0.00000000E+00  0.00000000E+00  0.00000000E+00
  0.00000000E+00  0.00000000E+00  0.00000000E+00
  0.00000000E+00  0.00000000E+00  0.00000000E+00
  0.00000000E+00  0.00000000E+00  0.00000000E+00
  0.00000000E+00  0.00000000E+00  0.00000000E+00
  0.00000000E+00  0.00000000E+00  0.00000000E+00
  0.00000000E+00  0.00000000E+00  0.00000000E+00
  0.00000000E+00  0.00000000E+00  0.00000000E+00
  0.00000000E+00  0.00000000E+00  0.00000000E+00
  0.00000000E+00  0.00000000E+00  0.00000000E+00
  0.00000000E+00  0.00000000E+00  0.00000000E+00
  0.00000000E+00  0.00000000E+00  0.00000000E+00
  0.00000000E+00  0.00000000E+00  0.00000000E+00
