fcc Si+fcc Ge
    1.000000000
    7.749890322    0.000000000    0.000000000
    0.000000000   16.440000000    0.000000000
    0.000000000    0.000000000   20.579120967
Si    Ge   
24     88
Direct
    0.000000000    0.000000000    0.000000000
    0.250000000    0.611111111    0.031382497
    0.500000000    0.222222222    0.062764993
    0.750000000    0.833333333    0.094147490
    0.000000000    0.444444444    0.125529986
    0.250000000    0.055555556    0.156912483
    0.500000000    0.000000000    0.000000000
    0.750000000    0.611111111    0.031382497
    0.000000000    0.222222222    0.062764993
    0.250000000    0.833333333    0.094147490
    0.500000000    0.444444444    0.125529986
    0.750000000    0.055555556    0.156912483
    0.250000000    0.750000000    0.000000000
    0.500000000    0.361111111    0.031382497
    0.750000000    0.972222222    0.062764993
    0.000000000    0.583333333    0.094147490
    0.250000000    0.194444444    0.125529986
    0.500000000    0.805555556    0.156912483
    0.750000000    0.750000000    0.000000000
    0.000000000    0.361111111    0.031382497
    0.250000000    0.972222222    0.062764993
    0.500000000    0.583333333    0.094147490
    0.750000000    0.194444444    0.125529986
    0.000000000    0.805555556    0.156912483
    0.875000000    0.840107362    0.303420198
    0.625000000    0.465107362    0.440938220
    0.375000000    0.090107362    0.578456241
    0.125000000    0.715107362    0.715974263
    0.875000000    0.340107362    0.853492284
    0.375000000    0.090107362    0.303420198
    0.125000000    0.715107362    0.440938220
    0.875000000    0.340107362    0.578456241
    0.625000000    0.965107362    0.715974263
    0.375000000    0.590107362    0.853492284
    0.875000000    0.340107362    0.303420198
    0.625000000    0.965107362    0.440938220
    0.375000000    0.590107362    0.578456241
    0.125000000    0.215107362    0.715974263
    0.875000000    0.840107362    0.853492284
    0.375000000    0.590107362    0.303420198
    0.125000000    0.215107362    0.440938220
    0.875000000    0.840107362    0.578456241
    0.625000000    0.465107362    0.715974263
    0.375000000    0.090107362    0.853492284
    0.875000000    0.090107362    0.303420198
    0.625000000    0.715107362    0.440938220
    0.375000000    0.340107362    0.578456241
    0.125000000    0.965107362    0.715974263
    0.875000000    0.590107362    0.853492284
    0.875000000    0.590107362    0.303420198
    0.625000000    0.215107362    0.440938220
    0.375000000    0.840107362    0.578456241
    0.125000000    0.465107362    0.715974263
    0.875000000    0.090107362    0.853492284
    0.375000000    0.840107362    0.303420198
    0.125000000    0.465107362    0.440938220
    0.875000000    0.090107362    0.578456241
    0.625000000    0.715107362    0.715974263
    0.375000000    0.340107362    0.853492284
    0.375000000    0.340107362    0.303420198
    0.125000000    0.965107362    0.440938220
    0.875000000    0.590107362    0.578456241
    0.625000000    0.215107362    0.715974263
    0.375000000    0.840107362    0.853492284
    0.375000000    0.215107362    0.234661188
    0.125000000    0.840107362    0.372179209
    0.875000000    0.465107362    0.509697231
    0.625000000    0.090107362    0.647215252
    0.375000000    0.715107362    0.784733274
    0.125000000    0.340107362    0.922251295
    0.875000000    0.465107362    0.234661188
    0.625000000    0.090107362    0.372179209
    0.375000000    0.715107362    0.509697231
    0.125000000    0.340107362    0.647215252
    0.875000000    0.965107362    0.784733274
    0.625000000    0.590107362    0.922251295
    0.375000000    0.715107362    0.234661188
    0.125000000    0.340107362    0.372179209
    0.875000000    0.965107362    0.509697231
    0.625000000    0.590107362    0.647215252
    0.375000000    0.215107362    0.784733274
    0.125000000    0.840107362    0.922251295
    0.875000000    0.965107362    0.234661188
    0.625000000    0.590107362    0.372179209
    0.375000000    0.215107362    0.509697231
    0.125000000    0.840107362    0.647215252
    0.875000000    0.465107362    0.784733274
    0.625000000    0.090107362    0.922251295
    0.375000000    0.465107362    0.234661188
    0.125000000    0.090107362    0.372179209
    0.875000000    0.715107362    0.509697231
    0.625000000    0.340107362    0.647215252
    0.375000000    0.965107362    0.784733274
    0.125000000    0.590107362    0.922251295
    0.375000000    0.965107362    0.234661188
    0.125000000    0.590107362    0.372179209
    0.875000000    0.215107362    0.509697231
    0.625000000    0.840107362    0.647215252
    0.375000000    0.465107362    0.784733274
    0.125000000    0.090107362    0.922251295
    0.875000000    0.215107362    0.234661188
    0.625000000    0.840107362    0.372179209
    0.375000000    0.465107362    0.509697231
    0.125000000    0.090107362    0.647215252
    0.875000000    0.715107362    0.784733274
    0.625000000    0.340107362    0.922251295
    0.875000000    0.715107362    0.234661188
    0.625000000    0.340107362    0.372179209
    0.375000000    0.965107362    0.509697231
    0.125000000    0.590107362    0.647215252
    0.875000000    0.215107362    0.784733274
    0.625000000    0.840107362    0.922251295
