Si+C
    1.000000000
   13.303179741    0.000000000    0.000000000
    6.651589394   11.520891190    0.000000000
    0.000000000    0.000000000   17.351547241
Si  C  
72     308
Direct
    0.681493759    0.666666687    0.000000033
    0.014827132    0.666666687    0.180709541
    0.348160505    0.666666687    0.361419082
    0.348160356    0.333333343    0.000000014
    0.681493759    0.333333343    0.180709526
    0.014827251    0.333333343    0.361419082
    0.014827028    0.000000000    0.000000015
    0.348160386    0.000000000    0.180709526
    0.681493878    0.000000000    0.361419082
    0.014827013    0.666666687    0.045177415
    0.348160505    0.666666687    0.225886926
    0.681493878    0.666666687    0.406596482
    0.681493700    0.333333343    0.045177393
    0.014827132    0.333333343    0.225886911
    0.348160625    0.333333343    0.406596482
    0.348160416    0.000000000    0.045177408
    0.681493759    0.000000000    0.225886926
    0.014827251    0.000000000    0.406596512
    0.348160416    0.833333313    0.000000037
    0.681493759    0.833333313    0.180709496
    0.014827251    0.833333313    0.361419082
    0.014827028    0.500000000    0.000000018
    0.348160416    0.500000000    0.180709541
    0.681493819    0.500000000    0.361419082
    0.681493759    0.166666657    0.000000034
    0.014827013    0.166666657    0.180709496
    0.348160505    0.166666657    0.361419082
    0.681493759    0.833333313    0.045177404
    0.014827013    0.833333313    0.225886911
    0.348160505    0.833333313    0.406596482
    0.348160416    0.500000000    0.045177370
    0.681493878    0.500000000    0.225886926
    0.014827251    0.500000000    0.406596482
    0.014827013    0.166666642    0.045177348
    0.348160386    0.166666642    0.225886866
    0.681493878    0.166666642    0.406596482
    0.181493685    0.666666687    0.000000000
    0.514827073    0.666666687    0.180709496
    0.848160565    0.666666687    0.361419082
    0.848160446    0.333333343    0.000000015
    0.181493759    0.333333343    0.180709526
    0.514827132    0.333333343    0.361419052
    0.514827013    0.000000000    0.000000015
    0.848160446    0.000000000    0.180709526
    0.181493878    0.000000000    0.361419082
    0.514827013    0.666666746    0.045177322
    0.848160505    0.666666746    0.225886911
    0.181493878    0.666666746    0.406596422
    0.181493655    0.333333313    0.045177348
    0.514827073    0.333333313    0.225886881
    0.848160446    0.333333313    0.406596363
    0.848160386    1.000000000    0.045177329
    0.181493878    1.000000000    0.225886911
    0.514827251    1.000000000    0.406596422
    0.848160446    0.833333373    0.000000046
    0.181493759    0.833333373    0.180709526
    0.514827251    0.833333373    0.361419052
    0.514827073    0.500000000    0.000000023
    0.848160386    0.500000000    0.180709496
    0.181493878    0.500000000    0.361419082
    0.181493700    0.166666672    0.000000012
    0.514827073    0.166666672    0.180709526
    0.848160505    0.166666672    0.361419082
    0.181493655    0.833333433    0.045177393
    0.514827013    0.833333433    0.225886911
    0.848160446    0.833333433    0.406596512
    0.848160386    0.500000060    0.045177393
    0.181493759    0.500000060    0.225886881
    0.514827251    0.500000060    0.406596482
    0.514827013    0.166666657    0.045177393
    0.848160386    0.166666657    0.225886911
    0.181493878    0.166666657    0.406596512
    0.400794268    0.519840539    1.000000000
    0.019841351    0.996031702    0.406596541
    0.496032000    0.900793493    0.525277317
    0.972222447    0.805555344    0.643957913
    0.448413134    0.710317135    0.762638569
    0.924603701    0.615078926    0.881319344
    0.686508656    0.662697792    1.000000000
    0.305555642    0.138888866    0.406596541
    0.781746268    0.043650623    0.525277197
    0.257936716    0.948412478    0.643957913
    0.734127402    0.853174210    0.762638569
    0.210318089    0.757936001    0.881319344
    0.972222805    0.805554807    1.000000000
    0.591269910    0.281745970    0.406596541
    0.067460537    0.186507761    0.525277197
    0.543651104    0.091269568    0.643957913
    0.019841671    0.996031284    0.762638569
    0.496032476    0.900793135    0.881319344
    0.257937193    0.948412001    1.000000000
    0.876984179    0.424603164    0.406596541
    0.353174686    0.329364985    0.525277197
    0.829365373    0.234126702    0.643957913
    0.305555820    0.138888523    0.762638569
    0.781746626    0.043650284    0.881319344
    0.543651342    0.091269210    1.000000000
    0.162698492    0.567460299    0.406596541
    0.638889134    0.472222030    0.525277197
    0.115079641    0.376983821    0.643957913
    0.591270328    0.281745523    0.762638569
    0.067461014    0.186507374    0.881319344
    0.829365730    0.234126329    1.000000000
    0.448412776    0.710317433    0.406596541
    0.924603283    0.615079224    0.525277197
    0.400793910    0.519840956    0.643957913
    0.876984358    0.424602777    0.762638569
    0.353175163    0.329364449    0.881319344
    0.115079880    0.376983464    1.000000000
    0.734127045    0.853174508    0.406596541
    0.210317612    0.757936239    0.525277317
    0.686508179    0.662698090    0.643957913
    0.162698746    0.567459881    0.762638569
    0.638889551    0.472221643    0.881319344
    0.781746268    0.043650769    0.436266720
    0.257936716    0.948412538    0.554947376
    0.734127402    0.853174329    0.673628151
    0.210318089    0.757936120    0.792308867
    0.686508656    0.662697911    0.910989583
    0.067460418    0.186507925    0.436266780
    0.543650985    0.091269702    0.554947376
    0.019841671    0.996031404    0.673628151
    0.496032238    0.900793254    0.792308867
    0.972222805    0.805554986    0.910989583
    0.353174746    0.329365045    0.436266720
    0.829365253    0.234126836    0.554947376
    0.305555940    0.138888583    0.673628151
    0.781746626    0.043650284    0.792308807
    0.257937193    0.948412180    0.910989583
    0.638889015    0.472222149    0.436266720
    0.115079522    0.376983911    0.554947376
    0.591270208    0.281745732    0.673628151
    0.067461014    0.186507538    0.792308807
    0.543651581    0.091269180    0.910989583
    0.924603224    0.615079284    0.436266720
    0.400793791    0.519841015    0.554947376
    0.876984239    0.424602836    0.673628151
    0.353175163    0.329364508    0.792308748
    0.829365730    0.234126434    0.910989463
    0.210317701    0.757936418    0.436266720
    0.686508238    0.662698209    0.554947376
    0.162698865    0.567459881    0.673628151
    0.638889551    0.472221762    0.792308867
    0.115080118    0.376983464    0.910989583
    0.496031880    0.900793612    0.436266720
    0.972222388    0.805555403    0.554947376
    0.448412895    0.710317194    0.673628151
    0.924603581    0.615078926    0.792308807
    0.400794268    0.519840717    0.910989583
    0.900794268    0.519840598    1.000000000
    0.519841313    0.996031702    0.406596541
    0.996031940    0.900793433    0.525277317
    0.472222447    0.805555284    0.643957913
    0.948413134    0.710317016    0.762638688
    0.424603701    0.615078866    0.881319344
    0.186508656    0.662697673    1.000000000
    0.805555582    0.138888896    0.406596541
    0.281746149    0.043650657    0.525277317
    0.757936597    0.948412418    0.643957913
    0.234127283    0.853174210    0.762638688
    0.710317850    0.757936001    0.881319344
    0.472222805    0.805555046    1.000000000
    0.091269918    0.281746000    0.406596541
    0.567460537    0.186507747    0.525277317
    0.043650985    0.091269575    0.643957913
    0.519841671    0.996031344    0.762638688
    0.996032476    0.900793135    0.881319344
    0.757937193    0.948412061    1.000000000
    0.376984179    0.424603134    0.406596541
    0.853174806    0.329364896    0.525277317
    0.329365373    0.234126657    0.643957913
    0.805555940    0.138888419    0.762638688
    0.281746626    0.043650296    0.881319344
    0.043651581    0.091269128    1.000000000
    0.662698507    0.567460239    0.406596541
    0.138889074    0.472222060    0.525277197
    0.615079641    0.376983792    0.643957913
    0.091270208    0.281745613    0.762638569
    0.567461014    0.186507434    0.881319344
    0.329365730    0.234126329    1.000000000
    0.948412836    0.710317314    0.406596541
    0.424603343    0.615079105    0.525277197
    0.900793910    0.519840896    0.643957913
    0.376984596    0.424602687    0.762638688
    0.853175163    0.329364508    0.881319344
    0.615080118    0.376983553    1.000000000
    0.234127104    0.853174567    0.406596541
    0.710317612    0.757936358    0.525277197
    0.186508298    0.662698090    0.643957913
    0.662698746    0.567459881    0.762638569
    0.138889313    0.472221613    0.881319344
    0.281746089    0.043650769    0.436266720
    0.757936656    0.948412538    0.554947376
    0.234127164    0.853174329    0.673628151
    0.710317850    0.757936060    0.792308807
    0.186508656    0.662697792    0.910989583
    0.567460477    0.186507910    0.436266720
    0.043651104    0.091269650    0.554947376
    0.519841552    0.996031463    0.673628151
    0.996032238    0.900793195    0.792308748
    0.472223043    0.805554986    0.910989583
    0.853174567    0.329364955    0.436266720
    0.329365253    0.234126717    0.554947376
    0.805555701    0.138888523    0.673628151
    0.281746387    0.043650337    0.792308867
    0.757937193    0.948412120    0.910989583
    0.138889030    0.472222179    0.436266720
    0.615079641    0.376983941    0.554947376
    0.091270089    0.281745702    0.673628151
    0.567460775    0.186507493    0.792308748
    0.043651581    0.091269374    0.910989583
    0.424603313    0.615079284    0.436266720
    0.900793910    0.519841075    0.554947376
    0.376984358    0.424602777    0.673628151
    0.853175044    0.329364628    0.792308807
    0.329365730    0.234126329    0.910989583
    0.710317552    0.757936418    0.436266720
    0.186508179    0.662698209    0.554947376
    0.662698627    0.567460060    0.673628151
    0.138889551    0.472221762    0.792308748
    0.615080118    0.376983583    0.910989583
    0.996032000    0.900793552    0.436266661
    0.472222567    0.805555463    0.554947376
    0.948413134    0.710317194    0.673627973
    0.424603939    0.615078926    0.792308748
    0.900794506    0.519840777    0.910989583
    0.043651581    0.591269135    1.000000000
    0.662698448    0.067460284    0.406596601
    0.138889074    0.972222090    0.525277317
    0.615079403    0.876983881    0.643957913
    0.091270208    0.781745672    0.762638688
    0.567460775    0.686507404    0.881319344
    0.329365969    0.734126329    1.000000000
    0.948412836    0.210317403    0.406596541
    0.424603343    0.115079232    0.525277197
    0.900794029    0.019840959    0.643957853
    0.376984596    0.924602747    0.762638569
    0.853175402    0.829364538    0.881319344
    0.615079880    0.876983464    1.000000000
    0.234127074    0.353174537    0.406596541
    0.710317731    0.257936329    0.525277197
    0.186508179    0.162698120    0.643957913
    0.662698865    0.067459874    0.762638569
    0.138889551    0.972221673    0.881319344
    0.900794268    0.019840600    1.000000000
    0.519841313    0.496031702    0.406596541
    0.996031821    0.400793493    0.525277197
    0.472222567    0.305555314    0.643957913
    0.948413014    0.210317075    0.762638569
    0.424603701    0.115078710    0.881319344
    0.186508417    0.162697792    1.000000000
    0.805555582    0.638888836    0.406596541
    0.281746149    0.543650627    0.525277197
    0.757936835    0.448412418    0.643957913
    0.234127283    0.353174090    0.762638688
    0.710318089    0.257935971    0.881319344
    0.472223043    0.305554718    1.000000000
    0.091269933    0.781745970    0.406596541
    0.567460537    0.686507702    0.525277197
    0.043651223    0.591269493    0.643957913
    0.519841552    0.496031344    0.762638569
    0.996032357    0.400793016    0.881319344
    0.757937193    0.448411971    1.000000000
    0.376984239    0.924603105    0.406596541
    0.853174865    0.829364896    0.525277197
    0.329365373    0.734126687    0.643957913
    0.805556059    0.638888359    0.762638569
    0.281746626    0.543650210    0.881319344
    0.424603313    0.115079321    0.436266720
    0.900793910    0.019841051    0.554947376
    0.376984477    0.924602926    0.673628151
    0.853175044    0.829364657    0.792308807
    0.329365730    0.734126449    0.910989583
    0.710317552    0.257936418    0.436266720
    0.186508179    0.162698239    0.554947376
    0.662698627    0.067460045    0.673628151
    0.138889313    0.972221792    0.792308867
    0.615079880    0.876983523    0.910989583
    0.996031702    0.400793672    0.436266720
    0.472222328    0.305555403    0.554947376
    0.948412776    0.210317120    0.673628151
    0.424603462    0.115079001    0.792308748
    0.900794029    0.019840758    0.910989583
    0.281746089    0.543650746    0.436266720
    0.757936656    0.448412538    0.554947376
    0.234127164    0.353174329    0.673628151
    0.710317969    0.257936031    0.792308807
    0.186508656    0.162697792    0.910989583
    0.567460358    0.686507821    0.436266720
    0.043650985    0.591269612    0.554947376
    0.519841433    0.496031374    0.673628151
    0.996032119    0.400793225    0.792308748
    0.472222805    0.305554926    0.910989583
    0.853174627    0.829365015    0.436266720
    0.329365253    0.734126806    0.554947436
    0.805555701    0.638888657    0.673628151
    0.281746626    0.543650270    0.792308748
    0.757937193    0.448412120    0.910989583
    0.138889015    0.972222269    0.436266720
    0.615079582    0.876984000    0.554947376
    0.091270089    0.781745791    0.673628151
    0.567460775    0.686507523    0.792308748
    0.043651581    0.591269255    0.910989583
    0.543651342    0.591269255    1.000000000
    0.162698492    0.067460291    0.406596541
    0.638889134    0.972222030    0.525277317
    0.115079641    0.876983881    0.643957913
    0.591270328    0.781745672    0.762638569
    0.067461014    0.686507463    0.881319284
    0.829365730    0.734126210    1.000000000
    0.448412746    0.210317433    0.406596601
    0.924603343    0.115079194    0.525277317
    0.400793910    0.019840972    0.643957913
    0.876984596    0.924602807    0.762638569
    0.353175163    0.829364598    0.881319344
    0.115080118    0.876983464    1.000000000
    0.734127045    0.353174567    0.406596541
    0.210317612    0.257936388    0.525277197
    0.686508298    0.162698135    0.643957913
    0.162698746    0.067459933    0.762638569
    0.638889551    0.972221673    0.881319344
    0.400794268    0.019840609    1.000000000
    0.019841354    0.496031702    0.406596541
    0.496031970    0.400793463    0.525277317
    0.972222507    0.305555224    0.643957913
    0.448413134    0.210317045    0.762638569
    0.924603820    0.115078844    0.881319344
    0.686508656    0.162697673    1.000000000
    0.305555642    0.638888836    0.406596541
    0.781746149    0.543650568    0.525277197
    0.257936835    0.448412389    0.643957913
    0.734127402    0.353174150    0.762638569
    0.210318089    0.257935911    0.881319344
    0.972222805    0.305554807    0.999999821
    0.591269910    0.781745911    0.406596541
    0.067460418    0.686507702    0.525277197
    0.543651104    0.591269493    0.643957913
    0.019841671    0.496031255    0.762638569
    0.496032238    0.400792986    0.881319344
    0.257937193    0.448412001    1.000000238
    0.876984358    0.924603105    0.406596601
    0.353174806    0.829364896    0.525277197
    0.829365492    0.734126687    0.643957973
    0.305556297    0.638888478    0.762638688
    0.781746864    0.543650091    0.881319344
    0.924603343    0.115079336    0.436266720
    0.400793910    0.019841133    0.554947376
    0.876984596    0.924602866    0.673628151
    0.353175163    0.829364717    0.792308867
    0.829365730    0.734126329    0.910989583
    0.210317567    0.257936478    0.436266720
    0.686508060    0.162698254    0.554947376
    0.162698746    0.067460015    0.673628211
    0.638889551    0.972221792    0.792308807
    0.115080118    0.876983643    0.910989583
    0.496031851    0.400793552    0.436266720
    0.972222328    0.305555433    0.554947376
    0.448413014    0.210317120    0.673628151
    0.924603701    0.115078881    0.792308867
    0.400794268    0.019840645    0.910989583
    0.781746209    0.543650687    0.436266720
    0.257936716    0.448412508    0.554947376
    0.734127402    0.353174239    0.673628151
    0.210318089    0.257935941    0.792308867
    0.686508656    0.162697777    0.910989583
    0.067460299    0.686507821    0.436266720
    0.543650866    0.591269612    0.554947376
    0.019841671    0.496031404    0.673628151
    0.496032238    0.400793105    0.792308807
    0.972222805    0.305554926    0.910989583
    0.353174716    0.829364955    0.436266720
    0.829365194    0.734126806    0.554947376
    0.305555940    0.638888538    0.673628151
    0.781746626    0.543650270    0.792308867
    0.257937431    0.448412180    0.910989583
    0.638888896    0.972222149    0.436266720
    0.115079403    0.876983941    0.554947376
    0.591270089    0.781745732    0.673628211
    0.067460775    0.686507463    0.792308807
    0.543651342    0.591269255    0.910989583
