Si+C
    1.000000000
   13.303179741    0.000000000    0.000000000
   -6.651589394   14.873406410    0.000000000
    0.000000000    0.000000000    7.204130173
Si  C  
36     84
Direct
    0.997150958    0.980056584    0.000000000
    0.963817537    0.746723175    0.168571264
    0.930484116    0.513389826    0.337142527
    0.330484211    0.313389868    0.000000000
    0.297150791    0.080056474    0.168571264
    0.263817370    0.846723080    0.337142527
    0.663817465    0.646723151    0.000000000
    0.630484045    0.413389713    0.168571264
    0.597150624    0.180056334    0.337142527
    0.313817531    0.946723342    0.084285460
    0.280484110    0.713389993    0.252856731
    0.247150689    0.480056584    0.421427876
    0.647150815    0.280056566    0.084285460
    0.613817394    0.046723194    0.252856672
    0.580483973    0.813389778    0.421427935
    0.980484426    0.613389850    0.084285483
    0.947151005    0.380056471    0.252856672
    0.913817585    0.146723092    0.421427876
    0.163817570    0.646723092    0.000000002
    0.130484164    0.413389713    0.168571264
    0.097150750    0.180056319    0.337142527
    0.497150898    0.980056643    0.000000006
    0.463817418    0.746723175    0.168571189
    0.430484056    0.513389826    0.337142438
    0.830484152    0.313389868    0.000000006
    0.797150731    0.080056526    0.168571189
    0.763817310    0.846723080    0.337142438
    0.147150904    0.280056566    0.084285468
    0.113817483    0.046723165    0.252856731
    0.080484070    0.813389778    0.421427935
    0.480484217    0.613389909    0.084285468
    0.447150826    0.380056530    0.252856672
    0.413817406    0.146723166    0.421427935
    0.813817501    0.946723282    0.084285460
    0.780484140    0.713389874    0.252856672
    0.747150719    0.480056465    0.421427935
    0.932329834    0.962914050    0.793745518
    0.303758264    0.991485596    0.572327852
    0.618044078    0.977199912    0.683036745
    0.075186968    0.820056856    0.793745637
    0.446615368    0.848628461    0.572327852
    0.760901153    0.834342659    0.683036745
    0.218044043    0.677199781    0.793745518
    0.589472532    0.705771327    0.572327852
    0.903758347    0.691485584    0.683036745
    0.360901237    0.534342647    0.793745518
    0.732329726    0.562914193    0.572327852
    0.046615601    0.548628390    0.683036745
    0.503758311    0.391485512    0.793745518
    0.875186861    0.420057058    0.572327852
    0.189472675    0.405771315    0.683036745
    0.646615505    0.248628348    0.793745518
    0.018043995    0.277199924    0.572327852
    0.332329750    0.262914151    0.683036745
    0.789472699    0.105771184    0.793745577
    0.160901129    0.134342790    0.572327852
    0.475186914    0.120056987    0.683036745
    0.482329726    0.062914133    0.849099815
    0.853758097    0.091485620    0.627682149
    0.168043971    0.077199936    0.738391042
    0.625186801    0.920056880    0.849099815
    0.996615171    0.948628426    0.627682149
    0.310900927    0.934342623    0.738391042
    0.768044114    0.777199805    0.849099815
    0.139472485    0.805771291    0.627682149
    0.453758359    0.791485608    0.738391042
    0.910901189    0.634342730    0.849099815
    0.282329559    0.662914217    0.627682149
    0.596615434    0.648628473    0.738391042
    0.053758144    0.491485536    0.849099874
    0.425186664    0.520057082    0.627682209
    0.739472449    0.505771339    0.738391042
    0.196615458    0.348628342    0.849099874
    0.568043947    0.377199948    0.627682149
    0.882329702    0.362914145    0.738391042
    0.339472651    0.205771267    0.849099874
    0.710901022    0.234342799    0.627682149
    0.025186777    0.220057040    0.738391042
    0.432329893    0.962914050    0.793745637
    0.803758323    0.991485715    0.572327852
    0.118044138    0.977199852    0.683036745
    0.575187087    0.820056856    0.793745637
    0.946615577    0.848628521    0.572327852
    0.260901213    0.834342659    0.683036745
    0.718044281    0.677199721    0.793745637
    0.089472651    0.705771387    0.572327852
    0.403758407    0.691485584    0.683036745
    0.860901296    0.534342706    0.793745637
    0.232329726    0.562914252    0.572327852
    0.546615541    0.548628449    0.683036745
    0.003758430    0.391485453    0.793745518
    0.375186861    0.420057058    0.572327852
    0.689472675    0.405771255    0.683036745
    0.146615505    0.248628348    0.793745518
    0.518043995    0.277199924    0.572327852
    0.832329810    0.262914121    0.683036745
    0.289472699    0.105771184    0.793745518
    0.660901129    0.134342790    0.572327852
    0.975186944    0.120056987    0.683036745
    0.982329667    0.062914133    0.849099815
    0.353758156    0.091485620    0.627682209
    0.668043911    0.077199817    0.738391042
    0.125186682    0.920056999    0.849099815
    0.496615261    0.948628545    0.627682209
    0.810900986    0.934342742    0.738391042
    0.268043995    0.777199805    0.849099815
    0.639472485    0.805771291    0.627682209
    0.953758299    0.791485548    0.738391042
    0.410901189    0.634342611    0.849099815
    0.782329619    0.662914157    0.627682209
    0.096615314    0.648628354    0.738391042
    0.553758264    0.491485536    0.849099815
    0.925186634    0.520057023    0.627682209
    0.239472508    0.505771279    0.738391042
    0.696615577    0.348628372    0.849100053
    0.068043947    0.377199948    0.627682149
    0.382329702    0.362914175    0.738391042
    0.839472651    0.205771282    0.849099815
    0.210901022    0.234342784    0.627682209
    0.525186896    0.220057070    0.738391042
