Sn+Ge                                   
   1.00000000000000     
    12.9784002300000001    0.0000000000000000    0.0000000000000000
   -12.9784002300000001   14.5102930069999996    0.0000000000000000
     0.0000000000000000    0.0000000000000000    8.9917173389999991
   Sn   Ge
    24    24
Direct
  0.4743584989999974  0.9743584989999974  0.0000000000000000
  0.1743583530000024  0.6743584279999979  0.1613740029999988
  0.8743582959999969  0.3743583560000019  0.3227480349999965
  0.9743584989999974  0.9743584989999974  0.0000000000000000
  0.6743583680000000  0.6743584279999979  0.1613740029999988
  0.3743582959999969  0.3743583560000019  0.3227480349999965
  0.6993584630000029  0.3243584929999983  0.0806868519999995
  0.3993583620000010  0.0243584460000008  0.2420608549999983
  0.0993583200000003  0.7243584389999995  0.4034348429999994
  0.1993584780000006  0.3243584929999983  0.0806868519999995
  0.8993583920000034  0.0243584460000008  0.2420608549999983
  0.5993583200000003  0.7243584389999995  0.4034348429999994
  0.7243584389999995  0.4743584989999974  0.0000000160000013
  0.4243583379999976  0.1743583980000025  0.1613740179999965
  0.1243581920000025  0.8743582959999969  0.3227480349999965
  0.2243584690000020  0.4743584989999974  0.0000000160000013
  0.9243583680000000  0.1743583980000025  0.1613740179999965
  0.6243582370000027  0.8743582959999969  0.3227480349999965
  0.9493585820000021  0.8243585820000021  0.0806868600000001
  0.6493585110000026  0.5243585710000005  0.2420608250000029
  0.3493583799999982  0.2243584989999974  0.4034348429999994
  0.4493587910000016  0.8243585820000021  0.0806868600000001
  0.1493586449999995  0.5243585710000005  0.2420608250000029
  0.8493585590000023  0.2243584989999974  0.4034348429999994
  0.3295963999999998  0.3520510199999975  0.5581170920000034
  0.2129297259999987  0.9353843330000018  0.6155571939999973
  0.0962629320000019  0.5187175869999976  0.6729973549999997
  0.9795960780000001  0.1020507810000026  0.7304376359999978
  0.8629294039999991  0.6853842140000026  0.7878776189999996
  0.7462625499999973  0.2687172890000014  0.8453178409999964
  0.8295963999999998  0.6020510199999975  0.5581170920000034
  0.7129296060000030  0.1853842740000005  0.6155571939999973
  0.5962628719999969  0.7687175869999976  0.6729974149999975
  0.4795960780000001  0.3520507810000026  0.7304373979999994
  0.3629293440000012  0.9353840950000034  0.7878775599999983
  0.2462626700000001  0.5187172290000035  0.8453177210000007
  0.8295963999999998  0.8520510199999975  0.5581171509999976
  0.7129296060000030  0.4353842740000005  0.6155571939999973
  0.5962628130000027  0.0187175269999997  0.6729974149999975
  0.4795961080000026  0.6020507810000026  0.7304375169999986
  0.3629294039999991  0.1853840349999984  0.7878775599999983
  0.2462625499999973  0.7687171099999972  0.8453177809999985
  0.3295962810000006  0.1020510199999975  0.5581171509999976
  0.2129296060000030  0.6853842740000005  0.6155572529999986
  0.0962629320000019  0.2687175269999997  0.6729974149999975
  0.9795960780000001  0.8520507810000026  0.7304375169999986
  0.8629293440000012  0.4353840349999984  0.7878776189999996
  0.7462625499999973  0.0187170510000030  0.8453178409999964
 
  0.00000000E+00  0.00000000E+00  0.00000000E+00
  0.00000000E+00  0.00000000E+00  0.00000000E+00
  0.00000000E+00  0.00000000E+00  0.00000000E+00
  0.00000000E+00  0.00000000E+00  0.00000000E+00
  0.00000000E+00  0.00000000E+00  0.00000000E+00
  0.00000000E+00  0.00000000E+00  0.00000000E+00
  0.00000000E+00  0.00000000E+00  0.00000000E+00
  0.00000000E+00  0.00000000E+00  0.00000000E+00
  0.00000000E+00  0.00000000E+00  0.00000000E+00
  0.00000000E+00  0.00000000E+00  0.00000000E+00
  0.00000000E+00  0.00000000E+00  0.00000000E+00
  0.00000000E+00  0.00000000E+00  0.00000000E+00
  0.00000000E+00  0.00000000E+00  0.00000000E+00
  0.00000000E+00  0.00000000E+00  0.00000000E+00
  0.00000000E+00  0.00000000E+00  0.00000000E+00
  0.00000000E+00  0.00000000E+00  0.00000000E+00
  0.00000000E+00  0.00000000E+00  0.00000000E+00
  0.00000000E+00  0.00000000E+00  0.00000000E+00
  0.00000000E+00  0.00000000E+00  0.00000000E+00
  0.00000000E+00  0.00000000E+00  0.00000000E+00
  0.00000000E+00  0.00000000E+00  0.00000000E+00
  0.00000000E+00  0.00000000E+00  0.00000000E+00
  0.00000000E+00  0.00000000E+00  0.00000000E+00
  0.00000000E+00  0.00000000E+00  0.00000000E+00
  0.00000000E+00  0.00000000E+00  0.00000000E+00
  0.00000000E+00  0.00000000E+00  0.00000000E+00
  0.00000000E+00  0.00000000E+00  0.00000000E+00
  0.00000000E+00  0.00000000E+00  0.00000000E+00
  0.00000000E+00  0.00000000E+00  0.00000000E+00
  0.00000000E+00  0.00000000E+00  0.00000000E+00
  0.00000000E+00  0.00000000E+00  0.00000000E+00
  0.00000000E+00  0.00000000E+00  0.00000000E+00
  0.00000000E+00  0.00000000E+00  0.00000000E+00
  0.00000000E+00  0.00000000E+00  0.00000000E+00
  0.00000000E+00  0.00000000E+00  0.00000000E+00
  0.00000000E+00  0.00000000E+00  0.00000000E+00
  0.00000000E+00  0.00000000E+00  0.00000000E+00
  0.00000000E+00  0.00000000E+00  0.00000000E+00
  0.00000000E+00  0.00000000E+00  0.00000000E+00
  0.00000000E+00  0.00000000E+00  0.00000000E+00
  0.00000000E+00  0.00000000E+00  0.00000000E+00
  0.00000000E+00  0.00000000E+00  0.00000000E+00
  0.00000000E+00  0.00000000E+00  0.00000000E+00
  0.00000000E+00  0.00000000E+00  0.00000000E+00
  0.00000000E+00  0.00000000E+00  0.00000000E+00
  0.00000000E+00  0.00000000E+00  0.00000000E+00
  0.00000000E+00  0.00000000E+00  0.00000000E+00
  0.00000000E+00  0.00000000E+00  0.00000000E+00
