Ge+Sn                                   
   1.00000000000000     
    11.3156003950000006    0.0000000000000000    0.0000000000000000
   -11.3156003950000006   16.0026760099999983    0.0000000000000000
     0.0000000000000000    0.0000000000000000   25.6042194370000011
   Ge   Sn
    96    72
Direct
  0.4690677230000020  0.9896892309999998  0.0000000169999979
  0.0940677079999972  0.8646892309999998  0.0781252089999995
  0.7190676330000016  0.7396892309999998  0.1562504170000025
  0.3440676929999995  0.6146892309999998  0.2343755810000019
  0.9690678119999987  0.4896892909999977  0.3125007749999966
  0.5940676929999995  0.3646892309999998  0.3906259829999996
  0.9690676929999995  0.9896892309999998  0.0000000169999979
  0.5940676929999995  0.8646892309999998  0.0781252089999995
  0.2190676330000016  0.7396892309999998  0.1562504170000025
  0.8440676929999995  0.6146892309999998  0.2343755810000019
  0.4690678119999987  0.4896892909999977  0.3125007749999966
  0.0940676929999995  0.3646892309999998  0.3906259829999996
  0.4690676929999995  0.4896892309999998  0.0000000089999972
  0.0940676999999965  0.3646892309999998  0.0781252089999995
  0.7190675740000003  0.2396892160000021  0.1562504170000025
  0.3440676929999995  0.1146892309999998  0.2343755810000019
  0.9690678119999987  0.9896892309999998  0.3125007749999966
  0.5940676929999995  0.8646892309999998  0.3906259829999996
  0.9690676929999995  0.4896892309999998  0.0000000089999972
  0.5940676929999995  0.3646892309999998  0.0781252089999995
  0.2190675740000003  0.2396892160000021  0.1562504170000025
  0.8440676929999995  0.1146892309999998  0.2343755810000019
  0.4690676929999995  0.9896892309999998  0.3125007749999966
  0.0940675740000003  0.8646892309999998  0.3906259829999996
  0.7190676929999995  0.2396892309999998  0.0000000169999979
  0.3440676629999970  0.1146892309999998  0.0781252089999995
  0.9690675740000003  0.9896892309999998  0.1562504170000025
  0.5940676929999995  0.8646892309999998  0.2343755810000019
  0.2190676929999995  0.7396892309999998  0.3125007749999966
  0.8440675740000003  0.6146892309999998  0.3906259829999996
  0.2190676780000018  0.2396892309999998  0.0000000169999979
  0.8440676929999995  0.1146892309999998  0.0781252089999995
  0.4690676330000016  0.9896892309999998  0.1562504170000025
  0.0940676929999995  0.8646892309999998  0.2343755810000019
  0.7190678119999987  0.7396892309999998  0.3125007749999966
  0.3440676929999995  0.6146892309999998  0.3906259829999996
  0.7190676330000016  0.7396892309999998  0.0000000209999982
  0.3440676629999970  0.6146892309999998  0.0781252239999972
  0.9690675740000003  0.4896892009999974  0.1562504320000002
  0.5940676330000016  0.3646892309999998  0.2343756109999973
  0.2190676929999995  0.2396892459999975  0.3125008049999991
  0.8440676929999995  0.1146892309999998  0.3906259829999996
  0.2190676929999995  0.7396892309999998  0.0000000209999982
  0.8440676929999995  0.6146892309999998  0.0781252239999972
  0.4690675740000003  0.4896892009999974  0.1562504320000002
  0.0940676929999995  0.3646892309999998  0.2343756109999973
  0.7190676929999995  0.2396892459999975  0.3125008049999991
  0.3440675740000003  0.1146892309999998  0.3906259829999996
  0.4690676629999970  0.3646892309999998  0.0000000160000013
  0.0940676929999995  0.2396892309999998  0.0781252159999966
  0.7190676330000016  0.1146892089999980  0.1562504320000002
  0.3440676929999995  0.9896892309999998  0.2343756109999973
  0.9690678119999987  0.8646892309999998  0.3125007749999966
  0.5940676929999995  0.7396892309999998  0.3906259829999996
  0.9690676929999995  0.3646892309999998  0.0000000160000013
  0.5940676929999995  0.2396892309999998  0.0781252159999966
  0.2190676330000016  0.1146892089999980  0.1562504320000002
  0.8440676929999995  0.9896892309999998  0.2343756109999973
  0.4690678119999987  0.8646892309999998  0.3125007749999966
  0.0940676929999995  0.7396892309999998  0.3906259829999996
  0.4690677520000008  0.8646892909999977  0.0000000000000000
  0.0940677370000031  0.7396892909999977  0.0781252089999995
  0.7190676929999995  0.6146892909999977  0.1562504019999977
  0.3440676929999995  0.4896892909999977  0.2343755810000019
  0.9690678119999987  0.3646892909999977  0.3125007749999966
  0.5940676929999995  0.2396892909999977  0.3906259540000008
  0.9690676929999995  0.8646892909999977  0.0000000000000000
  0.5940675740000003  0.7396892909999977  0.0781252089999995
  0.2190675740000003  0.6146892909999977  0.1562504019999977
  0.8440675740000003  0.4896892909999977  0.2343755810000019
  0.4690675740000003  0.3646892909999977  0.3125007749999966
  0.0940676929999995  0.2396892909999977  0.3906259540000008
  0.7190676929999995  0.1146892229999992  0.0000000169999979
  0.3440676629999970  0.9896892309999998  0.0781252089999995
  0.9690676330000016  0.8646892309999998  0.1562504170000025
  0.5940676929999995  0.7396892309999998  0.2343756109999973
  0.2190676929999995  0.6146892309999998  0.3125007749999966
  0.8440676929999995  0.4896892309999998  0.3906259829999996
  0.2190676780000018  0.1146892229999992  0.0000000169999979
  0.8440676929999995  0.9896892309999998  0.0781252089999995
  0.4690676330000016  0.8646892309999998  0.1562504170000025
  0.0940676929999995  0.7396892309999998  0.2343756109999973
  0.7190678119999987  0.6146892309999998  0.3125007749999966
  0.3440676929999995  0.4896892309999998  0.3906259829999996
  0.7190676929999995  0.6146892309999998  0.0000000149999977
  0.3440676929999995  0.4896892309999998  0.0781252159999966
  0.9690676330000016  0.3646892309999998  0.1562504170000025
  0.5940676929999995  0.2396892309999998  0.2343756109999973
  0.2190677520000008  0.1146892530000017  0.3125007749999966
  0.8440675740000003  0.9896892309999998  0.3906259829999996
  0.2190677230000020  0.6146892309999998  0.0000000149999977
  0.8440676929999995  0.4896892309999998  0.0781252159999966
  0.4690676330000016  0.3646892309999998  0.1562504170000025
  0.0940676929999995  0.2396892309999998  0.2343756109999973
  0.7190678119999987  0.1146892530000017  0.3125007749999966
  0.3440676929999995  0.9896892309999998  0.3906259829999996
  0.5120271440000010  0.2641334529999995  0.4712992010000008
  0.7620271440000010  0.5141334529999995  0.5609046820000003
  0.0120273830000031  0.7641336920000015  0.6505102519999966
  0.2620276210000014  0.0141338110000007  0.7401157620000021
  0.5120275020000022  0.2641338110000007  0.8297212720000005
  0.7620276210000014  0.5141339299999999  0.9193268419999967
  0.1786938010000014  0.5974667070000024  0.4712992010000008
  0.4286938309999968  0.8474668260000016  0.5609047410000016
  0.6786940690000023  0.0974669459999973  0.6505102519999966
  0.9286942479999993  0.3474670650000036  0.7401158210000034
  0.1786942629999970  0.5974671840000028  0.8297212720000005
  0.4286943669999985  0.8474673030000019  0.9193268419999967
  0.8453605179999997  0.9308000799999974  0.4712992010000008
  0.0953606369999989  0.1808002000000002  0.5609047410000016
  0.3453607559999980  0.4308002000000002  0.6505102519999966
  0.5953609940000035  0.6808004379999986  0.7401157620000021
  0.8453608749999972  0.9308004379999986  0.8297212720000005
  0.0953612329999984  0.1808006759999969  0.9193268419999967
  0.3453604879999972  0.4308002000000002  0.4712991709999983
  0.5953604580000018  0.6808002000000002  0.5609046820000003
  0.8453606960000002  0.9308003189999994  0.6505102519999966
  0.0953609940000035  0.1808004379999986  0.7401157620000021
  0.3453607559999980  0.4308005569999978  0.8297212720000005
  0.5953609940000035  0.6808007959999998  0.9193268419999967
  0.6786938910000018  0.0974667070000024  0.4712992010000008
  0.9286937709999989  0.3474668260000016  0.5609047410000016
  0.1786940249999986  0.5974669459999973  0.6505102519999966
  0.4286942479999993  0.8474671840000028  0.7401157620000021
  0.6786942479999993  0.0974670649999965  0.8297212720000005
  0.9286941290000001  0.3474673030000019  0.9193268419999967
  0.0120272639999968  0.7641333939999981  0.4712992010000008
  0.2620273830000031  0.0141334529999995  0.5609047410000016
  0.5120275020000022  0.2641336920000015  0.6505102519999966
  0.7620276210000014  0.5141338110000007  0.7401157620000021
  0.0120275020000022  0.7641338110000007  0.8297212720000005
  0.2620278600000034  0.0141340489999990  0.9193268419999967
  0.2620272039999989  0.2641334529999995  0.4712991709999983
  0.5120272639999968  0.5141334529999995  0.5609047410000016
  0.7620272639999968  0.7641335730000023  0.6505102519999966
  0.0120275020000022  0.0141336920000015  0.7401157620000021
  0.2620275020000022  0.2641336920000015  0.8297212720000005
  0.5120275020000022  0.5141339299999999  0.9193268419999967
  0.5953605179999997  0.9308000799999974  0.4712992010000008
  0.8453605179999997  0.1808000799999974  0.5609047410000016
  0.0953607559999980  0.4308002000000002  0.6505102519999966
  0.3453608749999972  0.6808003189999994  0.7401157620000021
  0.5953607559999980  0.9308004379999986  0.8297212720000005
  0.8453608749999972  0.1808005569999978  0.9193268419999967
  0.9286938309999968  0.5974667070000024  0.4712992010000008
  0.1786939050000029  0.8474668260000016  0.5609047410000016
  0.4286940100000010  0.0974669459999973  0.6505102519999966
  0.6786942479999993  0.3474670650000036  0.7401158210000034
  0.9286943669999985  0.5974671840000028  0.8297212720000005
  0.1786943820000033  0.8474671840000028  0.9193268419999967
  0.4286938309999968  0.0974668260000016  0.4712992010000008
  0.6786938910000018  0.3474667070000024  0.5609047410000016
  0.9286939500000031  0.5974669459999973  0.6505102519999966
  0.1786941439999978  0.8474670650000036  0.7401158210000034
  0.4286941290000001  0.0974670649999965  0.8297212720000005
  0.6786942479999993  0.3474673030000019  0.9193267819999988
  0.0953605179999997  0.4308000799999974  0.4712992010000008
  0.3453606369999989  0.6808002000000002  0.5609047410000016
  0.5953607559999980  0.9308003189999994  0.6505102519999966
  0.8453609940000035  0.1808004379999986  0.7401158210000034
  0.0953608749999972  0.4308004379999986  0.8297212720000005
  0.3453613519999976  0.6808007959999998  0.9193267819999988
  0.7620272039999989  0.7641334529999995  0.4712992010000008
  0.0120271440000010  0.0141334529999995  0.5609047410000016
  0.2620272639999968  0.2641336920000015  0.6505102519999966
  0.5120273830000031  0.5141336920000015  0.7401157620000021
  0.7620273830000031  0.7641338110000007  0.8297212720000005
  0.0120273830000031  0.0141339299999999  0.9193268419999967
 
  0.00000000E+00  0.00000000E+00  0.00000000E+00
  0.00000000E+00  0.00000000E+00  0.00000000E+00
  0.00000000E+00  0.00000000E+00  0.00000000E+00
  0.00000000E+00  0.00000000E+00  0.00000000E+00
  0.00000000E+00  0.00000000E+00  0.00000000E+00
  0.00000000E+00  0.00000000E+00  0.00000000E+00
  0.00000000E+00  0.00000000E+00  0.00000000E+00
  0.00000000E+00  0.00000000E+00  0.00000000E+00
  0.00000000E+00  0.00000000E+00  0.00000000E+00
  0.00000000E+00  0.00000000E+00  0.00000000E+00
  0.00000000E+00  0.00000000E+00  0.00000000E+00
  0.00000000E+00  0.00000000E+00  0.00000000E+00
  0.00000000E+00  0.00000000E+00  0.00000000E+00
  0.00000000E+00  0.00000000E+00  0.00000000E+00
  0.00000000E+00  0.00000000E+00  0.00000000E+00
  0.00000000E+00  0.00000000E+00  0.00000000E+00
  0.00000000E+00  0.00000000E+00  0.00000000E+00
  0.00000000E+00  0.00000000E+00  0.00000000E+00
  0.00000000E+00  0.00000000E+00  0.00000000E+00
  0.00000000E+00  0.00000000E+00  0.00000000E+00
  0.00000000E+00  0.00000000E+00  0.00000000E+00
  0.00000000E+00  0.00000000E+00  0.00000000E+00
  0.00000000E+00  0.00000000E+00  0.00000000E+00
  0.00000000E+00  0.00000000E+00  0.00000000E+00
  0.00000000E+00  0.00000000E+00  0.00000000E+00
  0.00000000E+00  0.00000000E+00  0.00000000E+00
  0.00000000E+00  0.00000000E+00  0.00000000E+00
  0.00000000E+00  0.00000000E+00  0.00000000E+00
  0.00000000E+00  0.00000000E+00  0.00000000E+00
  0.00000000E+00  0.00000000E+00  0.00000000E+00
  0.00000000E+00  0.00000000E+00  0.00000000E+00
  0.00000000E+00  0.00000000E+00  0.00000000E+00
  0.00000000E+00  0.00000000E+00  0.00000000E+00
  0.00000000E+00  0.00000000E+00  0.00000000E+00
  0.00000000E+00  0.00000000E+00  0.00000000E+00
  0.00000000E+00  0.00000000E+00  0.00000000E+00
  0.00000000E+00  0.00000000E+00  0.00000000E+00
  0.00000000E+00  0.00000000E+00  0.00000000E+00
  0.00000000E+00  0.00000000E+00  0.00000000E+00
  0.00000000E+00  0.00000000E+00  0.00000000E+00
  0.00000000E+00  0.00000000E+00  0.00000000E+00
  0.00000000E+00  0.00000000E+00  0.00000000E+00
  0.00000000E+00  0.00000000E+00  0.00000000E+00
  0.00000000E+00  0.00000000E+00  0.00000000E+00
  0.00000000E+00  0.00000000E+00  0.00000000E+00
  0.00000000E+00  0.00000000E+00  0.00000000E+00
  0.00000000E+00  0.00000000E+00  0.00000000E+00
  0.00000000E+00  0.00000000E+00  0.00000000E+00
  0.00000000E+00  0.00000000E+00  0.00000000E+00
  0.00000000E+00  0.00000000E+00  0.00000000E+00
  0.00000000E+00  0.00000000E+00  0.00000000E+00
  0.00000000E+00  0.00000000E+00  0.00000000E+00
  0.00000000E+00  0.00000000E+00  0.00000000E+00
  0.00000000E+00  0.00000000E+00  0.00000000E+00
  0.00000000E+00  0.00000000E+00  0.00000000E+00
  0.00000000E+00  0.00000000E+00  0.00000000E+00
  0.00000000E+00  0.00000000E+00  0.00000000E+00
  0.00000000E+00  0.00000000E+00  0.00000000E+00
  0.00000000E+00  0.00000000E+00  0.00000000E+00
  0.00000000E+00  0.00000000E+00  0.00000000E+00
  0.00000000E+00  0.00000000E+00  0.00000000E+00
  0.00000000E+00  0.00000000E+00  0.00000000E+00
  0.00000000E+00  0.00000000E+00  0.00000000E+00
  0.00000000E+00  0.00000000E+00  0.00000000E+00
  0.00000000E+00  0.00000000E+00  0.00000000E+00
  0.00000000E+00  0.00000000E+00  0.00000000E+00
  0.00000000E+00  0.00000000E+00  0.00000000E+00
  0.00000000E+00  0.00000000E+00  0.00000000E+00
  0.00000000E+00  0.00000000E+00  0.00000000E+00
  0.00000000E+00  0.00000000E+00  0.00000000E+00
  0.00000000E+00  0.00000000E+00  0.00000000E+00
  0.00000000E+00  0.00000000E+00  0.00000000E+00
  0.00000000E+00  0.00000000E+00  0.00000000E+00
  0.00000000E+00  0.00000000E+00  0.00000000E+00
  0.00000000E+00  0.00000000E+00  0.00000000E+00
  0.00000000E+00  0.00000000E+00  0.00000000E+00
  0.00000000E+00  0.00000000E+00  0.00000000E+00
  0.00000000E+00  0.00000000E+00  0.00000000E+00
  0.00000000E+00  0.00000000E+00  0.00000000E+00
  0.00000000E+00  0.00000000E+00  0.00000000E+00
  0.00000000E+00  0.00000000E+00  0.00000000E+00
  0.00000000E+00  0.00000000E+00  0.00000000E+00
  0.00000000E+00  0.00000000E+00  0.00000000E+00
  0.00000000E+00  0.00000000E+00  0.00000000E+00
  0.00000000E+00  0.00000000E+00  0.00000000E+00
  0.00000000E+00  0.00000000E+00  0.00000000E+00
  0.00000000E+00  0.00000000E+00  0.00000000E+00
  0.00000000E+00  0.00000000E+00  0.00000000E+00
  0.00000000E+00  0.00000000E+00  0.00000000E+00
  0.00000000E+00  0.00000000E+00  0.00000000E+00
  0.00000000E+00  0.00000000E+00  0.00000000E+00
  0.00000000E+00  0.00000000E+00  0.00000000E+00
  0.00000000E+00  0.00000000E+00  0.00000000E+00
  0.00000000E+00  0.00000000E+00  0.00000000E+00
  0.00000000E+00  0.00000000E+00  0.00000000E+00
  0.00000000E+00  0.00000000E+00  0.00000000E+00
  0.00000000E+00  0.00000000E+00  0.00000000E+00
  0.00000000E+00  0.00000000E+00  0.00000000E+00
  0.00000000E+00  0.00000000E+00  0.00000000E+00
  0.00000000E+00  0.00000000E+00  0.00000000E+00
  0.00000000E+00  0.00000000E+00  0.00000000E+00
  0.00000000E+00  0.00000000E+00  0.00000000E+00
  0.00000000E+00  0.00000000E+00  0.00000000E+00
  0.00000000E+00  0.00000000E+00  0.00000000E+00
  0.00000000E+00  0.00000000E+00  0.00000000E+00
  0.00000000E+00  0.00000000E+00  0.00000000E+00
  0.00000000E+00  0.00000000E+00  0.00000000E+00
  0.00000000E+00  0.00000000E+00  0.00000000E+00
  0.00000000E+00  0.00000000E+00  0.00000000E+00
  0.00000000E+00  0.00000000E+00  0.00000000E+00
  0.00000000E+00  0.00000000E+00  0.00000000E+00
  0.00000000E+00  0.00000000E+00  0.00000000E+00
  0.00000000E+00  0.00000000E+00  0.00000000E+00
  0.00000000E+00  0.00000000E+00  0.00000000E+00
  0.00000000E+00  0.00000000E+00  0.00000000E+00
  0.00000000E+00  0.00000000E+00  0.00000000E+00
  0.00000000E+00  0.00000000E+00  0.00000000E+00
  0.00000000E+00  0.00000000E+00  0.00000000E+00
  0.00000000E+00  0.00000000E+00  0.00000000E+00
  0.00000000E+00  0.00000000E+00  0.00000000E+00
  0.00000000E+00  0.00000000E+00  0.00000000E+00
  0.00000000E+00  0.00000000E+00  0.00000000E+00
  0.00000000E+00  0.00000000E+00  0.00000000E+00
  0.00000000E+00  0.00000000E+00  0.00000000E+00
  0.00000000E+00  0.00000000E+00  0.00000000E+00
  0.00000000E+00  0.00000000E+00  0.00000000E+00
  0.00000000E+00  0.00000000E+00  0.00000000E+00
  0.00000000E+00  0.00000000E+00  0.00000000E+00
  0.00000000E+00  0.00000000E+00  0.00000000E+00
  0.00000000E+00  0.00000000E+00  0.00000000E+00
  0.00000000E+00  0.00000000E+00  0.00000000E+00
  0.00000000E+00  0.00000000E+00  0.00000000E+00
  0.00000000E+00  0.00000000E+00  0.00000000E+00
  0.00000000E+00  0.00000000E+00  0.00000000E+00
  0.00000000E+00  0.00000000E+00  0.00000000E+00
  0.00000000E+00  0.00000000E+00  0.00000000E+00
  0.00000000E+00  0.00000000E+00  0.00000000E+00
  0.00000000E+00  0.00000000E+00  0.00000000E+00
  0.00000000E+00  0.00000000E+00  0.00000000E+00
  0.00000000E+00  0.00000000E+00  0.00000000E+00
  0.00000000E+00  0.00000000E+00  0.00000000E+00
  0.00000000E+00  0.00000000E+00  0.00000000E+00
  0.00000000E+00  0.00000000E+00  0.00000000E+00
  0.00000000E+00  0.00000000E+00  0.00000000E+00
  0.00000000E+00  0.00000000E+00  0.00000000E+00
  0.00000000E+00  0.00000000E+00  0.00000000E+00
  0.00000000E+00  0.00000000E+00  0.00000000E+00
  0.00000000E+00  0.00000000E+00  0.00000000E+00
  0.00000000E+00  0.00000000E+00  0.00000000E+00
  0.00000000E+00  0.00000000E+00  0.00000000E+00
  0.00000000E+00  0.00000000E+00  0.00000000E+00
  0.00000000E+00  0.00000000E+00  0.00000000E+00
  0.00000000E+00  0.00000000E+00  0.00000000E+00
  0.00000000E+00  0.00000000E+00  0.00000000E+00
  0.00000000E+00  0.00000000E+00  0.00000000E+00
  0.00000000E+00  0.00000000E+00  0.00000000E+00
  0.00000000E+00  0.00000000E+00  0.00000000E+00
  0.00000000E+00  0.00000000E+00  0.00000000E+00
  0.00000000E+00  0.00000000E+00  0.00000000E+00
  0.00000000E+00  0.00000000E+00  0.00000000E+00
  0.00000000E+00  0.00000000E+00  0.00000000E+00
  0.00000000E+00  0.00000000E+00  0.00000000E+00
  0.00000000E+00  0.00000000E+00  0.00000000E+00
  0.00000000E+00  0.00000000E+00  0.00000000E+00
  0.00000000E+00  0.00000000E+00  0.00000000E+00
  0.00000000E+00  0.00000000E+00  0.00000000E+00
  0.00000000E+00  0.00000000E+00  0.00000000E+00
  0.00000000E+00  0.00000000E+00  0.00000000E+00
