Si+Sn
    1.000000000
   13.303179741    0.000000000    0.000000000
    6.651589394   14.873406410    0.000000000
    0.000000000    0.000000000    6.663593769
Si  Sn 
36     24
Direct
    0.982905626    0.658119500    0.000000006
    0.782905579    0.558119297    0.182245374
    0.582905412    0.458119094    0.364490747
    0.982905626    0.324786127    0.000000006
    0.782905579    0.224785969    0.182245374
    0.582905412    0.124785803    0.364490747
    0.982905626    0.991452813    0.000000006
    0.782905579    0.891452670    0.182245374
    0.582905412    0.791452527    0.364490747
    0.632905662    0.691452682    0.091122493
    0.432905585    0.591452479    0.273367852
    0.232905522    0.491452426    0.455613226
    0.632905662    0.358119428    0.091122493
    0.432905585    0.258119285    0.273367852
    0.232905522    0.158119142    0.455613226
    0.632905662    0.024786137    0.091122493
    0.432905585    0.924785972    0.273367852
    0.232905522    0.824785829    0.455613226
    0.482905626    0.658119500    0.000000000
    0.282905549    0.558119297    0.182245374
    0.082905442    0.458119094    0.364490747
    0.482905626    0.324786127    0.000000000
    0.282905549    0.224785954    0.182245374
    0.082905442    0.124785811    0.364490747
    0.482905626    0.991452813    0.000000000
    0.282905549    0.891452670    0.182245374
    0.082905442    0.791452527    0.364490747
    0.132905677    0.691452742    0.091122515
    0.932905555    0.591452479    0.273367852
    0.732905507    0.491452396    0.455613226
    0.132905677    0.358119488    0.091122515
    0.932905555    0.258119285    0.273367852
    0.732905507    0.158119127    0.455613226
    0.132905677    0.024786137    0.091122515
    0.932905555    0.924785972    0.273367852
    0.732905507    0.824785829    0.455613226
    0.987179220    0.025641514    0.455613196
    0.837179184    0.325641572    0.673368037
    0.687179148    0.625641644    0.891122878
    0.487179250    0.025641514    0.455613196
    0.337179154    0.325641572    0.673368037
    0.187179133    0.625641644    0.891122878
    0.287179202    0.675641477    0.564490438
    0.137179181    0.975641489    0.782245219
    0.987179101    0.275641561    1.000000000
    0.787179351    0.675641477    0.564490438
    0.637179315    0.975641489    0.782245219
    0.487179250    0.275641561    1.000000000
    0.987179279    0.525641501    0.455613315
    0.837179184    0.825641513    0.673368037
    0.687179089    0.125641704    0.891122878
    0.487179250    0.525641501    0.455613315
    0.337179244    0.825641513    0.673368037
    0.187179118    0.125641704    0.891122878
    0.287179232    0.175641507    0.564490438
    0.137179166    0.475641549    0.782245219
    0.987179160    0.775641620    1.000000000
    0.787179291    0.175641507    0.564490438
    0.637179255    0.475641549    0.782245219
    0.487179160    0.775641620    1.000000000
