Sn+Ge                                   
   1.00000000000000     
    11.2396240229999993    0.0000000000000000    0.0000000000000000
     0.0000000000000000   15.8952293400000002    0.0000000000000000
     0.0000000000000000    0.0000000000000000   25.8009414670000012
   Sn   Ge
    72    96
Direct
  0.0000000000000000  0.0179795159999969  0.0000000009999965
  0.9999999400000021  0.2679795920000032  0.0889222919999995
  0.9999998810000008  0.5179797409999978  0.1778445989999966
  0.9999998210000030  0.7679799200000019  0.2667669060000009
  0.9999998210000030  0.0179799799999998  0.3556891980000003
  0.9999997620000016  0.2679800989999990  0.4446115490000011
  0.3333333730000021  0.3513128760000015  0.0000000009999965
  0.3333333129999971  0.6013128760000015  0.0889222919999995
  0.3333333129999971  0.8513130549999985  0.1778445989999966
  0.3333332240000004  0.1013132329999991  0.2667669060000009
  0.3333332240000004  0.3513133530000019  0.3556891980000003
  0.3333331640000026  0.6013134720000011  0.4446115490000011
  0.6666667459999971  0.6846462489999965  0.0000000009999965
  0.6666666870000029  0.9346462489999965  0.0889222919999995
  0.6666668060000021  0.1846464870000020  0.1778445989999966
  0.6666665079999987  0.4346464870000020  0.2667669060000009
  0.6666665670000000  0.6846466060000012  0.3556891980000003
  0.6666665670000000  0.9346468450000032  0.4446115490000011
  0.0000000300000025  0.5179795620000007  0.0000000020000002
  0.9999999400000021  0.7679796219999986  0.0889222850000024
  0.9999998810000008  0.0179797409999978  0.1778445989999966
  0.9999998810000008  0.2679798599999970  0.2667668759999984
  0.9999998210000030  0.5179799799999998  0.3556891980000003
  0.9999997620000016  0.7679800989999990  0.4446115490000011
  0.3333333730000021  0.8513128760000015  0.0000000020000002
  0.3333333429999996  0.1013129950000007  0.0889222850000024
  0.3333333730000021  0.3513132329999991  0.1778445989999966
  0.3333332540000029  0.6013132329999991  0.2667668759999984
  0.3333332839999983  0.8513133530000019  0.3556891980000003
  0.3333331050000012  0.1013135910000003  0.4446115490000011
  0.6666668060000021  0.1846462040000034  0.0000000000000000
  0.6666666269999979  0.4346462489999965  0.0889222850000024
  0.6666666870000029  0.6846464280000006  0.1778445989999966
  0.6666666269999979  0.9346464870000020  0.2667668759999984
  0.6666665079999987  0.1846466060000012  0.3556891980000003
  0.6666665670000000  0.4346467259999969  0.4446115200000023
  0.0833333209999978  0.3513128459999990  0.0000000049999969
  0.0833332460000022  0.6013128760000015  0.0889222850000024
  0.0833332910000024  0.8513130549999985  0.1778445989999966
  0.0833331270000031  0.1013131139999999  0.2667669060000009
  0.0833331270000031  0.3513132329999991  0.3556891980000003
  0.0833331349999966  0.6013133530000019  0.4446115200000023
  0.4166667160000017  0.6846461889999986  0.0000000049999969
  0.4166666269999979  0.9346462489999965  0.0889222919999995
  0.4166666570000004  0.1846464870000020  0.1778445989999966
  0.4166665970000025  0.4346466060000012  0.2667668759999984
  0.4166663889999995  0.6846466060000012  0.3556891980000003
  0.4166665079999987  0.9346467259999969  0.4446115200000023
  0.7500000000000000  0.0179795470000030  0.0000000120000010
  0.7500000000000000  0.2679795920000032  0.0889222989999965
  0.7499999400000021  0.5179797409999978  0.1778445989999966
  0.7499998210000030  0.7679798599999970  0.2667668759999984
  0.7499998210000030  0.0179799799999998  0.3556891980000003
  0.7499998210000030  0.2679800989999990  0.4446115200000023
  0.0833333360000026  0.8513129350000028  0.0000000000000000
  0.0833332759999976  0.1013129950000007  0.0889223069999971
  0.0833332240000004  0.3513131139999999  0.1778445839999989
  0.0833332460000022  0.6013134720000011  0.2667669060000009
  0.0833331349999966  0.8513133530000019  0.3556892280000028
  0.0833330749999988  0.1013135910000003  0.4446115200000023
  0.4166667160000017  0.1846462040000034  0.0000000040000003
  0.4166666570000004  0.4346462489999965  0.0889222919999995
  0.4166665670000000  0.6846464280000006  0.1778445989999966
  0.4166665670000000  0.9346465469999998  0.2667669060000009
  0.4166665670000000  0.1846466060000012  0.3556891980000003
  0.4166664480000009  0.4346467259999969  0.4446115200000023
  0.7500000000000000  0.5179795029999994  0.0000000029999967
  0.7499999400000021  0.7679796219999986  0.0889222919999995
  0.7500000000000000  0.0179797409999978  0.1778445989999966
  0.7499998810000008  0.2679798599999970  0.2667669060000009
  0.7499998210000030  0.5179798599999970  0.3556891980000003
  0.7499997620000016  0.7679800989999990  0.4446115200000023
  0.0877798799999994  0.4876397250000011  0.5284819600000006
  0.8377798200000015  0.1126397100000034  0.6060115690000032
  0.5877798799999994  0.7376397250000011  0.6835410589999995
  0.3377799989999986  0.3626398150000014  0.7610704900000016
  0.0877798799999994  0.9876397250000011  0.8386000389999992
  0.8377798200000015  0.6126397250000011  0.9161295290000027
  0.5877798799999994  0.4876397250000011  0.5284819600000006
  0.3377798799999994  0.1126397100000034  0.6060115690000032
  0.0877798799999994  0.7376397250000011  0.6835410589999995
  0.8377799390000007  0.3626398150000014  0.7610704900000016
  0.5877799390000007  0.9876397250000011  0.8386000389999992
  0.3377798799999994  0.6126397250000011  0.9161295290000027
  0.0877798799999994  0.9876397250000011  0.5284819600000006
  0.8377798200000015  0.6126397250000011  0.6060115690000032
  0.5877798799999994  0.2376396949999986  0.6835410589999995
  0.3377799989999986  0.8626399640000031  0.7610704900000016
  0.0877798799999994  0.4876396949999986  0.8386000989999971
  0.8377798200000015  0.1126396949999986  0.9161295290000027
  0.5877798799999994  0.9876397250000011  0.5284819600000006
  0.3377798799999994  0.6126397250000011  0.6060115690000032
  0.0877798799999994  0.2376396949999986  0.6835410589999995
  0.8377799390000007  0.8626399640000031  0.7610704900000016
  0.5877799390000007  0.4876396949999986  0.8386000989999971
  0.3377798799999994  0.1126396949999986  0.9161295290000027
  0.0877798799999994  0.7376397250000011  0.5284819600000006
  0.8377798200000015  0.3626396949999986  0.6060115690000032
  0.5877798799999994  0.9876397250000011  0.6835410589999995
  0.3377799989999986  0.6126398440000003  0.7610704900000016
  0.0877798799999994  0.2376397550000036  0.8386000989999971
  0.8377798200000015  0.8626397250000011  0.9161295290000027
  0.5877798799999994  0.7376397250000011  0.5284819600000006
  0.3377798799999994  0.3626396949999986  0.6060115690000032
  0.0877798799999994  0.9876397250000011  0.6835410589999995
  0.8377799390000007  0.6126398440000003  0.7610704900000016
  0.5877799390000007  0.2376397550000036  0.8386000989999971
  0.3377798799999994  0.8626397250000011  0.9161295290000027
  0.0877798799999994  0.2376397100000034  0.5284819600000006
  0.8377798200000015  0.8626397250000011  0.6060115690000032
  0.5877798799999994  0.4876396949999986  0.6835410589999995
  0.3377799989999986  0.1126398150000014  0.7610704900000016
  0.0877798799999994  0.7376398440000003  0.8386000389999992
  0.8377798200000015  0.3626396949999986  0.9161295290000027
  0.5877798799999994  0.2376397100000034  0.5284819600000006
  0.3377798799999994  0.8626397250000011  0.6060115690000032
  0.0877798799999994  0.4876396949999986  0.6835410589999995
  0.8377799390000007  0.1126398150000014  0.7610704900000016
  0.5877799390000007  0.7376398440000003  0.8386000389999992
  0.3377798799999994  0.3626396949999986  0.9161295290000027
  0.4627798499999969  0.6126397849999989  0.5284819600000006
  0.2127798799999994  0.2376397250000011  0.6060115690000032
  0.9627798799999994  0.8626397250000011  0.6835410589999995
  0.7127799390000007  0.4876398150000014  0.7610704900000016
  0.4627798799999994  0.1126397549999965  0.8386000989999971
  0.2127798200000015  0.7376397250000011  0.9161295290000027
  0.9627799390000007  0.6126397849999989  0.5284819600000006
  0.7127798799999994  0.2376397250000011  0.6060115690000032
  0.4627799089999982  0.8626397250000011  0.6835410589999995
  0.2127799989999986  0.4876398150000014  0.7610704900000016
  0.9627799390000007  0.1126397549999965  0.8386000989999971
  0.7127798799999994  0.7376397250000011  0.9161295290000027
  0.4627798499999969  0.1126397100000034  0.5284819600000006
  0.2127798799999994  0.7376397250000011  0.6060115690000032
  0.9627798799999994  0.3626396949999986  0.6835410589999995
  0.7127799390000007  0.9876398440000003  0.7610704900000016
  0.4627798799999994  0.6126398440000003  0.8386000389999992
  0.2127798200000015  0.2376395759999994  0.9161295290000027
  0.9627799390000007  0.1126397100000034  0.5284819600000006
  0.7127798799999994  0.7376397250000011  0.6060115690000032
  0.4627799089999982  0.3626396949999986  0.6835410589999995
  0.2127799989999986  0.9876398440000003  0.7610704900000016
  0.9627799390000007  0.6126398440000003  0.8386000389999992
  0.7127798799999994  0.2376395759999994  0.9161295290000027
  0.4627798499999969  0.8626397849999989  0.5284819600000006
  0.2127798799999994  0.4876397550000036  0.6060115690000032
  0.9627798799999994  0.1126397399999988  0.6835410589999995
  0.7127799390000007  0.7376399039999981  0.7610704900000016
  0.4627798799999994  0.3626398150000014  0.8386000389999992
  0.2127798200000015  0.9876397250000011  0.9161295290000027
  0.9627799390000007  0.8626397849999989  0.5284819600000006
  0.7127798799999994  0.4876397550000036  0.6060115690000032
  0.4627799089999982  0.1126397399999988  0.6835410589999995
  0.2127799989999986  0.7376399039999981  0.7610704900000016
  0.9627799390000007  0.3626398150000014  0.8386000389999992
  0.7127798799999994  0.9876397250000011  0.9161295290000027
  0.4627798499999969  0.3626396949999986  0.5284819600000006
  0.2127798799999994  0.9876397250000011  0.6060115690000032
  0.9627798799999994  0.6126397250000011  0.6835410589999995
  0.7127799390000007  0.2376398150000014  0.7610704900000016
  0.4627798799999994  0.8626397250000011  0.8386000389999992
  0.2127798200000015  0.4876396949999986  0.9161295290000027
  0.9627799390000007  0.3626396949999986  0.5284819600000006
  0.7127798799999994  0.9876397250000011  0.6060115690000032
  0.4627799089999982  0.6126397250000011  0.6835410589999995
  0.2127799989999986  0.2376398150000014  0.7610704900000016
  0.9627799390000007  0.8626397250000011  0.8386000389999992
  0.7127798799999994  0.4876396949999986  0.9161295290000027
 
  0.00000000E+00  0.00000000E+00  0.00000000E+00
  0.00000000E+00  0.00000000E+00  0.00000000E+00
  0.00000000E+00  0.00000000E+00  0.00000000E+00
  0.00000000E+00  0.00000000E+00  0.00000000E+00
  0.00000000E+00  0.00000000E+00  0.00000000E+00
  0.00000000E+00  0.00000000E+00  0.00000000E+00
  0.00000000E+00  0.00000000E+00  0.00000000E+00
  0.00000000E+00  0.00000000E+00  0.00000000E+00
  0.00000000E+00  0.00000000E+00  0.00000000E+00
  0.00000000E+00  0.00000000E+00  0.00000000E+00
  0.00000000E+00  0.00000000E+00  0.00000000E+00
  0.00000000E+00  0.00000000E+00  0.00000000E+00
  0.00000000E+00  0.00000000E+00  0.00000000E+00
  0.00000000E+00  0.00000000E+00  0.00000000E+00
  0.00000000E+00  0.00000000E+00  0.00000000E+00
  0.00000000E+00  0.00000000E+00  0.00000000E+00
  0.00000000E+00  0.00000000E+00  0.00000000E+00
  0.00000000E+00  0.00000000E+00  0.00000000E+00
  0.00000000E+00  0.00000000E+00  0.00000000E+00
  0.00000000E+00  0.00000000E+00  0.00000000E+00
  0.00000000E+00  0.00000000E+00  0.00000000E+00
  0.00000000E+00  0.00000000E+00  0.00000000E+00
  0.00000000E+00  0.00000000E+00  0.00000000E+00
  0.00000000E+00  0.00000000E+00  0.00000000E+00
  0.00000000E+00  0.00000000E+00  0.00000000E+00
  0.00000000E+00  0.00000000E+00  0.00000000E+00
  0.00000000E+00  0.00000000E+00  0.00000000E+00
  0.00000000E+00  0.00000000E+00  0.00000000E+00
  0.00000000E+00  0.00000000E+00  0.00000000E+00
  0.00000000E+00  0.00000000E+00  0.00000000E+00
  0.00000000E+00  0.00000000E+00  0.00000000E+00
  0.00000000E+00  0.00000000E+00  0.00000000E+00
  0.00000000E+00  0.00000000E+00  0.00000000E+00
  0.00000000E+00  0.00000000E+00  0.00000000E+00
  0.00000000E+00  0.00000000E+00  0.00000000E+00
  0.00000000E+00  0.00000000E+00  0.00000000E+00
  0.00000000E+00  0.00000000E+00  0.00000000E+00
  0.00000000E+00  0.00000000E+00  0.00000000E+00
  0.00000000E+00  0.00000000E+00  0.00000000E+00
  0.00000000E+00  0.00000000E+00  0.00000000E+00
  0.00000000E+00  0.00000000E+00  0.00000000E+00
  0.00000000E+00  0.00000000E+00  0.00000000E+00
  0.00000000E+00  0.00000000E+00  0.00000000E+00
  0.00000000E+00  0.00000000E+00  0.00000000E+00
  0.00000000E+00  0.00000000E+00  0.00000000E+00
  0.00000000E+00  0.00000000E+00  0.00000000E+00
  0.00000000E+00  0.00000000E+00  0.00000000E+00
  0.00000000E+00  0.00000000E+00  0.00000000E+00
  0.00000000E+00  0.00000000E+00  0.00000000E+00
  0.00000000E+00  0.00000000E+00  0.00000000E+00
  0.00000000E+00  0.00000000E+00  0.00000000E+00
  0.00000000E+00  0.00000000E+00  0.00000000E+00
  0.00000000E+00  0.00000000E+00  0.00000000E+00
  0.00000000E+00  0.00000000E+00  0.00000000E+00
  0.00000000E+00  0.00000000E+00  0.00000000E+00
  0.00000000E+00  0.00000000E+00  0.00000000E+00
  0.00000000E+00  0.00000000E+00  0.00000000E+00
  0.00000000E+00  0.00000000E+00  0.00000000E+00
  0.00000000E+00  0.00000000E+00  0.00000000E+00
  0.00000000E+00  0.00000000E+00  0.00000000E+00
  0.00000000E+00  0.00000000E+00  0.00000000E+00
  0.00000000E+00  0.00000000E+00  0.00000000E+00
  0.00000000E+00  0.00000000E+00  0.00000000E+00
  0.00000000E+00  0.00000000E+00  0.00000000E+00
  0.00000000E+00  0.00000000E+00  0.00000000E+00
  0.00000000E+00  0.00000000E+00  0.00000000E+00
  0.00000000E+00  0.00000000E+00  0.00000000E+00
  0.00000000E+00  0.00000000E+00  0.00000000E+00
  0.00000000E+00  0.00000000E+00  0.00000000E+00
  0.00000000E+00  0.00000000E+00  0.00000000E+00
  0.00000000E+00  0.00000000E+00  0.00000000E+00
  0.00000000E+00  0.00000000E+00  0.00000000E+00
  0.00000000E+00  0.00000000E+00  0.00000000E+00
  0.00000000E+00  0.00000000E+00  0.00000000E+00
  0.00000000E+00  0.00000000E+00  0.00000000E+00
  0.00000000E+00  0.00000000E+00  0.00000000E+00
  0.00000000E+00  0.00000000E+00  0.00000000E+00
  0.00000000E+00  0.00000000E+00  0.00000000E+00
  0.00000000E+00  0.00000000E+00  0.00000000E+00
  0.00000000E+00  0.00000000E+00  0.00000000E+00
  0.00000000E+00  0.00000000E+00  0.00000000E+00
  0.00000000E+00  0.00000000E+00  0.00000000E+00
  0.00000000E+00  0.00000000E+00  0.00000000E+00
  0.00000000E+00  0.00000000E+00  0.00000000E+00
  0.00000000E+00  0.00000000E+00  0.00000000E+00
  0.00000000E+00  0.00000000E+00  0.00000000E+00
  0.00000000E+00  0.00000000E+00  0.00000000E+00
  0.00000000E+00  0.00000000E+00  0.00000000E+00
  0.00000000E+00  0.00000000E+00  0.00000000E+00
  0.00000000E+00  0.00000000E+00  0.00000000E+00
  0.00000000E+00  0.00000000E+00  0.00000000E+00
  0.00000000E+00  0.00000000E+00  0.00000000E+00
  0.00000000E+00  0.00000000E+00  0.00000000E+00
  0.00000000E+00  0.00000000E+00  0.00000000E+00
  0.00000000E+00  0.00000000E+00  0.00000000E+00
  0.00000000E+00  0.00000000E+00  0.00000000E+00
  0.00000000E+00  0.00000000E+00  0.00000000E+00
  0.00000000E+00  0.00000000E+00  0.00000000E+00
  0.00000000E+00  0.00000000E+00  0.00000000E+00
  0.00000000E+00  0.00000000E+00  0.00000000E+00
  0.00000000E+00  0.00000000E+00  0.00000000E+00
  0.00000000E+00  0.00000000E+00  0.00000000E+00
  0.00000000E+00  0.00000000E+00  0.00000000E+00
  0.00000000E+00  0.00000000E+00  0.00000000E+00
  0.00000000E+00  0.00000000E+00  0.00000000E+00
  0.00000000E+00  0.00000000E+00  0.00000000E+00
  0.00000000E+00  0.00000000E+00  0.00000000E+00
  0.00000000E+00  0.00000000E+00  0.00000000E+00
  0.00000000E+00  0.00000000E+00  0.00000000E+00
  0.00000000E+00  0.00000000E+00  0.00000000E+00
  0.00000000E+00  0.00000000E+00  0.00000000E+00
  0.00000000E+00  0.00000000E+00  0.00000000E+00
  0.00000000E+00  0.00000000E+00  0.00000000E+00
  0.00000000E+00  0.00000000E+00  0.00000000E+00
  0.00000000E+00  0.00000000E+00  0.00000000E+00
  0.00000000E+00  0.00000000E+00  0.00000000E+00
  0.00000000E+00  0.00000000E+00  0.00000000E+00
  0.00000000E+00  0.00000000E+00  0.00000000E+00
  0.00000000E+00  0.00000000E+00  0.00000000E+00
  0.00000000E+00  0.00000000E+00  0.00000000E+00
  0.00000000E+00  0.00000000E+00  0.00000000E+00
  0.00000000E+00  0.00000000E+00  0.00000000E+00
  0.00000000E+00  0.00000000E+00  0.00000000E+00
  0.00000000E+00  0.00000000E+00  0.00000000E+00
  0.00000000E+00  0.00000000E+00  0.00000000E+00
  0.00000000E+00  0.00000000E+00  0.00000000E+00
  0.00000000E+00  0.00000000E+00  0.00000000E+00
  0.00000000E+00  0.00000000E+00  0.00000000E+00
  0.00000000E+00  0.00000000E+00  0.00000000E+00
  0.00000000E+00  0.00000000E+00  0.00000000E+00
  0.00000000E+00  0.00000000E+00  0.00000000E+00
  0.00000000E+00  0.00000000E+00  0.00000000E+00
  0.00000000E+00  0.00000000E+00  0.00000000E+00
  0.00000000E+00  0.00000000E+00  0.00000000E+00
  0.00000000E+00  0.00000000E+00  0.00000000E+00
  0.00000000E+00  0.00000000E+00  0.00000000E+00
  0.00000000E+00  0.00000000E+00  0.00000000E+00
  0.00000000E+00  0.00000000E+00  0.00000000E+00
  0.00000000E+00  0.00000000E+00  0.00000000E+00
  0.00000000E+00  0.00000000E+00  0.00000000E+00
  0.00000000E+00  0.00000000E+00  0.00000000E+00
  0.00000000E+00  0.00000000E+00  0.00000000E+00
  0.00000000E+00  0.00000000E+00  0.00000000E+00
  0.00000000E+00  0.00000000E+00  0.00000000E+00
  0.00000000E+00  0.00000000E+00  0.00000000E+00
  0.00000000E+00  0.00000000E+00  0.00000000E+00
  0.00000000E+00  0.00000000E+00  0.00000000E+00
  0.00000000E+00  0.00000000E+00  0.00000000E+00
  0.00000000E+00  0.00000000E+00  0.00000000E+00
  0.00000000E+00  0.00000000E+00  0.00000000E+00
  0.00000000E+00  0.00000000E+00  0.00000000E+00
  0.00000000E+00  0.00000000E+00  0.00000000E+00
  0.00000000E+00  0.00000000E+00  0.00000000E+00
  0.00000000E+00  0.00000000E+00  0.00000000E+00
  0.00000000E+00  0.00000000E+00  0.00000000E+00
  0.00000000E+00  0.00000000E+00  0.00000000E+00
  0.00000000E+00  0.00000000E+00  0.00000000E+00
  0.00000000E+00  0.00000000E+00  0.00000000E+00
  0.00000000E+00  0.00000000E+00  0.00000000E+00
  0.00000000E+00  0.00000000E+00  0.00000000E+00
  0.00000000E+00  0.00000000E+00  0.00000000E+00
  0.00000000E+00  0.00000000E+00  0.00000000E+00
  0.00000000E+00  0.00000000E+00  0.00000000E+00
  0.00000000E+00  0.00000000E+00  0.00000000E+00
  0.00000000E+00  0.00000000E+00  0.00000000E+00
  0.00000000E+00  0.00000000E+00  0.00000000E+00
  0.00000000E+00  0.00000000E+00  0.00000000E+00
  0.00000000E+00  0.00000000E+00  0.00000000E+00
