Si+C
    1.000000000
   13.303179741    0.000000000    0.000000000
    6.651589394   11.520891190    0.000000000
    0.000000000    0.000000000   17.351547241
Si  C  
72     308
Direct
    0.000000000    0.318506181    0.361419052
    0.000000000    0.985172927    0.000000017
    0.000000000    0.651839554    0.180709541
    0.333333343    0.651839614    0.361418992
    0.333333343    0.318506300    0.000000011
    0.333333343    0.985172868    0.180709526
    0.666666687    0.985172927    0.361418992
    0.666666687    0.651839614    0.000000007
    0.666666687    0.318506241    0.180709526
    0.333333343    0.318506062    0.406596512
    0.333333343    0.985172868    0.045177408
    0.333333343    0.651839495    0.225886911
    1.000000000    0.985172808    0.406596512
    1.000000000    0.651839614    0.045177404
    1.000000000    0.318506271    0.225886911
    0.666666746    0.651839375    0.406596512
    0.666666746    0.318506211    0.045177419
    0.666666746    0.985172868    0.225886911
    0.500000000    0.318506241    0.361418992
    0.500000000    0.985172927    0.000000013
    0.500000000    0.651839554    0.180709526
    0.166666672    0.985172927    0.361418992
    0.166666672    0.651839674    0.000000002
    0.166666672    0.318506241    0.180709526
    0.833333373    0.651839614    0.361418992
    0.833333373    0.318506300    0.000000002
    0.833333373    0.985172927    0.180709526
    0.166666657    0.651839554    0.406596363
    0.166666657    0.318506300    0.045177355
    0.166666657    0.985172868    0.225886866
    0.833333433    0.318506181    0.406596422
    0.833333433    0.985172927    0.045177370
    0.833333433    0.651839495    0.225886881
    0.500000060    0.985172868    0.406596422
    0.500000060    0.651839614    0.045177374
    0.500000060    0.318506211    0.225886911
    0.166666672    0.485172927    0.361418992
    0.166666672    0.151839614    0.000000013
    0.166666672    0.818506241    0.180709526
    0.500000000    0.818506241    0.361419052
    0.500000000    0.485172987    0.000000020
    0.500000000    0.151839584    0.180709541
    0.833333373    0.151839629    0.361418992
    0.833333373    0.818506360    0.000000000
    0.833333373    0.485173017    0.180709481
    0.500000000    0.485172868    0.406596422
    0.500000000    0.151839614    0.045177370
    0.500000000    0.818506241    0.225886881
    0.166666672    0.151839569    0.406596363
    0.166666672    0.818506360    0.045177344
    0.166666672    0.485172927    0.225886866
    0.833333373    0.818506181    0.406596363
    0.833333373    0.485172927    0.045177344
    0.833333373    0.151839525    0.225886866
    0.000000000    0.818506241    0.361418992
    0.000000000    0.485172957    0.000000011
    0.000000000    0.151839554    0.180709526
    0.666666687    0.485172868    0.361418992
    0.666666687    0.151839599    0.000000011
    0.666666687    0.818506181    0.180709526
    0.333333313    0.151839495    0.361418992
    0.333333313    0.818506241    0.000000003
    0.333333313    0.485172868    0.180709481
    0.000000000    0.485172808    0.406596512
    0.000000000    0.151839659    0.045177400
    0.000000000    0.818506300    0.225886911
    0.333333343    0.818506122    0.406596512
    0.333333343    0.485172957    0.045177404
    0.333333343    0.151839599    0.225886911
    0.666666687    0.151839525    0.406596482
    0.666666687    0.818506300    0.045177400
    0.666666687    0.485172957    0.225886881
    0.401211977    0.401212335    0.970329821
    0.734545588    0.734545708    0.495607138
    0.401212335    0.401212394    0.614287794
    0.067878723    0.067878902    0.732968569
    0.734545469    0.734545588    0.851649225
    0.686926365    0.544069409    0.970329821
    0.020259926    0.877402782    0.495607138
    0.686926603    0.544069529    0.614287794
    0.353593051    0.210736036    0.732968569
    0.020259678    0.877402663    0.851649225
    0.544069171    0.972640753    0.970329940
    0.877402782    0.305974215    0.495607138
    0.544069409    0.972640932    0.614287794
    0.210735857    0.639307439    0.732968569
    0.877402544    0.305974066    0.851649225
    0.972640514    0.686926484    0.970329940
    0.305974185    0.020259930    0.495607138
    0.972640872    0.686926603    0.614287794
    0.639307380    0.353593171    0.732968569
    0.305973947    0.020259798    0.851649225
    0.829783320    0.115497887    0.970329821
    0.163117096    0.448831409    0.495607078
    0.829783678    0.115498066    0.614287794
    0.496450305    0.782164693    0.732968450
    0.163116753    0.448831260    0.851649225
    0.258354843    0.829783559    0.970329821
    0.591688514    0.163117111    0.495607078
    0.258355141    0.829783738    0.614287794
    0.925021768    0.496450424    0.732968390
    0.591688216    0.163116992    0.851649225
    0.115497708    0.258355081    0.970329821
    0.448831320    0.591688454    0.495607138
    0.115497999    0.258355170    0.614287794
    0.782164454    0.925021708    0.732968569
    0.448831081    0.591688335    0.851649225
    0.496450186    0.782164693    1.000000000
    0.163117111    0.448831350    0.406596601
    0.829783738    0.115498036    0.525277317
    0.496450245    0.782164633    0.643957973
    0.163116813    0.448831141    0.762638748
    0.829783440    0.115497828    0.881319344
    0.925021648    0.496450424    1.000000000
    0.591688514    0.163117126    0.406596601
    0.258355170    0.829783797    0.525277317
    0.925021708    0.496450424    0.643957913
    0.591688156    0.163116872    0.762638748
    0.258354843    0.829783559    0.881319344
    0.782164454    0.925021768    1.000000000
    0.448831350    0.591688514    0.406596601
    0.115498006    0.258355170    0.525277317
    0.782164574    0.925021768    0.643957913
    0.448831022    0.591688275    0.762638748
    0.115497649    0.258354962    0.881319344
    0.210735798    0.639307499    1.000000000
    0.877402782    0.305974245    0.406596601
    0.544069409    0.972640872    0.525277317
    0.210735977    0.639307499    0.643957913
    0.877402425    0.305974007    0.762638748
    0.544069052    0.972640753    0.881319344
    0.639307261    0.353593349    1.000000000
    0.305974245    0.020259961    0.406596601
    0.972640872    0.686926603    0.525277317
    0.639307380    0.353593230    0.643957973
    0.305973887    0.020259738    0.762638748
    0.972640514    0.686926365    0.881319344
    0.067878783    0.067878902    1.000000000
    0.734545708    0.734545648    0.406596601
    0.401212335    0.401212305    0.525277317
    0.067878902    0.067878895    0.643957973
    0.734545350    0.734545410    0.762638748
    0.401212037    0.401212096    0.881319344
    0.353592873    0.210736096    1.000000000
    0.020260012    0.877402782    0.406596541
    0.686926603    0.544069469    0.525277197
    0.353593290    0.210736170    0.643957913
    0.020259678    0.877402663    0.762638688
    0.686926246    0.544069290    0.881319344
    0.615497708    0.758355141    0.970329821
    0.948831320    0.091688499    0.495607138
    0.615497947    0.758355200    0.614287794
    0.282164454    0.425021708    0.732968569
    0.948831081    0.091688395    0.851649225
    0.044069171    0.472640753    0.970329821
    0.377402753    0.805974245    0.495607078
    0.044069424    0.472640932    0.614287794
    0.710735917    0.139307439    0.732968569
    0.377402544    0.805974126    0.851649225
    0.472640634    0.186926425    0.970329821
    0.805974245    0.520259917    0.495607078
    0.472640812    0.186926574    0.614287794
    0.139307439    0.853593230    0.732968450
    0.805973887    0.520259738    0.851649225
    0.901211977    0.901212215    0.970329821
    0.234545648    0.234545678    0.495607138
    0.901212215    0.901212335    0.614287794
    0.567878842    0.567878962    0.732968450
    0.234545290    0.234545469    0.851649225
    0.329783380    0.615497828    0.970329821
    0.663117111    0.948831439    0.495607078
    0.329783708    0.615498066    0.614287794
    0.996450305    0.282164752    0.732968390
    0.663116813    0.948831320    0.851649106
    0.758354902    0.329783618    0.970329821
    0.091688484    0.663117051    0.495607138
    0.758355141    0.329783797    0.614287794
    0.425021589    0.996450305    0.732968569
    0.091688275    0.663116932    0.851649225
    0.186926365    0.044069350    0.970329940
    0.520259917    0.377402782    0.495607138
    0.186926618    0.044069488    0.614287794
    0.853593051    0.710736036    0.732968569
    0.520259678    0.377402663    0.851649225
    0.567878604    0.567878842    1.000000000
    0.234545678    0.234545663    0.406596541
    0.901212275    0.901212335    0.525277197
    0.567878962    0.567879021    0.643957913
    0.234545350    0.234545469    0.762638688
    0.901211977    0.901212215    0.881319344
    0.425021529    0.996450305    1.000000000
    0.091688558    0.663117051    0.406596541
    0.758355141    0.329783738    0.525277197
    0.425021827    0.996450424    0.643957913
    0.091688216    0.663116932    0.762638688
    0.758354902    0.329783559    0.881319344
    0.853592992    0.710735917    1.000000000
    0.520259976    0.377402812    0.406596541
    0.186926559    0.044069443    0.525277197
    0.853593230    0.710736156    0.643957913
    0.520259619    0.377402604    0.762638688
    0.186926246    0.044069290    0.881319344
    0.282164335    0.425021648    1.000000000
    0.948831379    0.091688514    0.406596541
    0.615497947    0.758355141    0.525277197
    0.282164663    0.425021887    0.643957913
    0.948831081    0.091688335    0.762638688
    0.615497708    0.758355021    0.881319344
    0.710735798    0.139307439    1.000000000
    0.377402842    0.805974245    0.406596541
    0.044069409    0.472640872    0.525277197
    0.710736096    0.139307573    0.643957913
    0.377402484    0.805974066    0.762638688
    0.044069111    0.472640753    0.881319284
    0.139307261    0.853593111    1.000000000
    0.805974305    0.520259917    0.406596601
    0.472640902    0.186926559    0.525277317
    0.139307573    0.853593290    0.643957913
    0.805974007    0.520259738    0.762638688
    0.472640634    0.186926425    0.881319344
    0.996450067    0.282164514    1.000000000
    0.663117111    0.948831320    0.406596601
    0.329783678    0.615497947    0.525277317
    0.996450365    0.282164663    0.643957913
    0.663116813    0.948831141    0.762638748
    0.329783380    0.615497768    0.881319344
    0.544069171    0.472640753    0.970329940
    0.877402782    0.805974245    0.495607138
    0.544069409    0.472640932    0.614287794
    0.210735857    0.139307439    0.732968569
    0.877402544    0.805974126    0.851649225
    0.401212096    0.901212215    0.970329940
    0.734545648    0.234545648    0.495607138
    0.401212275    0.901212335    0.614287794
    0.067878723    0.567878842    0.732968569
    0.734545350    0.234545529    0.851649225
    0.829783440    0.615497947    0.970329940
    0.163117066    0.948831379    0.495607138
    0.829783738    0.615498066    0.614287794
    0.496450186    0.282164574    0.732968569
    0.163116813    0.948831201    0.851649225
    0.686926246    0.044069350    0.970329940
    0.020259935    0.377402902    0.495607078
    0.686926484    0.044069521    0.614287794
    0.353593171    0.710736156    0.732968390
    0.020259619    0.377402782    0.851649225
    0.115497649    0.758355021    0.970329821
    0.448831409    0.091688573    0.495607078
    0.115498006    0.758355200    0.614287794
    0.782164633    0.425021887    0.732968450
    0.448831141    0.091688454    0.851649225
    0.972640514    0.186926544    0.970329821
    0.305974185    0.520259917    0.495607138
    0.972640872    0.186926633    0.614287794
    0.639307320    0.853593171    0.732968569
    0.305973947    0.520259857    0.851649225
    0.258354902    0.329783618    0.970329940
    0.591688454    0.663117051    0.495607138
    0.258355141    0.329783767    0.614287794
    0.925021589    0.996450305    0.732968569
    0.591688275    0.663116932    0.851649225
    0.782164216    0.425021648    1.000000000
    0.448831350    0.091688514    0.406596601
    0.115497947    0.758355141    0.525277317
    0.782164633    0.425021887    0.643957913
    0.448831022    0.091688335    0.762638688
    0.115497649    0.758354902    0.881319344
    0.639307261    0.853593111    1.000000000
    0.305974275    0.520259917    0.406596541
    0.972640872    0.186926559    0.525277197
    0.639307559    0.853593290    0.643957913
    0.305973947    0.520259738    0.762638688
    0.972640634    0.186926365    0.881319344
    0.067878664    0.567878842    1.000000000
    0.734545708    0.234545663    0.406596601
    0.401212305    0.901212275    0.525277317
    0.067878962    0.567879021    0.643957913
    0.734545350    0.234545469    0.762638688
    0.401211977    0.901212096    0.881319344
    0.496450067    0.282164574    1.000000000
    0.163117126    0.948831439    0.406596601
    0.829783738    0.615498066    0.525277317
    0.496450365    0.282164752    0.643957913
    0.163116753    0.948831201    0.762638748
    0.829783440    0.615497947    0.881319344
    0.925021529    0.996450305    1.000000000
    0.591688514    0.663117111    0.406596541
    0.258355111    0.329783708    0.525277197
    0.925021768    0.996450424    0.643957913
    0.591688156    0.663116932    0.762638569
    0.258354783    0.329783618    0.881319284
    0.353592992    0.710735917    1.000000000
    0.020260066    0.377402812    0.406596541
    0.686926663    0.044069428    0.525277197
    0.353593349    0.710736156    0.643957913
    0.020259738    0.377402604    0.762638688
    0.686926365    0.044069290    0.881319344
    0.210735798    0.139307380    1.000000000
    0.877402842    0.805974245    0.406596601
    0.544069409    0.472640872    0.525277317
    0.210736111    0.139307573    0.643957913
    0.877402484    0.805974007    0.762638748
    0.544069171    0.472640693    0.881319344
    0.472640753    0.686926603    0.970329821
    0.805974185    0.020259941    0.495607138
    0.472640872    0.686926603    0.614287794
    0.139307261    0.353593171    0.732968569
    0.805974007    0.020259857    0.851649225
    0.901211977    0.401212215    0.970329821
    0.234545603    0.734545708    0.495607138
    0.901212275    0.401212335    0.614287794
    0.567878723    0.067878902    0.732968569
    0.234545350    0.734545588    0.851649225
    0.758354783    0.829783678    0.970329821
    0.091688506    0.163117155    0.495607078
    0.758355081    0.829783797    0.614287794
    0.425021708    0.496450424    0.732968450
    0.091688156    0.163116992    0.851649225
    0.186926186    0.544069409    0.970329821
    0.520259857    0.877402842    0.495607078
    0.186926484    0.544069409    0.614287794
    0.853593111    0.210736156    0.732968450
    0.520259619    0.877402663    0.851649225
    0.615497708    0.258354962    0.970329821
    0.948831379    0.591688395    0.495607138
    0.615498006    0.258355170    0.614287794
    0.282164454    0.925021648    0.732968569
    0.948831081    0.591688395    0.851649225
    0.044069111    0.972640872    0.970329821
    0.377402753    0.305974215    0.495607138
    0.044069450    0.972640932    0.614287794
    0.710735917    0.639307380    0.732968569
    0.377402544    0.305974126    0.851649225
    0.329783499    0.115497887    0.970329821
    0.663117051    0.448831290    0.495607138
    0.329783708    0.115498021    0.614287794
    0.996450186    0.782164574    0.732968569
    0.663116813    0.448831201    0.851649225
    0.425021768    0.496450424    1.000000000
    0.091688566    0.163117170    0.406596601
    0.758355200    0.829783857    0.525277317
    0.425021768    0.496450424    0.643957973
    0.091688216    0.163116992    0.762638688
    0.758354783    0.829783559    0.881319344
    0.710735917    0.639307499    1.000000000
    0.377402872    0.305974305    0.406596601
    0.044069469    0.972640991    0.525277317
    0.710736036    0.639307559    0.643957973
    0.377402484    0.305974066    0.762638748
    0.044069171    0.972640753    0.881319344
    0.567878842    0.067879021    1.000000000
    0.234545738    0.734545708    0.406596541
    0.901212335    0.401212364    0.525277197
    0.567878902    0.067878962    0.643957913
    0.234545350    0.734545469    0.762638748
    0.901211977    0.401212096    0.881319344
    0.996450186    0.782164693    1.000000000
    0.663117111    0.448831439    0.406596601
    0.329783708    0.115498096    0.525277197
    0.996450245    0.782164693    0.643957913
    0.663116753    0.448831201    0.762638748
    0.329783380    0.115497828    0.881319344
    0.853592992    0.210736096    1.000000000
    0.520259917    0.877402782    0.406596541
    0.186926529    0.544069469    0.525277197
    0.853593111    0.210736051    0.643957913
    0.520259559    0.877402604    0.762638748
    0.186926246    0.544069290    0.881319344
    0.282164335    0.925021768    1.000000000
    0.948831320    0.591688454    0.406596601
    0.615498006    0.258355141    0.525277317
    0.282164514    0.925021768    0.643957973
    0.948830962    0.591688275    0.762638748
    0.615497589    0.258354962    0.881319344
    0.139307320    0.353593349    1.000000000
    0.805974245    0.020260081    0.406596601
    0.472640902    0.686926723    0.525277317
    0.139307454    0.353593349    0.643957973
    0.805973887    0.020259798    0.762638748
    0.472640514    0.686926484    0.881319344
