C+Si
    1.000000000
   11.829737663    0.000000000    0.000000000
    0.000000000   16.729774475    0.000000000
    0.000000000    0.000000000   13.121020317
C   Si 
264     36
Direct
    0.181818232    0.682814956    0.000000026
    0.181818336    0.432814866    0.096109495
    0.181818470    0.182814822    0.192218944
    0.181818560    0.932814777    0.288328379
    0.181818664    0.682814717    0.384437829
    0.181818768    0.432814598    0.480547279
    0.454545498    0.773724020    0.000000027
    0.454545617    0.523724020    0.096109495
    0.454545766    0.273723960    0.192218944
    0.454545826    0.023723939    0.288328379
    0.454545975    0.773723841    0.384437859
    0.454546064    0.523723722    0.480547339
    0.727272689    0.864633083    0.000000023
    0.727272928    0.614633024    0.096109495
    0.727272987    0.364632964    0.192218944
    0.727273047    0.114632934    0.288328379
    0.727273166    0.864632845    0.384437859
    0.727273345    0.614632726    0.480547339
    0.090909123    0.319178551    0.000000013
    0.090909228    0.069178484    0.096109480
    0.090909339    0.819178462    0.192218915
    0.090909451    0.569178402    0.288328379
    0.090909563    0.319178343    0.384437859
    0.090909675    0.069178224    0.480547339
    0.363636434    0.410087645    0.000000012
    0.363636494    0.160087556    0.096109480
    0.363636643    0.910087526    0.192218944
    0.363636732    0.660087466    0.288328350
    0.363636822    0.410087466    0.384437829
    0.363636941    0.160087347    0.480547339
    0.636363626    0.500996709    0.000000003
    0.636363804    0.250996709    0.096109472
    0.636363864    0.000996639    0.192218944
    0.636363983    0.750996649    0.288328379
    0.636364102    0.500996590    0.384437859
    0.636364162    0.250996411    0.480547339
    0.909090877    0.591905832    0.000000013
    0.909091055    0.341905773    0.096109480
    0.909091175    0.091905728    0.192218915
    0.909091175    0.841905713    0.288328379
    0.909091353    0.591905594    0.384437859
    0.909091473    0.341905475    0.480547339
    0.000000020    0.955542207    0.000000012
    0.000000123    0.705542088    0.096109480
    0.000000238    0.455542028    0.192218944
    0.000000346    0.205542028    0.288328409
    0.000000475    0.955541968    0.384437889
    0.000000512    0.705541849    0.480547339
    0.272727311    0.046451278    0.000000010
    0.272727400    0.796451211    0.096109480
    0.272727519    0.546451151    0.192218944
    0.272727638    0.296451151    0.288328409
    0.272727758    0.046451092    0.384437889
    0.272727847    0.796450973    0.480547339
    0.545454621    0.137360379    0.000000012
    0.545454681    0.887360275    0.096109480
    0.545454800    0.637360215    0.192218944
    0.545454919    0.387360215    0.288328409
    0.545454979    0.137360215    0.384437889
    0.545455098    0.887359977    0.480547339
    0.818181813    0.228269443    0.000000012
    0.818182051    0.978269398    0.096109480
    0.818182051    0.728269339    0.192218944
    0.818182170    0.478269339    0.288328409
    0.818182290    0.228269279    0.384437889
    0.818182349    0.978269100    0.480547339
    0.090909109    0.819178581    0.000000017
    0.090909183    0.569178522    0.096109480
    0.090909295    0.319178492    0.192218944
    0.090909407    0.069178462    0.288328379
    0.090909511    0.819178402    0.384437859
    0.090909615    0.569178224    0.480547279
    0.363636464    0.910087645    0.000000017
    0.363636583    0.660087645    0.096109480
    0.363636672    0.410087615    0.192218944
    0.363636762    0.160087571    0.288328379
    0.363636851    0.910087526    0.384437859
    0.363636971    0.660087347    0.480547279
    0.000000000    0.455542207    0.000000013
    0.000000122    0.205542117    0.096109472
    0.000000233    0.955542088    0.192218944
    0.000000339    0.705542088    0.288328409
    0.000000483    0.455541968    0.384437859
    0.000000583    0.205541849    0.480547339
    0.272727311    0.546451330    0.000000016
    0.272727400    0.296451271    0.096109472
    0.272727519    0.046451218    0.192218944
    0.272727638    0.796451211    0.288328409
    0.272727728    0.546451092    0.384437859
    0.272727817    0.296450973    0.480547339
    0.545454621    0.637360394    0.000000016
    0.545454741    0.387360394    0.096109472
    0.545454860    0.137360334    0.192218944
    0.545454919    0.887360275    0.288328409
    0.545455039    0.637360215    0.384437859
    0.545455158    0.387360096    0.480547339
    0.818181813    0.728269458    0.000000010
    0.818181992    0.478269368    0.096109472
    0.818182111    0.228269309    0.192218944
    0.818182170    0.978269279    0.288328379
    0.818182290    0.728269219    0.384437829
    0.818182409    0.478269100    0.480547339
    0.181818217    0.182814926    0.000000007
    0.181818336    0.932814837    0.096109480
    0.181818441    0.682814837    0.192218944
    0.181818530    0.432814777    0.288328350
    0.181818664    0.182814717    0.384437889
    0.181818783    0.932814598    0.480547279
    0.454545528    0.273724020    0.000000006
    0.454545647    0.023723938    0.096109472
    0.454545736    0.773723900    0.192218959
    0.454545856    0.523723841    0.288328409
    0.454545975    0.273723781    0.384437859
    0.454546064    0.023723602    0.480547279
    0.727272809    0.364633113    0.000000007
    0.727272987    0.114633076    0.096109472
    0.727273047    0.864633024    0.192218944
    0.727273166    0.614633024    0.288328379
    0.727273226    0.364632964    0.384437859
    0.727273405    0.114632785    0.480547339
    0.636363685    0.000996743    0.000000012
    0.636363745    0.750996649    0.096109502
    0.636363864    0.500996590    0.192218944
    0.636363983    0.250996590    0.288328320
    0.636364102    0.000996470    0.384437859
    0.636364222    0.750996470    0.480547279
    0.909090996    0.091905817    0.000000010
    0.909091115    0.841905773    0.096109472
    0.909091294    0.591905713    0.192218915
    0.909091353    0.341905713    0.288328409
    0.909091473    0.091905594    0.384437859
    0.909091532    0.841905594    0.480547279
    0.068181850    0.728269577    0.000000025
    0.068181902    0.478269488    0.096109495
    0.068182029    0.228269428    0.192218944
    0.068182148    0.978269398    0.288328379
    0.068182237    0.728269339    0.384437859
    0.068182349    0.478269160    0.480547279
    0.340909123    0.819178522    0.000000019
    0.340909243    0.569178462    0.096109480
    0.340909362    0.319178432    0.192218944
    0.340909451    0.069178410    0.288328379
    0.340909570    0.819178343    0.384437859
    0.340909660    0.569178224    0.480547279
    0.613636374    0.910087705    0.000000025
    0.613636553    0.660087645    0.096109495
    0.613636613    0.410087615    0.192218944
    0.613636672    0.160087585    0.288328379
    0.613636792    0.910087526    0.384437859
    0.613636971    0.660087407    0.480547279
    0.250000060    0.455542177    0.000000017
    0.250000149    0.205542102    0.096109480
    0.250000298    0.955542088    0.192218944
    0.250000358    0.705542088    0.288328409
    0.250000477    0.455541968    0.384437859
    0.250000596    0.205541849    0.480547279
    0.522727251    0.546451330    0.000000000
    0.522727370    0.296451271    0.096109472
    0.522727549    0.046451230    0.192218944
    0.522727609    0.796451211    0.288328379
    0.522727728    0.546451092    0.384437859
    0.522727847    0.296451032    0.480547339
    0.795454562    0.637360454    0.000000000
    0.795454741    0.387360394    0.096109472
    0.795454860    0.137360349    0.192218944
    0.795454979    0.887360334    0.288328379
    0.795455039    0.637360215    0.384437859
    0.795455158    0.387360156    0.480547339
    0.159090921    0.091905825    0.000000012
    0.159091040    0.841905773    0.096109480
    0.159091145    0.591905713    0.192218959
    0.159091264    0.341905713    0.288328409
    0.159091368    0.091905594    0.384437859
    0.159091443    0.841905475    0.480547249
    0.431818247    0.182814941    0.000000012
    0.431818306    0.932814837    0.096109480
    0.431818455    0.682814837    0.192218959
    0.431818575    0.432814777    0.288328409
    0.431818664    0.182814717    0.384437859
    0.431818753    0.932814598    0.480547249
    0.704545498    0.273723990    0.000000010
    0.704545617    0.023723913    0.096109480
    0.704545677    0.773723900    0.192218944
    0.704545856    0.523723841    0.288328409
    0.704545975    0.273723781    0.384437859
    0.704546094    0.023723662    0.480547339
    0.977272749    0.364633113    0.000000010
    0.977272928    0.114633076    0.096109480
    0.977272987    0.864633024    0.192218915
    0.977273047    0.614633024    0.288328379
    0.977273166    0.364632905    0.384437889
    0.977273345    0.114632785    0.480547249
    0.886363685    0.000996756    0.000000006
    0.886363864    0.750996709    0.096109480
    0.886363924    0.500996649    0.192218944
    0.886363983    0.250996649    0.288328350
    0.886364102    0.000996590    0.384437829
    0.886364281    0.750996351    0.480547339
    0.159090981    0.591905832    0.000000030
    0.159091055    0.341905773    0.096109495
    0.159091190    0.091905706    0.192218944
    0.159091279    0.841905713    0.288328379
    0.159091398    0.591905594    0.384437859
    0.159091502    0.341905475    0.480547339
    0.431818217    0.682814956    0.000000009
    0.431818336    0.432814896    0.096109480
    0.431818426    0.182814837    0.192218944
    0.431818515    0.932814837    0.288328379
    0.431818664    0.682814717    0.384437859
    0.431818724    0.432814658    0.480547339
    0.704545557    0.773724079    0.000000009
    0.704545736    0.523724020    0.096109480
    0.704545796    0.273723960    0.192218944
    0.704545856    0.023723928    0.288328379
    0.704545975    0.773723841    0.384437859
    0.704546094    0.523723722    0.480547339
    0.977272749    0.864633083    0.000000027
    0.977272928    0.614633024    0.096109495
    0.977272987    0.364632964    0.192218944
    0.977273107    0.114632905    0.288328379
    0.977273345    0.864632845    0.384437829
    0.977273345    0.614632726    0.480547279
    0.068181835    0.228269473    0.000000007
    0.068181962    0.978269398    0.096109472
    0.068182074    0.728269339    0.192218944
    0.068182178    0.478269339    0.288328379
    0.068182260    0.228269279    0.384437859
    0.068182424    0.978269219    0.480547279
    0.340909153    0.319178581    0.000000007
    0.340909243    0.069178492    0.096109472
    0.340909362    0.819178462    0.192218944
    0.340909451    0.569178462    0.288328379
    0.340909570    0.319178343    0.384437859
    0.340909660    0.069178224    0.480547279
    0.613636374    0.410087645    0.000000006
    0.613636553    0.160087556    0.096109480
    0.613636672    0.910087526    0.192218944
    0.613636732    0.660087526    0.288328350
    0.613636851    0.410087407    0.384437889
    0.613636971    0.160087287    0.480547339
    0.886363685    0.500996768    0.000000007
    0.886363864    0.250996709    0.096109472
    0.886363983    0.000996661    0.192218944
    0.886364102    0.750996649    0.288328379
    0.886364162    0.500996590    0.384437859
    0.886364281    0.250996470    0.480547279
    0.250000030    0.955542207    0.000000004
    0.250000149    0.705542088    0.096109495
    0.250000268    0.455542028    0.192218944
    0.250000387    0.205542088    0.288328379
    0.250000477    0.955541968    0.384437829
    0.250000656    0.705541849    0.480547339
    0.522727370    0.046451289    0.000000004
    0.522727430    0.796451211    0.096109472
    0.522727549    0.546451211    0.192218944
    0.522727668    0.296451151    0.288328409
    0.522727728    0.046451092    0.384437859
    0.522727907    0.796450853    0.480547339
    0.795454621    0.137360379    0.000000006
    0.795454741    0.887360334    0.096109472
    0.795454800    0.637360215    0.192218944
    0.795454919    0.387360215    0.288328409
    0.795454979    0.137360156    0.384437859
    0.795455158    0.887360096    0.480547369
    0.393162012    0.724710524    0.624580622
    0.193161964    0.558043778    0.717135072
    0.993161798    0.391377091    0.809689522
    0.393162012    0.391377151    0.624580622
    0.193161964    0.224710494    0.717135072
    0.993161798    0.058043838    0.809689522
    0.393162012    0.058043838    0.624580622
    0.193161964    0.891377211    0.717135072
    0.993161798    0.724710524    0.809689522
    0.043162107    0.974710584    0.670857787
    0.843162000    0.808043897    0.763412237
    0.643161952    0.641377211    0.855966687
    0.043162107    0.641377211    0.670857787
    0.843162000    0.474710524    0.763412237
    0.643161952    0.308043838    0.855966687
    0.043162107    0.308043927    0.670857787
    0.843162000    0.141377240    0.763412237
    0.643161952    0.974710584    0.855966687
    0.893162012    0.891377091    0.624580622
    0.693161964    0.724710464    0.717135072
    0.493161857    0.558043718    0.809689522
    0.893162012    0.558043838    0.624580622
    0.693161964    0.391377151    0.717135072
    0.493161857    0.224710464    0.809689522
    0.893162012    0.224710524    0.624580622
    0.693161964    0.058043838    0.717135072
    0.493161857    0.891377151    0.809689522
    0.543162107    0.808043838    0.670857787
    0.343161941    0.641377091    0.763412237
    0.143161893    0.474710464    0.855966687
    0.543162107    0.474710524    0.670857787
    0.343161941    0.308043838    0.763412237
    0.143161893    0.141377181    0.855966687
    0.543162107    0.141377181    0.670857787
    0.343161941    0.974710464    0.763412237
    0.143161893    0.808043838    0.855966687
