Si+C                                    
   1.00000000000000     
    16.2930011750000006    0.0000000000000000    0.0000000000000000
   -10.8620004649999995   12.1440858840000008    0.0000000000000000
     0.0000000000000000    0.0000000000000000    7.9947495460000004
   Si   C 
    36    84
Direct
  0.9829056259999973  0.6410251260000024  0.0000000020000002
  0.7829055790000012  0.3410250250000004  0.1519008280000023
  0.5829054120000023  0.0410249350000029  0.3038016559999974
  0.9829056259999973  0.3076917830000028  0.0000000020000002
  0.7829055790000012  0.0076917150000000  0.1519008280000023
  0.5829054120000023  0.7076916689999990  0.3038016559999974
  0.9829056259999973  0.9743584989999974  0.0000000020000002
  0.7829055790000012  0.6743583680000000  0.1519008280000023
  0.5829054120000023  0.3743582959999969  0.3038016559999974
  0.6329056619999989  0.6576917169999987  0.0759502570000024
  0.4329055850000003  0.3576916159999968  0.2278510929999982
  0.2329055220000029  0.0576915779999965  0.3797519210000004
  0.6329056619999989  0.3243584630000029  0.0759502570000024
  0.4329055850000003  0.0243583689999980  0.2278510929999982
  0.2329055220000029  0.7243583200000003  0.3797519210000004
  0.6329056619999989  0.9910252090000000  0.0759502570000024
  0.4329055850000003  0.6910251380000005  0.2278510929999982
  0.2329055220000029  0.3910250659999974  0.3797519210000004
  0.4829056259999973  0.8076917530000003  0.0000000000000000
  0.2829055489999988  0.5076916220000030  0.1519008280000023
  0.0829054419999977  0.2076916099999977  0.3038016559999974
  0.4829056259999973  0.4743584389999995  0.0000000000000000
  0.2829055489999988  0.1743583530000024  0.1519008280000023
  0.0829054419999977  0.8743582959999969  0.3038016559999974
  0.4829056259999973  0.1410251410000001  0.0000000000000000
  0.2829055489999988  0.8410250539999993  0.1519008280000023
  0.0829054419999977  0.5410249829999998  0.3038016559999974
  0.1329056769999966  0.8243585230000008  0.0759502720000000
  0.9329055549999978  0.5243583920000034  0.2278510929999982
  0.7329055069999981  0.2243583799999982  0.3797519210000004
  0.1329056769999966  0.4910252090000000  0.0759502720000000
  0.9329055549999978  0.1910251079999981  0.2278510929999982
  0.7329055069999981  0.8910251260000024  0.3797519210000004
  0.1329056769999966  0.1576919560000007  0.0759502720000000
  0.9329055549999978  0.8576918839999976  0.2278510929999982
  0.7329055069999981  0.5576919319999973  0.3797519210000004
  0.7717283369999990  0.1143646239999967  0.5651751759999968
  0.0145854949999986  0.0857931379999997  0.6649358270000008
  0.2574427130000032  0.0572216509999990  0.7646964790000013
  0.0574426650000035  0.2572216989999987  0.5651751759999968
  0.3002998830000010  0.2286502119999980  0.6649358270000008
  0.5431571009999985  0.2000787560000035  0.7646964790000013
  0.3431568150000004  0.4000788029999995  0.5651751759999968
  0.5860140320000014  0.3715073170000025  0.6649358270000008
  0.8288713689999980  0.3429358599999972  0.7646964790000013
  0.6288712019999991  0.5429360270000032  0.5651751759999968
  0.8717284199999966  0.5143645409999991  0.6649358270000008
  0.1145857570000004  0.4857930539999984  0.7646964790000013
  0.9145854710000023  0.6857931019999981  0.5651751759999968
  0.1574426889999998  0.6572216750000024  0.6649358270000008
  0.4002999069999973  0.6286501880000017  0.7646964790000013
  0.2002997399999984  0.8286502959999993  0.5651751759999968
  0.4431569580000030  0.8000788089999986  0.6649358270000008
  0.6860141749999968  0.7715073230000016  0.7646964790000013
  0.4860140090000016  0.9715074300000026  0.5651751759999968
  0.7288712260000025  0.9429358840000006  0.6649358270000008
  0.9717284440000000  0.9143644569999978  0.7646964790000013
  0.6074424979999975  0.2072217170000030  0.6150554419999992
  0.8502998350000013  0.1786502300000024  0.7148160930000031
  0.0931570529999988  0.1500787140000028  0.8145766259999974
  0.8931567070000028  0.3500788509999992  0.6150554419999992
  0.1360139849999982  0.3215073650000022  0.7148160930000031
  0.3788712019999991  0.2929358479999991  0.8145767449999965
  0.1788710359999968  0.4929360149999980  0.6150554419999992
  0.4217283730000005  0.4643645290000009  0.7148160930000031
  0.6645855900000015  0.4357930420000002  0.8145767449999965
  0.4645854230000026  0.6357931490000013  0.6150554419999992
  0.7074427599999993  0.6072216629999971  0.7148160930000031
  0.9502999779999968  0.5786502360000014  0.8145767449999965
  0.7502995729999995  0.7786502840000011  0.6150554419999992
  0.9931569100000033  0.7500787970000005  0.7148160930000031
  0.2360140090000016  0.7215073110000034  0.8145767449999965
  0.0360140800000011  0.9215074179999974  0.6150554419999992
  0.2788712979999985  0.8929358720000025  0.7148160930000031
  0.5217285160000031  0.8643644449999996  0.8145766259999974
  0.3217282299999980  0.0643645520000007  0.6150554419999992
  0.5645854469999989  0.0357930659999965  0.7148160930000031
  0.8074426649999964  0.0072215799999995  0.8145766259999974
  0.4145855900000015  0.1857931609999994  0.5651751759999968
  0.6574426889999998  0.1572216449999999  0.6649358270000008
  0.9003000259999965  0.1286502179999971  0.7646964790000013
  0.7002999779999968  0.3286502959999993  0.5651751759999968
  0.9431570770000022  0.3000787790000032  0.6649358270000008
  0.1860141749999968  0.2715072929999991  0.7646964790000013
  0.9860140680000029  0.4715074300000026  0.5651751759999968
  0.2288713459999983  0.4429359439999985  0.6649358270000008
  0.4717285629999992  0.4143644569999978  0.7646964790000013
  0.2717282770000011  0.6143645639999988  0.5651751759999968
  0.5145854949999986  0.5857930780000018  0.6649358270000008
  0.7574428320000024  0.5572216509999990  0.7646964790000013
  0.5574426649999964  0.7572216989999987  0.5651751759999968
  0.8002998830000010  0.7286502720000030  0.6649358270000008
  0.0431569810000028  0.7000787260000010  0.7646964790000013
  0.8431568740000017  0.9000788929999999  0.5651751759999968
  0.0860141519999971  0.8715074659999971  0.6649358270000008
  0.3288714890000008  0.8429359790000035  0.7646964790000013
  0.1288712019999991  0.0429360870000011  0.5651751759999968
  0.3717284199999966  0.0143646000000004  0.6649358270000008
  0.6145856380000012  0.9857931140000034  0.7646964790000013
  0.9645854830000005  0.1357931490000013  0.6150554419999992
  0.2074427599999993  0.1072216029999993  0.7148160930000031
  0.4502999779999968  0.0786502360000014  0.8145767449999965
  0.2502996919999987  0.2786502840000011  0.6150554419999992
  0.4931569100000033  0.2500787970000005  0.7148160930000031
  0.7360141280000008  0.2215073409999988  0.8145766259999974
  0.5360138420000027  0.4215073880000020  0.6150554419999992
  0.7788712979999985  0.3929359609999992  0.7148160930000031
  0.0217285160000031  0.3643645049999975  0.8145766259999974
  0.8217281100000022  0.5643645520000007  0.6150554419999992
  0.0645854469999989  0.5357931260000015  0.7148160930000031
  0.3074426650000035  0.5072215799999995  0.8145766259999974
  0.1074426169999967  0.7072216270000027  0.6150554419999992
  0.3502998350000013  0.6786501409999985  0.7148160930000031
  0.5931570529999988  0.6500787140000028  0.8145767449999965
  0.3931568859999999  0.8500788209999968  0.6150554419999992
  0.6360142229999965  0.8215073349999997  0.7148160930000031
  0.8788714410000011  0.7929359669999982  0.8145767449999965
  0.6788710359999968  0.9929359559999966  0.6150554419999992
  0.9217283730000005  0.9643645290000009  0.7148160930000031
  0.1645855900000015  0.9357930420000002  0.8145767449999965
 
  0.00000000E+00  0.00000000E+00  0.00000000E+00
  0.00000000E+00  0.00000000E+00  0.00000000E+00
  0.00000000E+00  0.00000000E+00  0.00000000E+00
  0.00000000E+00  0.00000000E+00  0.00000000E+00
  0.00000000E+00  0.00000000E+00  0.00000000E+00
  0.00000000E+00  0.00000000E+00  0.00000000E+00
  0.00000000E+00  0.00000000E+00  0.00000000E+00
  0.00000000E+00  0.00000000E+00  0.00000000E+00
  0.00000000E+00  0.00000000E+00  0.00000000E+00
  0.00000000E+00  0.00000000E+00  0.00000000E+00
  0.00000000E+00  0.00000000E+00  0.00000000E+00
  0.00000000E+00  0.00000000E+00  0.00000000E+00
  0.00000000E+00  0.00000000E+00  0.00000000E+00
  0.00000000E+00  0.00000000E+00  0.00000000E+00
  0.00000000E+00  0.00000000E+00  0.00000000E+00
  0.00000000E+00  0.00000000E+00  0.00000000E+00
  0.00000000E+00  0.00000000E+00  0.00000000E+00
  0.00000000E+00  0.00000000E+00  0.00000000E+00
  0.00000000E+00  0.00000000E+00  0.00000000E+00
  0.00000000E+00  0.00000000E+00  0.00000000E+00
  0.00000000E+00  0.00000000E+00  0.00000000E+00
  0.00000000E+00  0.00000000E+00  0.00000000E+00
  0.00000000E+00  0.00000000E+00  0.00000000E+00
  0.00000000E+00  0.00000000E+00  0.00000000E+00
  0.00000000E+00  0.00000000E+00  0.00000000E+00
  0.00000000E+00  0.00000000E+00  0.00000000E+00
  0.00000000E+00  0.00000000E+00  0.00000000E+00
  0.00000000E+00  0.00000000E+00  0.00000000E+00
  0.00000000E+00  0.00000000E+00  0.00000000E+00
  0.00000000E+00  0.00000000E+00  0.00000000E+00
  0.00000000E+00  0.00000000E+00  0.00000000E+00
  0.00000000E+00  0.00000000E+00  0.00000000E+00
  0.00000000E+00  0.00000000E+00  0.00000000E+00
  0.00000000E+00  0.00000000E+00  0.00000000E+00
  0.00000000E+00  0.00000000E+00  0.00000000E+00
  0.00000000E+00  0.00000000E+00  0.00000000E+00
  0.00000000E+00  0.00000000E+00  0.00000000E+00
  0.00000000E+00  0.00000000E+00  0.00000000E+00
  0.00000000E+00  0.00000000E+00  0.00000000E+00
  0.00000000E+00  0.00000000E+00  0.00000000E+00
  0.00000000E+00  0.00000000E+00  0.00000000E+00
  0.00000000E+00  0.00000000E+00  0.00000000E+00
  0.00000000E+00  0.00000000E+00  0.00000000E+00
  0.00000000E+00  0.00000000E+00  0.00000000E+00
  0.00000000E+00  0.00000000E+00  0.00000000E+00
  0.00000000E+00  0.00000000E+00  0.00000000E+00
  0.00000000E+00  0.00000000E+00  0.00000000E+00
  0.00000000E+00  0.00000000E+00  0.00000000E+00
  0.00000000E+00  0.00000000E+00  0.00000000E+00
  0.00000000E+00  0.00000000E+00  0.00000000E+00
  0.00000000E+00  0.00000000E+00  0.00000000E+00
  0.00000000E+00  0.00000000E+00  0.00000000E+00
  0.00000000E+00  0.00000000E+00  0.00000000E+00
  0.00000000E+00  0.00000000E+00  0.00000000E+00
  0.00000000E+00  0.00000000E+00  0.00000000E+00
  0.00000000E+00  0.00000000E+00  0.00000000E+00
  0.00000000E+00  0.00000000E+00  0.00000000E+00
  0.00000000E+00  0.00000000E+00  0.00000000E+00
  0.00000000E+00  0.00000000E+00  0.00000000E+00
  0.00000000E+00  0.00000000E+00  0.00000000E+00
  0.00000000E+00  0.00000000E+00  0.00000000E+00
  0.00000000E+00  0.00000000E+00  0.00000000E+00
  0.00000000E+00  0.00000000E+00  0.00000000E+00
  0.00000000E+00  0.00000000E+00  0.00000000E+00
  0.00000000E+00  0.00000000E+00  0.00000000E+00
  0.00000000E+00  0.00000000E+00  0.00000000E+00
  0.00000000E+00  0.00000000E+00  0.00000000E+00
  0.00000000E+00  0.00000000E+00  0.00000000E+00
  0.00000000E+00  0.00000000E+00  0.00000000E+00
  0.00000000E+00  0.00000000E+00  0.00000000E+00
  0.00000000E+00  0.00000000E+00  0.00000000E+00
  0.00000000E+00  0.00000000E+00  0.00000000E+00
  0.00000000E+00  0.00000000E+00  0.00000000E+00
  0.00000000E+00  0.00000000E+00  0.00000000E+00
  0.00000000E+00  0.00000000E+00  0.00000000E+00
  0.00000000E+00  0.00000000E+00  0.00000000E+00
  0.00000000E+00  0.00000000E+00  0.00000000E+00
  0.00000000E+00  0.00000000E+00  0.00000000E+00
  0.00000000E+00  0.00000000E+00  0.00000000E+00
  0.00000000E+00  0.00000000E+00  0.00000000E+00
  0.00000000E+00  0.00000000E+00  0.00000000E+00
  0.00000000E+00  0.00000000E+00  0.00000000E+00
  0.00000000E+00  0.00000000E+00  0.00000000E+00
  0.00000000E+00  0.00000000E+00  0.00000000E+00
  0.00000000E+00  0.00000000E+00  0.00000000E+00
  0.00000000E+00  0.00000000E+00  0.00000000E+00
  0.00000000E+00  0.00000000E+00  0.00000000E+00
  0.00000000E+00  0.00000000E+00  0.00000000E+00
  0.00000000E+00  0.00000000E+00  0.00000000E+00
  0.00000000E+00  0.00000000E+00  0.00000000E+00
  0.00000000E+00  0.00000000E+00  0.00000000E+00
  0.00000000E+00  0.00000000E+00  0.00000000E+00
  0.00000000E+00  0.00000000E+00  0.00000000E+00
  0.00000000E+00  0.00000000E+00  0.00000000E+00
  0.00000000E+00  0.00000000E+00  0.00000000E+00
  0.00000000E+00  0.00000000E+00  0.00000000E+00
  0.00000000E+00  0.00000000E+00  0.00000000E+00
  0.00000000E+00  0.00000000E+00  0.00000000E+00
  0.00000000E+00  0.00000000E+00  0.00000000E+00
  0.00000000E+00  0.00000000E+00  0.00000000E+00
  0.00000000E+00  0.00000000E+00  0.00000000E+00
  0.00000000E+00  0.00000000E+00  0.00000000E+00
  0.00000000E+00  0.00000000E+00  0.00000000E+00
  0.00000000E+00  0.00000000E+00  0.00000000E+00
  0.00000000E+00  0.00000000E+00  0.00000000E+00
  0.00000000E+00  0.00000000E+00  0.00000000E+00
  0.00000000E+00  0.00000000E+00  0.00000000E+00
  0.00000000E+00  0.00000000E+00  0.00000000E+00
  0.00000000E+00  0.00000000E+00  0.00000000E+00
  0.00000000E+00  0.00000000E+00  0.00000000E+00
  0.00000000E+00  0.00000000E+00  0.00000000E+00
  0.00000000E+00  0.00000000E+00  0.00000000E+00
  0.00000000E+00  0.00000000E+00  0.00000000E+00
  0.00000000E+00  0.00000000E+00  0.00000000E+00
  0.00000000E+00  0.00000000E+00  0.00000000E+00
  0.00000000E+00  0.00000000E+00  0.00000000E+00
  0.00000000E+00  0.00000000E+00  0.00000000E+00
  0.00000000E+00  0.00000000E+00  0.00000000E+00
  0.00000000E+00  0.00000000E+00  0.00000000E+00
  0.00000000E+00  0.00000000E+00  0.00000000E+00
