Si+Sn                                   
   1.00000000000000     
    13.3031797409999992    0.0000000000000000    0.0000000000000000
     6.6515893940000002   14.8734064099999994    0.0000000000000000
     0.0000000000000000    0.0000000000000000    6.6635937690000002
   Si   Sn
    36    24
Direct
  0.9829056259999973  0.6581194999999980  0.0000000060000005
  0.7829055790000012  0.5581192969999975  0.1822453739999972
  0.5829054120000023  0.4581190939999971  0.3644907469999978
  0.9829056259999973  0.3247861270000030  0.0000000060000005
  0.7829055790000012  0.2247859690000027  0.1822453739999972
  0.5829054120000023  0.1247858030000017  0.3644907469999978
  0.9829056259999973  0.9914528130000022  0.0000000060000005
  0.7829055790000012  0.8914526699999996  0.1822453739999972
  0.5829054120000023  0.7914525269999970  0.3644907469999978
  0.6329056619999989  0.6914526819999978  0.0911224930000003
  0.4329055850000003  0.5914524789999973  0.2733678519999998
  0.2329055220000029  0.4914524260000022  0.4556132259999970
  0.6329056619999989  0.3581194280000020  0.0911224930000003
  0.4329055850000003  0.2581192849999994  0.2733678519999998
  0.2329055220000029  0.1581191419999968  0.4556132259999970
  0.6329056619999989  0.0247861369999995  0.0911224930000003
  0.4329055850000003  0.9247859720000022  0.2733678519999998
  0.2329055220000029  0.8247858289999996  0.4556132259999970
  0.4829056259999973  0.6581194999999980  0.0000000000000000
  0.2829055489999988  0.5581192969999975  0.1822453739999972
  0.0829054419999977  0.4581190939999971  0.3644907469999978
  0.4829056259999973  0.3247861270000030  0.0000000000000000
  0.2829055489999988  0.2247859539999979  0.1822453739999972
  0.0829054419999977  0.1247858110000024  0.3644907469999978
  0.4829056259999973  0.9914528130000022  0.0000000000000000
  0.2829055489999988  0.8914526699999996  0.1822453739999972
  0.0829054419999977  0.7914525269999970  0.3644907469999978
  0.1329056769999966  0.6914527420000027  0.0911225150000021
  0.9329055549999978  0.5914524789999973  0.2733678519999998
  0.7329055069999981  0.4914523959999997  0.4556132259999970
  0.1329056769999966  0.3581194879999998  0.0911225150000021
  0.9329055549999978  0.2581192849999994  0.2733678519999998
  0.7329055069999981  0.1581191269999991  0.4556132259999970
  0.1329056769999966  0.0247861369999995  0.0911225150000021
  0.9329055549999978  0.9247859720000022  0.2733678519999998
  0.7329055069999981  0.8247858289999996  0.4556132259999970
  0.9871792200000016  0.0256415140000001  0.4556131960000016
  0.8371791840000000  0.3256415720000021  0.6733680370000030
  0.6871791479999985  0.6256416439999981  0.8911228779999973
  0.4871792499999970  0.0256415140000001  0.4556131960000016
  0.3371791539999975  0.3256415720000021  0.6733680370000030
  0.1871791330000008  0.6256416439999981  0.8911228779999973
  0.2871792019999972  0.6756414769999992  0.5644904380000000
  0.1371791810000005  0.9756414889999974  0.7822452190000035
  0.9871791010000024  0.2756415610000005  0.0000000000000000
  0.7871793509999989  0.6756414769999992  0.5644904380000000
  0.6371793149999974  0.9756414889999974  0.7822452190000035
  0.4871792499999970  0.2756415610000005  0.0000000000000000
  0.9871792790000029  0.5256415010000026  0.4556133150000008
  0.8371791840000000  0.8256415130000008  0.6733680370000030
  0.6871790889999971  0.1256417040000031  0.8911228779999973
  0.4871792499999970  0.5256415010000026  0.4556133150000008
  0.3371792439999979  0.8256415130000008  0.6733680370000030
  0.1871791180000031  0.1256417040000031  0.8911228779999973
  0.2871792319999997  0.1756415070000017  0.5644904380000000
  0.1371791660000028  0.4756415490000023  0.7822452190000035
  0.9871791599999966  0.7756416200000018  0.0000000000000000
  0.7871792910000011  0.1756415070000017  0.5644904380000000
  0.6371792549999995  0.4756415490000023  0.7822452190000035
  0.4871791599999966  0.7756416200000018  0.0000000000000000
 
  0.00000000E+00  0.00000000E+00  0.00000000E+00
  0.00000000E+00  0.00000000E+00  0.00000000E+00
  0.00000000E+00  0.00000000E+00  0.00000000E+00
  0.00000000E+00  0.00000000E+00  0.00000000E+00
  0.00000000E+00  0.00000000E+00  0.00000000E+00
  0.00000000E+00  0.00000000E+00  0.00000000E+00
  0.00000000E+00  0.00000000E+00  0.00000000E+00
  0.00000000E+00  0.00000000E+00  0.00000000E+00
  0.00000000E+00  0.00000000E+00  0.00000000E+00
  0.00000000E+00  0.00000000E+00  0.00000000E+00
  0.00000000E+00  0.00000000E+00  0.00000000E+00
  0.00000000E+00  0.00000000E+00  0.00000000E+00
  0.00000000E+00  0.00000000E+00  0.00000000E+00
  0.00000000E+00  0.00000000E+00  0.00000000E+00
  0.00000000E+00  0.00000000E+00  0.00000000E+00
  0.00000000E+00  0.00000000E+00  0.00000000E+00
  0.00000000E+00  0.00000000E+00  0.00000000E+00
  0.00000000E+00  0.00000000E+00  0.00000000E+00
  0.00000000E+00  0.00000000E+00  0.00000000E+00
  0.00000000E+00  0.00000000E+00  0.00000000E+00
  0.00000000E+00  0.00000000E+00  0.00000000E+00
  0.00000000E+00  0.00000000E+00  0.00000000E+00
  0.00000000E+00  0.00000000E+00  0.00000000E+00
  0.00000000E+00  0.00000000E+00  0.00000000E+00
  0.00000000E+00  0.00000000E+00  0.00000000E+00
  0.00000000E+00  0.00000000E+00  0.00000000E+00
  0.00000000E+00  0.00000000E+00  0.00000000E+00
  0.00000000E+00  0.00000000E+00  0.00000000E+00
  0.00000000E+00  0.00000000E+00  0.00000000E+00
  0.00000000E+00  0.00000000E+00  0.00000000E+00
  0.00000000E+00  0.00000000E+00  0.00000000E+00
  0.00000000E+00  0.00000000E+00  0.00000000E+00
  0.00000000E+00  0.00000000E+00  0.00000000E+00
  0.00000000E+00  0.00000000E+00  0.00000000E+00
  0.00000000E+00  0.00000000E+00  0.00000000E+00
  0.00000000E+00  0.00000000E+00  0.00000000E+00
  0.00000000E+00  0.00000000E+00  0.00000000E+00
  0.00000000E+00  0.00000000E+00  0.00000000E+00
  0.00000000E+00  0.00000000E+00  0.00000000E+00
  0.00000000E+00  0.00000000E+00  0.00000000E+00
  0.00000000E+00  0.00000000E+00  0.00000000E+00
  0.00000000E+00  0.00000000E+00  0.00000000E+00
  0.00000000E+00  0.00000000E+00  0.00000000E+00
  0.00000000E+00  0.00000000E+00  0.00000000E+00
  0.00000000E+00  0.00000000E+00  0.00000000E+00
  0.00000000E+00  0.00000000E+00  0.00000000E+00
  0.00000000E+00  0.00000000E+00  0.00000000E+00
  0.00000000E+00  0.00000000E+00  0.00000000E+00
  0.00000000E+00  0.00000000E+00  0.00000000E+00
  0.00000000E+00  0.00000000E+00  0.00000000E+00
  0.00000000E+00  0.00000000E+00  0.00000000E+00
  0.00000000E+00  0.00000000E+00  0.00000000E+00
  0.00000000E+00  0.00000000E+00  0.00000000E+00
  0.00000000E+00  0.00000000E+00  0.00000000E+00
  0.00000000E+00  0.00000000E+00  0.00000000E+00
  0.00000000E+00  0.00000000E+00  0.00000000E+00
  0.00000000E+00  0.00000000E+00  0.00000000E+00
  0.00000000E+00  0.00000000E+00  0.00000000E+00
  0.00000000E+00  0.00000000E+00  0.00000000E+00
  0.00000000E+00  0.00000000E+00  0.00000000E+00
