Si+C
    1.000000000
   13.303179741    0.000000000    0.000000000
    6.651589394   14.873406410    0.000000000
    0.000000000    0.000000000    7.994750023
Si  C  
36     84
Direct
    0.283249497    0.641624749    0.000000047
    0.816582799    0.408291280    0.151900873
    0.349915981    0.174957767    0.303801745
    0.616582751    0.308291376    0.000000057
    0.149916053    0.074957930    0.151900873
    0.683249235    0.841624439    0.303801715
    0.949916124    0.974958062    0.000000040
    0.483249485    0.741624594    0.151900873
    0.016582668    0.508291125    0.303801715
    0.799916267    0.774958014    0.075950310
    0.333249509    0.541624546    0.227851167
    0.866582751    0.308291078    0.379752040
    0.133249685    0.441624761    0.075950325
    0.666582942    0.208291277    0.227851167
    0.199916244    0.974957764    0.379752040
    0.466582894    0.108291537    0.075950325
    0.999916136    0.874958038    0.227851167
    0.533249378    0.641624570    0.379752040
    0.783249557    0.641624749    0.000000000
    0.316582829    0.408291280    0.151900858
    0.849916041    0.174957782    0.303801745
    0.116582796    0.308291405    0.000000057
    0.649916053    0.074957952    0.151900902
    0.183249295    0.841624498    0.303801745
    0.449916124    0.974958062    0.000000057
    0.983249426    0.741624594    0.151900902
    0.516582668    0.508291125    0.303801745
    0.299916178    0.774958134    0.075950325
    0.833249450    0.541624665    0.227851197
    0.366582692    0.308291197    0.379752010
    0.633249402    0.441624731    0.075950347
    0.166582644    0.208291262    0.227851197
    0.699915946    0.974957824    0.379751980
    0.966582716    0.108291551    0.075950325
    0.499915957    0.874958038    0.227851197
    0.033249259    0.641624629    0.379752040
    0.012232184    0.151190937    0.565175354
    0.983660519    0.422619581    0.664936006
    0.955088973    0.694048166    0.764696538
    0.155089259    0.294048071    0.565175354
    0.126517713    0.565476716    0.664936006
    0.097946174    0.836905360    0.764696538
    0.297946393    0.436905265    0.565175354
    0.269374847    0.708333850    0.664936006
    0.240803316    0.979762554    0.764696598
    0.440803528    0.579762399    0.565175354
    0.412231982    0.851191044    0.664936006
    0.383660436    0.122619748    0.764696598
    0.583660662    0.722619534    0.565175354
    0.555089056    0.994048119    0.664936006
    0.526517510    0.265476763    0.764696598
    0.726517797    0.865476608    0.565175354
    0.697946250    0.136905268    0.664936006
    0.669374704    0.408333838    0.764696538
    0.869374990    0.008333921    0.565175354
    0.840803444    0.279762447    0.664936006
    0.812231779    0.551191032    0.764696598
    0.105089299    0.894047916    0.615055561
    0.076517761    0.165476516    0.714816213
    0.047946259    0.436905205    0.814576805
    0.247946396    0.036905169    0.615055561
    0.219374850    0.308333814    0.714816153
    0.190803289    0.579762518    0.814576805
    0.390803576    0.179762319    0.615055561
    0.362231970    0.451191008    0.714816153
    0.333660364    0.722619593    0.814576805
    0.533660650    0.322619379    0.615055561
    0.505089164    0.594048023    0.714816213
    0.476517498    0.865476549    0.814576805
    0.676517785    0.465476692    0.615055561
    0.647946239    0.736905277    0.714816213
    0.619374692    0.008333921    0.814576805
    0.819374919    0.608333766    0.615055561
    0.790803373    0.879762411    0.714816213
    0.762231886    0.151191071    0.814576805
    0.962232113    0.751190901    0.615055561
    0.933660626    0.022619605    0.714816213
    0.905088961    0.294048011    0.814576805
    0.083660655    0.722619474    0.565175354
    0.055089135    0.994048119    0.664936006
    0.026517551    0.265476763    0.764696538
    0.226517797    0.865476608    0.565175354
    0.197946265    0.136905268    0.664936006
    0.169374779    0.408333957    0.764696598
    0.369374990    0.008333802    0.565175354
    0.340803504    0.279762447    0.664936006
    0.312231839    0.551191032    0.764696538
    0.512232125    0.151190937    0.565175354
    0.483660519    0.422619581    0.664936006
    0.455089033    0.694048166    0.764696598
    0.655089259    0.294048011    0.565175354
    0.626517713    0.565476656    0.664936006
    0.597946167    0.836905301    0.764696598
    0.797946453    0.436905265    0.565175354
    0.769374847    0.708333850    0.664936006
    0.740803361    0.979762495    0.764696598
    0.940803587    0.579762340    0.565175354
    0.912231982    0.851190984    0.664936006
    0.883660436    0.122619629    0.764696598
    0.033660688    0.322619408    0.615055561
    0.005089164    0.594048023    0.714816153
    0.976517558    0.865476668    0.814576805
    0.176517844    0.465476453    0.615055561
    0.147946298    0.736905098    0.714816213
    0.119374759    0.008333683    0.814576805
    0.319374979    0.608333766    0.615055561
    0.290803432    0.879762352    0.714816213
    0.262231827    0.151190951    0.814576805
    0.462232113    0.751190841    0.615055561
    0.433660567    0.022619486    0.714816153
    0.405089021    0.294048011    0.814576805
    0.605089188    0.894047856    0.615055561
    0.576517701    0.165476516    0.714816153
    0.547946155    0.436905205    0.814576805
    0.747946322    0.036905169    0.615055561
    0.719374776    0.308333814    0.714816213
    0.690803230    0.579762280    0.814576805
    0.890803516    0.179762200    0.615055561
    0.862231910    0.451190770    0.714816153
    0.833660305    0.722619355    0.814576805
