Si+C
    1.000000000
   13.303179741    0.000000000    0.000000000
   -6.651589394   14.873406410    0.000000000
    0.000000000    0.000000000    5.029924393
Si  C  
36     84
Direct
    0.997150958    0.980056584    0.000000000
    0.963817537    0.746723175    0.241436914
    0.930484116    0.513389826    0.482873827
    0.330484211    0.313389868    0.000000000
    0.297150791    0.080056474    0.241436914
    0.263817370    0.846723080    0.482873827
    0.663817465    0.646723151    0.000000000
    0.630484045    0.413389713    0.241436914
    0.597150624    0.180056334    0.482873827
    0.313817531    0.946723342    0.120718203
    0.280484110    0.713389993    0.362155110
    0.247150689    0.480056584    0.603591859
    0.647150815    0.280056566    0.120718203
    0.613817394    0.046723194    0.362155080
    0.580483973    0.813389778    0.603591919
    0.980484426    0.613389850    0.120718248
    0.947151005    0.380056471    0.362155080
    0.913817585    0.146723092    0.603591859
    0.163817570    0.646723092    0.000000003
    0.130484164    0.413389713    0.241436914
    0.097150750    0.180056319    0.482873827
    0.497150898    0.980056643    0.000000008
    0.463817418    0.746723175    0.241436809
    0.430484056    0.513389826    0.482873738
    0.830484152    0.313389868    0.000000008
    0.797150731    0.080056526    0.241436809
    0.763817310    0.846723080    0.482873738
    0.147150904    0.280056566    0.120718211
    0.113817483    0.046723165    0.362155110
    0.080484070    0.813389778    0.603591919
    0.480484217    0.613389909    0.120718211
    0.447150826    0.380056530    0.362155080
    0.413817406    0.146723166    0.603591919
    0.813817501    0.946723282    0.120718203
    0.780484140    0.713389874    0.362155080
    0.747150719    0.480056465    0.603591919
    0.353589565    0.939231634    0.920718431
    0.153589413    0.539231718    0.603591919
    0.253589481    0.239231676    0.762155294
    0.639303863    0.082088761    0.920718431
    0.439303666    0.682088852    0.603591919
    0.539303780    0.382088810    0.762155294
    0.925018072    0.224945828    0.920718431
    0.725017965    0.824945927    0.603591919
    0.825018048    0.524945915    0.762155294
    0.210732430    0.367803097    0.920718431
    0.010732271    0.967803180    0.603591919
    0.110732347    0.667803168    0.762155294
    0.496446699    0.510660231    0.920718431
    0.296446532    0.110660337    0.603591919
    0.396446615    0.810660303    0.762155294
    0.782160997    0.653517365    0.920718431
    0.582160771    0.253517479    0.603591919
    0.682160854    0.953517437    0.762155294
    0.067875147    0.796374440    0.920718431
    0.867875040    0.396374613    0.603591919
    0.967875123    0.096374556    0.762155294
    0.332161009    0.253517449    0.999999881
    0.132160857    0.853517592    0.682873487
    0.232160941    0.553517580    0.841436625
    0.475018084    0.824945986    0.999999881
    0.275017947    0.424946070    0.682873487
    0.375018001    0.124946013    0.841436625
    0.760732353    0.967803299    0.999999881
    0.560732126    0.567803383    0.682873487
    0.660732210    0.267803311    0.841436744
    0.046446681    0.110660389    0.999999762
    0.846446514    0.710660458    0.682873487
    0.946446598    0.410660416    0.841436744
    0.617875278    0.396374524    0.999999881
    0.417875141    0.996374667    0.682873487
    0.517875195    0.696374536    0.841436625
    0.903589487    0.539231837    0.999999881
    0.703589320    0.139231920    0.682873487
    0.803589344    0.839231849    0.841436625
    0.189303637    0.682088852    0.999999881
    0.989303529    0.282088995    0.682873487
    0.089303613    0.982088923    0.841436625
    0.425018162    0.224945813    0.920718431
    0.225017935    0.824945986    0.603591919
    0.325018048    0.524945915    0.762155294
    0.282160968    0.653517365    0.920718431
    0.082160838    0.253517449    0.603591919
    0.182160899    0.953517377    0.762155294
    0.567875206    0.796374440    0.920718431
    0.367875069    0.396374583    0.603591919
    0.467875153    0.096374527    0.762155294
    0.853589475    0.939231575    0.920718431
    0.653589308    0.539231658    0.603591919
    0.753589511    0.239231631    0.762155294
    0.139303803    0.082088694    0.920718431
    0.939303696    0.682088852    0.603591919
    0.039303660    0.382088751    0.762155294
    0.710732341    0.367803097    0.920718431
    0.510732174    0.967803180    0.603591919
    0.610732317    0.667803109    0.762155294
    0.996446609    0.510660172    0.920718431
    0.796446443    0.110660300    0.603591919
    0.896446586    0.810660243    0.762155294
    0.260732383    0.967803299    0.999999881
    0.060732208    0.567803383    0.682873487
    0.160732284    0.267803311    0.841436744
    0.546446681    0.110660374    0.999999881
    0.346446514    0.710660458    0.682873487
    0.446446627    0.410660416    0.841436744
    0.832160950    0.253517509    0.999999881
    0.632160783    0.853517592    0.682873487
    0.732160866    0.553517461    0.841436744
    0.403589547    0.539231896    0.999999881
    0.203589410    0.139231965    0.682873487
    0.303589433    0.839231908    0.841436625
    0.689303815    0.682088971    0.999999762
    0.489303648    0.282089055    0.682873487
    0.589303672    0.982088923    0.841436744
    0.975017965    0.824945927    0.999999762
    0.775017738    0.424946010    0.682873487
    0.875017941    0.124945991    0.841436625
    0.117875218    0.396374524    1.000000000
    0.917874992    0.996374667    0.682873487
    0.017875075    0.696374536    0.841436744
