Si+C                                    
   1.00000000000000     
    13.3031797409999992    0.0000000000000000    0.0000000000000000
    -6.6515893940000002   14.8734064099999994    0.0000000000000000
     0.0000000000000000    0.0000000000000000    8.3900594710000007
   Si   C 
    36    84
Direct
  0.9971509579999989  0.9800565840000033  0.0000000000000000
  0.9638175369999971  0.7467231749999996  0.1447438300000030
  0.9304841160000024  0.5133898260000009  0.2894876599999989
  0.3304842109999981  0.3133898680000016  0.0000000000000000
  0.2971507910000000  0.0800564740000027  0.1447438300000030
  0.2638173699999982  0.8467230799999967  0.2894876599999989
  0.6638174650000011  0.6467231510000033  0.0000000000000000
  0.6304840450000029  0.4133897130000008  0.1447438300000030
  0.5971506240000011  0.1800563339999997  0.2894876599999989
  0.3138175309999980  0.9467233419999985  0.0723717589999993
  0.2804841100000033  0.7133899929999998  0.2171155810000016
  0.2471506890000015  0.4800565840000033  0.3618593509999997
  0.6471508150000034  0.2800565659999990  0.0723717589999993
  0.6138173940000016  0.0467231940000019  0.2171155509999991
  0.5804839729999998  0.8133897780000012  0.3618593810000021
  0.9804844259999967  0.6133898499999972  0.0723717879999981
  0.9471510050000020  0.3800564710000032  0.2171155509999991
  0.9138175849999968  0.1467230920000020  0.3618593509999997
  0.1638175699999991  0.6467230920000020  0.0000000020000002
  0.1304841640000021  0.4133897130000008  0.1447438300000030
  0.0971507499999973  0.1800563190000020  0.2894876599999989
  0.4971508980000010  0.9800566429999975  0.0000000049999969
  0.4638174179999979  0.7467231749999996  0.1447437699999981
  0.4304840559999974  0.5133898260000009  0.2894876000000011
  0.8304841519999968  0.3133898680000016  0.0000000049999969
  0.7971507310000021  0.0800565259999999  0.1447437699999981
  0.7638173100000003  0.8467230799999967  0.2894876000000011
  0.1471509040000001  0.2800565659999990  0.0723717730000004
  0.1138174829999983  0.0467231650000031  0.2171155810000016
  0.0804840699999971  0.8133897780000012  0.3618593810000021
  0.4804842169999972  0.6133899089999986  0.0723717730000004
  0.4471508259999979  0.3800565299999974  0.2171155509999991
  0.4138174059999997  0.1467231660000010  0.3618593810000021
  0.8138175010000026  0.9467232820000007  0.0723717589999993
  0.7804841399999987  0.7133898740000006  0.2171155509999991
  0.7471507189999969  0.4800564649999970  0.3618593810000021
  0.5960137840000002  0.9577501420000019  0.7522248630000021
  0.3960136769999991  0.5577502249999995  0.5621044040000029
  0.4960137309999979  0.2577501829999989  0.6571646929999986
  0.8817281130000012  0.1006072759999981  0.7522248630000021
  0.6817278859999973  0.7006073590000028  0.5621044040000029
  0.7817280289999999  0.4006073179999987  0.6571646929999986
  0.1674423219999994  0.2434643510000001  0.7522248630000021
  0.9674422140000019  0.8434644339999977  0.5621044040000029
  0.0674422980000031  0.5434644219999996  0.6571646929999986
  0.4531566799999993  0.3863216040000026  0.7522248630000021
  0.2531565130000004  0.9863216879999968  0.5621044040000029
  0.3531565959999980  0.6863216759999986  0.6571646929999986
  0.7388709780000013  0.5291787390000025  0.7522248630000021
  0.5388708110000024  0.1291788520000026  0.5621044040000029
  0.6388708349999987  0.8291788100000019  0.6571646929999986
  0.0245852469999974  0.6720358729999987  0.7522248630000021
  0.8245850209999972  0.2720359859999988  0.5621044040000029
  0.9245851040000019  0.9720359439999982  0.6571646929999986
  0.3102993970000014  0.8148929480000007  0.7522248630000021
  0.1102993490000017  0.4148931209999986  0.5621044040000029
  0.2102993729999980  0.1148930789999980  0.6571646929999986
  0.5745852590000027  0.2720359560000034  0.7997548580000000
  0.3745850919999967  0.8720360989999989  0.6096344589999987
  0.4745851759999979  0.5720360879999973  0.7046946290000022
  0.7174423339999976  0.8434644940000027  0.7997548580000000
  0.5174422260000000  0.4434645770000003  0.6096344589999987
  0.6174422500000034  0.1434645349999997  0.7046946290000022
  0.0031566620000021  0.9863218070000030  0.7997548580000000
  0.8031563759999969  0.5863218900000007  0.6096344589999987
  0.9031564590000016  0.2863218190000012  0.7046946880000036
  0.2888709309999982  0.1291789109999968  0.7997547980000022
  0.0888707639999993  0.7291789650000027  0.6096344589999987
  0.1888709070000019  0.4291789230000020  0.7046946880000036
  0.8602995279999988  0.4148930309999983  0.7997548580000000
  0.6602994200000012  0.0148931740000009  0.6096344589999987
  0.7602994439999975  0.7148930430000036  0.7046946290000022
  0.1460137369999970  0.5577503439999987  0.7997548580000000
  0.9460135699999981  0.1577504429999976  0.6096344589999987
  0.0460135940000015  0.8577503559999968  0.7046946290000022
  0.4317278859999973  0.7006073590000028  0.7997548580000000
  0.2317278390000013  0.3006075019999983  0.6096344589999987
  0.3317278620000010  0.0006074909999967  0.7046946290000022
  0.6674424409999986  0.2434643360000024  0.7522248630000021
  0.4674421850000030  0.8434644940000027  0.5621044040000029
  0.5674422980000031  0.5434644219999996  0.6571646929999986
  0.5245852469999974  0.6720358729999987  0.7522248630000021
  0.3245850799999985  0.2720359560000034  0.5621044040000029
  0.4245851639999998  0.9720358849999968  0.6571646929999986
  0.8102994560000027  0.8148929480000007  0.7522248630000021
  0.6102993490000017  0.4148930910000033  0.5621044040000029
  0.7102993729999980  0.1148930490000026  0.6571646929999986
  0.0960137840000002  0.9577500819999969  0.7522248630000021
  0.8960135579999999  0.5577501650000016  0.5621044040000029
  0.9960137610000004  0.2577501540000000  0.6571646929999986
  0.3817280530000033  0.1006072160000002  0.7522248630000021
  0.1817278859999973  0.7006073590000028  0.5621044040000029
  0.2817279100000007  0.4006072580000009  0.6571646929999986
  0.9531565899999990  0.3863216040000026  0.7522248630000021
  0.7531564239999966  0.9863216879999968  0.5621044040000029
  0.8531565669999992  0.6863216160000007  0.6571646929999986
  0.2388708590000022  0.5291786789999975  0.7522248630000021
  0.0388706920000033  0.1291788220000001  0.5621044040000029
  0.1388708349999987  0.8291787510000006  0.6571646929999986
  0.5031566620000021  0.9863218070000030  0.7997548580000000
  0.3031564650000007  0.5863218900000007  0.6096344589999987
  0.4031565189999995  0.2863218190000012  0.7046946880000036
  0.7888709309999982  0.1291788970000027  0.7997548580000000
  0.5888707639999993  0.7291789650000027  0.6096344589999987
  0.6888709070000019  0.4291789230000020  0.7046946880000036
  0.0745851989999977  0.2720360160000013  0.7997548580000000
  0.8745850319999988  0.8720360989999989  0.6096344589999987
  0.9745851160000001  0.5720359680000016  0.7046946880000036
  0.6460137959999983  0.5577504039999965  0.7997548580000000
  0.4460136590000019  0.1577504870000013  0.6096344589999987
  0.5460137130000007  0.8577504160000018  0.7046946290000022
  0.9317280650000015  0.7006074789999985  0.7997547980000022
  0.7317278980000026  0.3006075620000033  0.6096344589999987
  0.8317279219999989  0.0006074909999967  0.7046946880000036
  0.2174422739999997  0.8434644339999977  0.7997547980000022
  0.0174419880000016  0.4434645179999990  0.6096344589999987
  0.1174421309999971  0.1434645060000008  0.7046946290000022
  0.3602994680000009  0.4148930309999983  0.7997549179999979
  0.1602993010000020  0.0148931740000009  0.6096344589999987
  0.2602993249999983  0.7148930430000036  0.7046946880000036
 
  0.00000000E+00  0.00000000E+00  0.00000000E+00
  0.00000000E+00  0.00000000E+00  0.00000000E+00
  0.00000000E+00  0.00000000E+00  0.00000000E+00
  0.00000000E+00  0.00000000E+00  0.00000000E+00
  0.00000000E+00  0.00000000E+00  0.00000000E+00
  0.00000000E+00  0.00000000E+00  0.00000000E+00
  0.00000000E+00  0.00000000E+00  0.00000000E+00
  0.00000000E+00  0.00000000E+00  0.00000000E+00
  0.00000000E+00  0.00000000E+00  0.00000000E+00
  0.00000000E+00  0.00000000E+00  0.00000000E+00
  0.00000000E+00  0.00000000E+00  0.00000000E+00
  0.00000000E+00  0.00000000E+00  0.00000000E+00
  0.00000000E+00  0.00000000E+00  0.00000000E+00
  0.00000000E+00  0.00000000E+00  0.00000000E+00
  0.00000000E+00  0.00000000E+00  0.00000000E+00
  0.00000000E+00  0.00000000E+00  0.00000000E+00
  0.00000000E+00  0.00000000E+00  0.00000000E+00
  0.00000000E+00  0.00000000E+00  0.00000000E+00
  0.00000000E+00  0.00000000E+00  0.00000000E+00
  0.00000000E+00  0.00000000E+00  0.00000000E+00
  0.00000000E+00  0.00000000E+00  0.00000000E+00
  0.00000000E+00  0.00000000E+00  0.00000000E+00
  0.00000000E+00  0.00000000E+00  0.00000000E+00
  0.00000000E+00  0.00000000E+00  0.00000000E+00
  0.00000000E+00  0.00000000E+00  0.00000000E+00
  0.00000000E+00  0.00000000E+00  0.00000000E+00
  0.00000000E+00  0.00000000E+00  0.00000000E+00
  0.00000000E+00  0.00000000E+00  0.00000000E+00
  0.00000000E+00  0.00000000E+00  0.00000000E+00
  0.00000000E+00  0.00000000E+00  0.00000000E+00
  0.00000000E+00  0.00000000E+00  0.00000000E+00
  0.00000000E+00  0.00000000E+00  0.00000000E+00
  0.00000000E+00  0.00000000E+00  0.00000000E+00
  0.00000000E+00  0.00000000E+00  0.00000000E+00
  0.00000000E+00  0.00000000E+00  0.00000000E+00
  0.00000000E+00  0.00000000E+00  0.00000000E+00
  0.00000000E+00  0.00000000E+00  0.00000000E+00
  0.00000000E+00  0.00000000E+00  0.00000000E+00
  0.00000000E+00  0.00000000E+00  0.00000000E+00
  0.00000000E+00  0.00000000E+00  0.00000000E+00
  0.00000000E+00  0.00000000E+00  0.00000000E+00
  0.00000000E+00  0.00000000E+00  0.00000000E+00
  0.00000000E+00  0.00000000E+00  0.00000000E+00
  0.00000000E+00  0.00000000E+00  0.00000000E+00
  0.00000000E+00  0.00000000E+00  0.00000000E+00
  0.00000000E+00  0.00000000E+00  0.00000000E+00
  0.00000000E+00  0.00000000E+00  0.00000000E+00
  0.00000000E+00  0.00000000E+00  0.00000000E+00
  0.00000000E+00  0.00000000E+00  0.00000000E+00
  0.00000000E+00  0.00000000E+00  0.00000000E+00
  0.00000000E+00  0.00000000E+00  0.00000000E+00
  0.00000000E+00  0.00000000E+00  0.00000000E+00
  0.00000000E+00  0.00000000E+00  0.00000000E+00
  0.00000000E+00  0.00000000E+00  0.00000000E+00
  0.00000000E+00  0.00000000E+00  0.00000000E+00
  0.00000000E+00  0.00000000E+00  0.00000000E+00
  0.00000000E+00  0.00000000E+00  0.00000000E+00
  0.00000000E+00  0.00000000E+00  0.00000000E+00
  0.00000000E+00  0.00000000E+00  0.00000000E+00
  0.00000000E+00  0.00000000E+00  0.00000000E+00
  0.00000000E+00  0.00000000E+00  0.00000000E+00
  0.00000000E+00  0.00000000E+00  0.00000000E+00
  0.00000000E+00  0.00000000E+00  0.00000000E+00
  0.00000000E+00  0.00000000E+00  0.00000000E+00
  0.00000000E+00  0.00000000E+00  0.00000000E+00
  0.00000000E+00  0.00000000E+00  0.00000000E+00
  0.00000000E+00  0.00000000E+00  0.00000000E+00
  0.00000000E+00  0.00000000E+00  0.00000000E+00
  0.00000000E+00  0.00000000E+00  0.00000000E+00
  0.00000000E+00  0.00000000E+00  0.00000000E+00
  0.00000000E+00  0.00000000E+00  0.00000000E+00
  0.00000000E+00  0.00000000E+00  0.00000000E+00
  0.00000000E+00  0.00000000E+00  0.00000000E+00
  0.00000000E+00  0.00000000E+00  0.00000000E+00
  0.00000000E+00  0.00000000E+00  0.00000000E+00
  0.00000000E+00  0.00000000E+00  0.00000000E+00
  0.00000000E+00  0.00000000E+00  0.00000000E+00
  0.00000000E+00  0.00000000E+00  0.00000000E+00
  0.00000000E+00  0.00000000E+00  0.00000000E+00
  0.00000000E+00  0.00000000E+00  0.00000000E+00
  0.00000000E+00  0.00000000E+00  0.00000000E+00
  0.00000000E+00  0.00000000E+00  0.00000000E+00
  0.00000000E+00  0.00000000E+00  0.00000000E+00
  0.00000000E+00  0.00000000E+00  0.00000000E+00
  0.00000000E+00  0.00000000E+00  0.00000000E+00
  0.00000000E+00  0.00000000E+00  0.00000000E+00
  0.00000000E+00  0.00000000E+00  0.00000000E+00
  0.00000000E+00  0.00000000E+00  0.00000000E+00
  0.00000000E+00  0.00000000E+00  0.00000000E+00
  0.00000000E+00  0.00000000E+00  0.00000000E+00
  0.00000000E+00  0.00000000E+00  0.00000000E+00
  0.00000000E+00  0.00000000E+00  0.00000000E+00
  0.00000000E+00  0.00000000E+00  0.00000000E+00
  0.00000000E+00  0.00000000E+00  0.00000000E+00
  0.00000000E+00  0.00000000E+00  0.00000000E+00
  0.00000000E+00  0.00000000E+00  0.00000000E+00
  0.00000000E+00  0.00000000E+00  0.00000000E+00
  0.00000000E+00  0.00000000E+00  0.00000000E+00
  0.00000000E+00  0.00000000E+00  0.00000000E+00
  0.00000000E+00  0.00000000E+00  0.00000000E+00
  0.00000000E+00  0.00000000E+00  0.00000000E+00
  0.00000000E+00  0.00000000E+00  0.00000000E+00
  0.00000000E+00  0.00000000E+00  0.00000000E+00
  0.00000000E+00  0.00000000E+00  0.00000000E+00
  0.00000000E+00  0.00000000E+00  0.00000000E+00
  0.00000000E+00  0.00000000E+00  0.00000000E+00
  0.00000000E+00  0.00000000E+00  0.00000000E+00
  0.00000000E+00  0.00000000E+00  0.00000000E+00
  0.00000000E+00  0.00000000E+00  0.00000000E+00
  0.00000000E+00  0.00000000E+00  0.00000000E+00
  0.00000000E+00  0.00000000E+00  0.00000000E+00
  0.00000000E+00  0.00000000E+00  0.00000000E+00
  0.00000000E+00  0.00000000E+00  0.00000000E+00
  0.00000000E+00  0.00000000E+00  0.00000000E+00
  0.00000000E+00  0.00000000E+00  0.00000000E+00
  0.00000000E+00  0.00000000E+00  0.00000000E+00
  0.00000000E+00  0.00000000E+00  0.00000000E+00
  0.00000000E+00  0.00000000E+00  0.00000000E+00
  0.00000000E+00  0.00000000E+00  0.00000000E+00
  0.00000000E+00  0.00000000E+00  0.00000000E+00
