Si+C
    1.000000000
   13.303179741    0.000000000    0.000000000
    6.651589394   14.873406410    0.000000000
    0.000000000    0.000000000    5.029926300
Si  C  
36     84
Direct
    0.283249497    0.641624749    0.000000074
    0.816582799    0.408291280    0.241436824
    0.349915981    0.174957767    0.482873648
    0.616582751    0.308291376    0.000000090
    0.149916053    0.074957930    0.241436824
    0.683249235    0.841624439    0.482873559
    0.949916124    0.974958062    0.000000063
    0.483249485    0.741624594    0.241436824
    0.016582668    0.508291125    0.482873559
    0.799916267    0.774958014    0.120718203
    0.333249509    0.541624546    0.362155020
    0.866582751    0.308291078    0.603591859
    0.133249685    0.441624761    0.120718233
    0.666582942    0.208291277    0.362155020
    0.199916244    0.974957764    0.603591859
    0.466582894    0.108291537    0.120718233
    0.999916136    0.874958038    0.362155020
    0.533249378    0.641624570    0.603591859
    0.783249557    0.641624749    0.000000000
    0.316582829    0.408291280    0.241436779
    0.849916041    0.174957782    0.482873648
    0.116582796    0.308291405    0.000000090
    0.649916053    0.074957952    0.241436869
    0.183249295    0.841624498    0.482873648
    0.449916124    0.974958062    0.000000090
    0.983249426    0.741624594    0.241436869
    0.516582668    0.508291125    0.482873648
    0.299916178    0.774958134    0.120718233
    0.833249450    0.541624665    0.362155080
    0.366582692    0.308291197    0.603591800
    0.633249402    0.441624731    0.120718263
    0.166582644    0.208291262    0.362155080
    0.699915946    0.974957824    0.603591740
    0.966582716    0.108291551    0.120718233
    0.499915957    0.874958038    0.362155080
    0.033249259    0.641624629    0.603591859
    0.976430118    0.827111483    0.920718312
    0.319287211    0.855683148    0.603591919
    0.647858679    0.841397345    0.762155175
    0.262144327    0.684254408    0.920718312
    0.605001509    0.712826014    0.603591919
    0.933572948    0.698540211    0.762155175
    0.547858596    0.541397274    0.920718312
    0.890715718    0.569968879    0.603591919
    0.219287157    0.555683076    0.762155175
    0.833572984    0.398540109    0.920718312
    0.176430076    0.427111715    0.603591800
    0.505001545    0.412825942    0.762155175
    0.119287252    0.255682975    0.920718312
    0.462144315    0.284254581    0.603591800
    0.790715754    0.269968808    0.762155175
    0.405001521    0.112825856    0.920718312
    0.747858584    0.141397461    0.603591800
    0.076430082    0.127111688    0.762155175
    0.690715909    0.969968736    0.920718431
    0.033572942    0.998540282    0.603591800
    0.362144411    0.984254539    0.762155175
    0.426429987    0.927111506    0.999999762
    0.769287109    0.955683112    0.682873368
    0.097858548    0.941397250    0.841436625
    0.712144256    0.784254372    0.999999762
    0.055001378    0.812825978    0.682873368
    0.383572817    0.798540115    0.841436625
    0.997858524    0.641397238    0.999999881
    0.340715677    0.669968843    0.682873368
    0.669287145    0.655683041    0.841436625
    0.283572912    0.498540163    0.999999762
    0.626430035    0.527111709    0.682873368
    0.955001414    0.512825966    0.841436625
    0.569287300    0.355683059    0.999999881
    0.912144363    0.384254634    0.682873368
    0.240715742    0.369968861    0.841436625
    0.855001450    0.212825865    0.999999881
    0.197858617    0.241397455    0.682873368
    0.526430070    0.227111652    0.841436625
    0.140715837    0.069968723    0.999999762
    0.483572960    0.098540321    0.682873368
    0.812144339    0.084254533    0.841436625
    0.476430058    0.827111542    0.920718312
    0.819287181    0.855683029    0.603591800
    0.147858500    0.841397345    0.762155175
    0.762144506    0.684254408    0.920718431
    0.105001539    0.712826014    0.603591800
    0.433572978    0.698540211    0.762155175
    0.047858834    0.541397274    0.920718431
    0.390715808    0.569968879    0.603591800
    0.719287276    0.555683076    0.762155175
    0.333572984    0.398540169    0.920718431
    0.676430047    0.427111745    0.603591800
    0.005001426    0.412825972    0.762155175
    0.619287133    0.255683094    0.920718431
    0.962144315    0.284254611    0.603591800
    0.290715814    0.269968808    0.762155175
    0.905001581    0.112825878    0.920718431
    0.247858629    0.141397431    0.603591919
    0.576430142    0.127111644    0.762155175
    0.190715790    0.969968796    0.920718431
    0.533572853    0.998540342    0.603591919
    0.862144351    0.984254539    0.762155175
    0.926430047    0.927111626    0.999999762
    0.269287169    0.955683172    0.682873368
    0.597858548    0.941397309    0.841436625
    0.212144375    0.784254432    0.999999762
    0.555001497    0.812826037    0.682873368
    0.883572876    0.798540175    0.841436625
    0.497858644    0.641397238    0.999999762
    0.840715826    0.669968843    0.682873368
    0.169287324    0.655682981    0.841436625
    0.783572793    0.498540163    0.999999642
    0.126430035    0.527111650    0.682873368
    0.455001473    0.512825906    0.841436625
    0.069287300    0.355682999    0.999999762
    0.412144452    0.384254575    0.682873368
    0.740715861    0.369968802    0.841436625
    0.355001330    0.212825820    0.999999762
    0.697858512    0.241397426    0.682873368
    0.026429892    0.227111652    0.841436625
    0.640715718    0.069968797    0.999999762
    0.983572960    0.098540299    0.682873368
    0.312144279    0.084254526    0.841436625
