Sn+Ge
    1.000000000
   12.978400230    0.000000000    0.000000000
  -12.978400230   12.978400230    0.000000000
    0.000000000    0.000000000   19.583751678
Sn  Ge 
48     60
Direct
    0.492552608    0.000000000    0.000000000
    0.242552638    0.000000000    0.165678188
    0.992552698    0.000000000    0.331356287
    0.992552638    0.000000000    0.000000000
    0.742552638    0.000000000    0.165678188
    0.492552757    0.000000000    0.331356287
    0.492552608    0.499999970    0.000000000
    0.242552638    0.499999970    0.165678188
    0.992552698    0.499999970    0.331356287
    0.992552638    0.499999970    0.000000000
    0.742552638    0.499999970    0.165678188
    0.492552698    0.499999970    0.331356287
    0.492552608    0.124999993    0.082839087
    0.242552668    0.124999993    0.248517260
    0.992552638    0.124999993    0.414195418
    0.992552638    0.124999993    0.082839087
    0.742552757    0.124999993    0.248517260
    0.492552698    0.124999993    0.414195418
    0.492552578    0.624999940    0.082839087
    0.242552638    0.624999940    0.248517260
    0.992552638    0.624999940    0.414195418
    0.992552638    0.624999940    0.082839087
    0.742552698    0.624999940    0.248517260
    0.492552698    0.624999940    0.414195418
    0.492552638    0.249999985    0.000000000
    0.242552638    0.249999985    0.165678188
    0.992552698    0.249999985    0.331356287
    0.992552638    0.249999985    0.000000000
    0.742552638    0.249999985    0.165678188
    0.492552757    0.249999985    0.331356287
    0.492552608    0.749999940    0.000000000
    0.242552593    0.749999940    0.165678188
    0.992552698    0.749999940    0.331356287
    0.992552638    0.749999940    0.000000000
    0.742552638    0.749999940    0.165678188
    0.492552698    0.749999940    0.331356287
    0.492552608    0.374999970    0.082839087
    0.242552668    0.374999970    0.248517260
    0.992552638    0.374999970    0.414195418
    0.992552638    0.374999970    0.082839087
    0.742552757    0.374999970    0.248517260
    0.492552698    0.374999970    0.414195418
    0.492552608    0.874999940    0.082839087
    0.242552698    0.874999940    0.248517260
    0.992552638    0.874999940    0.414195418
    0.992552638    0.874999940    0.082839087
    0.742552757    0.874999940    0.248517260
    0.492552757    0.874999940    0.414195418
    0.943870127    0.924728155    0.526533484
    0.843870103    0.024728179    0.670984805
    0.743870020    0.124728203    0.815436304
    0.143870115    0.724728167    0.526533484
    0.043870091    0.824728191    0.670984805
    0.943870068    0.924728215    0.815436304
    0.743870199    0.124728203    0.526533484
    0.643870115    0.224728227    0.670984805
    0.543870091    0.324728251    0.815436304
    0.543870151    0.324728251    0.526533484
    0.443870127    0.424728155    0.670984805
    0.343870103    0.524728298    0.815436304
    0.343870133    0.524728298    0.526533484
    0.243870109    0.624728203    0.670984805
    0.143870115    0.724728227    0.815436304
    0.043870211    0.074728131    0.598759174
    0.943870127    0.174728155    0.743210614
    0.843870103    0.274728298    0.887661994
    0.243870139    0.874728143    0.598759174
    0.143870115    0.974728227    0.743210614
    0.043870091    0.074728251    0.887661994
    0.843870163    0.274728179    0.598759174
    0.743870080    0.374728203    0.743210614
    0.643870056    0.474728346    0.887661994
    0.643870175    0.474728107    0.598759174
    0.543870151    0.574728251    0.743210614
    0.443870068    0.674728274    0.887661994
    0.443870068    0.674728274    0.598759174
    0.343870044    0.774728298    0.743210614
    0.243869990    0.874728322    0.887661994
    0.543870151    0.824728131    0.526533484
    0.443870127    0.924728155    0.670984805
    0.343870103    0.024728179    0.815436304
    0.343870133    0.024728179    0.526533484
    0.243870109    0.124728203    0.670984805
    0.143869996    0.224728227    0.815436304
    0.943870127    0.424728155    0.526533484
    0.843870103    0.524728298    0.670984805
    0.743870080    0.624728203    0.815436304
    0.143870115    0.224728107    0.526533484
    0.043870091    0.324728251    0.670984805
    0.943870068    0.424728274    0.815436304
    0.743870080    0.624728203    0.526533484
    0.643870056    0.724728227    0.670984805
    0.543869972    0.824728370    0.815436304
    0.843870163    0.774728179    0.598759174
    0.743870080    0.874728203    0.743210614
    0.643870056    0.974728227    0.887661994
    0.643870115    0.974728167    0.598759174
    0.543870091    0.074728251    0.743210614
    0.443870068    0.174728274    0.887661994
    0.443870127    0.174728155    0.598759174
    0.343870074    0.274728298    0.743210614
    0.243870050    0.374728203    0.887661994
    0.043870211    0.574728251    0.598759174
    0.943870187    0.674728274    0.743210614
    0.843870163    0.774728298    0.887661994
    0.243870080    0.374728203    0.598759174
    0.143869996    0.474728227    0.743210614
    0.043869972    0.574728251    0.887661994
