Ge+Ge                                   
   1.00000000000000     
     5.6578001980000003    0.0000000000000000    0.0000000000000000
     0.0000000000000000    5.6578001980000003    0.0000000000000000
     0.0000000000000000    0.0000000000000000   16.7445030209999999
   Ge
    24
Direct
  0.0170834529999979  0.0000000000000000  0.0000000000000000
  0.5170834059999976  0.0000000000000000  0.1689450000000008
  0.0170834059999976  0.0000000000000000  0.3378900290000004
  0.2670834360000001  0.7500000000000000  0.0844724999999968
  0.7670834059999976  0.7500000000000000  0.2534174919999970
  0.2670834059999976  0.7500000000000000  0.4223625360000014
  0.5170834059999976  0.4999999699999975  0.0000000000000000
  0.0170832869999984  0.4999999699999975  0.1689450000000008
  0.5170832869999984  0.4999999699999975  0.3378900290000004
  0.7670834059999976  0.2499999850000023  0.0844724999999968
  0.2670834059999976  0.2499999850000023  0.2534174919999970
  0.7670834059999976  0.2499999850000023  0.4223625360000014
  0.4456548989999973  0.4285714330000019  0.4999999400000021
  0.9456548690000020  0.4285714330000019  0.6689449550000006
  0.4456548389999995  0.4285714330000019  0.8378900290000004
  0.6956548690000020  0.1785714629999973  0.5844724769999985
  0.1956548690000020  0.1785714629999973  0.7534174919999970
  0.6956548690000020  0.1785714629999973  0.9223625659999968
  0.9456548690000020  0.9285714029999994  0.4999999400000021
  0.4456547200000003  0.9285714029999994  0.6689449550000006
  0.9456547500000028  0.9285714029999994  0.8378900290000004
  0.1956548690000020  0.6785714029999994  0.5844724769999985
  0.6956548690000020  0.6785714029999994  0.7534174919999970
  0.1956548690000020  0.6785714029999994  0.9223625659999968
 
  0.00000000E+00  0.00000000E+00  0.00000000E+00
  0.00000000E+00  0.00000000E+00  0.00000000E+00
  0.00000000E+00  0.00000000E+00  0.00000000E+00
  0.00000000E+00  0.00000000E+00  0.00000000E+00
  0.00000000E+00  0.00000000E+00  0.00000000E+00
  0.00000000E+00  0.00000000E+00  0.00000000E+00
  0.00000000E+00  0.00000000E+00  0.00000000E+00
  0.00000000E+00  0.00000000E+00  0.00000000E+00
  0.00000000E+00  0.00000000E+00  0.00000000E+00
  0.00000000E+00  0.00000000E+00  0.00000000E+00
  0.00000000E+00  0.00000000E+00  0.00000000E+00
  0.00000000E+00  0.00000000E+00  0.00000000E+00
  0.00000000E+00  0.00000000E+00  0.00000000E+00
  0.00000000E+00  0.00000000E+00  0.00000000E+00
  0.00000000E+00  0.00000000E+00  0.00000000E+00
  0.00000000E+00  0.00000000E+00  0.00000000E+00
  0.00000000E+00  0.00000000E+00  0.00000000E+00
  0.00000000E+00  0.00000000E+00  0.00000000E+00
  0.00000000E+00  0.00000000E+00  0.00000000E+00
  0.00000000E+00  0.00000000E+00  0.00000000E+00
  0.00000000E+00  0.00000000E+00  0.00000000E+00
  0.00000000E+00  0.00000000E+00  0.00000000E+00
  0.00000000E+00  0.00000000E+00  0.00000000E+00
  0.00000000E+00  0.00000000E+00  0.00000000E+00
