Ge+Ge
    1.000000000
    5.657800198    0.000000000    0.000000000
    0.000000000    5.657800198    0.000000000
    0.000000000    0.000000000   16.744503021
Ge 
24
Direct
    0.017083453    0.000000000    0.000000000
    0.517083406    0.000000000    0.168945000
    0.017083406    0.000000000    0.337890029
    0.267083436    0.750000000    0.084472500
    0.767083406    0.750000000    0.253417492
    0.267083406    0.750000000    0.422362536
    0.517083406    0.499999970    0.000000000
    0.017083287    0.499999970    0.168945000
    0.517083287    0.499999970    0.337890029
    0.767083406    0.249999985    0.084472500
    0.267083406    0.249999985    0.253417492
    0.767083406    0.249999985    0.422362536
    0.445654899    0.428571433    0.499999940
    0.945654869    0.428571433    0.668944955
    0.445654839    0.428571433    0.837890029
    0.695654869    0.178571463    0.584472477
    0.195654869    0.178571463    0.753417492
    0.695654869    0.178571463    0.922362566
    0.945654869    0.928571403    0.499999940
    0.445654720    0.928571403    0.668944955
    0.945654750    0.928571403    0.837890029
    0.195654869    0.678571403    0.584472477
    0.695654869    0.678571403    0.753417492
    0.195654869    0.678571403    0.922362566
