Si+C
    1.000000000
   13.303179741    0.000000000    0.000000000
    6.651589394   11.520891190    0.000000000
    0.000000000    0.000000000   17.351545334
Si  C  
72     308
Direct
    0.000000000    0.681493819    0.361419052
    0.000000000    0.014827055    0.000000010
    0.000000000    0.348160446    0.180709556
    0.333333343    0.014827132    0.361419052
    0.333333343    0.348160386    0.000000011
    0.333333343    0.681493819    0.180709556
    0.666666687    0.348160386    0.361419022
    0.666666687    0.681493759    0.000000008
    0.666666687    0.014827132    0.180709556
    0.000000000    0.014827251    0.406596452
    0.000000000    0.348160416    0.045177404
    0.000000000    0.681493819    0.225886911
    0.333333343    0.348160505    0.406596422
    0.333333343    0.681493819    0.045177404
    0.333333343    0.014827132    0.225886896
    0.666666746    0.681493998    0.406596452
    0.666666746    0.014827132    0.045177404
    0.666666746    0.348160505    0.225886926
    0.166666672    0.848160446    0.361419022
    0.166666672    0.181493714    0.000000005
    0.166666672    0.514827132    0.180709556
    0.500000060    0.181493759    0.361419022
    0.500000000    0.514827073    0.000000002
    0.500000000    0.848160505    0.180709556
    0.833333373    0.514827251    0.361419052
    0.833333373    0.848160446    0.000000000
    0.833333373    0.181493759    0.180709511
    0.166666687    0.181493759    0.406596363
    0.166666687    0.514827073    0.045177348
    0.166666687    0.848160505    0.225886866
    0.500000000    0.514827132    0.406596363
    0.500000000    0.848160326    0.045177344
    0.500000000    0.181493759    0.225886881
    0.833333313    0.848160446    0.406596363
    0.833333313    0.181493714    0.045177344
    0.833333313    0.514827132    0.225886911
    0.000000000    0.181493759    0.361419022
    0.000000000    0.514827073    0.000000014
    0.000000000    0.848160446    0.180709556
    0.333333343    0.514827251    0.361419052
    0.333333343    0.848160505    0.000000020
    0.333333343    0.181493878    0.180709600
    0.666666687    0.848160446    0.361419022
    0.666666687    0.181493714    0.000000002
    0.666666687    0.514827132    0.180709556
    0.000000014    0.514827251    0.406596422
    0.000000014    0.848160446    0.045177348
    0.000000014    0.181493878    0.225886896
    0.333333373    0.848160446    0.406596422
    0.333333373    0.181493714    0.045177348
    0.333333373    0.514827073    0.225886866
    0.666666746    0.181493878    0.406596422
    0.666666746    0.514827073    0.045177348
    0.666666746    0.848160505    0.225886881
    0.166666672    0.348160386    0.361419022
    0.166666672    0.681493759    0.000000011
    0.166666672    0.014827132    0.180709600
    0.500000000    0.681493759    0.361419052
    0.500000000    0.014827051    0.000000011
    0.500000000    0.348160475    0.180709556
    0.833333313    0.014827132    0.361419022
    0.833333313    0.348160416    0.000000008
    0.833333313    0.681493759    0.180709526
    0.166666687    0.681493878    0.406596452
    0.166666687    0.014827132    0.045177430
    0.166666687    0.348160386    0.225886896
    0.500000000    0.014827251    0.406596452
    0.500000000    0.348160416    0.045177389
    0.500000000    0.681493759    0.225886896
    0.833333373    0.348160505    0.406596422
    0.833333373    0.681493700    0.045177404
    0.833333373    0.014827013    0.225886896
    0.042587280    0.760646462    1.000000000
    0.994968414    0.998742104    0.406596512
    0.804492176    0.951122999    0.525277197
    0.614015937    0.903503835    0.643957913
    0.423539698    0.855884671    0.762638569
    0.233063519    0.808265567    0.881319225
    0.185444415    0.046360724    1.000000000
    0.137825578    0.284456402    0.406596512
    0.947349310    0.236837253    0.525277257
    0.756873131    0.189218119    0.643957913
    0.566396832    0.141598985    0.762638569
    0.375920653    0.093979850    0.881319344
    0.328301549    0.332075000    1.000000000
    0.280682713    0.570170701    0.406596512
    0.090206459    0.522551537    0.525277257
    0.899730265    0.474932402    0.643957913
    0.709253907    0.427313268    0.762638569
    0.518777788    0.379694134    0.881319225
    0.614015818    0.903503597    1.000000000
    0.566396952    0.141599253    0.406596512
    0.375920743    0.093980111    0.525277197
    0.185444534    0.046360992    0.643957913
    0.994968235    0.998741806    0.762638569
    0.804492056    0.951122701    0.881319225
    0.471158624    0.617789209    1.000000000
    0.423539817    0.855884910    0.406596512
    0.233063608    0.808265805    0.525277197
    0.042587370    0.760646582    0.643957913
    0.852111220    0.713027477    0.762638450
    0.661634922    0.665408373    0.881319344
    0.756872952    0.189217836    1.000000000
    0.709254086    0.427313507    0.406596512
    0.518777907    0.379694372    0.525277197
    0.328301668    0.332075238    0.643957913
    0.137825489    0.284456104    0.762638509
    0.947349191    0.236836955    0.881319344
    0.899730027    0.474932104    1.000000000
    0.852111220    0.713027775    0.406596512
    0.661634982    0.665408671    0.525277197
    0.471158743    0.617789507    0.643957913
    0.280682445    0.570170403    0.762638569
    0.090206265    0.522551298    0.881319225
    0.090206519    0.522551596    0.436266690
    0.899730265    0.474932492    0.554947376
    0.709254026    0.427313358    0.673628032
    0.518777788    0.379694223    0.792308748
    0.328301430    0.332075030    0.910989523
    0.375920773    0.093980208    0.436266690
    0.185444549    0.046361066    0.554947376
    0.994968355    0.998741925    0.673628032
    0.804492056    0.951122820    0.792308748
    0.614015698    0.903503656    0.910989523
    0.233063638    0.808265924    0.436266690
    0.042587414    0.760646760    0.554947376
    0.852111220    0.713027596    0.673628032
    0.661634922    0.665408492    0.792308748
    0.471158624    0.617789328    0.910989523
    0.518777907    0.379694462    0.436266690
    0.328301698    0.332075357    0.554947376
    0.137825474    0.284456223    0.673628032
    0.947349191    0.236837074    0.792308748
    0.756872892    0.189217895    0.910989523
    0.661635041    0.665408731    0.436266690
    0.471158832    0.617789567    0.554947436
    0.280682594    0.570170462    0.673628032
    0.090206325    0.522551358    0.792308748
    0.899730027    0.474932194    0.910989523
    0.947349370    0.236837298    0.436266690
    0.756873131    0.189218178    0.554947376
    0.566396952    0.141599044    0.673628032
    0.375920653    0.093979895    0.792308748
    0.185444355    0.046360735    0.910989523
    0.804492176    0.951122999    0.436266690
    0.614015937    0.903503835    0.554947376
    0.423539668    0.855884731    0.673628092
    0.233063459    0.808265626    0.792308748
    0.042587217    0.760646462    0.910989523
    0.114015818    0.903503537    1.000000000
    0.066396996    0.141599238    0.406596512
    0.875920773    0.093980089    0.525277197
    0.685444534    0.046360970    0.643957913
    0.494968235    0.998741806    0.762638569
    0.304492056    0.951122701    0.881319344
    0.256872952    0.189217865    1.000000000
    0.209254131    0.427313536    0.406596512
    0.018777892    0.379694432    0.525277257
    0.828301668    0.332075268    0.643957913
    0.637825370    0.284456134    0.762638569
    0.447349191    0.236837029    0.881319225
    0.542587221    0.760646462    1.000000000
    0.494968385    0.998742104    0.406596512
    0.304492146    0.951122999    0.525277197
    0.114015944    0.903503835    0.643957913
    0.923539639    0.855884671    0.762638569
    0.733063459    0.808265567    0.881319225
    0.399730027    0.474932104    1.000000000
    0.352111220    0.713027775    0.406596512
    0.161635011    0.665408671    0.525277257
    0.971158743    0.617789567    0.643957913
    0.780682564    0.570170403    0.762638509
    0.590206265    0.522551239    0.881319344
    0.685444355    0.046360683    1.000000000
    0.637825549    0.284456372    0.406596512
    0.447349370    0.236837238    0.525277197
    0.256873101    0.189218104    0.643957913
    0.066396952    0.141598985    0.762638450
    0.875920653    0.093979828    0.881319225
    0.828301549    0.332075000    0.999999881
    0.780682743    0.570170701    0.406596452
    0.590206504    0.522551537    0.525277197
    0.399730265    0.474932402    0.643957913
    0.209253982    0.427313238    0.762638569
    0.018777804    0.379694134    0.881319225
    0.971158743    0.617789209    1.000000000
    0.923539877    0.855884969    0.406596512
    0.733063638    0.808265746    0.525277197
    0.542587459    0.760646641    0.643957913
    0.352111131    0.713027537    0.762638569
    0.161634952    0.665408432    0.881319225
    0.018777953    0.379694432    0.436266690
    0.828301668    0.332075328    0.554947376
    0.637825489    0.284456164    0.673628032
    0.447349250    0.236837044    0.792308748
    0.256873012    0.189217895    0.910989404
    0.161635101    0.665408731    0.436266690
    0.971158803    0.617789567    0.554947376
    0.780682623    0.570170462    0.673628032
    0.590206385    0.522551298    0.792308688
    0.399730146    0.474932194    0.910989404
    0.447349340    0.236837283    0.436266690
    0.256873101    0.189218163    0.554947376
    0.066396870    0.141599059    0.673628032
    0.875920653    0.093979932    0.792308748
    0.685444474    0.046360780    0.910989404
    0.304492205    0.951123059    0.436266690
    0.114015959    0.903503895    0.554947376
    0.923539758    0.855884790    0.673628032
    0.733063519    0.808265626    0.792308748
    0.542587280    0.760646522    0.910989523
    0.590206444    0.522551656    0.436266690
    0.399730235    0.474932522    0.554947376
    0.209254012    0.427313417    0.673628032
    0.018777769    0.379694253    0.792308748
    0.828301549    0.332075119    0.910989523
    0.875920832    0.093980193    0.436266571
    0.685444593    0.046361092    0.554947376
    0.494968385    0.998741925    0.673628032
    0.304492146    0.951122820    0.792308688
    0.114015877    0.903503656    0.910989404
    0.733063638    0.808265805    0.436266690
    0.542587399    0.760646701    0.554947376
    0.352111131    0.713027596    0.673628032
    0.161634907    0.665408432    0.792308688
    0.971158683    0.617789328    0.910989523
    0.114015818    0.403503537    1.000000000
    0.066396996    0.641599238    0.406596512
    0.875920773    0.593980074    0.525277197
    0.685444593    0.546360970    0.643957913
    0.494968235    0.498741835    0.762638569
    0.304492116    0.451122731    0.881319225
    0.399730086    0.974932134    1.000000000
    0.352111250    0.213027805    0.406596512
    0.161635026    0.165408671    0.525277197
    0.971158803    0.117789537    0.643957913
    0.780682504    0.070170380    0.762638569
    0.590206385    0.022551261    0.881319225
    0.256872952    0.689217806    1.000000000
    0.209254161    0.927313507    0.406596512
    0.018777944    0.879694343    0.525277197
    0.828301668    0.832075238    0.643957913
    0.637825489    0.784456074    0.762638450
    0.447349191    0.736836910    0.881319225
    0.542587161    0.260646343    1.000000000
    0.494968385    0.498742044    0.406596512
    0.304492146    0.451122910    0.525277197
    0.114015907    0.403503776    0.643957913
    0.923539758    0.355884671    0.762638450
    0.733063459    0.308265477    0.881319344
    0.828301430    0.832075000    1.000000000
    0.780682623    0.070170648    0.406596512
    0.590206444    0.022551522    0.525277197
    0.399730206    0.974932373    0.643957913
    0.209254012    0.927313268    0.762638450
    0.018777698    0.879694104    0.881319344
    0.685444415    0.546360731    0.999999881
    0.637825608    0.784456432    0.406596512
    0.447349340    0.736837268    0.525277197
    0.256873131    0.689218163    0.643957913
    0.066396832    0.641599000    0.762638569
    0.875920653    0.593979895    0.881319225
    0.971158683    0.117789298    1.000000000
    0.923539877    0.355884969    0.406596512
    0.733063579    0.308265835    0.525277257
    0.542587399    0.260646671    0.643957973
    0.352111071    0.213027552    0.762638569
    0.161634907    0.165408418    0.881319344
    0.161635071    0.165408760    0.436266690
    0.971158803    0.117789626    0.554947376
    0.780682623    0.070170492    0.673628032
    0.590206385    0.022551373    0.792308688
    0.399730146    0.974932253    0.910989404
    0.018777946    0.879694462    0.436266690
    0.828301668    0.832075298    0.554947376
    0.637825489    0.784456193    0.673628032
    0.447349250    0.736837029    0.792308748
    0.256873012    0.689217925    0.910989404
    0.304492235    0.451123029    0.436266690
    0.114015974    0.403503925    0.554947376
    0.923539758    0.355884790    0.673628032
    0.733063579    0.308265656    0.792308748
    0.542587280    0.260646522    0.910989404
    0.590206504    0.022551641    0.436266690
    0.399730206    0.974932492    0.554947376
    0.209254041    0.927313328    0.673628032
    0.018777780    0.879694223    0.792308748
    0.828301549    0.832075119    0.910989404
    0.447349340    0.736837327    0.436266690
    0.256873101    0.689218223    0.554947376
    0.066396877    0.641599059    0.673628032
    0.875920653    0.593979895    0.792308688
    0.685444355    0.546360791    0.910989523
    0.733063638    0.308265895    0.436266690
    0.542587340    0.260646790    0.554947376
    0.352111191    0.213027656    0.673628032
    0.161634922    0.165408537    0.792308688
    0.971158683    0.117789388    0.910989523
    0.875920653    0.593980193    0.436266690
    0.685444415    0.546361089    0.554947376
    0.494968206    0.498741925    0.673628092
    0.304491967    0.451122791    0.792308748
    0.114015721    0.403503686    0.910989404
    0.042587280    0.260646403    1.000000000
    0.994968414    0.498742074    0.406596512
    0.804492176    0.451122910    0.525277197
    0.614015996    0.403503805    0.643957913
    0.423539698    0.355884641    0.762638569
    0.233063519    0.308265537    0.881319225
    0.328301549    0.832075000    1.000000000
    0.280682713    0.070170686    0.406596512
    0.090206467    0.022551546    0.525277197
    0.899730265    0.974932432    0.643957913
    0.709253967    0.927313268    0.762638569
    0.518777728    0.879694164    0.881319225
    0.185444355    0.546360612    1.000000000
    0.137825549    0.784456313    0.406596512
    0.947349310    0.736837208    0.525277197
    0.756873071    0.689218044    0.643957913
    0.566396952    0.641598880    0.762638509
    0.375920594    0.593979776    0.881319344
    0.471158624    0.117789231    1.000000000
    0.423539847    0.355884910    0.406596512
    0.233063623    0.308265805    0.525277197
    0.042587381    0.260646641    0.643957913
    0.852111220    0.213027537    0.762638450
    0.661634922    0.165408358    0.881319225
    0.614015818    0.403503567    0.999999881
    0.566397011    0.641599238    0.406596512
    0.375920743    0.593980134    0.525277197
    0.185444549    0.546360970    0.643957913
    0.994968235    0.498741835    0.762638569
    0.804492056    0.451122701    0.881319225
    0.899730027    0.974932134    1.000000000
    0.852111220    0.213027805    0.406596512
    0.661634982    0.165408671    0.525277197
    0.471158803    0.117789552    0.643957913
    0.280682445    0.070170395    0.762638569
    0.090206288    0.022551289    0.881319344
    0.756872892    0.689217806    1.000000000
    0.709254086    0.927313507    0.406596512
    0.518777847    0.879694402    0.525277197
    0.328301609    0.832075179    0.643957973
    0.137825325    0.784456074    0.762638569
    0.947349131    0.736836970    0.881319225
    0.090206526    0.022551643    0.436266690
    0.899730325    0.974932492    0.554947376
    0.709254086    0.927313387    0.673628032
    0.518777847    0.879694223    0.792308748
    0.328301489    0.832075059    0.910989523
    0.233063683    0.308265865    0.436266690
    0.042587440    0.260646760    0.554947436
    0.852111220    0.213027641    0.673628092
    0.661634922    0.165408492    0.792308748
    0.471158624    0.117789328    0.910989523
    0.375920773    0.593980193    0.436266690
    0.185444534    0.546361089    0.554947376
    0.994968295    0.498741955    0.673628092
    0.804492056    0.451122791    0.792308748
    0.614015698    0.403503656    0.910989523
    0.661635041    0.165408745    0.436266690
    0.471158832    0.117789648    0.554947376
    0.280682623    0.070170492    0.673628092
    0.090206347    0.022551356    0.792308748
    0.899730027    0.974932194    0.910989523
    0.518777907    0.879694462    0.436266690
    0.328301668    0.832075298    0.554947436
    0.137825444    0.784456193    0.673628032
    0.947349191    0.736837089    0.792308748
    0.756872892    0.689217925    0.910989523
    0.804492176    0.451123029    0.436266690
    0.614015937    0.403503925    0.554947376
    0.423539728    0.355884731    0.673628032
    0.233063444    0.308265597    0.792308748
    0.042587135    0.260646462    0.910989523
    0.947349489    0.736837327    0.436266690
    0.756873250    0.689218223    0.554947376
    0.566397011    0.641599059    0.673628032
    0.375920713    0.593979895    0.792308748
    0.185444474    0.546360731    0.910989523
