Ge+Sn
    1.000000000
   16.002676010    0.000000000    0.000000000
  -16.002676010   11.315601349    0.000000000
    0.000000000    0.000000000   25.800937653
Ge  Sn 
96     72
Direct
    0.969067693    0.479378492    0.000000007
    0.594067693    0.229378477    0.077529535
    0.219067633    0.979378402    0.155059099
    0.844067693    0.729378462    0.232588619
    0.469067812    0.479378521    0.310118139
    0.094067693    0.229378462    0.387647659
    0.969067693    0.979378462    0.000000011
    0.594067693    0.729378462    0.077529542
    0.219067633    0.479378402    0.155059084
    0.844067693    0.229378462    0.232588619
    0.469067812    0.979378581    0.310118109
    0.094067693    0.729378462    0.387647659
    0.469067723    0.479378492    0.000000011
    0.094067708    0.229378477    0.077529542
    0.719067633    0.979378402    0.155059084
    0.344067752    0.729378462    0.232588619
    0.969067812    0.479378521    0.310118109
    0.594067693    0.229378462    0.387647659
    0.469067693    0.979378462    0.000000001
    0.094067700    0.729378462    0.077529535
    0.719067633    0.479378402    0.155059084
    0.344067693    0.229378462    0.232588619
    0.969067812    0.979378581    0.310118139
    0.594067693    0.729378462    0.387647629
    0.219067708    0.479378492    0.000000013
    0.844067693    0.229378477    0.077529550
    0.469067633    0.979378402    0.155059084
    0.094067693    0.729378462    0.232588619
    0.719067812    0.479378521    0.310118139
    0.344067693    0.229378462    0.387647629
    0.219067678    0.979378462    0.000000010
    0.844067693    0.729378462    0.077529542
    0.469067633    0.479378402    0.155059084
    0.094067693    0.229378462    0.232588619
    0.719067812    0.979378581    0.310118139
    0.344067693    0.729378462    0.387647659
    0.719067693    0.479378492    0.000000009
    0.344067723    0.229378477    0.077529542
    0.969067633    0.979378402    0.155059084
    0.594067693    0.729378462    0.232588619
    0.219067752    0.479378521    0.310118139
    0.844067693    0.229378462    0.387647629
    0.719067633    0.979378462    0.000000013
    0.344067693    0.729378462    0.077529557
    0.969067633    0.479378402    0.155059084
    0.594067693    0.229378462    0.232588619
    0.219067872    0.979378581    0.310118169
    0.844067693    0.729378462    0.387647659
    0.219067737    0.854378521    0.000000001
    0.844067693    0.604378462    0.077529542
    0.469067693    0.354378462    0.155059084
    0.094067752    0.104378499    0.232588619
    0.719067812    0.854378521    0.310118109
    0.344067693    0.604378521    0.387647659
    0.219067678    0.354378462    0.000000012
    0.844067693    0.104378462    0.077529535
    0.469067633    0.854378402    0.155059084
    0.094067633    0.604378462    0.232588619
    0.719067693    0.354378462    0.310118139
    0.344067574    0.104378402    0.387647629
    0.719067752    0.854378521    0.000000011
    0.344067663    0.604378462    0.077529542
    0.969067633    0.354378462    0.155059069
    0.594067693    0.104378499    0.232588619
    0.219067812    0.854378521    0.310118139
    0.844067693    0.604378521    0.387647629
    0.719067693    0.354378462    0.000000009
    0.344067693    0.104378462    0.077529542
    0.969067633    0.854378402    0.155059099
    0.594067693    0.604378462    0.232588619
    0.219067752    0.354378462    0.310118139
    0.844067574    0.104378402    0.387647659
    0.969067693    0.854378521    0.000000016
    0.594067633    0.604378462    0.077529557
    0.219067633    0.354378462    0.155059084
    0.844067574    0.104378499    0.232588649
    0.469067812    0.854378521    0.310118169
    0.094067693    0.604378521    0.387647659
    0.969067693    0.354378462    0.000000000
    0.594067693    0.104378462    0.077529542
    0.219067633    0.854378402    0.155059084
    0.844067693    0.604378462    0.232588619
    0.469067693    0.354378462    0.310118109
    0.094067693    0.104378402    0.387647629
    0.469067752    0.854378521    0.000000000
    0.094067685    0.604378462    0.077529542
    0.719067693    0.354378462    0.155059084
    0.344067752    0.104378499    0.232588619
    0.969067812    0.854378521    0.310118109
    0.594067812    0.604378521    0.387647629
    0.469067693    0.354378462    0.000000010
    0.094067693    0.104378462    0.077529542
    0.719067633    0.854378402    0.155059069
    0.344067693    0.604378462    0.232588619
    0.969067693    0.354378462    0.310118139
    0.594067693    0.104378402    0.387647629
    0.736737490    0.897435904    0.471518070
    0.486737490    0.897435904    0.560440361
    0.236737370    0.897435725    0.649362683
    0.986737311    0.897435784    0.738284945
    0.736737251    0.897435606    0.827207267
    0.486737251    0.897435606    0.916129589
    0.736737490    0.564102590    0.471518070
    0.486737490    0.564102530    0.560440361
    0.236737370    0.564102411    0.649362683
    0.986737311    0.564102352    0.738284945
    0.736737251    0.564102232    0.827207267
    0.486737251    0.564102232    0.916129589
    0.736737490    0.230769232    0.471518070
    0.486737490    0.230769157    0.560440361
    0.236737370    0.230769038    0.649362683
    0.986737311    0.230769038    0.738284945
    0.736737251    0.230768919    0.827207267
    0.486737251    0.230768800    0.916129589
    0.236737490    0.897435904    0.471518070
    0.986737490    0.897435904    0.560440361
    0.736737370    0.897435784    0.649362683
    0.486737370    0.897435725    0.738284945
    0.236737251    0.897435546    0.827207267
    0.986737251    0.897435546    0.916129589
    0.236737490    0.564102590    0.471518070
    0.986737490    0.564102530    0.560440361
    0.736737370    0.564102411    0.649362683
    0.486737370    0.564102411    0.738284945
    0.236737251    0.564102292    0.827207267
    0.986737251    0.564102173    0.916129589
    0.236737490    0.230769277    0.471518070
    0.986737490    0.230769157    0.560440361
    0.736737370    0.230769157    0.649362683
    0.486737370    0.230769038    0.738284945
    0.236737251    0.230768919    0.827207267
    0.986737251    0.230768919    0.916129589
    0.486737490    0.147436023    0.471518070
    0.236737490    0.147435904    0.560440421
    0.986737370    0.147435904    0.649362683
    0.736737251    0.147435784    0.738284945
    0.486737251    0.147435665    0.827207327
    0.236737251    0.147435665    0.916129589
    0.486737490    0.814102590    0.471518070
    0.236737490    0.814102530    0.560440421
    0.986737370    0.814102411    0.649362683
    0.736737251    0.814102411    0.738284945
    0.486737251    0.814102352    0.827207327
    0.236737251    0.814102292    0.916129589
    0.486737490    0.480769217    0.471518070
    0.236737490    0.480769157    0.560440421
    0.986737370    0.480769098    0.649362683
    0.736737251    0.480769038    0.738284945
    0.486737251    0.480768979    0.827207327
    0.236737251    0.480768919    0.916129589
    0.986737490    0.147436023    0.471518070
    0.736737490    0.147435904    0.560440421
    0.486737370    0.147435784    0.649362683
    0.236737251    0.147435904    0.738284945
    0.986737311    0.147435665    0.827207267
    0.736737251    0.147435784    0.916129589
    0.986737490    0.814102590    0.471518070
    0.736737490    0.814102530    0.560440421
    0.486737370    0.814102411    0.649362683
    0.236737251    0.814102352    0.738284945
    0.986737311    0.814102292    0.827207267
    0.736737251    0.814102352    0.916129589
    0.986737490    0.480769277    0.471518070
    0.736737490    0.480769217    0.560440421
    0.486737370    0.480769098    0.649362683
    0.236737251    0.480768979    0.738284945
    0.986737311    0.480769038    0.827207267
    0.736737251    0.480768979    0.916129589
