Ge+Ge                                   
   1.00000000000000     
    12.6512260439999995    0.0000000000000000    0.0000000000000000
   -10.1209812160000006    7.5907354350000000    0.0000000000000000
     0.0000000000000000    0.0000000000000000   11.6117439269999991
   Ge
    48
Direct
  0.3447222710000020  0.6723611350000027  0.0000000000000000
  0.6780556439999970  0.8390278219999985  0.2436240460000008
  0.0113890169999991  0.0056946280000005  0.4872481230000005
  0.0113889710000024  0.0056944869999995  0.0000000000000000
  0.3447223309999998  0.1723612250000031  0.2436240460000008
  0.6780557040000019  0.3390279710000002  0.4872481230000005
  0.6780556439999970  0.3390278219999985  0.0000000000000000
  0.0113888979999999  0.5056945090000013  0.2436240460000008
  0.3447223900000012  0.6723613139999998  0.4872481230000005
  0.0947222710000020  0.9223611350000027  0.1218120229999968
  0.4280556439999970  0.0890278820000034  0.3654360769999982
  0.7613890169999991  0.2556946280000005  0.6090602279999970
  0.4280556439999970  0.5890278820000034  0.1218120229999968
  0.7613890169999991  0.7556945680000027  0.3654360769999982
  0.0947223900000012  0.9223613739999976  0.6090602279999970
  0.7613888979999999  0.2556944789999989  0.1218120229999968
  0.0947223900000012  0.4223612250000031  0.3654360769999982
  0.4280556439999970  0.5890279409999977  0.6090602279999970
  0.1780555699999979  0.8390277029999993  0.0000000000000000
  0.5113889579999977  0.0056945090000013  0.2436240460000008
  0.8447222710000020  0.1723611350000027  0.4872481230000005
  0.5113889579999977  0.5056945090000013  0.0000000000000000
  0.8447222710000020  0.6723611950000006  0.2436240460000008
  0.1780556439999970  0.8390279409999977  0.4872481230000005
  0.8447223309999998  0.1723611800000029  0.0000000000000000
  0.1780556439999970  0.3390279110000023  0.2436240460000008
  0.5113890169999991  0.5056946280000005  0.4872481230000005
  0.2613889579999977  0.7556944490000035  0.1218120229999968
  0.5947223309999998  0.9223611950000006  0.3654360769999982
  0.9280557630000033  0.0890280010000026  0.6090602279999970
  0.5947223309999998  0.4223611649999981  0.1218120229999968
  0.9280557040000019  0.5890278820000034  0.3654360769999982
  0.2613890169999991  0.7556946280000005  0.6090602279999970
  0.9280556439999970  0.0890278740000028  0.1218120229999968
  0.2613890169999991  0.2556946280000005  0.3654360769999982
  0.5947223900000012  0.4223613440000022  0.6090602279999970
  0.2909721139999988  0.1771323680000023  0.7030200359999981
  0.1798609499999984  0.7882434130000036  0.7842280859999988
  0.0687497850000014  0.3993545169999990  0.8654361370000032
  0.7909719940000031  0.6771323079999974  0.7030200359999981
  0.6798608900000005  0.2882433529999986  0.7842280859999988
  0.5687497260000001  0.8993544579999977  0.8654361370000032
  0.9854164119999993  0.9826878909999976  0.7436240910000009
  0.8743052479999989  0.5937989350000024  0.8248321410000017
  0.7631940839999984  0.2049100400000015  0.9060401919999990
  0.4854164719999972  0.4826878309999998  0.7436240910000009
  0.3743053079999967  0.0937988760000010  0.8248321410000017
  0.2631942029999976  0.7049099210000023  0.9060401919999990
 
  0.00000000E+00  0.00000000E+00  0.00000000E+00
  0.00000000E+00  0.00000000E+00  0.00000000E+00
  0.00000000E+00  0.00000000E+00  0.00000000E+00
  0.00000000E+00  0.00000000E+00  0.00000000E+00
  0.00000000E+00  0.00000000E+00  0.00000000E+00
  0.00000000E+00  0.00000000E+00  0.00000000E+00
  0.00000000E+00  0.00000000E+00  0.00000000E+00
  0.00000000E+00  0.00000000E+00  0.00000000E+00
  0.00000000E+00  0.00000000E+00  0.00000000E+00
  0.00000000E+00  0.00000000E+00  0.00000000E+00
  0.00000000E+00  0.00000000E+00  0.00000000E+00
  0.00000000E+00  0.00000000E+00  0.00000000E+00
  0.00000000E+00  0.00000000E+00  0.00000000E+00
  0.00000000E+00  0.00000000E+00  0.00000000E+00
  0.00000000E+00  0.00000000E+00  0.00000000E+00
  0.00000000E+00  0.00000000E+00  0.00000000E+00
  0.00000000E+00  0.00000000E+00  0.00000000E+00
  0.00000000E+00  0.00000000E+00  0.00000000E+00
  0.00000000E+00  0.00000000E+00  0.00000000E+00
  0.00000000E+00  0.00000000E+00  0.00000000E+00
  0.00000000E+00  0.00000000E+00  0.00000000E+00
  0.00000000E+00  0.00000000E+00  0.00000000E+00
  0.00000000E+00  0.00000000E+00  0.00000000E+00
  0.00000000E+00  0.00000000E+00  0.00000000E+00
  0.00000000E+00  0.00000000E+00  0.00000000E+00
  0.00000000E+00  0.00000000E+00  0.00000000E+00
  0.00000000E+00  0.00000000E+00  0.00000000E+00
  0.00000000E+00  0.00000000E+00  0.00000000E+00
  0.00000000E+00  0.00000000E+00  0.00000000E+00
  0.00000000E+00  0.00000000E+00  0.00000000E+00
  0.00000000E+00  0.00000000E+00  0.00000000E+00
  0.00000000E+00  0.00000000E+00  0.00000000E+00
  0.00000000E+00  0.00000000E+00  0.00000000E+00
  0.00000000E+00  0.00000000E+00  0.00000000E+00
  0.00000000E+00  0.00000000E+00  0.00000000E+00
  0.00000000E+00  0.00000000E+00  0.00000000E+00
  0.00000000E+00  0.00000000E+00  0.00000000E+00
  0.00000000E+00  0.00000000E+00  0.00000000E+00
  0.00000000E+00  0.00000000E+00  0.00000000E+00
  0.00000000E+00  0.00000000E+00  0.00000000E+00
  0.00000000E+00  0.00000000E+00  0.00000000E+00
  0.00000000E+00  0.00000000E+00  0.00000000E+00
  0.00000000E+00  0.00000000E+00  0.00000000E+00
  0.00000000E+00  0.00000000E+00  0.00000000E+00
  0.00000000E+00  0.00000000E+00  0.00000000E+00
  0.00000000E+00  0.00000000E+00  0.00000000E+00
  0.00000000E+00  0.00000000E+00  0.00000000E+00
  0.00000000E+00  0.00000000E+00  0.00000000E+00
