Si+C
    1.000000000
   13.303179741    0.000000000    0.000000000
    6.651589394   11.520891190    0.000000000
    0.000000000    0.000000000   21.679414749
Si  C  
72     308
Direct
    0.000000000    0.681493819    0.289268851
    0.000000000    0.014827055    0.000000008
    0.000000000    0.348160446    0.144634441
    0.333333343    0.014827132    0.289268851
    0.333333343    0.348160386    0.000000009
    0.333333343    0.681493819    0.144634441
    0.666666687    0.348160386    0.289268821
    0.666666687    0.681493759    0.000000006
    0.666666687    0.014827132    0.144634441
    0.000000000    0.014827251    0.325427473
    0.000000000    0.348160416    0.036158621
    0.000000000    0.681493819    0.180793047
    0.333333343    0.348160505    0.325427443
    0.333333343    0.681493819    0.036158621
    0.333333343    0.014827132    0.180793032
    0.666666746    0.681493998    0.325427473
    0.666666746    0.014827132    0.036158621
    0.666666746    0.348160505    0.180793062
    0.166666672    0.848160446    0.289268821
    0.166666672    0.181493714    0.000000004
    0.166666672    0.514827132    0.144634441
    0.500000060    0.181493759    0.289268821
    0.500000000    0.514827073    0.000000001
    0.500000000    0.848160505    0.144634441
    0.833333373    0.514827251    0.289268851
    0.833333373    0.848160446    0.000000000
    0.833333373    0.181493759    0.144634411
    0.166666687    0.181493759    0.325427383
    0.166666687    0.514827073    0.036158580
    0.166666687    0.848160505    0.180793002
    0.500000000    0.514827132    0.325427383
    0.500000000    0.848160326    0.036158577
    0.500000000    0.181493759    0.180793017
    0.833333313    0.848160446    0.325427383
    0.833333313    0.181493714    0.036158577
    0.833333313    0.514827132    0.180793047
    0.000000000    0.181493759    0.289268821
    0.000000000    0.514827073    0.000000011
    0.000000000    0.848160446    0.144634441
    0.333333343    0.514827251    0.289268851
    0.333333343    0.848160505    0.000000016
    0.333333343    0.181493878    0.144634470
    0.666666687    0.848160446    0.289268821
    0.666666687    0.181493714    0.000000001
    0.666666687    0.514827132    0.144634441
    0.000000014    0.514827251    0.325427443
    0.000000014    0.848160446    0.036158580
    0.000000014    0.181493878    0.180793032
    0.333333373    0.848160446    0.325427443
    0.333333373    0.181493714    0.036158580
    0.333333373    0.514827073    0.180793002
    0.666666746    0.181493878    0.325427443
    0.666666746    0.514827073    0.036158580
    0.666666746    0.848160505    0.180793017
    0.166666672    0.348160386    0.289268821
    0.166666672    0.681493759    0.000000009
    0.166666672    0.014827132    0.144634470
    0.500000000    0.681493759    0.289268851
    0.500000000    0.014827051    0.000000009
    0.500000000    0.348160475    0.144634441
    0.833333313    0.014827132    0.289268821
    0.833333313    0.348160416    0.000000006
    0.833333313    0.681493759    0.144634426
    0.166666687    0.681493878    0.325427473
    0.166666687    0.014827132    0.036158640
    0.166666687    0.348160386    0.180793032
    0.500000000    0.014827251    0.325427473
    0.500000000    0.348160416    0.036158610
    0.500000000    0.681493759    0.180793032
    0.833333373    0.348160505    0.325427443
    0.833333373    0.681493700    0.036158621
    0.833333373    0.014827013    0.180793032
    0.095617585    0.874282837    0.900184870
    0.047998667    0.112378478    0.425242722
    0.857522488    0.064759374    0.520231128
    0.667046249    0.017140150    0.615219593
    0.476570010    0.969521046    0.710208058
    0.286093831    0.921901941    0.805196404
    0.238474727    0.159997091    0.900184870
    0.190855891    0.398092777    0.425242722
    0.000379562    0.350473613    0.520231187
    0.809903443    0.302854478    0.615219593
    0.619427145    0.255235344    0.710208058
    0.428950965    0.207616210    0.805196464
    0.381331861    0.445711374    0.900184870
    0.333713025    0.683807075    0.425242752
    0.143236756    0.636187911    0.520231187
    0.952760577    0.588568747    0.615219593
    0.762284219    0.540949643    0.710208058
    0.571808100    0.493330508    0.805196404
    0.667046130    0.017139912    0.900184870
    0.619427264    0.255235612    0.425242752
    0.428951055    0.207616478    0.520231128
    0.238474846    0.159997359    0.615219593
    0.047998548    0.112378120    0.710208058
    0.857522368    0.064759016    0.805196404
    0.524188936    0.731425583    0.900184870
    0.476570129    0.969521284    0.425242722
    0.286093920    0.921902180    0.520231128
    0.095617674    0.874282956    0.615219593
    0.905141532    0.826663852    0.710207939
    0.714665234    0.779044747    0.805196464
    0.809903264    0.302854210    0.900184870
    0.762284398    0.540949881    0.425242752
    0.571808219    0.493330747    0.520231128
    0.381331980    0.445711613    0.615219593
    0.190855801    0.398092479    0.710207999
    0.000379443    0.350473315    0.805196464
    0.952760339    0.588568449    0.900184870
    0.905141532    0.826664150    0.425242722
    0.714665294    0.779045045    0.520231128
    0.524189055    0.731425881    0.615219593
    0.333712757    0.683806777    0.710208058
    0.143236578    0.636187673    0.805196404
    0.143236816    0.636187971    0.448989779
    0.952760577    0.588568866    0.543978274
    0.762284338    0.540949702    0.638966739
    0.571808100    0.493330598    0.733955085
    0.381331742    0.445711404    0.828943610
    0.428951085    0.207616568    0.448989779
    0.238474846    0.159997433    0.543978274
    0.047998667    0.112378240    0.638966739
    0.857522368    0.064759135    0.733955085
    0.667046010    0.017140031    0.828943610
    0.286093950    0.921902299    0.448989809
    0.095617719    0.874283135    0.543978274
    0.905141532    0.826663971    0.638966739
    0.714665234    0.779044867    0.733955085
    0.524188936    0.731425703    0.828943610
    0.571808219    0.493330836    0.448989779
    0.381332010    0.445711732    0.543978274
    0.190855771    0.398092598    0.638966739
    0.000379443    0.350473434    0.733955085
    0.809903204    0.302854270    0.828943610
    0.714665353    0.779045105    0.448989809
    0.524189115    0.731425941    0.543978333
    0.333712906    0.683806837    0.638966739
    0.143236637    0.636187732    0.733955085
    0.952760339    0.588568568    0.828943610
    0.000379682    0.350473672    0.448989809
    0.809903443    0.302854538    0.543978274
    0.619427264    0.255235404    0.638966739
    0.428950965    0.207616270    0.733955085
    0.238474667    0.159997106    0.828943610
    0.857522488    0.064759374    0.448989809
    0.667046249    0.017140150    0.543978274
    0.476569980    0.969521105    0.638966739
    0.286093771    0.921902001    0.733955085
    0.095617518    0.874282837    0.828943551
    0.167046130    0.017139912    0.900184929
    0.119427301    0.255235612    0.425242752
    0.928951085    0.207616448    0.520231128
    0.738474846    0.159997344    0.615219593
    0.547998548    0.112378120    0.710208058
    0.357522368    0.064759016    0.805196464
    0.309903264    0.302854240    0.900184870
    0.262284428    0.540949881    0.425242752
    0.071808197    0.493330806    0.520231187
    0.881331980    0.445711643    0.615219593
    0.690855682    0.398092508    0.710208058
    0.500379503    0.350473404    0.805196404
    0.595617533    0.874282837    0.900184870
    0.547998667    0.112378478    0.425242752
    0.357522458    0.064759374    0.520231128
    0.167046249    0.017140150    0.615219593
    0.976569951    0.969521046    0.710208058
    0.786093771    0.921901941    0.805196404
    0.452760339    0.588568449    0.900184929
    0.405141532    0.826664150    0.425242752
    0.214665323    0.779045045    0.520231187
    0.024188995    0.731425941    0.615219593
    0.833712876    0.683806777    0.710207999
    0.643236578    0.636187613    0.805196464
    0.738474667    0.159997046    0.900184870
    0.690855861    0.398092747    0.425242722
    0.500379682    0.350473613    0.520231128
    0.309903413    0.302854478    0.615219593
    0.119427256    0.255235344    0.710207939
    0.928950965    0.207616195    0.805196404
    0.881331861    0.445711374    0.900184810
    0.833713055    0.683807075    0.425242692
    0.643236816    0.636187911    0.520231128
    0.452760577    0.588568747    0.615219593
    0.262284279    0.540949583    0.710208058
    0.071808107    0.493330508    0.805196404
    0.024188995    0.731425583    0.900184870
    0.976570189    0.969521344    0.425242722
    0.786093950    0.921902120    0.520231128
    0.595617771    0.874283016    0.615219593
    0.405141443    0.826663911    0.710208058
    0.214665264    0.779044807    0.805196404
    0.071808256    0.493330806    0.448989779
    0.881331980    0.445711702    0.543978274
    0.690855801    0.398092538    0.638966739
    0.500379562    0.350473404    0.733955085
    0.309903324    0.302854270    0.828943491
    0.214665413    0.779045105    0.448989779
    0.024189115    0.731425941    0.543978274
    0.833712935    0.683806837    0.638966739
    0.643236697    0.636187673    0.733955026
    0.452760458    0.588568568    0.828943491
    0.500379622    0.350473642    0.448989779
    0.309903413    0.302854538    0.543978274
    0.119427174    0.255235434    0.638966739
    0.928950965    0.207616299    0.733955085
    0.738474786    0.159997150    0.828943491
    0.357522517    0.064759374    0.448989809
    0.167046264    0.017140269    0.543978274
    0.976570070    0.969521165    0.638966739
    0.786093831    0.921902001    0.733955085
    0.595617592    0.874282897    0.828943551
    0.643236756    0.636188030    0.448989809
    0.452760547    0.588568866    0.543978274
    0.262284309    0.540949762    0.638966739
    0.071808070    0.493330628    0.733955085
    0.881331861    0.445711493    0.828943551
    0.928951144    0.207616568    0.448989779
    0.738474905    0.159997463    0.543978274
    0.547998667    0.112378240    0.638966739
    0.357522458    0.064759135    0.733955026
    0.167046189    0.017140031    0.828943491
    0.786093950    0.921902180    0.448989779
    0.595617712    0.874283075    0.543978274
    0.405141443    0.826663971    0.638966739
    0.214665204    0.779044807    0.733955026
    0.024188995    0.731425703    0.828943551
    0.167046130    0.517139912    0.900184870
    0.119427301    0.755235612    0.425242752
    0.928951085    0.707616448    0.520231128
    0.738474905    0.659997344    0.615219593
    0.547998548    0.612378180    0.710208058
    0.357522428    0.564759076    0.805196404
    0.452760398    0.088568449    0.900184870
    0.405141562    0.326664180    0.425242752
    0.214665323    0.279045045    0.520231128
    0.024189115    0.231425911    0.615219593
    0.833712816    0.183806747    0.710208058
    0.643236697    0.136187628    0.805196404
    0.309903264    0.802854180    0.900184870
    0.262284458    0.040949821    0.425242722
    0.071808249    0.993330717    0.520231128
    0.881331980    0.945711613    0.615219593
    0.690855801    0.898092449    0.710207939
    0.500379503    0.850473285    0.805196404
    0.595617473    0.374282718    0.900184870
    0.547998667    0.612378418    0.425242722
    0.357522458    0.564759254    0.520231128
    0.167046219    0.517140150    0.615219593
    0.976570070    0.469521046    0.710207939
    0.786093771    0.421901852    0.805196464
    0.881331742    0.945711374    0.900184870
    0.833712935    0.183807015    0.425242722
    0.643236756    0.136187881    0.520231128
    0.452760518    0.088568687    0.615219593
    0.262284309    0.040949583    0.710207939
    0.071808003    0.993330479    0.805196464
    0.738474727    0.659997106    0.900184810
    0.690855920    0.898092806    0.425242722
    0.500379622    0.850473642    0.520231128
    0.309903443    0.802854538    0.615219593
    0.119427137    0.755235374    0.710208058
    0.928950965    0.707616270    0.805196404
    0.024188995    0.231425673    0.900184870
    0.976570189    0.469521344    0.425242752
    0.786093891    0.421902210    0.520231187
    0.595617712    0.374283046    0.615219653
    0.405141383    0.326663911    0.710208058
    0.214665204    0.279044777    0.805196464
    0.214665383    0.279045135    0.448989779
    0.024189115    0.231426001    0.543978274
    0.833712935    0.183806866    0.638966739
    0.643236697    0.136187732    0.733955026
    0.452760458    0.088568568    0.828943491
    0.071808249    0.993330836    0.448989779
    0.881331980    0.945711672    0.543978274
    0.690855801    0.898092568    0.638966739
    0.500379562    0.850473404    0.733955085
    0.309903324    0.802854300    0.828943491
    0.357522547    0.564759374    0.448989779
    0.167046279    0.517140269    0.543978274
    0.976570070    0.469521165    0.638966739
    0.786093891    0.421902031    0.733955085
    0.595617592    0.374282897    0.828943491
    0.643236816    0.136188000    0.448989779
    0.452760518    0.088568807    0.543978274
    0.262284338    0.040949702    0.638966739
    0.071808085    0.993330598    0.733955085
    0.881331861    0.945711493    0.828943491
    0.500379622    0.850473702    0.448989779
    0.309903413    0.802854598    0.543978274
    0.119427182    0.755235434    0.638966739
    0.928950965    0.707616270    0.733955026
    0.738474667    0.659997165    0.828943551
    0.786093950    0.421902269    0.448989779
    0.595617652    0.374283165    0.543978274
    0.405141503    0.326664031    0.638966739
    0.214665234    0.279044896    0.733955026
    0.024188995    0.231425762    0.828943551
    0.928950965    0.707616568    0.448989809
    0.738474727    0.659997463    0.543978274
    0.547998488    0.612378299    0.638966739
    0.357522279    0.564759135    0.733955085
    0.167046025    0.517140031    0.828943491
    0.095617585    0.374282777    0.900184929
    0.047998667    0.612378418    0.425242722
    0.857522488    0.564759254    0.520231128
    0.667046309    0.517140150    0.615219593
    0.476570010    0.469521016    0.710208058
    0.286093831    0.421901911    0.805196404
    0.381331861    0.945711374    0.900184870
    0.333713025    0.183807045    0.425242722
    0.143236771    0.136187911    0.520231128
    0.952760577    0.088568807    0.615219593
    0.762284279    0.040949583    0.710208058
    0.571808040    0.993330538    0.805196404
    0.238474667    0.659996986    0.900184870
    0.190855861    0.898092687    0.425242722
    0.000379562    0.850473583    0.520231128
    0.809903383    0.802854419    0.615219593
    0.619427264    0.755235255    0.710207999
    0.428950906    0.707616150    0.805196464
    0.524188936    0.231425598    0.900184870
    0.476570159    0.469521284    0.425242722
    0.286093920    0.421902180    0.520231128
    0.095617682    0.374283016    0.615219593
    0.905141532    0.326663911    0.710207939
    0.714665234    0.279044718    0.805196404
    0.667046130    0.517139912    0.900184810
    0.619427323    0.755235612    0.425242722
    0.428951055    0.707616508    0.520231128
    0.238474846    0.659997344    0.615219593
    0.047998548    0.612378180    0.710208058
    0.857522368    0.564759076    0.805196404
    0.952760339    0.088568449    0.900184870
    0.905141532    0.326664180    0.425242722
    0.714665294    0.279045045    0.520231128
    0.524189115    0.231425911    0.615219593
    0.333712757    0.183806762    0.710208058
    0.143236592    0.136187658    0.805196464
    0.809903204    0.802854180    0.900184929
    0.762284398    0.040949821    0.425242752
    0.571808159    0.993330777    0.520231128
    0.381331921    0.945711553    0.615219653
    0.190855622    0.898092449    0.710208058
    0.000379443    0.850473344    0.805196404
    0.143236831    0.136188015    0.448989809
    0.952760637    0.088568807    0.543978274
    0.762284398    0.040949702    0.638966739
    0.571808159    0.993330598    0.733955085
    0.381331801    0.945711434    0.828943610
    0.286093980    0.421902239    0.448989779
    0.095617741    0.374283135    0.543978333
    0.905141532    0.326664001    0.638966739
    0.714665234    0.279044867    0.733955085
    0.524188936    0.231425703    0.828943610
    0.428951085    0.707616568    0.448989809
    0.238474846    0.659997463    0.543978274
    0.047998548    0.612378299    0.638966739
    0.857522368    0.564759135    0.733955085
    0.667046010    0.517140031    0.828943610
    0.714665353    0.279045105    0.448989779
    0.524189115    0.231426015    0.543978274
    0.333712935    0.183806866    0.638966739
    0.143236652    0.136187717    0.733955085
    0.952760339    0.088568568    0.828943610
    0.571808219    0.993330836    0.448989809
    0.381331980    0.945711672    0.543978333
    0.190855742    0.898092568    0.638966739
    0.000379443    0.850473464    0.733955085
    0.809903204    0.802854300    0.828943610
    0.857522488    0.564759374    0.448989809
    0.667046249    0.517140269    0.543978274
    0.476570040    0.469521105    0.638966739
    0.286093742    0.421901971    0.733955085
    0.095617443    0.374282837    0.828943610
    0.000379801    0.850473702    0.448989809
    0.809903562    0.802854598    0.543978274
    0.619427323    0.755235434    0.638966739
    0.428951025    0.707616270    0.733955085
    0.238474786    0.659997106    0.828943610
