Si+C
    1.000000000
   16.293001175    0.000000000    0.000000000
  -10.862000465   12.144085884    0.000000000
    0.000000000    0.000000000    7.994748592
Si  C  
36     84
Direct
    0.974358499    0.982905626    0.000000002
    0.674358428    0.782905579    0.151900828
    0.374358416    0.582905531    0.303801656
    0.307691783    0.982905626    0.000000002
    0.007691726    0.782905579    0.151900828
    0.707691669    0.582905531    0.303801656
    0.641025066    0.982905626    0.000000002
    0.341025025    0.782905579    0.151900828
    0.041024987    0.582905531    0.303801656
    0.157691970    0.632905602    0.075950265
    0.857691944    0.432905525    0.227851093
    0.557691932    0.232905507    0.379751921
    0.491025209    0.632905602    0.075950265
    0.191025153    0.432905525    0.227851093
    0.891025186    0.232905507    0.379751921
    0.824358463    0.632905602    0.075950265
    0.524358392    0.432905525    0.227851093
    0.224358499    0.232905507    0.379751921
    0.141025156    0.482905596    0.000000000
    0.841025114    0.282905489    0.151900828
    0.541025102    0.082905434    0.303801656
    0.474358439    0.482905596    0.000000000
    0.174358383    0.282905489    0.151900828
    0.874358356    0.082905434    0.303801656
    0.807691693    0.482905596    0.000000000
    0.507691681    0.282905489    0.151900828
    0.207691625    0.082905434    0.303801656
    0.991025209    0.132905662    0.075950272
    0.691025138    0.932905614    0.227851093
    0.391025186    0.732905567    0.379751921
    0.324358463    0.132905662    0.075950272
    0.024358414    0.932905614    0.227851093
    0.724358439    0.732905567    0.379751921
    0.657691658    0.132905662    0.075950272
    0.357691616    0.932905614    0.227851093
    0.057691652    0.732905567    0.379751921
    0.738995373    0.328187346    0.764696360
    0.967566788    0.385329962    0.565175235
    0.853281081    0.856758714    0.664935827
    0.596138179    0.042473078    0.764696360
    0.824709654    0.099615693    0.565175235
    0.710423887    0.571044445    0.664935827
    0.453281045    0.756758809    0.764696360
    0.681852460    0.813901424    0.565175235
    0.567566693    0.285330176    0.664935827
    0.310423970    0.471044540    0.764696360
    0.538995385    0.528187037    0.565175235
    0.424709678    0.999615908    0.664935827
    0.167566836    0.185330272    0.764696360
    0.396138251    0.242472887    0.565175235
    0.281852543    0.713901639    0.664935827
    0.024709702    0.899616003    0.764696360
    0.253281116    0.956758559    0.565175235
    0.138995364    0.428187370    0.664935827
    0.881852567    0.613901615    0.764696360
    0.110424042    0.671044290    0.565175235
    0.996138275    0.142472982    0.664935827
    0.788995445    0.778187394    0.814576626
    0.017566919    0.835329890    0.615055442
    0.903281212    0.306758761    0.714816034
    0.646138251    0.492473125    0.814576626
    0.874709606    0.549615741    0.615055442
    0.760423899    0.021044374    0.714816034
    0.503281176    0.206758380    0.814576626
    0.731852531    0.263901114    0.615055501
    0.617566884    0.735329866    0.714816034
    0.360424012    0.921044350    0.814576626
    0.588995397    0.978186965    0.615055501
    0.474709690    0.449615717    0.714816034
    0.217566818    0.635330081    0.814576626
    0.446138263    0.692472816    0.615055442
    0.331852496    0.163901448    0.714816034
    0.074709773    0.349616051    0.814576626
    0.303281218    0.406758666    0.615055442
    0.188995510    0.878187299    0.714816034
    0.931852520    0.063901305    0.814576626
    0.160424009    0.121044040    0.615055442
    0.046138287    0.592472792    0.714816034
    0.810423851    0.971044540    0.764696360
    0.038995385    0.028187156    0.565175235
    0.924709558    0.499615908    0.664935827
    0.667566657    0.685330272    0.764696360
    0.896138132    0.742472887    0.565175295
    0.781852365    0.213901520    0.664935827
    0.524709582    0.399615884    0.764696360
    0.753281057    0.456758499    0.565175235
    0.638995349    0.928187370    0.664935827
    0.381852448    0.113901615    0.764696360
    0.610423982    0.171044350    0.565175235
    0.496138215    0.642472982    0.664935827
    0.238995403    0.828187466    0.764696360
    0.467566848    0.885329962    0.565175235
    0.353281081    0.356758714    0.664935827
    0.096138239    0.542472959    0.764696360
    0.324709654    0.599615574    0.565175295
    0.210423991    0.071044445    0.664935827
    0.953281105    0.256758690    0.764696360
    0.181852534    0.313901424    0.565175295
    0.067566991    0.785330296    0.664935827
    0.860423982    0.421044350    0.814576626
    0.088995457    0.478187084    0.615055442
    0.974709690    0.949615598    0.714816034
    0.717566848    0.135330319    0.814576626
    0.946138144    0.192472696    0.615055442
    0.831852496    0.663901567    0.714816034
    0.574709713    0.849615574    0.814576626
    0.803281069    0.906758189    0.615055442
    0.688995361    0.378186941    0.714816034
    0.431852579    0.563901424    0.814576626
    0.660423994    0.621044040    0.615055442
    0.546138346    0.092472792    0.714816034
    0.288995415    0.278187275    0.814576626
    0.517566860    0.335329890    0.615055442
    0.403281152    0.806758523    0.714816034
    0.146138266    0.992473125    0.814576626
    0.374709725    0.049615741    0.615055442
    0.260424018    0.521044493    0.714816034
    0.003281236    0.706758618    0.814576626
    0.231852651    0.763901114    0.615055442
    0.117567062    0.235329986    0.714815974
