Si+C
    1.000000000
   16.293001175    0.000000000    0.000000000
  -10.862000465   12.144085884    0.000000000
    0.000000000    0.000000000    7.006474018
Si  C  
36     84
Direct
    0.974358499    0.982905626    0.000000002
    0.674358428    0.782905579    0.173326701
    0.374358416    0.582905531    0.346653402
    0.307691783    0.982905626    0.000000002
    0.007691726    0.782905579    0.173326701
    0.707691669    0.582905531    0.346653402
    0.641025066    0.982905626    0.000000002
    0.341025025    0.782905579    0.173326701
    0.041024987    0.582905531    0.346653402
    0.157691970    0.632905602    0.086663172
    0.857691944    0.432905525    0.259989887
    0.557691932    0.232905507    0.433316529
    0.491025209    0.632905602    0.086663172
    0.191025153    0.432905525    0.259989887
    0.891025186    0.232905507    0.433316529
    0.824358463    0.632905602    0.086663172
    0.524358392    0.432905525    0.259989887
    0.224358499    0.232905507    0.433316529
    0.141025156    0.482905596    0.000000000
    0.841025114    0.282905489    0.173326701
    0.541025102    0.082905434    0.346653402
    0.474358439    0.482905596    0.000000000
    0.174358383    0.282905489    0.173326701
    0.874358356    0.082905434    0.346653402
    0.807691693    0.482905596    0.000000000
    0.507691681    0.282905489    0.173326701
    0.207691625    0.082905434    0.346653402
    0.991025209    0.132905662    0.086663179
    0.691025138    0.932905614    0.259989887
    0.391025186    0.732905567    0.433316529
    0.324358463    0.132905662    0.086663179
    0.024358414    0.932905614    0.259989887
    0.724358439    0.732905567    0.433316529
    0.657691658    0.132905662    0.086663179
    0.357691616    0.932905614    0.259989887
    0.057691652    0.732905567    0.433316529
    0.308765411    0.713129997    0.574368298
    0.551622629    0.684558511    0.688200295
    0.794479847    0.655987024    0.802032351
    0.594479680    0.855987132    0.574368298
    0.837336898    0.827415645    0.688200295
    0.080194116    0.798844159    0.802032351
    0.880193889    0.998844266    0.574368298
    0.123051167    0.970272779    0.688200295
    0.365908444    0.941701293    0.802032351
    0.165908337    0.141701460    0.574368298
    0.408765495    0.113129973    0.688200295
    0.651622832    0.084558487    0.802032351
    0.451622546    0.284558535    0.574368298
    0.694479764    0.255987167    0.688200295
    0.937336981    0.227415562    0.802032351
    0.737336874    0.427415729    0.574368298
    0.980194092    0.398844242    0.688200295
    0.223051310    0.370272756    0.802032351
    0.023051023    0.570272923    0.574368298
    0.265908241    0.541701317    0.688200295
    0.508765519    0.513129950    0.802032351
    0.144479513    0.805987120    0.631284237
    0.387336910    0.777415633    0.745116174
    0.630194128    0.748844147    0.858948231
    0.430193782    0.948844254    0.631284177
    0.673051059    0.920272827    0.745116293
    0.915908277    0.891701281    0.858948231
    0.715908170    0.091701508    0.631284177
    0.958765388    0.063129902    0.745116293
    0.201622725    0.034558535    0.858948231
    0.001622438    0.234558582    0.631284177
    0.244479775    0.205987096    0.745116293
    0.487337053    0.177415609    0.858948231
    0.287336648    0.377415657    0.631284177
    0.530193985    0.348844290    0.745116293
    0.773051083    0.320272684    0.858948231
    0.573051095    0.520272851    0.631284237
    0.815908372    0.491701365    0.745116293
    0.058765650    0.463129878    0.858948231
    0.858765244    0.663129926    0.631284237
    0.101622462    0.634558439    0.745116293
    0.344479740    0.605987072    0.858948231
    0.951622665    0.784558594    0.574368298
    0.194479704    0.755987048    0.688200295
    0.437337101    0.727415621    0.802032351
    0.237336993    0.927415729    0.574368298
    0.480194151    0.898844242    0.688200295
    0.723051250    0.870272756    0.802032351
    0.523051143    0.070272923    0.574368298
    0.765908360    0.041701317    0.688200295
    0.008765578    0.013129950    0.802032351
    0.808765352    0.213129997    0.574368298
    0.051622629    0.184558511    0.688200295
    0.294479907    0.155987024    0.802032351
    0.094479680    0.355987072    0.574368298
    0.337336957    0.327415705    0.688200295
    0.580194056    0.298844099    0.802032351
    0.380193949    0.498844385    0.574368298
    0.623051167    0.470272899    0.688200355
    0.865908504    0.441701412    0.802032351
    0.665908217    0.641701460    0.574368298
    0.908765435    0.613130093    0.688200355
    0.151622772    0.584558487    0.802032351
    0.501622558    0.734558582    0.631284177
    0.744479775    0.705986977    0.745116293
    0.987337112    0.677415609    0.858948231
    0.787336707    0.877415717    0.631284177
    0.030194044    0.848844230    0.745116293
    0.273051262    0.820272744    0.858948231
    0.073050976    0.020272851    0.631284177
    0.315908372    0.991701365    0.745116293
    0.558765590    0.963129938    0.858948231
    0.358765185    0.163130045    0.631284177
    0.601622522    0.134558558    0.745116174
    0.844479740    0.105987072    0.858948231
    0.644479632    0.305987120    0.631284177
    0.887336969    0.277415514    0.745116293
    0.130194187    0.248844147    0.858948231
    0.930193961    0.448844194    0.631284177
    0.173051238    0.420272827    0.745116293
    0.415908515    0.391701460    0.858948231
    0.215908051    0.591701388    0.631284177
    0.458765447    0.563129902    0.745116293
    0.701622665    0.534558535    0.858948231
