Sn+Sn                                   
   1.00000000000000     
     9.1771144870000008    0.0000000000000000    0.0000000000000000
     0.0000000000000000   19.4676017759999986    0.0000000000000000
     0.0000000000000000    0.0000000000000000    7.6476025580000000
   Sn
    48
Direct
  0.6935140490000009  0.5232440229999966  0.1000000009999980
  0.9435140490000009  0.9121329780000025  0.0000000220000018
  0.0564858910000012  0.2732439640000024  0.6000000240000034
  0.0564859249999969  0.9121329780000025  0.4999999400000021
  0.3064859209999966  0.6621328590000033  0.4999999400000021
  0.6935141089999988  0.8843550679999979  0.1999999729999971
  0.1935140790000034  0.6621328590000033  0.0000000000000000
  0.3064861300000032  0.9676880840000024  0.9999998810000008
  0.6935138699999968  0.9676880840000024  0.4999999699999975
  0.0564861300000032  0.3565771580000003  0.8999998569999974
  0.1935139890000031  0.1065770390000012  0.3999997969999995
  0.6935138699999968  0.1065771580000003  0.3999999170000024
  0.6935140490000009  0.7454661129999991  0.2999999520000003
  0.8064861300000032  0.9676883220000008  0.9999998810000008
  0.0564861300000032  0.7176880840000024  0.9999998810000008
  0.3064860109999969  0.1065770980000025  0.8999998569999974
  0.9435138699999968  0.7176880840000024  0.4999998210000030
  0.9435139300000017  0.4954659939999999  0.2999999520000003
  0.9435140490000009  0.1343551869999970  0.1999999729999971
  0.1935140340000032  0.5232440229999966  0.0999999639999984
  0.3064859509999991  0.5232440229999966  0.5999999639999984
  0.6935140490000009  0.6621329190000012  0.0000000349999993
  0.8064858910000012  0.6621329190000012  0.4999999400000021
  0.1935139300000017  0.9676883220000008  0.4999999699999975
  0.1935139300000017  0.7454661129999991  0.2999999520000003
  0.9435140490000009  0.1343551869999970  0.1999999729999971
  0.5564859509999991  0.1343551869999970  0.6999999279999969
  0.8064860699999983  0.7454661129999991  0.7999999520000003
  0.4435139890000031  0.4954659939999999  0.2999999230000014
  0.9435140490000009  0.2732439339999999  0.0999999869999968
  0.4435139890000031  0.3565772769999995  0.3999998569999974
  0.4435140490000009  0.1343551869999970  0.1999998989999980
  0.3064858910000012  0.8843550679999979  0.6999999279999969
  0.5564860109999969  0.4954659340000021  0.7999999520000003
  0.8064858910000012  0.1065772179999982  0.8999998569999974
  0.1935140189999984  0.8843550679999979  0.1999999729999971
  0.9435138699999968  0.3565771580000003  0.3999998569999974
  0.5564859509999991  0.2732439339999999  0.5999999639999984
  0.8064858910000012  0.8843550679999979  0.6999999279999969
  0.0564860109999969  0.4954659939999999  0.7999999520000003
  0.9435139300000017  0.4954659939999999  0.2999999520000003
  0.1935139300000017  0.7454661129999991  0.2999999520000003
  0.1935140189999984  0.8843550679999979  0.1999999729999971
  0.8064859509999991  0.5232440229999966  0.5999999639999984
  0.0564858910000012  0.1343551869999970  0.6999999279999969
  0.3064860109999969  0.7454661129999991  0.7999999520000003
  0.5564860109999969  0.3565772769999995  0.8999998569999974
  0.4435139890000031  0.2732439640000024  0.1000000160000027
 
  0.00000000E+00  0.00000000E+00  0.00000000E+00
  0.00000000E+00  0.00000000E+00  0.00000000E+00
  0.00000000E+00  0.00000000E+00  0.00000000E+00
  0.00000000E+00  0.00000000E+00  0.00000000E+00
  0.00000000E+00  0.00000000E+00  0.00000000E+00
  0.00000000E+00  0.00000000E+00  0.00000000E+00
  0.00000000E+00  0.00000000E+00  0.00000000E+00
  0.00000000E+00  0.00000000E+00  0.00000000E+00
  0.00000000E+00  0.00000000E+00  0.00000000E+00
  0.00000000E+00  0.00000000E+00  0.00000000E+00
  0.00000000E+00  0.00000000E+00  0.00000000E+00
  0.00000000E+00  0.00000000E+00  0.00000000E+00
  0.00000000E+00  0.00000000E+00  0.00000000E+00
  0.00000000E+00  0.00000000E+00  0.00000000E+00
  0.00000000E+00  0.00000000E+00  0.00000000E+00
  0.00000000E+00  0.00000000E+00  0.00000000E+00
  0.00000000E+00  0.00000000E+00  0.00000000E+00
  0.00000000E+00  0.00000000E+00  0.00000000E+00
  0.00000000E+00  0.00000000E+00  0.00000000E+00
  0.00000000E+00  0.00000000E+00  0.00000000E+00
  0.00000000E+00  0.00000000E+00  0.00000000E+00
  0.00000000E+00  0.00000000E+00  0.00000000E+00
  0.00000000E+00  0.00000000E+00  0.00000000E+00
  0.00000000E+00  0.00000000E+00  0.00000000E+00
  0.00000000E+00  0.00000000E+00  0.00000000E+00
  0.00000000E+00  0.00000000E+00  0.00000000E+00
  0.00000000E+00  0.00000000E+00  0.00000000E+00
  0.00000000E+00  0.00000000E+00  0.00000000E+00
  0.00000000E+00  0.00000000E+00  0.00000000E+00
  0.00000000E+00  0.00000000E+00  0.00000000E+00
  0.00000000E+00  0.00000000E+00  0.00000000E+00
  0.00000000E+00  0.00000000E+00  0.00000000E+00
  0.00000000E+00  0.00000000E+00  0.00000000E+00
  0.00000000E+00  0.00000000E+00  0.00000000E+00
  0.00000000E+00  0.00000000E+00  0.00000000E+00
  0.00000000E+00  0.00000000E+00  0.00000000E+00
  0.00000000E+00  0.00000000E+00  0.00000000E+00
  0.00000000E+00  0.00000000E+00  0.00000000E+00
  0.00000000E+00  0.00000000E+00  0.00000000E+00
  0.00000000E+00  0.00000000E+00  0.00000000E+00
  0.00000000E+00  0.00000000E+00  0.00000000E+00
  0.00000000E+00  0.00000000E+00  0.00000000E+00
  0.00000000E+00  0.00000000E+00  0.00000000E+00
  0.00000000E+00  0.00000000E+00  0.00000000E+00
  0.00000000E+00  0.00000000E+00  0.00000000E+00
  0.00000000E+00  0.00000000E+00  0.00000000E+00
  0.00000000E+00  0.00000000E+00  0.00000000E+00
  0.00000000E+00  0.00000000E+00  0.00000000E+00
