Sn+Ge                                   
   1.00000000000000     
    11.2396240229999993    0.0000000000000000    0.0000000000000000
     0.0000000000000000   15.8952293400000002    0.0000000000000000
     0.0000000000000000    0.0000000000000000   21.4730701450000012
   Sn   Ge
    72    96
Direct
  0.0000000000000000  0.0179795159999969  0.0000000020000002
  0.9999999400000021  0.2679795920000032  0.1068444770000028
  0.9999998810000008  0.5179797409999978  0.2136889699999998
  0.9999998210000030  0.7679799200000019  0.3205334840000020
  0.9999998210000030  0.0179799799999998  0.4273779390000030
  0.9999997620000016  0.2679800989999990  0.5342224239999993
  0.3333333730000021  0.3513128760000015  0.0000000020000002
  0.3333333129999971  0.6013128760000015  0.1068444770000028
  0.3333333129999971  0.8513130549999985  0.2136889699999998
  0.3333332240000004  0.1013132329999991  0.3205334840000020
  0.3333332240000004  0.3513133530000019  0.4273779390000030
  0.3333331640000026  0.6013134720000011  0.5342224239999993
  0.6666667459999971  0.6846462489999965  0.0000000020000002
  0.6666666870000029  0.9346462489999965  0.1068444770000028
  0.6666668060000021  0.1846464870000020  0.2136889699999998
  0.6666665079999987  0.4346464870000020  0.3205334840000020
  0.6666665670000000  0.6846466060000012  0.4273779390000030
  0.6666665670000000  0.9346468450000032  0.5342224239999993
  0.0000000300000025  0.5179795620000007  0.0000000020000002
  0.9999999400000021  0.7679796219999986  0.1068444619999980
  0.9999998810000008  0.0179797409999978  0.2136889699999998
  0.9999998810000008  0.2679798599999970  0.3205334250000007
  0.9999998210000030  0.5179799799999998  0.4273779390000030
  0.9999997620000016  0.7679800989999990  0.5342224239999993
  0.3333333730000021  0.8513128760000015  0.0000000020000002
  0.3333333429999996  0.1013129950000007  0.1068444619999980
  0.3333333730000021  0.3513132329999991  0.2136889699999998
  0.3333332540000029  0.6013132329999991  0.3205334250000007
  0.3333332839999983  0.8513133530000019  0.4273779390000030
  0.3333331050000012  0.1013135910000003  0.5342224239999993
  0.6666668060000021  0.1846462040000034  0.0000000000000000
  0.6666666269999979  0.4346462489999965  0.1068444619999980
  0.6666666870000029  0.6846464280000006  0.2136889699999998
  0.6666666269999979  0.9346464870000020  0.3205334250000007
  0.6666665079999987  0.1846466060000012  0.4273779390000030
  0.6666665670000000  0.4346467259999969  0.5342224239999993
  0.0833333209999978  0.3513128459999990  0.0000000060000005
  0.0833332460000022  0.6013128760000015  0.1068444619999980
  0.0833332910000024  0.8513130549999985  0.2136889699999998
  0.0833331270000031  0.1013131139999999  0.3205334840000020
  0.0833331270000031  0.3513132329999991  0.4273779390000030
  0.0833331349999966  0.6013133530000019  0.5342224239999993
  0.4166667160000017  0.6846461889999986  0.0000000060000005
  0.4166666269999979  0.9346462489999965  0.1068444770000028
  0.4166666570000004  0.1846464870000020  0.2136889699999998
  0.4166665970000025  0.4346466060000012  0.3205334250000007
  0.4166663889999995  0.6846466060000012  0.4273779390000030
  0.4166665079999987  0.9346467259999969  0.5342224239999993
  0.7500000000000000  0.0179795470000030  0.0000000149999977
  0.7500000000000000  0.2679795920000032  0.1068444850000034
  0.7499999400000021  0.5179797409999978  0.2136889699999998
  0.7499998210000030  0.7679798599999970  0.3205334250000007
  0.7499998210000030  0.0179799799999998  0.4273779390000030
  0.7499998210000030  0.2679800989999990  0.5342224239999993
  0.0833333360000026  0.8513129350000028  0.0000000000000000
  0.0833332759999976  0.1013129950000007  0.1068444920000005
  0.0833332240000004  0.3513131139999999  0.2136889550000021
  0.0833332460000022  0.6013134720000011  0.3205334840000020
  0.0833331349999966  0.8513133530000019  0.4273779689999984
  0.0833330749999988  0.1013135910000003  0.5342224239999993
  0.4166667160000017  0.1846462040000034  0.0000000040000003
  0.4166666570000004  0.4346462489999965  0.1068444770000028
  0.4166665670000000  0.6846464280000006  0.2136889699999998
  0.4166665670000000  0.9346465469999998  0.3205334840000020
  0.4166665670000000  0.1846466060000012  0.4273779390000030
  0.4166664480000009  0.4346467259999969  0.5342224239999993
  0.7500000000000000  0.5179795029999994  0.0000000029999967
  0.7499999400000021  0.7679796219999986  0.1068444770000028
  0.7500000000000000  0.0179797409999978  0.2136889699999998
  0.7499998810000008  0.2679798599999970  0.3205334840000020
  0.7499998210000030  0.5179798599999970  0.4273779390000030
  0.7499997620000016  0.7679800989999990  0.5342224239999993
  0.9706627730000008  0.4559941589999994  0.5342224239999993
  0.7206627130000030  0.0809941369999976  0.6273780470000005
  0.4706627730000008  0.7059941289999969  0.7205334900000011
  0.2206628920000000  0.3309942480000032  0.8136889339999982
  0.9706627130000030  0.9559941289999969  0.9068444369999966
  0.7206627130000030  0.5809941289999969  0.9999998810000008
  0.4706627730000008  0.4559941589999994  0.5342224239999993
  0.2206627580000031  0.0809941369999976  0.6273780470000005
  0.9706627730000008  0.7059941289999969  0.7205334900000011
  0.7206628320000021  0.3309942480000032  0.8136889339999982
  0.4706628320000021  0.9559941289999969  0.9068444369999966
  0.2206627730000008  0.5809941289999969  0.9999998810000008
  0.9706627730000008  0.9559941289999969  0.5342224239999993
  0.7206627130000030  0.5809941289999969  0.6273780470000005
  0.4706627730000008  0.2059941289999969  0.7205334900000011
  0.2206628920000000  0.8309943679999989  0.8136889339999982
  0.9706627130000030  0.4559941289999969  0.9068444970000016
  0.7206627130000030  0.0809941289999969  0.9999998810000008
  0.4706627730000008  0.9559941289999969  0.5342224239999993
  0.2206627580000031  0.5809941289999969  0.6273780470000005
  0.9706627730000008  0.2059941289999969  0.7205334900000011
  0.7206628320000021  0.8309943679999989  0.8136889339999982
  0.4706628320000021  0.4559941289999969  0.9068444970000016
  0.2206627730000008  0.0809941289999969  0.9999998810000008
  0.9706627730000008  0.7059941289999969  0.5342224239999993
  0.7206627130000030  0.3309941289999969  0.6273780470000005
  0.4706627730000008  0.9559941289999969  0.7205334900000011
  0.2206628920000000  0.5809942480000032  0.8136889339999982
  0.9706627130000030  0.2059941890000019  0.9068444970000016
  0.7206627130000030  0.8309941289999969  0.9999998810000008
  0.4706627730000008  0.7059941289999969  0.5342224239999993
  0.2206627580000031  0.3309941289999969  0.6273780470000005
  0.9706627730000008  0.9559941289999969  0.7205334900000011
  0.7206628320000021  0.5809942480000032  0.8136889339999982
  0.4706628320000021  0.2059941890000019  0.9068444970000016
  0.2206627730000008  0.8309941289999969  0.9999998810000008
  0.9706627730000008  0.2059941440000017  0.5342224239999993
  0.7206627130000030  0.8309941289999969  0.6273780470000005
  0.4706627730000008  0.4559941289999969  0.7205334900000011
  0.2206628920000000  0.0809942480000032  0.8136889339999982
  0.9706627130000030  0.7059942480000032  0.9068444369999966
  0.7206627130000030  0.3309941289999969  0.9999998810000008
  0.4706627730000008  0.2059941440000017  0.5342224239999993
  0.2206627580000031  0.8309941289999969  0.6273780470000005
  0.9706627730000008  0.4559941289999969  0.7205334900000011
  0.7206628320000021  0.0809942480000032  0.8136889339999982
  0.4706628320000021  0.7059942480000032  0.9068444369999966
  0.2206627730000008  0.3309941289999969  0.9999998810000008
  0.3456627429999983  0.5809941890000019  0.5342224239999993
  0.0956627580000031  0.2059941589999994  0.6273780470000005
  0.8456627730000008  0.8309941289999969  0.7205334900000011
  0.5956628320000021  0.4559942480000032  0.8136889339999982
  0.3456627730000008  0.0809941890000019  0.9068444970000016
  0.0956627130000030  0.7059941289999969  0.9999998810000008
  0.8456628320000021  0.5809941890000019  0.5342224239999993
  0.5956627730000008  0.2059941589999994  0.6273780470000005
  0.3456628019999997  0.8309941289999969  0.7205334900000011
  0.0956628839999993  0.4559942480000032  0.8136889339999982
  0.8456628320000021  0.0809941890000019  0.9068444970000016
  0.5956627730000008  0.7059941289999969  0.9999998810000008
  0.3456627429999983  0.0809941369999976  0.5342224239999993
  0.0956627580000031  0.7059941289999969  0.6273780470000005
  0.8456627730000008  0.3309941289999969  0.7205334900000011
  0.5956628320000021  0.9559942480000032  0.8136889339999982
  0.3456627730000008  0.5809942480000032  0.9068444369999966
  0.0956627130000030  0.2059940099999977  0.9999998810000008
  0.8456628320000021  0.0809941369999976  0.5342224239999993
  0.5956627730000008  0.7059941289999969  0.6273780470000005
  0.3456628019999997  0.3309941289999969  0.7205334900000011
  0.0956628839999993  0.9559942480000032  0.8136889339999982
  0.8456628320000021  0.5809942480000032  0.9068444369999966
  0.5956627730000008  0.2059940099999977  0.9999998810000008
  0.3456627429999983  0.8309941890000019  0.5342224239999993
  0.0956627580000031  0.4559941890000019  0.6273780470000005
  0.8456627730000008  0.0809941739999971  0.7205334900000011
  0.5956628320000021  0.7059943080000011  0.8136889339999982
  0.3456627730000008  0.3309942480000032  0.9068444369999966
  0.0956627130000030  0.9559941289999969  0.9999998810000008
  0.8456628320000021  0.8309941890000019  0.5342224239999993
  0.5956627730000008  0.4559941890000019  0.6273780470000005
  0.3456628019999997  0.0809941739999971  0.7205334900000011
  0.0956628839999993  0.7059943080000011  0.8136889339999982
  0.8456628320000021  0.3309942480000032  0.9068444369999966
  0.5956627730000008  0.9559941289999969  0.9999998810000008
  0.3456627429999983  0.3309941289999969  0.5342224239999993
  0.0956627580000031  0.9559941289999969  0.6273780470000005
  0.8456627730000008  0.5809941289999969  0.7205334900000011
  0.5956628320000021  0.2059942480000032  0.8136889339999982
  0.3456627730000008  0.8309941289999969  0.9068444369999966
  0.0956627130000030  0.4559941289999969  0.9999998810000008
  0.8456628320000021  0.3309941289999969  0.5342224239999993
  0.5956627730000008  0.9559941289999969  0.6273780470000005
  0.3456628019999997  0.5809941289999969  0.7205334900000011
  0.0956628839999993  0.2059942480000032  0.8136889339999982
  0.8456628320000021  0.8309941289999969  0.9068444369999966
  0.5956627730000008  0.4559941289999969  0.9999998810000008
 
  0.00000000E+00  0.00000000E+00  0.00000000E+00
  0.00000000E+00  0.00000000E+00  0.00000000E+00
  0.00000000E+00  0.00000000E+00  0.00000000E+00
  0.00000000E+00  0.00000000E+00  0.00000000E+00
  0.00000000E+00  0.00000000E+00  0.00000000E+00
  0.00000000E+00  0.00000000E+00  0.00000000E+00
  0.00000000E+00  0.00000000E+00  0.00000000E+00
  0.00000000E+00  0.00000000E+00  0.00000000E+00
  0.00000000E+00  0.00000000E+00  0.00000000E+00
  0.00000000E+00  0.00000000E+00  0.00000000E+00
  0.00000000E+00  0.00000000E+00  0.00000000E+00
  0.00000000E+00  0.00000000E+00  0.00000000E+00
  0.00000000E+00  0.00000000E+00  0.00000000E+00
  0.00000000E+00  0.00000000E+00  0.00000000E+00
  0.00000000E+00  0.00000000E+00  0.00000000E+00
  0.00000000E+00  0.00000000E+00  0.00000000E+00
  0.00000000E+00  0.00000000E+00  0.00000000E+00
  0.00000000E+00  0.00000000E+00  0.00000000E+00
  0.00000000E+00  0.00000000E+00  0.00000000E+00
  0.00000000E+00  0.00000000E+00  0.00000000E+00
  0.00000000E+00  0.00000000E+00  0.00000000E+00
  0.00000000E+00  0.00000000E+00  0.00000000E+00
  0.00000000E+00  0.00000000E+00  0.00000000E+00
  0.00000000E+00  0.00000000E+00  0.00000000E+00
  0.00000000E+00  0.00000000E+00  0.00000000E+00
  0.00000000E+00  0.00000000E+00  0.00000000E+00
  0.00000000E+00  0.00000000E+00  0.00000000E+00
  0.00000000E+00  0.00000000E+00  0.00000000E+00
  0.00000000E+00  0.00000000E+00  0.00000000E+00
  0.00000000E+00  0.00000000E+00  0.00000000E+00
  0.00000000E+00  0.00000000E+00  0.00000000E+00
  0.00000000E+00  0.00000000E+00  0.00000000E+00
  0.00000000E+00  0.00000000E+00  0.00000000E+00
  0.00000000E+00  0.00000000E+00  0.00000000E+00
  0.00000000E+00  0.00000000E+00  0.00000000E+00
  0.00000000E+00  0.00000000E+00  0.00000000E+00
  0.00000000E+00  0.00000000E+00  0.00000000E+00
  0.00000000E+00  0.00000000E+00  0.00000000E+00
  0.00000000E+00  0.00000000E+00  0.00000000E+00
  0.00000000E+00  0.00000000E+00  0.00000000E+00
  0.00000000E+00  0.00000000E+00  0.00000000E+00
  0.00000000E+00  0.00000000E+00  0.00000000E+00
  0.00000000E+00  0.00000000E+00  0.00000000E+00
  0.00000000E+00  0.00000000E+00  0.00000000E+00
  0.00000000E+00  0.00000000E+00  0.00000000E+00
  0.00000000E+00  0.00000000E+00  0.00000000E+00
  0.00000000E+00  0.00000000E+00  0.00000000E+00
  0.00000000E+00  0.00000000E+00  0.00000000E+00
  0.00000000E+00  0.00000000E+00  0.00000000E+00
  0.00000000E+00  0.00000000E+00  0.00000000E+00
  0.00000000E+00  0.00000000E+00  0.00000000E+00
  0.00000000E+00  0.00000000E+00  0.00000000E+00
  0.00000000E+00  0.00000000E+00  0.00000000E+00
  0.00000000E+00  0.00000000E+00  0.00000000E+00
  0.00000000E+00  0.00000000E+00  0.00000000E+00
  0.00000000E+00  0.00000000E+00  0.00000000E+00
  0.00000000E+00  0.00000000E+00  0.00000000E+00
  0.00000000E+00  0.00000000E+00  0.00000000E+00
  0.00000000E+00  0.00000000E+00  0.00000000E+00
  0.00000000E+00  0.00000000E+00  0.00000000E+00
  0.00000000E+00  0.00000000E+00  0.00000000E+00
  0.00000000E+00  0.00000000E+00  0.00000000E+00
  0.00000000E+00  0.00000000E+00  0.00000000E+00
  0.00000000E+00  0.00000000E+00  0.00000000E+00
  0.00000000E+00  0.00000000E+00  0.00000000E+00
  0.00000000E+00  0.00000000E+00  0.00000000E+00
  0.00000000E+00  0.00000000E+00  0.00000000E+00
  0.00000000E+00  0.00000000E+00  0.00000000E+00
  0.00000000E+00  0.00000000E+00  0.00000000E+00
  0.00000000E+00  0.00000000E+00  0.00000000E+00
  0.00000000E+00  0.00000000E+00  0.00000000E+00
  0.00000000E+00  0.00000000E+00  0.00000000E+00
  0.00000000E+00  0.00000000E+00  0.00000000E+00
  0.00000000E+00  0.00000000E+00  0.00000000E+00
  0.00000000E+00  0.00000000E+00  0.00000000E+00
  0.00000000E+00  0.00000000E+00  0.00000000E+00
  0.00000000E+00  0.00000000E+00  0.00000000E+00
  0.00000000E+00  0.00000000E+00  0.00000000E+00
  0.00000000E+00  0.00000000E+00  0.00000000E+00
  0.00000000E+00  0.00000000E+00  0.00000000E+00
  0.00000000E+00  0.00000000E+00  0.00000000E+00
  0.00000000E+00  0.00000000E+00  0.00000000E+00
  0.00000000E+00  0.00000000E+00  0.00000000E+00
  0.00000000E+00  0.00000000E+00  0.00000000E+00
  0.00000000E+00  0.00000000E+00  0.00000000E+00
  0.00000000E+00  0.00000000E+00  0.00000000E+00
  0.00000000E+00  0.00000000E+00  0.00000000E+00
  0.00000000E+00  0.00000000E+00  0.00000000E+00
  0.00000000E+00  0.00000000E+00  0.00000000E+00
  0.00000000E+00  0.00000000E+00  0.00000000E+00
  0.00000000E+00  0.00000000E+00  0.00000000E+00
  0.00000000E+00  0.00000000E+00  0.00000000E+00
  0.00000000E+00  0.00000000E+00  0.00000000E+00
  0.00000000E+00  0.00000000E+00  0.00000000E+00
  0.00000000E+00  0.00000000E+00  0.00000000E+00
  0.00000000E+00  0.00000000E+00  0.00000000E+00
  0.00000000E+00  0.00000000E+00  0.00000000E+00
  0.00000000E+00  0.00000000E+00  0.00000000E+00
  0.00000000E+00  0.00000000E+00  0.00000000E+00
  0.00000000E+00  0.00000000E+00  0.00000000E+00
  0.00000000E+00  0.00000000E+00  0.00000000E+00
  0.00000000E+00  0.00000000E+00  0.00000000E+00
  0.00000000E+00  0.00000000E+00  0.00000000E+00
  0.00000000E+00  0.00000000E+00  0.00000000E+00
  0.00000000E+00  0.00000000E+00  0.00000000E+00
  0.00000000E+00  0.00000000E+00  0.00000000E+00
  0.00000000E+00  0.00000000E+00  0.00000000E+00
  0.00000000E+00  0.00000000E+00  0.00000000E+00
  0.00000000E+00  0.00000000E+00  0.00000000E+00
  0.00000000E+00  0.00000000E+00  0.00000000E+00
  0.00000000E+00  0.00000000E+00  0.00000000E+00
  0.00000000E+00  0.00000000E+00  0.00000000E+00
  0.00000000E+00  0.00000000E+00  0.00000000E+00
  0.00000000E+00  0.00000000E+00  0.00000000E+00
  0.00000000E+00  0.00000000E+00  0.00000000E+00
  0.00000000E+00  0.00000000E+00  0.00000000E+00
  0.00000000E+00  0.00000000E+00  0.00000000E+00
  0.00000000E+00  0.00000000E+00  0.00000000E+00
  0.00000000E+00  0.00000000E+00  0.00000000E+00
  0.00000000E+00  0.00000000E+00  0.00000000E+00
  0.00000000E+00  0.00000000E+00  0.00000000E+00
  0.00000000E+00  0.00000000E+00  0.00000000E+00
  0.00000000E+00  0.00000000E+00  0.00000000E+00
  0.00000000E+00  0.00000000E+00  0.00000000E+00
  0.00000000E+00  0.00000000E+00  0.00000000E+00
  0.00000000E+00  0.00000000E+00  0.00000000E+00
  0.00000000E+00  0.00000000E+00  0.00000000E+00
  0.00000000E+00  0.00000000E+00  0.00000000E+00
  0.00000000E+00  0.00000000E+00  0.00000000E+00
  0.00000000E+00  0.00000000E+00  0.00000000E+00
  0.00000000E+00  0.00000000E+00  0.00000000E+00
  0.00000000E+00  0.00000000E+00  0.00000000E+00
  0.00000000E+00  0.00000000E+00  0.00000000E+00
  0.00000000E+00  0.00000000E+00  0.00000000E+00
  0.00000000E+00  0.00000000E+00  0.00000000E+00
  0.00000000E+00  0.00000000E+00  0.00000000E+00
  0.00000000E+00  0.00000000E+00  0.00000000E+00
  0.00000000E+00  0.00000000E+00  0.00000000E+00
  0.00000000E+00  0.00000000E+00  0.00000000E+00
  0.00000000E+00  0.00000000E+00  0.00000000E+00
  0.00000000E+00  0.00000000E+00  0.00000000E+00
  0.00000000E+00  0.00000000E+00  0.00000000E+00
  0.00000000E+00  0.00000000E+00  0.00000000E+00
  0.00000000E+00  0.00000000E+00  0.00000000E+00
  0.00000000E+00  0.00000000E+00  0.00000000E+00
  0.00000000E+00  0.00000000E+00  0.00000000E+00
  0.00000000E+00  0.00000000E+00  0.00000000E+00
  0.00000000E+00  0.00000000E+00  0.00000000E+00
  0.00000000E+00  0.00000000E+00  0.00000000E+00
  0.00000000E+00  0.00000000E+00  0.00000000E+00
  0.00000000E+00  0.00000000E+00  0.00000000E+00
  0.00000000E+00  0.00000000E+00  0.00000000E+00
  0.00000000E+00  0.00000000E+00  0.00000000E+00
  0.00000000E+00  0.00000000E+00  0.00000000E+00
  0.00000000E+00  0.00000000E+00  0.00000000E+00
  0.00000000E+00  0.00000000E+00  0.00000000E+00
  0.00000000E+00  0.00000000E+00  0.00000000E+00
  0.00000000E+00  0.00000000E+00  0.00000000E+00
  0.00000000E+00  0.00000000E+00  0.00000000E+00
  0.00000000E+00  0.00000000E+00  0.00000000E+00
  0.00000000E+00  0.00000000E+00  0.00000000E+00
  0.00000000E+00  0.00000000E+00  0.00000000E+00
  0.00000000E+00  0.00000000E+00  0.00000000E+00
  0.00000000E+00  0.00000000E+00  0.00000000E+00
  0.00000000E+00  0.00000000E+00  0.00000000E+00
  0.00000000E+00  0.00000000E+00  0.00000000E+00
  0.00000000E+00  0.00000000E+00  0.00000000E+00
  0.00000000E+00  0.00000000E+00  0.00000000E+00
