Sn+Ge
    1.000000000
   11.239624023    0.000000000    0.000000000
    0.000000000   15.895229340    0.000000000
    0.000000000    0.000000000   21.473070145
Sn  Ge 
72     96
Direct
    0.000000000    0.017979516    0.000000002
    0.999999940    0.267979592    0.106844477
    0.999999881    0.517979741    0.213688970
    0.999999821    0.767979920    0.320533484
    0.999999821    0.017979980    0.427377939
    0.999999762    0.267980099    0.534222424
    0.333333373    0.351312876    0.000000002
    0.333333313    0.601312876    0.106844477
    0.333333313    0.851313055    0.213688970
    0.333333224    0.101313233    0.320533484
    0.333333224    0.351313353    0.427377939
    0.333333164    0.601313472    0.534222424
    0.666666746    0.684646249    0.000000002
    0.666666687    0.934646249    0.106844477
    0.666666806    0.184646487    0.213688970
    0.666666508    0.434646487    0.320533484
    0.666666567    0.684646606    0.427377939
    0.666666567    0.934646845    0.534222424
    0.000000030    0.517979562    0.000000002
    0.999999940    0.767979622    0.106844462
    0.999999881    0.017979741    0.213688970
    0.999999881    0.267979860    0.320533425
    0.999999821    0.517979980    0.427377939
    0.999999762    0.767980099    0.534222424
    0.333333373    0.851312876    0.000000002
    0.333333343    0.101312995    0.106844462
    0.333333373    0.351313233    0.213688970
    0.333333254    0.601313233    0.320533425
    0.333333284    0.851313353    0.427377939
    0.333333105    0.101313591    0.534222424
    0.666666806    0.184646204    0.000000000
    0.666666627    0.434646249    0.106844462
    0.666666687    0.684646428    0.213688970
    0.666666627    0.934646487    0.320533425
    0.666666508    0.184646606    0.427377939
    0.666666567    0.434646726    0.534222424
    0.083333321    0.351312846    0.000000006
    0.083333246    0.601312876    0.106844462
    0.083333291    0.851313055    0.213688970
    0.083333127    0.101313114    0.320533484
    0.083333127    0.351313233    0.427377939
    0.083333135    0.601313353    0.534222424
    0.416666716    0.684646189    0.000000006
    0.416666627    0.934646249    0.106844477
    0.416666657    0.184646487    0.213688970
    0.416666597    0.434646606    0.320533425
    0.416666389    0.684646606    0.427377939
    0.416666508    0.934646726    0.534222424
    0.750000000    0.017979547    0.000000015
    0.750000000    0.267979592    0.106844485
    0.749999940    0.517979741    0.213688970
    0.749999821    0.767979860    0.320533425
    0.749999821    0.017979980    0.427377939
    0.749999821    0.267980099    0.534222424
    0.083333336    0.851312935    0.000000000
    0.083333276    0.101312995    0.106844492
    0.083333224    0.351313114    0.213688955
    0.083333246    0.601313472    0.320533484
    0.083333135    0.851313353    0.427377969
    0.083333075    0.101313591    0.534222424
    0.416666716    0.184646204    0.000000004
    0.416666657    0.434646249    0.106844477
    0.416666567    0.684646428    0.213688970
    0.416666567    0.934646547    0.320533484
    0.416666567    0.184646606    0.427377939
    0.416666448    0.434646726    0.534222424
    0.750000000    0.517979503    0.000000003
    0.749999940    0.767979622    0.106844477
    0.750000000    0.017979741    0.213688970
    0.749999881    0.267979860    0.320533484
    0.749999821    0.517979860    0.427377939
    0.749999762    0.767980099    0.534222424
    0.970662773    0.455994159    0.534222424
    0.720662713    0.080994137    0.627378047
    0.470662773    0.705994129    0.720533490
    0.220662892    0.330994248    0.813688934
    0.970662713    0.955994129    0.906844437
    0.720662713    0.580994129    0.999999881
    0.470662773    0.455994159    0.534222424
    0.220662758    0.080994137    0.627378047
    0.970662773    0.705994129    0.720533490
    0.720662832    0.330994248    0.813688934
    0.470662832    0.955994129    0.906844437
    0.220662773    0.580994129    0.999999881
    0.970662773    0.955994129    0.534222424
    0.720662713    0.580994129    0.627378047
    0.470662773    0.205994129    0.720533490
    0.220662892    0.830994368    0.813688934
    0.970662713    0.455994129    0.906844497
    0.720662713    0.080994129    0.999999881
    0.470662773    0.955994129    0.534222424
    0.220662758    0.580994129    0.627378047
    0.970662773    0.205994129    0.720533490
    0.720662832    0.830994368    0.813688934
    0.470662832    0.455994129    0.906844497
    0.220662773    0.080994129    0.999999881
    0.970662773    0.705994129    0.534222424
    0.720662713    0.330994129    0.627378047
    0.470662773    0.955994129    0.720533490
    0.220662892    0.580994248    0.813688934
    0.970662713    0.205994189    0.906844497
    0.720662713    0.830994129    0.999999881
    0.470662773    0.705994129    0.534222424
    0.220662758    0.330994129    0.627378047
    0.970662773    0.955994129    0.720533490
    0.720662832    0.580994248    0.813688934
    0.470662832    0.205994189    0.906844497
    0.220662773    0.830994129    0.999999881
    0.970662773    0.205994144    0.534222424
    0.720662713    0.830994129    0.627378047
    0.470662773    0.455994129    0.720533490
    0.220662892    0.080994248    0.813688934
    0.970662713    0.705994248    0.906844437
    0.720662713    0.330994129    0.999999881
    0.470662773    0.205994144    0.534222424
    0.220662758    0.830994129    0.627378047
    0.970662773    0.455994129    0.720533490
    0.720662832    0.080994248    0.813688934
    0.470662832    0.705994248    0.906844437
    0.220662773    0.330994129    0.999999881
    0.345662743    0.580994189    0.534222424
    0.095662758    0.205994159    0.627378047
    0.845662773    0.830994129    0.720533490
    0.595662832    0.455994248    0.813688934
    0.345662773    0.080994189    0.906844497
    0.095662713    0.705994129    0.999999881
    0.845662832    0.580994189    0.534222424
    0.595662773    0.205994159    0.627378047
    0.345662802    0.830994129    0.720533490
    0.095662884    0.455994248    0.813688934
    0.845662832    0.080994189    0.906844497
    0.595662773    0.705994129    0.999999881
    0.345662743    0.080994137    0.534222424
    0.095662758    0.705994129    0.627378047
    0.845662773    0.330994129    0.720533490
    0.595662832    0.955994248    0.813688934
    0.345662773    0.580994248    0.906844437
    0.095662713    0.205994010    0.999999881
    0.845662832    0.080994137    0.534222424
    0.595662773    0.705994129    0.627378047
    0.345662802    0.330994129    0.720533490
    0.095662884    0.955994248    0.813688934
    0.845662832    0.580994248    0.906844437
    0.595662773    0.205994010    0.999999881
    0.345662743    0.830994189    0.534222424
    0.095662758    0.455994189    0.627378047
    0.845662773    0.080994174    0.720533490
    0.595662832    0.705994308    0.813688934
    0.345662773    0.330994248    0.906844437
    0.095662713    0.955994129    0.999999881
    0.845662832    0.830994189    0.534222424
    0.595662773    0.455994189    0.627378047
    0.345662802    0.080994174    0.720533490
    0.095662884    0.705994308    0.813688934
    0.845662832    0.330994248    0.906844437
    0.595662773    0.955994129    0.999999881
    0.345662743    0.330994129    0.534222424
    0.095662758    0.955994129    0.627378047
    0.845662773    0.580994129    0.720533490
    0.595662832    0.205994248    0.813688934
    0.345662773    0.830994129    0.906844437
    0.095662713    0.455994129    0.999999881
    0.845662832    0.330994129    0.534222424
    0.595662773    0.955994129    0.627378047
    0.345662802    0.580994129    0.720533490
    0.095662884    0.205994248    0.813688934
    0.845662832    0.830994129    0.906844437
    0.595662773    0.455994129    0.999999881
