Sn+Ge
    1.000000000
   12.978400230    0.000000000    0.000000000
    0.000000000   12.978400230    0.000000000
    0.000000000    0.000000000   19.583751678
Sn  Ge 
48     60
Direct
    0.992552638    0.499999970    0.000000000
    0.742552638    0.499999970    0.165678188
    0.492552757    0.499999970    0.331356287
    0.992552638    0.000000000    0.000000000
    0.742552638    0.000000000    0.165678188
    0.492552757    0.000000000    0.331356287
    0.492552608    0.499999970    0.000000000
    0.242552638    0.499999970    0.165678188
    0.992552698    0.499999970    0.331356287
    0.492552608    0.000000000    0.000000000
    0.242552638    0.000000000    0.165678188
    0.992552698    0.000000000    0.331356287
    0.117552646    0.874999940    0.082839087
    0.867552757    0.874999940    0.248517260
    0.617552698    0.874999940    0.414195418
    0.117552646    0.374999970    0.082839087
    0.867552757    0.374999970    0.248517260
    0.617552698    0.374999970    0.414195418
    0.617552578    0.874999940    0.082839087
    0.367552698    0.874999940    0.248517260
    0.117552668    0.874999940    0.414195418
    0.617552578    0.374999970    0.082839087
    0.367552698    0.374999970    0.248517260
    0.117552668    0.374999970    0.414195418
    0.242552638    0.749999940    0.000000000
    0.992552638    0.749999940    0.165678188
    0.742552757    0.749999940    0.331356287
    0.242552638    0.249999985    0.000000000
    0.992552638    0.249999985    0.165678188
    0.742552757    0.249999985    0.331356287
    0.742552578    0.749999940    0.000000000
    0.492552608    0.749999940    0.165678188
    0.242552698    0.749999940    0.331356287
    0.742552578    0.249999985    0.000000000
    0.492552608    0.249999985    0.165678188
    0.242552698    0.249999985    0.331356287
    0.367552638    0.624999940    0.082839087
    0.117552713    0.624999940    0.248517260
    0.867552698    0.624999940    0.414195418
    0.367552638    0.124999993    0.082839087
    0.117552713    0.124999993    0.248517260
    0.867552698    0.124999993    0.414195418
    0.867552638    0.624999940    0.082839087
    0.617552757    0.624999940    0.248517260
    0.367552698    0.624999940    0.414195418
    0.867552638    0.124999993    0.082839087
    0.617552757    0.124999993    0.248517260
    0.367552698    0.124999993    0.414195418
    0.523399234    0.428222895    0.526533484
    0.323399186    0.528222919    0.670984805
    0.123399138    0.628222942    0.815436304
    0.723399162    0.828222871    0.526533484
    0.523399115    0.928222835    0.670984805
    0.323399067    0.028222919    0.815436304
    0.923399210    0.228222892    0.526533484
    0.723399162    0.328222901    0.670984805
    0.523399115    0.428222954    0.815436304
    0.123399138    0.628222883    0.526533484
    0.923399210    0.728222847    0.670984805
    0.723399162    0.828222871    0.815436304
    0.323399186    0.028222919    0.526533484
    0.123399138    0.128222823    0.670984805
    0.923399091    0.228222862    0.815436304
    0.873399138    0.378222883    0.598759174
    0.673399091    0.478222907    0.743210614
    0.473398924    0.578222930    0.887661994
    0.473399162    0.578222871    0.598759174
    0.273399115    0.678222954    0.743210614
    0.073399067    0.778222919    0.887661994
    0.673399210    0.978222847    0.598759174
    0.473399162    0.078222871    0.743210614
    0.273399115    0.178222895    0.887661994
    0.073399186    0.778222859    0.598759174
    0.873399138    0.878222942    0.743210614
    0.673398972    0.978222966    0.887661994
    0.273399115    0.178222895    0.598759174
    0.073399067    0.278222919    0.743210614
    0.873399019    0.378222942    0.887661994
    0.823399067    0.528222859    0.526533484
    0.623399019    0.628222823    0.670984805
    0.423398972    0.728222847    0.815436304
    0.223399162    0.328222901    0.526533484
    0.023399115    0.428222895    0.670984805
    0.823399067    0.528222919    0.815436304
    0.423399210    0.728222907    0.526533484
    0.223399162    0.828222930    0.670984805
    0.023399115    0.928222954    0.815436304
    0.623399138    0.128222942    0.526533484
    0.423399091    0.228222981    0.670984805
    0.223399043    0.328222990    0.815436304
    0.023399234    0.928222895    0.526533484
    0.823399186    0.028222919    0.670984805
    0.623399138    0.128222942    0.815436304
    0.573399186    0.278222919    0.598759174
    0.373399138    0.378222942    0.743210614
    0.173399091    0.478222966    0.887661994
    0.773399353    0.678222895    0.598759174
    0.573399305    0.778222919    0.743210614
    0.373399138    0.878222942    0.887661994
    0.173399210    0.478222907    0.598759174
    0.973399162    0.578222930    0.743210614
    0.773399115    0.678222954    0.887661994
    0.373399258    0.878222883    0.598759174
    0.173399210    0.978222907    0.743210614
    0.973399103    0.078222990    0.887661994
    0.973399162    0.078222871    0.598759174
    0.773399115    0.178222895    0.743210614
    0.573399067    0.278222919    0.887661994
