Si+C
    1.000000000
   13.303179741    0.000000000    0.000000000
   -6.651589394   14.873406410    0.000000000
    0.000000000    0.000000000    7.204130173
Si  C  
36     84
Direct
    0.997150958    0.980056584    0.000000000
    0.963817537    0.746723175    0.168571264
    0.930484116    0.513389826    0.337142527
    0.330484211    0.313389868    0.000000000
    0.297150791    0.080056474    0.168571264
    0.263817370    0.846723080    0.337142527
    0.663817465    0.646723151    0.000000000
    0.630484045    0.413389713    0.168571264
    0.597150624    0.180056334    0.337142527
    0.313817531    0.946723342    0.084285460
    0.280484110    0.713389993    0.252856731
    0.247150689    0.480056584    0.421427876
    0.647150815    0.280056566    0.084285460
    0.613817394    0.046723194    0.252856672
    0.580483973    0.813389778    0.421427935
    0.980484426    0.613389850    0.084285483
    0.947151005    0.380056471    0.252856672
    0.913817585    0.146723092    0.421427876
    0.163817570    0.646723092    0.000000002
    0.130484164    0.413389713    0.168571264
    0.097150750    0.180056319    0.337142527
    0.497150898    0.980056643    0.000000006
    0.463817418    0.746723175    0.168571189
    0.430484056    0.513389826    0.337142438
    0.830484152    0.313389868    0.000000006
    0.797150731    0.080056526    0.168571189
    0.763817310    0.846723080    0.337142438
    0.147150904    0.280056566    0.084285468
    0.113817483    0.046723165    0.252856731
    0.080484070    0.813389778    0.421427935
    0.480484217    0.613389909    0.084285468
    0.447150826    0.380056530    0.252856672
    0.413817406    0.146723166    0.421427935
    0.813817501    0.946723282    0.084285460
    0.780484140    0.713389874    0.252856672
    0.747150719    0.480056465    0.421427935
    0.924754083    0.956741214    0.793745518
    0.296182513    0.985312760    0.572327852
    0.610468328    0.971027076    0.683036745
    0.067611217    0.813884020    0.793745637
    0.439039618    0.842455626    0.572327852
    0.753325403    0.828169823    0.683036745
    0.210468292    0.671026945    0.793745518
    0.581896782    0.699598491    0.572327852
    0.896182597    0.685312748    0.683036745
    0.353325486    0.528169811    0.793745518
    0.724753976    0.556741357    0.572327852
    0.039039850    0.542455554    0.683036745
    0.496182561    0.385312676    0.793745518
    0.867611110    0.413884223    0.572327852
    0.181896925    0.399598479    0.683036745
    0.639039755    0.242455512    0.793745518
    0.010468245    0.271027088    0.572327852
    0.324754000    0.256741315    0.683036745
    0.781896949    0.099598408    0.793745577
    0.153325379    0.128169894    0.572327852
    0.467611164    0.113884211    0.683036745
    0.474753976    0.056741238    0.849099815
    0.846182346    0.085312843    0.627682149
    0.160468221    0.071027040    0.738391042
    0.617611051    0.913884044    0.849099815
    0.989039421    0.942455590    0.627682149
    0.303325176    0.928169787    0.738391042
    0.760468364    0.771026969    0.849099815
    0.131896734    0.799598455    0.627682149
    0.446182609    0.785312772    0.738391042
    0.903325438    0.628169894    0.849099815
    0.274753809    0.656741381    0.627682149
    0.589039683    0.642455637    0.738391042
    0.046182394    0.485312700    0.849099874
    0.417610914    0.513884246    0.627682209
    0.731896698    0.499598503    0.738391042
    0.189039707    0.342455506    0.849099874
    0.560468197    0.371027112    0.627682149
    0.874753952    0.356741309    0.738391042
    0.331896901    0.199598432    0.849099874
    0.703325272    0.228169963    0.627682149
    0.017611027    0.213884205    0.738391042
    0.424754143    0.956741214    0.793745637
    0.796182573    0.985312879    0.572327852
    0.110468388    0.971027017    0.683036745
    0.567611337    0.813884020    0.793745637
    0.939039826    0.842455685    0.572327852
    0.253325462    0.828169823    0.683036745
    0.710468531    0.671026886    0.793745637
    0.081896901    0.699598551    0.572327852
    0.396182656    0.685312748    0.683036745
    0.853325546    0.528169870    0.793745637
    0.224753976    0.556741416    0.572327852
    0.539039791    0.542455614    0.683036745
    0.996182680    0.385312617    0.793745518
    0.367611110    0.413884223    0.572327852
    0.681896925    0.399598420    0.683036745
    0.139039755    0.242455512    0.793745518
    0.510468245    0.271027088    0.572327852
    0.824754059    0.256741285    0.683036745
    0.281896949    0.099598408    0.793745518
    0.653325379    0.128170013    0.572327852
    0.967611194    0.113884211    0.683036745
    0.974753916    0.056741238    0.849099815
    0.346182406    0.085312843    0.627682209
    0.660468161    0.071027040    0.738391042
    0.117610931    0.913884163    0.849099815
    0.489039510    0.942455709    0.627682209
    0.803325236    0.928169906    0.738391042
    0.260468245    0.771026969    0.849099815
    0.631896734    0.799598455    0.627682209
    0.946182549    0.785312712    0.738391042
    0.403325438    0.628169775    0.849099815
    0.774753869    0.656741321    0.627682209
    0.089039564    0.642455518    0.738391042
    0.546182513    0.485312700    0.849099815
    0.917610884    0.513884187    0.627682209
    0.231896758    0.499598444    0.738391042
    0.689039826    0.342455536    0.849100053
    0.060468197    0.371027112    0.627682149
    0.374753952    0.356741339    0.738391042
    0.831896901    0.199598446    0.849099815
    0.203325272    0.228169948    0.627682209
    0.517611146    0.213884234    0.738391042
