Si+C
    1.000000000
   13.303179741    0.000000000    0.000000000
   -6.651589394   14.873406410    0.000000000
    0.000000000    0.000000000    8.390059471
Si  C  
36     84
Direct
    0.997150958    0.980056584    0.000000000
    0.963817537    0.746723175    0.144743830
    0.930484116    0.513389826    0.289487660
    0.330484211    0.313389868    0.000000000
    0.297150791    0.080056474    0.144743830
    0.263817370    0.846723080    0.289487660
    0.663817465    0.646723151    0.000000000
    0.630484045    0.413389713    0.144743830
    0.597150624    0.180056334    0.289487660
    0.313817531    0.946723342    0.072371759
    0.280484110    0.713389993    0.217115581
    0.247150689    0.480056584    0.361859351
    0.647150815    0.280056566    0.072371759
    0.613817394    0.046723194    0.217115551
    0.580483973    0.813389778    0.361859381
    0.980484426    0.613389850    0.072371788
    0.947151005    0.380056471    0.217115551
    0.913817585    0.146723092    0.361859351
    0.163817570    0.646723092    0.000000002
    0.130484164    0.413389713    0.144743830
    0.097150750    0.180056319    0.289487660
    0.497150898    0.980056643    0.000000005
    0.463817418    0.746723175    0.144743770
    0.430484056    0.513389826    0.289487600
    0.830484152    0.313389868    0.000000005
    0.797150731    0.080056526    0.144743770
    0.763817310    0.846723080    0.289487600
    0.147150904    0.280056566    0.072371773
    0.113817483    0.046723165    0.217115581
    0.080484070    0.813389778    0.361859381
    0.480484217    0.613389909    0.072371773
    0.447150826    0.380056530    0.217115551
    0.413817406    0.146723166    0.361859381
    0.813817501    0.946723282    0.072371759
    0.780484140    0.713389874    0.217115551
    0.747150719    0.480056465    0.361859381
    0.603589535    0.963922977    0.752224863
    0.403589427    0.563923061    0.562104404
    0.503589511    0.263923049    0.657164693
    0.889303863    0.106780119    0.752224863
    0.689303637    0.706780195    0.562104404
    0.789303780    0.406780183    0.657164693
    0.175018072    0.249637187    0.752224863
    0.975017965    0.849637270    0.562104404
    0.075018048    0.549637258    0.657164693
    0.460732430    0.392494440    0.752224863
    0.260732263    0.992494524    0.562104404
    0.360732347    0.692494512    0.657164693
    0.746446729    0.535351574    0.752224863
    0.546446562    0.135351688    0.562104404
    0.646446586    0.835351646    0.657164693
    0.032160997    0.678208709    0.752224863
    0.832160771    0.278208852    0.562104404
    0.932160854    0.978208780    0.657164693
    0.317875147    0.821065784    0.752224863
    0.117875099    0.421065986    0.562104404
    0.217875123    0.121065915    0.657164693
    0.582161009    0.278208792    0.799754858
    0.382160842    0.878208935    0.609634459
    0.482160926    0.578208923    0.704694629
    0.725018084    0.849637330    0.799754858
    0.525017977    0.449637413    0.609634459
    0.625018001    0.149637371    0.704694629
    0.010732412    0.992494643    0.799754858
    0.810732126    0.592494726    0.609634459
    0.910732210    0.292494655    0.704694688
    0.296446681    0.135351747    0.799754798
    0.096446514    0.735351801    0.609634459
    0.196446657    0.435351789    0.704694688
    0.867875278    0.421065867    0.799754858
    0.667875171    0.021066070    0.609634459
    0.767875195    0.721065879    0.704694629
    0.153589487    0.563923180    0.799754858
    0.953589320    0.163923278    0.609634459
    0.053589344    0.863923192    0.704694629
    0.439303637    0.706780195    0.799754858
    0.239303589    0.306780338    0.609634459
    0.339303613    0.006780267    0.704694629
    0.675018191    0.249637172    0.752224863
    0.475017935    0.849637330    0.562104404
    0.575018048    0.549637258    0.657164693
    0.532160997    0.678208709    0.752224863
    0.332160830    0.278208792    0.562104404
    0.432160914    0.978208721    0.657164693
    0.817875206    0.821065784    0.752224863
    0.617875099    0.421065927    0.562104404
    0.717875123    0.121065885    0.657164693
    0.103589535    0.963922918    0.752224863
    0.903589308    0.563923001    0.562104404
    0.003589511    0.263922989    0.657164693
    0.389303803    0.106780052    0.752224863
    0.189303637    0.706780195    0.562104404
    0.289303660    0.406780124    0.657164693
    0.960732341    0.392494440    0.752224863
    0.760732174    0.992494524    0.562104404
    0.860732317    0.692494452    0.657164693
    0.246446609    0.535351515    0.752224863
    0.046446443    0.135351658    0.562104404
    0.146446586    0.835351586    0.657164693
    0.510732412    0.992494643    0.799754858
    0.310732216    0.592494726    0.609634459
    0.410732269    0.292494655    0.704694688
    0.796446681    0.135351732    0.799754858
    0.596446514    0.735351801    0.609634459
    0.696446657    0.435351789    0.704694688
    0.082160950    0.278208852    0.799754858
    0.882160783    0.878208935    0.609634459
    0.982160866    0.578208804    0.704694688
    0.653589547    0.563923240    0.799754858
    0.453589410    0.163923323    0.609634459
    0.553589463    0.863923252    0.704694629
    0.939303815    0.706780314    0.799754798
    0.739303648    0.306780398    0.609634459
    0.839303672    0.006780267    0.704694688
    0.225018024    0.849637270    0.799754798
    0.025017738    0.449637353    0.609634459
    0.125017881    0.149637341    0.704694629
    0.367875218    0.421065867    0.799754918
    0.167875051    0.021066070    0.609634459
    0.267875075    0.721065879    0.704694688
