Automatic KPOINTS generated
0
Gamma
6 2 2
0 0 0
