Si+Ge
    1.000000000
    5.431000233    0.000000000    0.000000000
    0.000000000   16.293001175    0.000000000
    0.000000000    0.000000000   20.724849701
Si  Ge 
36     48
Direct
    0.017796859    0.666666746    0.000000000
    0.517796874    0.666666746    0.131026298
    0.017796874    0.666666746    0.262052596
    0.017796859    0.333333373    0.000000000
    0.517796874    0.333333373    0.131026298
    0.017796874    0.333333373    0.262052596
    0.017796859    0.000000000    0.000000000
    0.517796874    0.000000000    0.131026298
    0.017796874    0.000000000    0.262052596
    0.267796874    0.916666746    0.065513149
    0.767796934    0.916666746    0.196539462
    0.267796993    0.916666746    0.327565730
    0.267796874    0.583333433    0.065513149
    0.767796934    0.583333433    0.196539462
    0.267796993    0.583333433    0.327565730
    0.267796874    0.250000000    0.065513149
    0.767796934    0.250000000    0.196539462
    0.267796993    0.250000000    0.327565730
    0.517796874    0.833333313    0.000000000
    0.017796874    0.833333313    0.131026298
    0.517796993    0.833333313    0.262052596
    0.517796874    0.500000000    0.000000000
    0.017796874    0.500000000    0.131026298
    0.517796993    0.500000000    0.262052596
    0.517796874    0.166666687    0.000000000
    0.017796874    0.166666687    0.131026298
    0.517796993    0.166666687    0.262052596
    0.767796934    0.750000060    0.065513149
    0.267796874    0.750000060    0.196539462
    0.767796993    0.750000060    0.327565730
    0.767796934    0.416666687    0.065513149
    0.267796874    0.416666687    0.196539462
    0.767796993    0.416666687    0.327565730
    0.767796934    0.083333351    0.065513149
    0.267796874    0.083333351    0.196539462
    0.767796993    0.083333351    0.327565730
    0.530372560    0.709080577    0.422486275
    0.030372620    0.334080547    0.519004941
    0.530372560    0.959080577    0.615523577
    0.030372381    0.584080696    0.712042212
    0.530372679    0.209080577    0.808560908
    0.030372620    0.834080577    0.905079603
    0.530372560    0.209080577    0.422486275
    0.030372620    0.834080577    0.519005001
    0.530372560    0.459080547    0.615523577
    0.030372381    0.084080815    0.712042212
    0.530372679    0.709080577    0.808560908
    0.030372620    0.334080547    0.905079484
    0.530372560    0.959080577    0.422486275
    0.030372620    0.584080577    0.519004941
    0.530372560    0.209080577    0.615523577
    0.030372381    0.834080696    0.712042272
    0.530372679    0.459080607    0.808560908
    0.030372620    0.084080577    0.905079603
    0.530372560    0.459080577    0.422486275
    0.030372620    0.084080577    0.519004941
    0.530372560    0.709080577    0.615523577
    0.030372381    0.334080666    0.712042272
    0.530372679    0.959080696    0.808560908
    0.030372620    0.584080577    0.905079484
    0.280372620    0.834080577    0.422486275
    0.780372560    0.459080577    0.519004941
    0.280372620    0.084080577    0.615523577
    0.780372441    0.709080696    0.712042212
    0.280372620    0.334080607    0.808560908
    0.780372441    0.959080577    0.905079603
    0.280372620    0.334080547    0.422486275
    0.780372560    0.959080577    0.519004941
    0.280372620    0.584080577    0.615523577
    0.780372441    0.209080696    0.712042272
    0.280372620    0.834080696    0.808560908
    0.780372441    0.459080428    0.905079484
    0.280372620    0.084080577    0.422486246
    0.780372560    0.709080577    0.519004941
    0.280372620    0.334080577    0.615523577
    0.780372441    0.959080696    0.712042212
    0.280372620    0.584080696    0.808560908
    0.780372441    0.209080577    0.905079484
    0.280372620    0.584080577    0.422486275
    0.780372560    0.209080577    0.519005001
    0.280372620    0.834080577    0.615523577
    0.780372441    0.459080666    0.712042272
    0.280372620    0.084080577    0.808560908
    0.780372441    0.709080577    0.905079484
