Ge+Ge
    1.000000000
   17.891534805    0.000000000    0.000000000
  -16.102380753    7.798739433    0.000000000
    0.000000316   -0.000000073   15.428396225
Ge 
96
Direct
    0.545285165    0.606400132    0.499999911
    0.022813324    0.977186680    0.000000009
    0.180708155    0.819291830    0.084129885
    0.338602990    0.661396980    0.168259770
    0.496497810    0.503502190    0.252389640
    0.654392600    0.345607400    0.336519539
    0.834759235    0.816926360    0.521032691
    0.312287062    0.687712908    0.021032497
    0.470181882    0.529818058    0.105162360
    0.628076732    0.371923268    0.189292267
    0.785971582    0.214028403    0.273422152
    0.334758967    0.816926360    0.521032453
    0.361074865    0.290610433    0.668259740
    0.522813261    0.477186650    0.000000000
    0.680708110    0.319291830    0.084129877
    0.838602960    0.161397010    0.168259740
    0.996497810    0.003502154    0.252389610
    0.154392600    0.845607400    0.336519539
    0.334758967    0.816926360    0.521032453
    0.812287092    0.187712908    0.021032648
    0.970181823    0.029818127    0.105162479
    0.128076673    0.871923268    0.189292416
    0.285971522    0.714028358    0.273422271
    0.443866372    0.556133628    0.357552141
    0.150548816    0.501136661    0.689292312
    0.522813261    0.977186680    0.000000010
    0.680708110    0.819291890    0.084129877
    0.838602960    0.661397040    0.168259740
    0.834759235    0.816926360    0.521032691
    0.154392600    0.345607400    0.336519539
    0.045285299    0.606400132    0.499999911
    0.812287271    0.687712848    0.021032622
    0.970182121    0.529818058    0.105162501
    0.128076911    0.371923238    0.189292341
    0.285971761    0.214028388    0.273422271
    0.443866730    0.056133520    0.357552111
    0.650548518    0.001136661    0.689292431
    0.022813387    0.477186650    0.000000013
    0.180708200    0.319291830    0.084129870
    0.338603050    0.161396980    0.168259770
    0.334758967    0.316926360    0.521032691
    0.654392660    0.845607340    0.336519539
    0.545285165    0.106400132    0.499999911
    0.312287062    0.187712878    0.021032635
    0.470181882    0.029818086    0.105162501
    0.628076732    0.871923268    0.189292401
    0.834758937    0.316926420    0.521032691
    0.943866372    0.556133509    0.357552141
    0.834759116    0.316926032    0.920649409
    0.312287450    0.187712491    0.420649439
    0.812287450    0.187712550    0.420649409
    0.361074805    0.790610433    0.668259740
    0.518969595    0.632715583    0.752389550
    0.676864386    0.474820763    0.836519480
    0.124232896    0.027452230    0.941681862
    0.601761222    0.398238838    0.441682011
    0.492653728    0.659031630    0.605162263
    0.650548518    0.501136661    0.689292192
    0.808443367    0.343241870    0.773422122
    0.966338158    0.185346976    0.857552052
    0.334758997    0.816926003    0.920649409
    0.812287450    0.187712550    0.420649409
    0.703179955    0.448505312    0.584129810
    0.861074746    0.290610433    0.668259740
    0.018969536    0.132715613    0.752389550
    0.176864266    0.974820733    0.836519480
    0.624232888    0.527452230    0.941681981
    0.785971522    0.714028418    0.273422271
    0.992653668    0.159031555    0.605162501
    0.150548577    0.001136780    0.689292312
    0.308443308    0.843241930    0.773422360
    0.466338158    0.685346961    0.857552052
    0.834759176    0.816925883    0.920649290
    0.601761460    0.898238719    0.441681981
    0.203180060    0.448505282    0.584129810
    0.312287331    0.687712610    0.420649379
    0.518969655    0.132715613    0.752389550
    0.676864445    0.974820733    0.836519480
    0.124232896    0.527452111    0.941681981
    0.496497840    0.003502190    0.252389610
    0.492653757    0.159031555    0.605162501
    0.812287509    0.687712491    0.420649409
    0.808443308    0.843241930    0.773422122
    0.966338098    0.685346961    0.857552052
    0.334759116    0.316925973    0.920649290
    0.101761222    0.398238778    0.441682011
    0.703179955    0.948505282    0.584129810
    0.861074746    0.790610433    0.668259740
    0.018969536    0.632715702    0.752389550
    0.176864266    0.474820822    0.836519480
    0.624233127    0.027452111    0.941681981
    0.996497750    0.503502250    0.252389610
    0.992653966    0.659031510    0.605162501
    0.312287450    0.187712491    0.420649439
    0.308443546    0.343241841    0.773422122
    0.466338396    0.185346946    0.857552052
