Sn+Ge
    1.000000000
   12.978400230    0.000000000    0.000000000
  -12.978400230   14.510293007    0.000000000
    0.000000000    0.000000000    9.190411568
Sn  Ge 
24     24
Direct
    0.979564309    0.030653533    0.000000009
    0.779564261    0.330653578    0.157885149
    0.579564154    0.630653620    0.315770298
    0.479564250    0.030653533    0.000000009
    0.279564202    0.330653578    0.157885149
    0.079564132    0.630653620    0.315770298
    0.254564315    0.680653512    0.078942418
    0.054564159    0.980653465    0.236827582
    0.854564130    0.280653596    0.394712687
    0.754564404    0.680653512    0.078942418
    0.554564238    0.980653465    0.236827582
    0.354564160    0.280653596    0.394712687
    0.229564279    0.530653477    0.000000000
    0.029564191    0.830653489    0.157885149
    0.829564035    0.130653620    0.315770298
    0.729564190    0.530653477    0.000000000
    0.529564142    0.830653489    0.157885149
    0.329564035    0.130653620    0.315770298
    0.004564330    0.180653512    0.078942426
    0.804564178    0.480653584    0.236827582
    0.604564250    0.780653656    0.394712687
    0.504564285    0.180653512    0.078942426
    0.304564178    0.480653584    0.236827582
    0.104564168    0.780653656    0.394712687
    0.050526619    0.903597474    0.556860566
    0.933859885    0.486930728    0.613058805
    0.817193151    0.070263982    0.669257224
    0.700526297    0.653597236    0.725455582
    0.583859622    0.236930609    0.781653762
    0.467192799    0.820263624    0.837852120
    0.550526619    0.153597444    0.556860566
    0.433859885    0.736930668    0.613058805
    0.317193121    0.320263982    0.669257224
    0.200526327    0.903597236    0.725455403
    0.083859570    0.486930490    0.781653702
    0.967192888    0.070263624    0.837852001
    0.550526619    0.403597444    0.556860626
    0.433859855    0.986930728    0.613058925
    0.317193091    0.570263982    0.669257224
    0.200526357    0.153597176    0.725455523
    0.083859630    0.736930490    0.781653762
    0.967192769    0.320263505    0.837852120
    0.050526619    0.653597474    0.556860626
    0.933859825    0.236930683    0.613058925
    0.817193091    0.820263922    0.669257224
    0.700526297    0.403597176    0.725455523
    0.583859563    0.986930490    0.781653821
    0.467192799    0.570263505    0.837852120
