Si+C
    1.000000000
   13.303179741    0.000000000    0.000000000
    6.651589394   11.520891190    0.000000000
    0.000000000    0.000000000   21.679414749
Si  C  
72     308
Direct
    0.000000000    0.681493819    0.289268851
    0.000000000    0.014827055    0.000000008
    0.000000000    0.348160446    0.144634441
    0.333333343    0.014827132    0.289268851
    0.333333343    0.348160386    0.000000009
    0.333333343    0.681493819    0.144634441
    0.666666687    0.348160386    0.289268821
    0.666666687    0.681493759    0.000000006
    0.666666687    0.014827132    0.144634441
    0.000000000    0.014827251    0.325427473
    0.000000000    0.348160416    0.036158621
    0.000000000    0.681493819    0.180793047
    0.333333343    0.348160505    0.325427443
    0.333333343    0.681493819    0.036158621
    0.333333343    0.014827132    0.180793032
    0.666666746    0.681493998    0.325427473
    0.666666746    0.014827132    0.036158621
    0.666666746    0.348160505    0.180793062
    0.166666672    0.848160446    0.289268821
    0.166666672    0.181493714    0.000000004
    0.166666672    0.514827132    0.144634441
    0.500000060    0.181493759    0.289268821
    0.500000000    0.514827073    0.000000001
    0.500000000    0.848160505    0.144634441
    0.833333373    0.514827251    0.289268851
    0.833333373    0.848160446    0.000000000
    0.833333373    0.181493759    0.144634411
    0.166666687    0.181493759    0.325427383
    0.166666687    0.514827073    0.036158580
    0.166666687    0.848160505    0.180793002
    0.500000000    0.514827132    0.325427383
    0.500000000    0.848160326    0.036158577
    0.500000000    0.181493759    0.180793017
    0.833333313    0.848160446    0.325427383
    0.833333313    0.181493714    0.036158577
    0.833333313    0.514827132    0.180793047
    0.000000000    0.181493759    0.289268821
    0.000000000    0.514827073    0.000000011
    0.000000000    0.848160446    0.144634441
    0.333333343    0.514827251    0.289268851
    0.333333343    0.848160505    0.000000016
    0.333333343    0.181493878    0.144634470
    0.666666687    0.848160446    0.289268821
    0.666666687    0.181493714    0.000000001
    0.666666687    0.514827132    0.144634441
    0.000000014    0.514827251    0.325427443
    0.000000014    0.848160446    0.036158580
    0.000000014    0.181493878    0.180793032
    0.333333373    0.848160446    0.325427443
    0.333333373    0.181493714    0.036158580
    0.333333373    0.514827073    0.180793002
    0.666666746    0.181493878    0.325427443
    0.666666746    0.514827073    0.036158580
    0.666666746    0.848160505    0.180793017
    0.166666672    0.348160386    0.289268821
    0.166666672    0.681493759    0.000000009
    0.166666672    0.014827132    0.144634470
    0.500000000    0.681493759    0.289268851
    0.500000000    0.014827051    0.000000009
    0.500000000    0.348160475    0.144634441
    0.833333313    0.014827132    0.289268821
    0.833333313    0.348160416    0.000000006
    0.833333313    0.681493759    0.144634426
    0.166666687    0.681493878    0.325427473
    0.166666687    0.014827132    0.036158640
    0.166666687    0.348160386    0.180793032
    0.500000000    0.014827251    0.325427473
    0.500000000    0.348160416    0.036158610
    0.500000000    0.681493759    0.180793032
    0.833333373    0.348160505    0.325427443
    0.833333373    0.681493700    0.036158621
    0.833333373    0.014827013    0.180793032
    0.188691109    0.893763304    0.876437724
    0.950596094    0.084239841    0.496484041
    0.760119915    0.036620736    0.591472507
    0.569643557    0.989001572    0.686460912
    0.379167289    0.941382468    0.781449318
    0.331548303    0.179477647    0.876437724
    0.093453169    0.369954169    0.496484011
    0.902976990    0.322335064    0.591472507
    0.712500691    0.274715900    0.686460912
    0.522024453    0.227096766    0.781449318
    0.474405438    0.465191990    0.876437724
    0.236310333    0.655668437    0.496484011
    0.045834184    0.608049393    0.591472507
    0.855357885    0.560430229    0.686460912
    0.664881587    0.512811065    0.781449378
    0.760119796    0.036620498    0.876437724
    0.522024632    0.227097034    0.496484011
    0.331548452    0.179477900    0.591472447
    0.141072139    0.131858736    0.686460912
    0.950595915    0.084239602    0.781449318
    0.617262602    0.750906169    0.876437724
    0.379167497    0.941382766    0.496484011
    0.188691258    0.893763602    0.591472447
    0.998215139    0.846144497    0.686460793
    0.807738662    0.798525274    0.781449318
    0.902976871    0.322334766    0.876437724
    0.664881825    0.512811303    0.496484011
    0.474405587    0.465192199    0.591472507
    0.283929408    0.417573065    0.686460853
    0.093452930    0.369953901    0.781449318
    0.045833945    0.608049035    0.876437724
    0.807738900    0.798525631    0.496484011
    0.617262721    0.750906467    0.591472447
    0.426786393    0.703287363    0.686460912
    0.236310095    0.655668199    0.781449318
    0.283929199    0.417572886    0.900184810
    0.236310363    0.655668557    0.425242722
    0.045834184    0.608049393    0.520231128
    0.855357885    0.560430288    0.615219593
    0.664881587    0.512811124    0.710208058
    0.474405378    0.465191990    0.805196404
    0.569643497    0.989001453    0.900184810
    0.522024691    0.227097124    0.425242752
    0.331548452    0.179477990    0.520231128
    0.141072169    0.131858855    0.615219593
    0.950595856    0.084239721    0.710208058
    0.760119677    0.036620617    0.805196404
    0.426786274    0.703287184    0.900184810
    0.379167527    0.941382885    0.425242722
    0.188691258    0.893763721    0.520231128
    0.998215079    0.846144557    0.615219593
    0.807738721    0.798525393    0.710208058
    0.617262483    0.750906289    0.805196404
    0.712500632    0.274715722    0.900184810
    0.664881885    0.512811422    0.425242722
    0.474405587    0.465192258    0.520231128
    0.283929318    0.417573154    0.615219593
    0.093453050    0.369953990    0.710208058
    0.902976811    0.322334856    0.805196404
    0.855357766    0.560429990    0.900184810
    0.807739019    0.798525751    0.425242722
    0.617262721    0.750906527    0.520231187
    0.426786453    0.703287423    0.615219593
    0.236310154    0.655668259    0.710208058
    0.045833945    0.608049154    0.805196404
    0.141072005    0.131858528    0.900184870
    0.093453288    0.369954228    0.425242752
    0.902976990    0.322335094    0.520231128
    0.712500811    0.274715960    0.615219593
    0.522024453    0.227096796    0.710208058
    0.331548244    0.179477662    0.805196464
    0.998214900    0.846144319    0.900184810
    0.950596094    0.084239960    0.425242722
    0.760119855    0.036620855    0.520231128
    0.569643617    0.989001751    0.615219593
    0.379167318    0.941382527    0.710208058
    0.188691095    0.893763423    0.805196404
    0.260119706    0.036620498    0.876437724
    0.022024632    0.227097005    0.496484011
    0.831548452    0.179477870    0.591472507
    0.641072154    0.131858721    0.686460912
    0.450595826    0.084239602    0.781449378
    0.402976841    0.322334826    0.876437724
    0.164881766    0.512811303    0.496484011
    0.974405587    0.465192258    0.591472507
    0.783929288    0.417573065    0.686460912
    0.593452990    0.369953930    0.781449318
    0.688691139    0.893763363    0.876437724
    0.450596035    0.084239960    0.496484011
    0.260119855    0.036620736    0.591472507
    0.069643497    0.989001572    0.686460912
    0.879167259    0.941382468    0.781449378
    0.545833945    0.608049035    0.876437724
    0.307738900    0.798525631    0.496484011
    0.117262647    0.750906527    0.591472507
    0.926786542    0.703287423    0.686460853
    0.736310124    0.655668199    0.781449378
    0.831548333    0.179477632    0.876437724
    0.593453288    0.369954169    0.496483982
    0.402977020    0.322335064    0.591472507
    0.212500870    0.274715930    0.686460853
    0.022024512    0.227096751    0.781449318
    0.974405527    0.465191931    0.876437724
    0.736310422    0.655668497    0.496484011
    0.545834243    0.608049393    0.591472447
    0.355357915    0.560430169    0.686460912
    0.164881647    0.512811065    0.781449318
    0.117262661    0.750906229    0.876437724
    0.879167616    0.941382766    0.496484011
    0.688691378    0.893763602    0.591472507
    0.498215079    0.846144438    0.686460912
    0.307738781    0.798525333    0.781449318
    0.212500662    0.274715692    0.900184810
    0.164881825    0.512811363    0.425242722
    0.974405587    0.465192229    0.520231128
    0.783929408    0.417573124    0.615219533
    0.593453050    0.369953930    0.710208058
    0.402976841    0.322334826    0.805196404
    0.355357736    0.560430050    0.900184810
    0.307738960    0.798525691    0.425242692
    0.117262706    0.750906587    0.520231128
    0.926786542    0.703287423    0.615219533
    0.736310244    0.655668259    0.710208058
    0.545834005    0.608049154    0.805196404
    0.641072094    0.131858557    0.900184810
    0.593453228    0.369954228    0.425242722
    0.402976990    0.322335094    0.520231128
    0.212500811    0.274715960    0.615219533
    0.022024512    0.227096811    0.710208058
    0.831548274    0.179477692    0.805196404
    0.498214930    0.846144378    0.900184810
    0.450596094    0.084239960    0.425242722
    0.260119826    0.036620855    0.520231128
    0.069643617    0.989001811    0.615219533
    0.879167318    0.941382647    0.710208058
    0.688691139    0.893763483    0.805196404
    0.783929229    0.417572945    0.900184810
    0.736310422    0.655668616    0.425242722
    0.545834124    0.608049512    0.520231128
    0.355357915    0.560430348    0.615219533
    0.164881617    0.512811184    0.710208058
    0.974405408    0.465192050    0.805196404
    0.069643497    0.989001453    0.900184810
    0.022024751    0.227097124    0.425242692
    0.831548512    0.179477990    0.520231128
    0.641072333    0.131858841    0.615219533
    0.450596005    0.084239721    0.710208058
    0.260119766    0.036620617    0.805196404
    0.926786363    0.703287125    0.900184810
    0.879167557    0.941382825    0.425242692
    0.688691318    0.893763721    0.520231128
    0.498215109    0.846144617    0.615219533
    0.307738751    0.798525393    0.710208058
    0.117262557    0.750906289    0.805196345
    0.260119706    0.536620498    0.876437724
    0.022024632    0.727097034    0.496484011
    0.831548452    0.679477990    0.591472507
    0.641072154    0.631858766    0.686460912
    0.450595826    0.584239602    0.781449318
    0.545834005    0.108049035    0.876437724
    0.307738900    0.298525572    0.496484041
    0.117262706    0.250906467    0.591472507
    0.926786423    0.203287303    0.686460912
    0.736310124    0.155668154    0.781449378
    0.402976841    0.822334766    0.876437724
    0.164881825    0.012811303    0.496483982
    0.974405587    0.965192199    0.591472447
    0.783929408    0.917573094    0.686460793
    0.593452990    0.869953930    0.781449318
    0.688691139    0.393763334    0.876437724
    0.450596064    0.584239841    0.496484011
    0.260119796    0.536620736    0.591472507
    0.069643617    0.489001632    0.686460853
    0.879167259    0.441382438    0.781449318
    0.974405408    0.965191901    0.876437724
    0.736310363    0.155668452    0.496484011
    0.545834124    0.108049273    0.591472507
    0.355357915    0.060430169    0.686460853
    0.164881542    0.012810946    0.781449318
    0.831548333    0.679477692    0.876437724
    0.593453288    0.869954228    0.496484011
    0.402977049    0.822335124    0.591472447
    0.212500736    0.774715960    0.686460912
    0.022024512    0.727096796    0.781449318
    0.117262602    0.250906229    0.876437724
    0.879167557    0.441382766    0.496484011
    0.688691318    0.393763632    0.591472507
    0.498215020    0.346144497    0.686460912
    0.307738721    0.298525333    0.781449318
    0.355357796    0.060430050    0.900184810
    0.307738960    0.298525691    0.425242722
    0.117262706    0.250906557    0.520231128
    0.926786542    0.203287423    0.615219533
    0.736310244    0.155668259    0.710208058
    0.545834005    0.108049154    0.805196404
    0.212500602    0.774715722    0.900184810
    0.164881796    0.012811422    0.425242722
    0.974405587    0.965192318    0.520231128
    0.783929408    0.917573214    0.615219533
    0.593453050    0.869953990    0.710208058
    0.402976841    0.822334886    0.805196404
    0.498214930    0.346144319    0.900184810
    0.450596094    0.584239960    0.425242722
    0.260119855    0.536620855    0.520231128
    0.069643617    0.489001721    0.615219533
    0.879167378    0.441382557    0.710208058
    0.688691139    0.393763423    0.805196404
    0.783929229    0.917572856    0.900184810
    0.736310363    0.155668527    0.425242722
    0.545834124    0.108049393    0.520231128
    0.355357945    0.060430288    0.615219533
    0.164881617    0.012811184    0.710208058
    0.974405408    0.965191960    0.805196404
    0.641072094    0.631858647    0.900184810
    0.593453288    0.869954288    0.425242692
    0.402976990    0.822335184    0.520231128
    0.212500796    0.774716079    0.615219533
    0.022024512    0.727096856    0.710208058
    0.831548274    0.679477751    0.805196404
    0.926786363    0.203287184    0.900184810
    0.879167616    0.441382855    0.425242692
    0.688691318    0.393763721    0.520231128
    0.498215109    0.346144557    0.615219533
    0.307738781    0.298525423    0.710208058
    0.117262557    0.250906318    0.805196404
    0.069643378    0.489001483    0.900184810
    0.022024632    0.727097154    0.425242722
    0.831548393    0.679478049    0.520231128
    0.641072214    0.631858885    0.615219533
    0.450595826    0.584239721    0.710208058
    0.260119617    0.536620617    0.805196404
    0.188691109    0.393763334    0.876437724
    0.950596094    0.584239841    0.496484011
    0.760119855    0.536620736    0.591472507
    0.569643557    0.489001602    0.686460912
    0.379167229    0.441382468    0.781449378
    0.474405438    0.965191960    0.876437724
    0.236310333    0.155668437    0.496484011
    0.045834184    0.108049393    0.591472507
    0.855357885    0.060430169    0.686460912
    0.664881587    0.012810946    0.781449318
    0.331548244    0.679477572    0.876437724
    0.093453169    0.869954109    0.496484011
    0.902976990    0.822335005    0.591472507
    0.712500811    0.774715900    0.686460853
    0.522024393    0.727096677    0.781449318
    0.617262602    0.250906169    0.876437724
    0.379167527    0.441382706    0.496483982
    0.188691273    0.393763572    0.591472507
    0.998215139    0.346144468    0.686460853
    0.807738721    0.298525333    0.781449318
    0.760119796    0.536620498    0.876437724
    0.522024632    0.727097094    0.496484011
    0.331548452    0.679477930    0.591472447
    0.141072139    0.631858766    0.686460912
    0.950595856    0.584239662    0.781449318
    0.045833945    0.108049154    0.876437724
    0.807738900    0.298525602    0.496484011
    0.617262781    0.250906467    0.591472507
    0.426786393    0.203287333    0.686460912
    0.236310095    0.155668199    0.781449318
    0.902976871    0.822334766    0.876437724
    0.664881825    0.012811422    0.496484011
    0.474405557    0.965192199    0.591472507
    0.283929229    0.917573094    0.686460912
    0.093452930    0.869953871    0.781449318
    0.283929139    0.917572856    0.900184870
    0.236310393    0.155668542    0.425242752
    0.045834184    0.108049393    0.520231128
    0.855357945    0.060430288    0.615219593
    0.664881647    0.012811184    0.710208058
    0.474405438    0.965191960    0.805196404
    0.426786333    0.203287125    0.900184870
    0.379167527    0.441382825    0.425242752
    0.188691318    0.393763661    0.520231128
    0.998215079    0.346144557    0.615219653
    0.807738781    0.298525393    0.710208058
    0.617262602    0.250906259    0.805196404
    0.569643497    0.489001483    0.900184810
    0.522024691    0.727097154    0.425242722
    0.331548393    0.679478049    0.520231128
    0.141072154    0.631858885    0.615219653
    0.950595856    0.584239721    0.710208058
    0.760119677    0.536620617    0.805196404
    0.855357766    0.060430050    0.900184810
    0.807739019    0.298525691    0.425242722
    0.617262781    0.250906527    0.520231128
    0.426786482    0.203287393    0.615219653
    0.236310184    0.155668244    0.710208058
    0.045833945    0.108049154    0.805196404
    0.712500632    0.774715781    0.900184810
    0.664881825    0.012811422    0.425242722
    0.474405527    0.965192318    0.520231187
    0.283929318    0.917573154    0.615219593
    0.093453050    0.869953990    0.710208058
    0.902976811    0.822334886    0.805196464
    0.998214900    0.346144259    0.900184810
    0.950596154    0.584239960    0.425242722
    0.760119855    0.536620855    0.520231128
    0.569643617    0.489001691    0.615219533
    0.379167289    0.441382527    0.710208058
    0.188691080    0.393763423    0.805196404
    0.141072124    0.631858587    0.900184810
    0.093453288    0.869954288    0.425242722
    0.902977109    0.822335124    0.520231128
    0.712500811    0.774716020    0.615219593
    0.522024512    0.727096796    0.710208058
    0.331548303    0.679477692    0.805196404
