Si+Si                                   
   1.00000000000000     
    12.1440858840000008    0.0000000000000000    0.0000000000000000
   -12.1440858840000008   12.1440858840000008    0.0000000000000000
     0.0000000000000000    0.0000000000000000   13.5775012969999995
   Si
   120
Direct
  0.0359561850000034  0.0000000000000000  0.0000000000000000
  0.5359562040000014  0.0000000320000026  0.2000000029999995
  0.0359562639999993  0.0000001200000028  0.4000000360000016
  0.6359562279999977  0.2000000029999995  0.0000000000000000
  0.1359562869999991  0.2000000330000020  0.2000000029999995
  0.6359564070000019  0.2000001070000010  0.4000000360000016
  0.2359562070000010  0.4000000059999991  0.0000000000000000
  0.7359561920000033  0.4000000659999969  0.2000000029999995
  0.2359563110000025  0.4000001249999983  0.4000000360000016
  0.8359563349999988  0.6000000829999976  0.0000000000000000
  0.3359563349999988  0.6000001430000026  0.2000000029999995
  0.8359564539999980  0.6000001430000026  0.4000000360000016
  0.4359562400000030  0.8000000119999982  0.0000000000000000
  0.9359562989999972  0.8000001309999973  0.2000000029999995
  0.4359563590000022  0.8000001309999973  0.4000000360000016
  0.2359563110000025  0.1500000209999968  0.1000000089999986
  0.7359564300000017  0.1500000509999992  0.3000000420000006
  0.2359566689999966  0.1500001249999983  0.5000000000000000
  0.8359563349999988  0.3500000539999988  0.1000000089999986
  0.3359563349999988  0.3500000829999976  0.3000000420000006
  0.8359564539999980  0.3500001430000026  0.5000000000000000
  0.4359562100000005  0.5500000119999982  0.1000000089999986
  0.9359562989999972  0.5500000119999982  0.3000000420000006
  0.4359562400000030  0.5500000720000031  0.5000000000000000
  0.0359562639999993  0.7500000599999979  0.1000000089999986
  0.5359563829999985  0.7500001189999992  0.3000000420000006
  0.0359563829999985  0.7500001189999992  0.5000000000000000
  0.6359562279999977  0.9500001070000010  0.1000000089999986
  0.1359562869999991  0.9500001669999989  0.3000000420000006
  0.6359562869999991  0.9500002260000002  0.5000000000000000
  0.8359562750000009  0.1000000160000027  0.0000000000000000
  0.3359563349999988  0.1000000459999981  0.2000000029999995
  0.8359564539999980  0.1000001430000026  0.4000000360000016
  0.4359562699999984  0.3000000420000006  0.0000000000000000
  0.9359562400000030  0.3000000720000031  0.2000000029999995
  0.4359563590000022  0.3000001010000020  0.4000000360000016
  0.0359561850000034  0.5000000599999979  0.0000000000000000
  0.5359562040000014  0.5000001189999992  0.2000000029999995
  0.0359562639999993  0.5000001189999992  0.4000000360000016
  0.6359562869999991  0.7000001070000010  0.0000000000000000
  0.1359562869999991  0.7000001669999989  0.2000000029999995
  0.6359564070000019  0.7000001669999989  0.4000000360000016
  0.2359561769999985  0.9000000950000029  0.0000000000000000
  0.7359561920000033  0.9000001550000007  0.2000000029999995
  0.2359563110000025  0.9000001550000007  0.4000000360000016
  0.4359562400000030  0.0500000010000008  0.1000000089999986
  0.9359562989999972  0.0500000340000000  0.3000000420000006
  0.4359563590000022  0.0500001010000020  0.5000000000000000
  0.0359562639999993  0.2500000300000025  0.1000000089999986
  0.5359562639999993  0.2500000300000025  0.3000000420000006
  0.0359563829999985  0.2500001490000017  0.5000000000000000
  0.6359562279999977  0.4500000479999997  0.1000000089999986
  0.1359562869999991  0.4500001070000010  0.3000000420000006
  0.6359562869999991  0.4500000769999986  0.5000000000000000
  0.2359561920000033  0.6500000360000016  0.1000000089999986
  0.7359563110000025  0.6500000950000029  0.3000000420000006
  0.2359561920000033  0.6500001550000007  0.5000000000000000
  0.8359562750000009  0.8500000829999976  0.1000000089999986
  0.3359563349999988  0.8500002030000005  0.3000000420000006
  0.8359563349999988  0.8500001430000026  0.5000000000000000
  0.2359562520000011  0.8000000119999982  0.5000000000000000
  0.7359562520000011  0.8000001309999973  0.6999999880000018
  0.2359563110000025  0.8000001910000023  0.9000000950000029
  0.4359562699999984  0.6000000829999976  0.5000000000000000
  0.9359563590000022  0.6000002030000005  0.6999999880000018
  0.4359564780000014  0.6000002620000018  0.9000000950000029
  0.6359562279999977  0.4000000360000016  0.5000000000000000
  0.1359562869999991  0.4000000950000029  0.6999999880000018
  0.6359564070000019  0.4000001550000007  0.9000000950000029
  0.8359563349999988  0.2000000330000020  0.5000000000000000
  0.3359563349999988  0.2000001370000035  0.6999999880000018
  0.8359564539999980  0.2000002119999991  0.9000000950000029
  0.0359561889999966  0.0000000000000000  0.5000000000000000
  0.5359562639999993  0.0000000880000002  0.6999999880000018
  0.0359563829999985  0.0000001800000007  0.9000000950000029
  0.9359562400000030  0.8500001430000026  0.6000000240000034
  0.4359563590000022  0.8500002030000005  0.8000000720000031
  0.9359563590000022  0.8500002620000018  0.0000000000000000
  0.1359562869999991  0.6500000950000029  0.6000000240000034
  0.6359564070000019  0.6500001550000007  0.8000000720000031
  0.1359565260000011  0.6500002149999986  0.0000000000000000
  0.3359562460000021  0.4500000479999997  0.6000000240000034
  0.8359563349999988  0.4500001070000010  0.8000000720000031
  0.3359563349999988  0.4500001970000014  0.0000000000000000
  0.5359562639999993  0.2500000300000025  0.6000000240000034
  0.0359563829999985  0.2500000889999967  0.8000000720000031
  0.5359563829999985  0.2500001490000017  0.0000000000000000
  0.7359562520000011  0.0500000230000026  0.6000000240000034
  0.2359563110000025  0.0500000979999982  0.8000000720000031
  0.7359564300000017  0.0500001389999980  0.0000000000000000
  0.6359562279999977  0.9000000950000029  0.5000000000000000
  0.1359562869999991  0.9000002149999986  0.6999999880000018
  0.6359564070000019  0.9000002739999999  0.9000000950000029
  0.8359561560000017  0.6999999880000018  0.5000000000000000
  0.3359562159999996  0.7000001070000010  0.6999999880000018
  0.8359563349999988  0.7000001669999989  0.9000000950000029
  0.0359561889999966  0.5000000599999979  0.5000000000000000
  0.5359562639999993  0.5000001189999992  0.6999999880000018
  0.0359563829999985  0.5000001789999970  0.9000000950000029
  0.2359562370000035  0.3000000420000006  0.5000000000000000
  0.7359562520000011  0.3000001010000020  0.6999999880000018
  0.2359563110000025  0.3000001609999998  0.9000000950000029
  0.4359562400000030  0.1000000009999980  0.5000000000000000
  0.9359562989999972  0.1000000760000006  0.6999999880000018
  0.4359563590000022  0.1000001210000008  0.9000000950000029
  0.3359562460000021  0.9500001669999989  0.6000000240000034
  0.8359563349999988  0.9500002260000002  0.8000000720000031
  0.3359563349999988  0.9500003460000030  0.0000000000000000
  0.5359563829999985  0.7500000599999979  0.6000000240000034
  0.0359563829999985  0.7500001189999992  0.8000000720000031
  0.5359565019999977  0.7500002379999984  0.0000000000000000
  0.7359562520000011  0.5500000119999982  0.6000000240000034
  0.2359563110000025  0.5500000720000031  0.8000000720000031
  0.7359564300000017  0.5500001309999973  0.0000000000000000
  0.9359562989999972  0.3500000539999988  0.6000000240000034
  0.4359564780000014  0.3500000829999976  0.8000000720000031
  0.9359564780000014  0.3500002319999993  0.0000000000000000
  0.1359562869999991  0.1500000509999992  0.6000000240000034
  0.6359564070000019  0.1500000950000029  0.8000000720000031
  0.1359565260000011  0.1500001699999984  0.0000000000000000
 
  0.00000000E+00  0.00000000E+00  0.00000000E+00
  0.00000000E+00  0.00000000E+00  0.00000000E+00
  0.00000000E+00  0.00000000E+00  0.00000000E+00
  0.00000000E+00  0.00000000E+00  0.00000000E+00
  0.00000000E+00  0.00000000E+00  0.00000000E+00
  0.00000000E+00  0.00000000E+00  0.00000000E+00
  0.00000000E+00  0.00000000E+00  0.00000000E+00
  0.00000000E+00  0.00000000E+00  0.00000000E+00
  0.00000000E+00  0.00000000E+00  0.00000000E+00
  0.00000000E+00  0.00000000E+00  0.00000000E+00
  0.00000000E+00  0.00000000E+00  0.00000000E+00
  0.00000000E+00  0.00000000E+00  0.00000000E+00
  0.00000000E+00  0.00000000E+00  0.00000000E+00
  0.00000000E+00  0.00000000E+00  0.00000000E+00
  0.00000000E+00  0.00000000E+00  0.00000000E+00
  0.00000000E+00  0.00000000E+00  0.00000000E+00
  0.00000000E+00  0.00000000E+00  0.00000000E+00
  0.00000000E+00  0.00000000E+00  0.00000000E+00
  0.00000000E+00  0.00000000E+00  0.00000000E+00
  0.00000000E+00  0.00000000E+00  0.00000000E+00
  0.00000000E+00  0.00000000E+00  0.00000000E+00
  0.00000000E+00  0.00000000E+00  0.00000000E+00
  0.00000000E+00  0.00000000E+00  0.00000000E+00
  0.00000000E+00  0.00000000E+00  0.00000000E+00
  0.00000000E+00  0.00000000E+00  0.00000000E+00
  0.00000000E+00  0.00000000E+00  0.00000000E+00
  0.00000000E+00  0.00000000E+00  0.00000000E+00
  0.00000000E+00  0.00000000E+00  0.00000000E+00
  0.00000000E+00  0.00000000E+00  0.00000000E+00
  0.00000000E+00  0.00000000E+00  0.00000000E+00
  0.00000000E+00  0.00000000E+00  0.00000000E+00
  0.00000000E+00  0.00000000E+00  0.00000000E+00
  0.00000000E+00  0.00000000E+00  0.00000000E+00
  0.00000000E+00  0.00000000E+00  0.00000000E+00
  0.00000000E+00  0.00000000E+00  0.00000000E+00
  0.00000000E+00  0.00000000E+00  0.00000000E+00
  0.00000000E+00  0.00000000E+00  0.00000000E+00
  0.00000000E+00  0.00000000E+00  0.00000000E+00
  0.00000000E+00  0.00000000E+00  0.00000000E+00
  0.00000000E+00  0.00000000E+00  0.00000000E+00
  0.00000000E+00  0.00000000E+00  0.00000000E+00
  0.00000000E+00  0.00000000E+00  0.00000000E+00
  0.00000000E+00  0.00000000E+00  0.00000000E+00
  0.00000000E+00  0.00000000E+00  0.00000000E+00
  0.00000000E+00  0.00000000E+00  0.00000000E+00
  0.00000000E+00  0.00000000E+00  0.00000000E+00
  0.00000000E+00  0.00000000E+00  0.00000000E+00
  0.00000000E+00  0.00000000E+00  0.00000000E+00
  0.00000000E+00  0.00000000E+00  0.00000000E+00
  0.00000000E+00  0.00000000E+00  0.00000000E+00
  0.00000000E+00  0.00000000E+00  0.00000000E+00
  0.00000000E+00  0.00000000E+00  0.00000000E+00
  0.00000000E+00  0.00000000E+00  0.00000000E+00
  0.00000000E+00  0.00000000E+00  0.00000000E+00
  0.00000000E+00  0.00000000E+00  0.00000000E+00
  0.00000000E+00  0.00000000E+00  0.00000000E+00
  0.00000000E+00  0.00000000E+00  0.00000000E+00
  0.00000000E+00  0.00000000E+00  0.00000000E+00
  0.00000000E+00  0.00000000E+00  0.00000000E+00
  0.00000000E+00  0.00000000E+00  0.00000000E+00
  0.00000000E+00  0.00000000E+00  0.00000000E+00
  0.00000000E+00  0.00000000E+00  0.00000000E+00
  0.00000000E+00  0.00000000E+00  0.00000000E+00
  0.00000000E+00  0.00000000E+00  0.00000000E+00
  0.00000000E+00  0.00000000E+00  0.00000000E+00
  0.00000000E+00  0.00000000E+00  0.00000000E+00
  0.00000000E+00  0.00000000E+00  0.00000000E+00
  0.00000000E+00  0.00000000E+00  0.00000000E+00
  0.00000000E+00  0.00000000E+00  0.00000000E+00
  0.00000000E+00  0.00000000E+00  0.00000000E+00
  0.00000000E+00  0.00000000E+00  0.00000000E+00
  0.00000000E+00  0.00000000E+00  0.00000000E+00
  0.00000000E+00  0.00000000E+00  0.00000000E+00
  0.00000000E+00  0.00000000E+00  0.00000000E+00
  0.00000000E+00  0.00000000E+00  0.00000000E+00
  0.00000000E+00  0.00000000E+00  0.00000000E+00
  0.00000000E+00  0.00000000E+00  0.00000000E+00
  0.00000000E+00  0.00000000E+00  0.00000000E+00
  0.00000000E+00  0.00000000E+00  0.00000000E+00
  0.00000000E+00  0.00000000E+00  0.00000000E+00
  0.00000000E+00  0.00000000E+00  0.00000000E+00
  0.00000000E+00  0.00000000E+00  0.00000000E+00
  0.00000000E+00  0.00000000E+00  0.00000000E+00
  0.00000000E+00  0.00000000E+00  0.00000000E+00
  0.00000000E+00  0.00000000E+00  0.00000000E+00
  0.00000000E+00  0.00000000E+00  0.00000000E+00
  0.00000000E+00  0.00000000E+00  0.00000000E+00
  0.00000000E+00  0.00000000E+00  0.00000000E+00
  0.00000000E+00  0.00000000E+00  0.00000000E+00
  0.00000000E+00  0.00000000E+00  0.00000000E+00
  0.00000000E+00  0.00000000E+00  0.00000000E+00
  0.00000000E+00  0.00000000E+00  0.00000000E+00
  0.00000000E+00  0.00000000E+00  0.00000000E+00
  0.00000000E+00  0.00000000E+00  0.00000000E+00
  0.00000000E+00  0.00000000E+00  0.00000000E+00
  0.00000000E+00  0.00000000E+00  0.00000000E+00
  0.00000000E+00  0.00000000E+00  0.00000000E+00
  0.00000000E+00  0.00000000E+00  0.00000000E+00
  0.00000000E+00  0.00000000E+00  0.00000000E+00
  0.00000000E+00  0.00000000E+00  0.00000000E+00
  0.00000000E+00  0.00000000E+00  0.00000000E+00
  0.00000000E+00  0.00000000E+00  0.00000000E+00
  0.00000000E+00  0.00000000E+00  0.00000000E+00
  0.00000000E+00  0.00000000E+00  0.00000000E+00
  0.00000000E+00  0.00000000E+00  0.00000000E+00
  0.00000000E+00  0.00000000E+00  0.00000000E+00
  0.00000000E+00  0.00000000E+00  0.00000000E+00
  0.00000000E+00  0.00000000E+00  0.00000000E+00
  0.00000000E+00  0.00000000E+00  0.00000000E+00
  0.00000000E+00  0.00000000E+00  0.00000000E+00
  0.00000000E+00  0.00000000E+00  0.00000000E+00
  0.00000000E+00  0.00000000E+00  0.00000000E+00
  0.00000000E+00  0.00000000E+00  0.00000000E+00
  0.00000000E+00  0.00000000E+00  0.00000000E+00
  0.00000000E+00  0.00000000E+00  0.00000000E+00
  0.00000000E+00  0.00000000E+00  0.00000000E+00
  0.00000000E+00  0.00000000E+00  0.00000000E+00
  0.00000000E+00  0.00000000E+00  0.00000000E+00
  0.00000000E+00  0.00000000E+00  0.00000000E+00
  0.00000000E+00  0.00000000E+00  0.00000000E+00
