Ge+Ge                                   
   1.00000000000000     
    17.8915348049999992    0.0000000000000000    0.0000000000000000
   -16.1023807529999985    7.7987394329999997    0.0000000000000000
     0.0000002830000000   -0.0000000650000000   13.8288354869999992
   Ge
    96
Direct
  0.9438663720000022  0.5561335089999986  0.3989096580000009
  0.0228133239999977  0.9771866800000026  0.0000000100000008
  0.1807081549999978  0.8192918299999974  0.0938610580000017
  0.3386029899999983  0.6613969799999992  0.1877221169999999
  0.4964978100000010  0.5035021899999990  0.2815831599999967
  0.3122873310000003  0.6877126099999984  0.4693052169999987
  0.4438663720000022  0.5561336279999978  0.3989096580000009
  0.3122870620000029  0.6877129080000017  0.0234652939999975
  0.4701818819999986  0.5298180580000036  0.1173263190000000
  0.1913527250000016  0.7412315609999993  0.4999999400000021
  0.7859715820000019  0.2140284030000004  0.3050484660000023
  0.9438664320000001  0.0561335499999984  0.3989095390000017
  0.6543926000000013  0.3456073999999987  0.3754442330000032
  0.5228132610000031  0.4771866500000002  0.0000000000000000
  0.6807081099999976  0.3192918299999974  0.0938610509999975
  0.8386029600000029  0.1613970100000017  0.1877220869999974
  0.9964978100000010  0.0035021540000031  0.2815831300000013
  0.3122874499999995  0.1877124909999992  0.4693052769999966
  0.6017612220000004  0.3982388379999975  0.4927706719999989
  0.8122870919999983  0.1877129080000017  0.0234654619999972
  0.9701818229999972  0.0298181269999986  0.1173264529999969
  0.1280766730000025  0.8719232680000033  0.2111875860000012
  0.2859715219999970  0.7140283580000002  0.3050486149999969
  0.1017612220000004  0.8982388379999975  0.4927704629999994
  0.1543926000000013  0.8456073999999987  0.3754442330000032
  0.5228132610000031  0.9771866800000026  0.0000000109999974
  0.6807081099999976  0.8192918900000024  0.0938610509999975
  0.8386029600000029  0.6613970399999971  0.1877220869999974
  0.9964977500000032  0.5035022499999968  0.2815831300000013
  0.1017612220000004  0.3982387779999996  0.4927706719999989
  0.8492473960000027  0.0833368300000004  0.5938610429999969
  0.8122872710000024  0.6877128479999968  0.0234654340000020
  0.9701821210000006  0.5298180580000036  0.1173264829999994
  0.1280769110000008  0.3719232380000008  0.2111875120000022
  0.2859717609999990  0.2140283880000027  0.3050486149999969
  0.6913526060000024  0.2412316799999985  0.4999999400000021
  0.8122875090000008  0.6877124909999992  0.4693052470000012
  0.0228133869999994  0.4771866500000002  0.0000000140000012
  0.1807081999999980  0.3192918299999974  0.0938610429999969
  0.3386030500000032  0.1613969799999992  0.1877221169999999
  0.4964978400000035  0.0035021899999990  0.2815831300000013
  0.6543926599999992  0.8456073400000008  0.3754442330000032
  0.1543926000000013  0.3456073999999987  0.3754442330000032
  0.3122870620000029  0.1877128779999993  0.0234654489999997
  0.4701818819999986  0.0298180859999988  0.1173264829999994
  0.6280767319999967  0.8719232680000033  0.2111875559999987
  0.7859715219999970  0.7140284179999981  0.3050486149999969
  0.8122874499999995  0.1877125500000005  0.4693052470000012
  0.9808265570000003  0.4517574910000022  0.9693052169999987
  0.8492473960000027  0.5833367709999990  0.5938609239999977
  0.3492474560000005  0.0833368300000004  0.5938610429999969
  0.5071422460000008  0.9254419210000009  0.6877220869999974
  0.1017612220000004  0.3982387779999996  0.4927706719999989
  0.8229318260000014  0.6096522209999975  0.8754442330000032
  0.2703003290000012  0.1622836590000034  0.9927706120000011
  0.3492474849999994  0.5833367110000012  0.5938609239999977
  0.9808263780000033  0.4517578780000022  0.5234653950000023
  0.7966159579999967  0.6359681490000000  0.7111873630000005
  0.9545108080000020  0.4780732990000018  0.8050484660000023
  0.1124055390000009  0.3201784489999966  0.8989095089999992
  0.4808264369999975  0.9517574910000022  0.9693052169999987
  0.6913526060000024  0.7412315609999993  0.4999999400000021
  0.1913526510000025  0.2412316799999985  0.4999999400000021
  0.0071421860000029  0.4254418909999984  0.6877220869999974
  0.1650369170000019  0.2675470710000027  0.7815831300000013
  0.3229317070000022  0.1096522810000025  0.8754441139999969
  0.7703003290000012  0.6622836590000034  0.9927707310000002
  0.6387211680000036  0.7938630579999995  0.6173262599999987
  0.9808266759999995  0.9517577889999984  0.5234653950000023
  0.2966160180000017  0.1359682080000013  0.7111874220000018
  0.4545107479999970  0.9780733589999997  0.8050485850000015
  0.6124055980000023  0.8201784489999966  0.8989096279999984
  0.9808266160000016  0.9517573709999994  0.9693050979999995
  0.1387213470000006  0.7938629390000003  0.6173264379999992
  0.4808263780000033  0.9517578479999997  0.5234652760000031
  0.5071423050000021  0.4254418610000030  0.6877220869999974
  0.6650370360000011  0.2675470710000027  0.7815831300000013
  0.8229318859999992  0.1096522810000025  0.8754442330000032
  0.2703003290000012  0.6622835989999984  0.9927707310000002
  0.4808263780000033  0.4517578179999973  0.5234653950000023
  0.6387211680000036  0.2938629980000016  0.6173264379999992
  0.7966159579999967  0.1359682080000013  0.7111874819999997
  0.9545107479999970  0.9780733589999997  0.8050485249999966
  0.1124055390000009  0.8201784489999966  0.8989096279999984
  0.4808265570000003  0.4517574309999972  0.9693050979999995
  0.4438667300000034  0.0561335200000030  0.3989096279999984
  0.6017614599999987  0.8982387189999983  0.4927706419999964
  0.0071421860000029  0.9254419210000009  0.6877220869999974
  0.1650369170000019  0.7675471900000019  0.7815831300000013
  0.3229317070000022  0.6096522810000025  0.8754441139999969
  0.7703005669999996  0.1622836590000034  0.9927707310000002
  0.1387211079999986  0.2938630279999970  0.6173264379999992
  0.1913527250000016  0.7412315609999993  0.4999999400000021
  0.2966162560000001  0.6359680890000021  0.7111874220000018
  0.4545109869999990  0.4780732990000018  0.8050485249999966
  0.6124058369999972  0.3201783900000024  0.8989096279999984
 
  0.00000000E+00  0.00000000E+00  0.00000000E+00
  0.00000000E+00  0.00000000E+00  0.00000000E+00
  0.00000000E+00  0.00000000E+00  0.00000000E+00
  0.00000000E+00  0.00000000E+00  0.00000000E+00
  0.00000000E+00  0.00000000E+00  0.00000000E+00
  0.00000000E+00  0.00000000E+00  0.00000000E+00
  0.00000000E+00  0.00000000E+00  0.00000000E+00
  0.00000000E+00  0.00000000E+00  0.00000000E+00
  0.00000000E+00  0.00000000E+00  0.00000000E+00
  0.00000000E+00  0.00000000E+00  0.00000000E+00
  0.00000000E+00  0.00000000E+00  0.00000000E+00
  0.00000000E+00  0.00000000E+00  0.00000000E+00
  0.00000000E+00  0.00000000E+00  0.00000000E+00
  0.00000000E+00  0.00000000E+00  0.00000000E+00
  0.00000000E+00  0.00000000E+00  0.00000000E+00
  0.00000000E+00  0.00000000E+00  0.00000000E+00
  0.00000000E+00  0.00000000E+00  0.00000000E+00
  0.00000000E+00  0.00000000E+00  0.00000000E+00
  0.00000000E+00  0.00000000E+00  0.00000000E+00
  0.00000000E+00  0.00000000E+00  0.00000000E+00
  0.00000000E+00  0.00000000E+00  0.00000000E+00
  0.00000000E+00  0.00000000E+00  0.00000000E+00
  0.00000000E+00  0.00000000E+00  0.00000000E+00
  0.00000000E+00  0.00000000E+00  0.00000000E+00
  0.00000000E+00  0.00000000E+00  0.00000000E+00
  0.00000000E+00  0.00000000E+00  0.00000000E+00
  0.00000000E+00  0.00000000E+00  0.00000000E+00
  0.00000000E+00  0.00000000E+00  0.00000000E+00
  0.00000000E+00  0.00000000E+00  0.00000000E+00
  0.00000000E+00  0.00000000E+00  0.00000000E+00
  0.00000000E+00  0.00000000E+00  0.00000000E+00
  0.00000000E+00  0.00000000E+00  0.00000000E+00
  0.00000000E+00  0.00000000E+00  0.00000000E+00
  0.00000000E+00  0.00000000E+00  0.00000000E+00
  0.00000000E+00  0.00000000E+00  0.00000000E+00
  0.00000000E+00  0.00000000E+00  0.00000000E+00
  0.00000000E+00  0.00000000E+00  0.00000000E+00
  0.00000000E+00  0.00000000E+00  0.00000000E+00
  0.00000000E+00  0.00000000E+00  0.00000000E+00
  0.00000000E+00  0.00000000E+00  0.00000000E+00
  0.00000000E+00  0.00000000E+00  0.00000000E+00
  0.00000000E+00  0.00000000E+00  0.00000000E+00
  0.00000000E+00  0.00000000E+00  0.00000000E+00
  0.00000000E+00  0.00000000E+00  0.00000000E+00
  0.00000000E+00  0.00000000E+00  0.00000000E+00
  0.00000000E+00  0.00000000E+00  0.00000000E+00
  0.00000000E+00  0.00000000E+00  0.00000000E+00
  0.00000000E+00  0.00000000E+00  0.00000000E+00
  0.00000000E+00  0.00000000E+00  0.00000000E+00
  0.00000000E+00  0.00000000E+00  0.00000000E+00
  0.00000000E+00  0.00000000E+00  0.00000000E+00
  0.00000000E+00  0.00000000E+00  0.00000000E+00
  0.00000000E+00  0.00000000E+00  0.00000000E+00
  0.00000000E+00  0.00000000E+00  0.00000000E+00
  0.00000000E+00  0.00000000E+00  0.00000000E+00
  0.00000000E+00  0.00000000E+00  0.00000000E+00
  0.00000000E+00  0.00000000E+00  0.00000000E+00
  0.00000000E+00  0.00000000E+00  0.00000000E+00
  0.00000000E+00  0.00000000E+00  0.00000000E+00
  0.00000000E+00  0.00000000E+00  0.00000000E+00
  0.00000000E+00  0.00000000E+00  0.00000000E+00
  0.00000000E+00  0.00000000E+00  0.00000000E+00
  0.00000000E+00  0.00000000E+00  0.00000000E+00
  0.00000000E+00  0.00000000E+00  0.00000000E+00
  0.00000000E+00  0.00000000E+00  0.00000000E+00
  0.00000000E+00  0.00000000E+00  0.00000000E+00
  0.00000000E+00  0.00000000E+00  0.00000000E+00
  0.00000000E+00  0.00000000E+00  0.00000000E+00
  0.00000000E+00  0.00000000E+00  0.00000000E+00
  0.00000000E+00  0.00000000E+00  0.00000000E+00
  0.00000000E+00  0.00000000E+00  0.00000000E+00
  0.00000000E+00  0.00000000E+00  0.00000000E+00
  0.00000000E+00  0.00000000E+00  0.00000000E+00
  0.00000000E+00  0.00000000E+00  0.00000000E+00
  0.00000000E+00  0.00000000E+00  0.00000000E+00
  0.00000000E+00  0.00000000E+00  0.00000000E+00
  0.00000000E+00  0.00000000E+00  0.00000000E+00
  0.00000000E+00  0.00000000E+00  0.00000000E+00
  0.00000000E+00  0.00000000E+00  0.00000000E+00
  0.00000000E+00  0.00000000E+00  0.00000000E+00
  0.00000000E+00  0.00000000E+00  0.00000000E+00
  0.00000000E+00  0.00000000E+00  0.00000000E+00
  0.00000000E+00  0.00000000E+00  0.00000000E+00
  0.00000000E+00  0.00000000E+00  0.00000000E+00
  0.00000000E+00  0.00000000E+00  0.00000000E+00
  0.00000000E+00  0.00000000E+00  0.00000000E+00
  0.00000000E+00  0.00000000E+00  0.00000000E+00
  0.00000000E+00  0.00000000E+00  0.00000000E+00
  0.00000000E+00  0.00000000E+00  0.00000000E+00
  0.00000000E+00  0.00000000E+00  0.00000000E+00
  0.00000000E+00  0.00000000E+00  0.00000000E+00
  0.00000000E+00  0.00000000E+00  0.00000000E+00
  0.00000000E+00  0.00000000E+00  0.00000000E+00
  0.00000000E+00  0.00000000E+00  0.00000000E+00
  0.00000000E+00  0.00000000E+00  0.00000000E+00
  0.00000000E+00  0.00000000E+00  0.00000000E+00
