Ge+Ge
    1.000000000
   17.891534805    0.000000000    0.000000000
  -16.102380753    7.798739433    0.000000000
    0.000000283   -0.000000065   13.828835487
Ge 
96
Direct
    0.943866372    0.556133509    0.398909658
    0.022813324    0.977186680    0.000000010
    0.180708155    0.819291830    0.093861058
    0.338602990    0.661396980    0.187722117
    0.496497810    0.503502190    0.281583160
    0.312287331    0.687712610    0.469305217
    0.443866372    0.556133628    0.398909658
    0.312287062    0.687712908    0.023465294
    0.470181882    0.529818058    0.117326319
    0.191352725    0.741231561    0.499999940
    0.785971582    0.214028403    0.305048466
    0.943866432    0.056133550    0.398909539
    0.654392600    0.345607400    0.375444233
    0.522813261    0.477186650    0.000000000
    0.680708110    0.319291830    0.093861051
    0.838602960    0.161397010    0.187722087
    0.996497810    0.003502154    0.281583130
    0.312287450    0.187712491    0.469305277
    0.601761222    0.398238838    0.492770672
    0.812287092    0.187712908    0.023465462
    0.970181823    0.029818127    0.117326453
    0.128076673    0.871923268    0.211187586
    0.285971522    0.714028358    0.305048615
    0.101761222    0.898238838    0.492770463
    0.154392600    0.845607400    0.375444233
    0.522813261    0.977186680    0.000000011
    0.680708110    0.819291890    0.093861051
    0.838602960    0.661397040    0.187722087
    0.996497750    0.503502250    0.281583130
    0.101761222    0.398238778    0.492770672
    0.849247396    0.083336830    0.593861043
    0.812287271    0.687712848    0.023465434
    0.970182121    0.529818058    0.117326483
    0.128076911    0.371923238    0.211187512
    0.285971761    0.214028388    0.305048615
    0.691352606    0.241231680    0.499999940
    0.812287509    0.687712491    0.469305247
    0.022813387    0.477186650    0.000000014
    0.180708200    0.319291830    0.093861043
    0.338603050    0.161396980    0.187722117
    0.496497840    0.003502190    0.281583130
    0.654392660    0.845607340    0.375444233
    0.154392600    0.345607400    0.375444233
    0.312287062    0.187712878    0.023465449
    0.470181882    0.029818086    0.117326483
    0.628076732    0.871923268    0.211187556
    0.785971522    0.714028418    0.305048615
    0.812287450    0.187712550    0.469305247
    0.980826557    0.451757491    0.969305217
    0.849247396    0.583336771    0.593860924
    0.349247456    0.083336830    0.593861043
    0.507142246    0.925441921    0.687722087
    0.101761222    0.398238778    0.492770672
    0.822931826    0.609652221    0.875444233
    0.270300329    0.162283659    0.992770612
    0.349247485    0.583336711    0.593860924
    0.980826378    0.451757878    0.523465395
    0.796615958    0.635968149    0.711187363
    0.954510808    0.478073299    0.805048466
    0.112405539    0.320178449    0.898909509
    0.480826437    0.951757491    0.969305217
    0.691352606    0.741231561    0.499999940
    0.191352651    0.241231680    0.499999940
    0.007142186    0.425441891    0.687722087
    0.165036917    0.267547071    0.781583130
    0.322931707    0.109652281    0.875444114
    0.770300329    0.662283659    0.992770731
    0.638721168    0.793863058    0.617326260
    0.980826676    0.951757789    0.523465395
    0.296616018    0.135968208    0.711187422
    0.454510748    0.978073359    0.805048585
    0.612405598    0.820178449    0.898909628
    0.980826616    0.951757371    0.969305098
    0.138721347    0.793862939    0.617326438
    0.480826378    0.951757848    0.523465276
    0.507142305    0.425441861    0.687722087
    0.665037036    0.267547071    0.781583130
    0.822931886    0.109652281    0.875444233
    0.270300329    0.662283599    0.992770731
    0.480826378    0.451757818    0.523465395
    0.638721168    0.293862998    0.617326438
    0.796615958    0.135968208    0.711187482
    0.954510748    0.978073359    0.805048525
    0.112405539    0.820178449    0.898909628
    0.480826557    0.451757431    0.969305098
    0.443866730    0.056133520    0.398909628
    0.601761460    0.898238719    0.492770642
    0.007142186    0.925441921    0.687722087
    0.165036917    0.767547190    0.781583130
    0.322931707    0.609652281    0.875444114
    0.770300567    0.162283659    0.992770731
    0.138721108    0.293863028    0.617326438
    0.191352725    0.741231561    0.499999940
    0.296616256    0.635968089    0.711187422
    0.454510987    0.478073299    0.805048525
    0.612405837    0.320178390    0.898909628
