Ge+Si
    1.000000000
    8.001338005    0.000000000    0.000000000
    0.000000000   16.002676010    0.000000000
    0.000000000    0.000000000   20.872991562
Ge  Si 
48     72
Direct
    0.991458297    0.995729148    0.000000000
    0.741458297    0.870729148    0.135529175
    0.491458297    0.745729148    0.271058381
    0.120922208    0.617753565    0.899391532
    0.741458297    0.370729119    0.135529175
    0.491458297    0.245729119    0.271058381
    0.370922089    0.867753565    0.899391532
    0.241458267    0.120729133    0.135529175
    0.991458297    0.995729148    0.271058381
    0.120922208    0.951086879    0.899391532
    0.241458282    0.620729089    0.135529175
    0.991458237    0.495729089    0.271058381
    0.241458282    0.995729148    0.067764588
    0.991458297    0.870729148    0.203293800
    0.620922327    0.367753685    0.439431459
    0.120922208    0.284420192    0.899391532
    0.991458237    0.370729089    0.203293800
    0.370922327    0.451086998    0.439431459
    0.741458297    0.245729148    0.067764588
    0.491458297    0.120729148    0.203293800
    0.370922327    0.117753625    0.439431459
    0.741458297    0.745729089    0.067764588
    0.491458267    0.620729089    0.203293800
    0.241458267    0.495729119    0.338823020
    0.991458297    0.245729133    0.000000000
    0.620922208    0.284420192    0.899391532
    0.370922327    0.784420431    0.439431459
    0.370922089    0.201086849    0.899391532
    0.241458267    0.870729148    0.135529175
    0.991458297    0.745729148    0.271058381
    0.991458237    0.745729148    0.000000000
    0.741458297    0.620729148    0.135529175
    0.491458297    0.495729148    0.271058381
    0.491458267    0.495729119    0.000000000
    0.241458312    0.370729148    0.135529175
    0.991458297    0.245729148    0.271058381
    0.241458282    0.245729119    0.067764588
    0.991458297    0.120729133    0.203293800
    0.741458297    0.995729148    0.338823020
    0.741458237    0.995729148    0.067764588
    0.491458267    0.870729148    0.203293800
    0.241458252    0.745729089    0.338823020
    0.241458282    0.745729089    0.067764588
    0.870922327    0.784420431    0.439431459
    0.620922327    0.701087117    0.439431459
    0.741458237    0.495729089    0.067764588
    0.491458267    0.370729119    0.203293800
    0.241458252    0.245729089    0.338823020
    0.241458282    0.995729148    0.338823020
    0.120922327    0.951086938    0.531423509
    0.870922208    0.784420252    0.623415530
    0.620922327    0.617753625    0.715407610
    0.370922208    0.451086879    0.807399571
    0.241458237    0.495729089    0.067764588
    0.741458237    0.245729089    0.338823020
    0.120922327    0.284420311    0.531423509
    0.870922208    0.117753625    0.623415530
    0.620922327    0.951086998    0.715407610
    0.370922208    0.784420252    0.807399571
    0.991458237    0.495729089    0.000000000
    0.491458297    0.995729148    0.271058381
    0.120922327    0.617753685    0.531423509
    0.870922208    0.451086998    0.623415530
    0.620922327    0.284420341    0.715407610
    0.370922208    0.117753625    0.807399571
    0.491458237    0.745729089    0.000000000
    0.870922327    0.117753625    0.439431459
    0.620922327    0.951086938    0.531423509
    0.370922327    0.784420252    0.623415530
    0.120922327    0.617753625    0.715407550
    0.870922208    0.451086879    0.807399571
    0.741458297    0.120729133    0.135529175
    0.870922327    0.451086998    0.439431459
    0.620922327    0.284420311    0.531423509
    0.370922327    0.117753625    0.623415530
    0.120922327    0.951086998    0.715407550
    0.870922208    0.784420252    0.807399571
    0.620922208    0.617753565    0.899391532
    0.991458297    0.620729089    0.203293800
    0.620922327    0.617753685    0.531423509
    0.370922327    0.451086998    0.623415530
    0.120922327    0.284420341    0.715407550
    0.870922208    0.117753625    0.807399571
    0.620922208    0.951086879    0.899391532
    0.120922446    0.367753685    0.439431459
    0.870922327    0.201086968    0.531423509
    0.620922327    0.034420252    0.623415530
    0.370922327    0.867753625    0.715407610
    0.120922327    0.701086938    0.807399571
    0.870922327    0.534420133    0.899391532
    0.120922446    0.701087117    0.439431459
    0.870922327    0.534420371    0.531423509
    0.620922327    0.367753685    0.623415530
    0.370922327    0.201087013    0.715407610
    0.120922327    0.034420252    0.807399571
    0.870922327    0.867753565    0.899391532
    0.120922446    0.034420371    0.439431459
    0.870922327    0.867753685    0.531423509
    0.620922327    0.701086998    0.623415530
    0.370922327    0.534420311    0.715407610
    0.120922327    0.367753595    0.807399571
    0.870922327    0.201086849    0.899391532
    0.741458297    0.745729148    0.338823020
    0.370922327    0.201086968    0.531423509
    0.120922208    0.034420252    0.623415530
    0.870922327    0.867753625    0.715407550
    0.620922208    0.701086938    0.807399571
    0.370922089    0.534420133    0.899391532
    0.741458297    0.495729089    0.338823020
    0.370922327    0.534420371    0.531423509
    0.120922208    0.367753685    0.623415530
    0.870922327    0.201087013    0.715407550
    0.620922208    0.034420252    0.807399571
    0.491458237    0.245729119    0.000000000
    0.620922327    0.034420371    0.439431459
    0.370922327    0.867753685    0.531423509
    0.120922208    0.701086998    0.623415530
    0.870922327    0.534420311    0.715407550
    0.620922208    0.367753595    0.807399571
    0.491458267    0.995729148    0.000000000
