Sn+Si                                   
   1.00000000000000     
    15.8952283859999994    0.0000000000000000    0.0000000000000000
   -10.5968198779999998   11.8476047520000005    0.0000000000000000
     0.0000000000000000    0.0000000000000000    6.6635942459999997
   Sn   Si
    24    36
Direct
  0.9871792200000016  0.0128207639999971  0.0000000180000015
  0.8371791840000000  0.1628208610000001  0.2177548259999966
  0.6871791479999985  0.3128209710000007  0.4355096520000004
  0.4871792200000016  0.5128207799999984  0.0000000160000013
  0.3371791539999975  0.6628208160000000  0.2177547809999965
  0.1871791330000008  0.8128209710000007  0.4355096520000004
  0.2871792319999997  0.9628206490000011  0.1088772419999984
  0.1371792409999983  0.1128207450000005  0.3266319330000016
  0.9871791599999966  0.2628208400000034  0.5443868039999984
  0.7871793509999989  0.4628206490000011  0.1088772120000030
  0.6371793149999974  0.6128208040000018  0.3266319629999970
  0.4871792790000029  0.7628208400000034  0.5443868039999984
  0.9871792200000016  0.5128207799999984  0.0000000000000000
  0.8371791840000000  0.6628208759999978  0.2177547659999988
  0.6871791479999985  0.8128209710000007  0.4355095330000012
  0.4871792200000016  0.0128207770000017  0.0000000060000005
  0.3371792140000025  0.1628208610000001  0.2177548259999966
  0.1871791330000008  0.3128209710000007  0.4355096520000004
  0.2871792319999997  0.4628206490000011  0.1088772120000030
  0.1371791959999982  0.6128207450000005  0.3266320529999973
  0.9871791599999966  0.7628208400000034  0.5443866849999992
  0.7871792319999997  0.9628206490000011  0.1088771969999982
  0.6371792549999995  0.1128208639999997  0.3266319629999970
  0.4871792200000016  0.2628208400000034  0.5443866849999992
  0.9743584989999974  0.9829056259999973  0.5443867440000005
  0.6743584279999979  0.7829055790000012  0.7266321780000027
  0.3743584159999997  0.5829055310000015  0.9088773129999979
  0.3076917830000028  0.9829056259999973  0.5443867440000005
  0.0076917259999973  0.7829055790000012  0.7266321780000027
  0.7076916689999990  0.5829055310000015  0.9088773129999979
  0.6410250659999974  0.9829056259999973  0.5443867440000005
  0.3410250250000004  0.7829055790000012  0.7266321780000027
  0.0410249870000001  0.5829055310000015  0.9088773129999979
  0.1576919700000019  0.6329056020000010  0.6355092530000022
  0.8576919440000026  0.4329055250000025  0.8177545670000015
  0.5576919319999973  0.2329055069999981  0.9999999400000021
  0.4910252090000000  0.6329056020000010  0.6355092530000022
  0.1910251529999982  0.4329055250000025  0.8177545670000015
  0.8910251860000002  0.2329055069999981  0.9999999400000021
  0.8243584630000029  0.6329056020000010  0.6355092530000022
  0.5243583920000034  0.4329055250000025  0.8177545670000015
  0.2243584989999974  0.2329055069999981  0.9999999400000021
  0.1410251559999978  0.4829055960000019  0.5443867440000005
  0.8410251139999971  0.2829054890000009  0.7266321780000027
  0.5410251019999990  0.0829054339999971  0.9088773129999979
  0.4743584389999995  0.4829055960000019  0.5443867440000005
  0.1743583829999977  0.2829054890000009  0.7266321780000027
  0.8743583560000019  0.0829054339999971  0.9088773129999979
  0.8076916930000024  0.4829055960000019  0.5443867440000005
  0.5076916809999972  0.2829054890000009  0.7266321780000027
  0.2076916250000025  0.0829054339999971  0.9088773129999979
  0.9910252090000000  0.1329056619999989  0.6355093120000035
  0.6910251380000005  0.9329056139999992  0.8177545670000015
  0.3910251860000002  0.7329055670000031  0.9999999400000021
  0.3243584630000029  0.1329056619999989  0.6355093120000035
  0.0243584139999982  0.9329056139999992  0.8177545670000015
  0.7243584389999995  0.7329055670000031  0.9999999400000021
  0.6576916579999974  0.1329056619999989  0.6355093120000035
  0.3576916159999968  0.9329056139999992  0.8177545670000015
  0.0576916520000026  0.7329055670000031  0.9999999400000021
 
  0.00000000E+00  0.00000000E+00  0.00000000E+00
  0.00000000E+00  0.00000000E+00  0.00000000E+00
  0.00000000E+00  0.00000000E+00  0.00000000E+00
  0.00000000E+00  0.00000000E+00  0.00000000E+00
  0.00000000E+00  0.00000000E+00  0.00000000E+00
  0.00000000E+00  0.00000000E+00  0.00000000E+00
  0.00000000E+00  0.00000000E+00  0.00000000E+00
  0.00000000E+00  0.00000000E+00  0.00000000E+00
  0.00000000E+00  0.00000000E+00  0.00000000E+00
  0.00000000E+00  0.00000000E+00  0.00000000E+00
  0.00000000E+00  0.00000000E+00  0.00000000E+00
  0.00000000E+00  0.00000000E+00  0.00000000E+00
  0.00000000E+00  0.00000000E+00  0.00000000E+00
  0.00000000E+00  0.00000000E+00  0.00000000E+00
  0.00000000E+00  0.00000000E+00  0.00000000E+00
  0.00000000E+00  0.00000000E+00  0.00000000E+00
  0.00000000E+00  0.00000000E+00  0.00000000E+00
  0.00000000E+00  0.00000000E+00  0.00000000E+00
  0.00000000E+00  0.00000000E+00  0.00000000E+00
  0.00000000E+00  0.00000000E+00  0.00000000E+00
  0.00000000E+00  0.00000000E+00  0.00000000E+00
  0.00000000E+00  0.00000000E+00  0.00000000E+00
  0.00000000E+00  0.00000000E+00  0.00000000E+00
  0.00000000E+00  0.00000000E+00  0.00000000E+00
  0.00000000E+00  0.00000000E+00  0.00000000E+00
  0.00000000E+00  0.00000000E+00  0.00000000E+00
  0.00000000E+00  0.00000000E+00  0.00000000E+00
  0.00000000E+00  0.00000000E+00  0.00000000E+00
  0.00000000E+00  0.00000000E+00  0.00000000E+00
  0.00000000E+00  0.00000000E+00  0.00000000E+00
  0.00000000E+00  0.00000000E+00  0.00000000E+00
  0.00000000E+00  0.00000000E+00  0.00000000E+00
  0.00000000E+00  0.00000000E+00  0.00000000E+00
  0.00000000E+00  0.00000000E+00  0.00000000E+00
  0.00000000E+00  0.00000000E+00  0.00000000E+00
  0.00000000E+00  0.00000000E+00  0.00000000E+00
  0.00000000E+00  0.00000000E+00  0.00000000E+00
  0.00000000E+00  0.00000000E+00  0.00000000E+00
  0.00000000E+00  0.00000000E+00  0.00000000E+00
  0.00000000E+00  0.00000000E+00  0.00000000E+00
  0.00000000E+00  0.00000000E+00  0.00000000E+00
  0.00000000E+00  0.00000000E+00  0.00000000E+00
  0.00000000E+00  0.00000000E+00  0.00000000E+00
  0.00000000E+00  0.00000000E+00  0.00000000E+00
  0.00000000E+00  0.00000000E+00  0.00000000E+00
  0.00000000E+00  0.00000000E+00  0.00000000E+00
  0.00000000E+00  0.00000000E+00  0.00000000E+00
  0.00000000E+00  0.00000000E+00  0.00000000E+00
  0.00000000E+00  0.00000000E+00  0.00000000E+00
  0.00000000E+00  0.00000000E+00  0.00000000E+00
  0.00000000E+00  0.00000000E+00  0.00000000E+00
  0.00000000E+00  0.00000000E+00  0.00000000E+00
  0.00000000E+00  0.00000000E+00  0.00000000E+00
  0.00000000E+00  0.00000000E+00  0.00000000E+00
  0.00000000E+00  0.00000000E+00  0.00000000E+00
  0.00000000E+00  0.00000000E+00  0.00000000E+00
  0.00000000E+00  0.00000000E+00  0.00000000E+00
  0.00000000E+00  0.00000000E+00  0.00000000E+00
  0.00000000E+00  0.00000000E+00  0.00000000E+00
  0.00000000E+00  0.00000000E+00  0.00000000E+00
