Ge+Ge                                   
   1.00000000000000     
     8.0013380049999991    0.0000000000000000    0.0000000000000000
    -4.0006690029999996   12.0020065309999993    0.0000000000000000
     0.0000000000000000    0.0000000000000000    9.4296684269999993
   Ge
    48
Direct
  0.0056944889999997  0.9943054909999987  0.0000000000000000
  0.1723611950000006  0.8276388649999973  0.2999999230000014
  0.3390279110000023  0.6609721179999966  0.5999999049999971
  0.6723610760000014  0.3276388049999994  0.0000000000000000
  0.8390277620000006  0.1609721179999966  0.2999999230000014
  0.0056945090000013  0.9943054319999973  0.5999999049999971
  0.3390277620000006  0.6609721179999966  0.0000000000000000
  0.5056944490000035  0.4943054020000019  0.2999999230000014
  0.6723611950000006  0.3276387450000016  0.5999999049999971
  0.0890278370000033  0.1609721479999990  0.1499999609999989
  0.2556945680000027  0.9943054319999973  0.4499998989999980
  0.4223612839999973  0.8276387450000016  0.7499999400000021
  0.7556943889999985  0.4943054619999998  0.1499999609999989
  0.9223611950000006  0.3276388049999994  0.4499998989999980
  0.0890278820000034  0.1609720889999977  0.7499999400000021
  0.4223610459999989  0.8276388049999994  0.1499999609999989
  0.5890278219999985  0.6609721780000015  0.4499998989999980
  0.7556945090000013  0.4943054619999998  0.7499999400000021
  0.5056944490000035  0.9943054909999987  0.0000000000000000
  0.6723611350000027  0.8276388649999973  0.2999999230000014
  0.8390278820000034  0.6609721179999966  0.5999999049999971
  0.1723611210000016  0.3276388049999994  0.0000000000000000
  0.3390278520000010  0.1609721330000013  0.2999999230000014
  0.5056945680000027  0.9943054319999973  0.5999999049999971
  0.8390277620000006  0.6609721179999966  0.0000000000000000
  0.0056945090000013  0.4943054319999973  0.2999999230000014
  0.1723611350000027  0.3276387450000016  0.5999999049999971
  0.5890278219999985  0.1609721479999990  0.1499999609999989
  0.7556945680000027  0.9943054909999987  0.4499998989999980
  0.9223613139999998  0.8276388049999994  0.7499999400000021
  0.2556944789999989  0.4943054909999987  0.1499999609999989
  0.4223612549999984  0.3276388350000019  0.4499998989999980
  0.5890280010000026  0.1609721179999966  0.7499999400000021
  0.9223610760000014  0.8276388649999973  0.1499999609999989
  0.0890277620000006  0.6609721179999966  0.4499998989999980
  0.2556945090000013  0.4943054319999973  0.7499999400000021
  0.9893847700000009  0.0265381170000012  0.7499998810000008
  0.8782736060000005  0.3043159249999974  0.8499999049999971
  0.7671624420000001  0.5820937160000028  0.9499999279999969
  0.4893847109999996  0.0265381210000015  0.7499998810000008
  0.3782735759999980  0.3043159249999974  0.8499999049999971
  0.2671624119999976  0.5820937160000028  0.9499999279999969
  0.6838290689999980  0.9154269100000008  0.7999998330000011
  0.5727179650000025  0.1932047609999969  0.8999999759999966
  0.4616067110000017  0.4709825520000024  0.0000000000000000
  0.1838290990000004  0.9154269699999986  0.7999999520000003
  0.0727180319999974  0.1932047609999969  0.8999999759999966
  0.9616068600000034  0.4709825520000024  0.0000000000000000
 
  0.00000000E+00  0.00000000E+00  0.00000000E+00
  0.00000000E+00  0.00000000E+00  0.00000000E+00
  0.00000000E+00  0.00000000E+00  0.00000000E+00
  0.00000000E+00  0.00000000E+00  0.00000000E+00
  0.00000000E+00  0.00000000E+00  0.00000000E+00
  0.00000000E+00  0.00000000E+00  0.00000000E+00
  0.00000000E+00  0.00000000E+00  0.00000000E+00
  0.00000000E+00  0.00000000E+00  0.00000000E+00
  0.00000000E+00  0.00000000E+00  0.00000000E+00
  0.00000000E+00  0.00000000E+00  0.00000000E+00
  0.00000000E+00  0.00000000E+00  0.00000000E+00
  0.00000000E+00  0.00000000E+00  0.00000000E+00
  0.00000000E+00  0.00000000E+00  0.00000000E+00
  0.00000000E+00  0.00000000E+00  0.00000000E+00
  0.00000000E+00  0.00000000E+00  0.00000000E+00
  0.00000000E+00  0.00000000E+00  0.00000000E+00
  0.00000000E+00  0.00000000E+00  0.00000000E+00
  0.00000000E+00  0.00000000E+00  0.00000000E+00
  0.00000000E+00  0.00000000E+00  0.00000000E+00
  0.00000000E+00  0.00000000E+00  0.00000000E+00
  0.00000000E+00  0.00000000E+00  0.00000000E+00
  0.00000000E+00  0.00000000E+00  0.00000000E+00
  0.00000000E+00  0.00000000E+00  0.00000000E+00
  0.00000000E+00  0.00000000E+00  0.00000000E+00
  0.00000000E+00  0.00000000E+00  0.00000000E+00
  0.00000000E+00  0.00000000E+00  0.00000000E+00
  0.00000000E+00  0.00000000E+00  0.00000000E+00
  0.00000000E+00  0.00000000E+00  0.00000000E+00
  0.00000000E+00  0.00000000E+00  0.00000000E+00
  0.00000000E+00  0.00000000E+00  0.00000000E+00
  0.00000000E+00  0.00000000E+00  0.00000000E+00
  0.00000000E+00  0.00000000E+00  0.00000000E+00
  0.00000000E+00  0.00000000E+00  0.00000000E+00
  0.00000000E+00  0.00000000E+00  0.00000000E+00
  0.00000000E+00  0.00000000E+00  0.00000000E+00
  0.00000000E+00  0.00000000E+00  0.00000000E+00
  0.00000000E+00  0.00000000E+00  0.00000000E+00
  0.00000000E+00  0.00000000E+00  0.00000000E+00
  0.00000000E+00  0.00000000E+00  0.00000000E+00
  0.00000000E+00  0.00000000E+00  0.00000000E+00
  0.00000000E+00  0.00000000E+00  0.00000000E+00
  0.00000000E+00  0.00000000E+00  0.00000000E+00
  0.00000000E+00  0.00000000E+00  0.00000000E+00
  0.00000000E+00  0.00000000E+00  0.00000000E+00
  0.00000000E+00  0.00000000E+00  0.00000000E+00
  0.00000000E+00  0.00000000E+00  0.00000000E+00
  0.00000000E+00  0.00000000E+00  0.00000000E+00
  0.00000000E+00  0.00000000E+00  0.00000000E+00
