Si+Sn                                   
   1.00000000000000     
     9.4067678449999992    0.0000000000000000    0.0000000000000000
    -9.4067687990000000   13.3031797409999992    0.0000000000000000
     0.0000000000000000    0.0000000000000000   21.0721397400000008
   Si   Sn
    72    48
Direct
  0.9785172939999995  0.9785172939999995  0.0000000020000002
  0.7285172340000017  0.7285171750000003  0.0911226200000002
  0.4785171750000003  0.4785171150000025  0.1822452400000003
  0.2285171750000003  0.2285170560000012  0.2733678820000023
  0.9785170560000012  0.9785169359999983  0.3644904789999970
  0.7285170560000012  0.7285168169999992  0.4556131659999991
  0.9785172939999995  0.3118506369999992  0.0000000020000002
  0.7285172340000017  0.0618505659999968  0.0911226200000002
  0.4785171750000003  0.8118504879999975  0.1822452400000003
  0.2285171750000003  0.5618504290000033  0.2733678820000023
  0.9785170560000012  0.3118503090000004  0.3644904789999970
  0.7285170560000012  0.0618502499999991  0.4556131659999991
  0.9785172939999995  0.6451840399999966  0.0000000020000002
  0.7285172340000017  0.3951839509999999  0.0911226200000002
  0.4785171750000003  0.1451838759999973  0.1822452400000003
  0.2285171750000003  0.8951838019999983  0.2733678820000023
  0.9785170560000012  0.6451836820000025  0.3644904789999970
  0.7285170560000012  0.3951835630000033  0.4556131659999991
  0.4785172939999995  0.1451839659999976  0.0000000000000000
  0.2285172489999994  0.8951838609999996  0.0911226200000002
  0.9785172340000017  0.6451838019999983  0.1822452400000003
  0.7285171750000003  0.3951837420000004  0.2733678519999998
  0.4785171150000025  0.1451836230000012  0.3644904789999970
  0.2285169960000033  0.8951835630000033  0.4556131659999991
  0.4785172939999995  0.4785173240000020  0.0000000000000000
  0.2285172489999994  0.2285172340000017  0.0911226200000002
  0.9785172340000017  0.9785171750000003  0.1822452400000003
  0.7285171750000003  0.7285171150000025  0.2733678519999998
  0.4785171150000025  0.4785169960000033  0.3644904789999970
  0.2285169960000033  0.2285169359999983  0.4556131659999991
  0.4785172939999995  0.8118506670000016  0.0000000000000000
  0.2285172489999994  0.5618506069999967  0.0911226200000002
  0.9785172340000017  0.3118505480000024  0.1822452400000003
  0.7285171750000003  0.0618504919999978  0.2733678519999998
  0.4785171150000025  0.8118503689999983  0.3644904789999970
  0.2285169960000033  0.5618502499999991  0.4556131659999991
  0.7285173539999974  0.1451839659999976  0.0000000000000000
  0.4785172939999995  0.8951838609999996  0.0911226119999995
  0.2285172639999971  0.6451838019999983  0.1822452400000003
  0.9785172340000017  0.3951836820000025  0.2733678820000023
  0.7285171750000003  0.1451836230000012  0.3644904789999970
  0.4785171150000025  0.8951835630000033  0.4556131359999966
  0.7285173539999974  0.4785172939999995  0.0000000000000000
  0.4785172939999995  0.2285172189999969  0.0911226119999995
  0.2285172639999971  0.9785171750000003  0.1822452400000003
  0.9785172340000017  0.7285170560000012  0.2733678820000023
  0.7285171750000003  0.4785169960000033  0.3644904789999970
  0.4785171150000025  0.2285168769999970  0.4556131359999966
  0.7285173539999974  0.8118507269999995  0.0000000000000000
  0.4785172939999995  0.5618506670000016  0.0911226119999995
  0.2285172639999971  0.3118505779999978  0.1822452400000003
  0.9785172340000017  0.0618504839999972  0.2733678820000023
  0.7285171750000003  0.8118503689999983  0.3644904789999970
  0.4785171150000025  0.5618503090000004  0.4556131359999966
  0.2285172939999995  0.9785172939999995  0.0000000009999965
  0.9785172340000017  0.7285171750000003  0.0911226200000002
  0.7285171750000003  0.4785171150000025  0.1822452400000003
  0.4785172340000017  0.2285170560000012  0.2733678519999998
  0.2285171150000025  0.9785169359999983  0.3644904789999970
  0.9785170560000012  0.7285169359999983  0.4556131659999991
  0.2285172939999995  0.3118506069999967  0.0000000009999965
  0.9785172340000017  0.0618505440000021  0.0911226200000002
  0.7285171750000003  0.8118504879999975  0.1822452400000003
  0.4785172340000017  0.5618504290000033  0.2733678519999998
  0.2285171150000025  0.3118503090000004  0.3644904789999970
  0.9785170560000012  0.0618501900000012  0.4556131659999991
  0.2285172939999995  0.6451841000000016  0.0000000009999965
  0.9785172340000017  0.3951839509999999  0.0911226200000002
  0.7285171750000003  0.1451838910000021  0.1822452400000003
  0.4785172340000017  0.8951838019999983  0.2733678519999998
  0.2285171150000025  0.6451836820000025  0.3644904789999970
  0.9785170560000012  0.3951836230000012  0.4556131659999991
  0.0000000000000000  0.0179795080000034  0.4556131359999966
  0.0000000000000000  0.2679795029999994  0.5644905569999992
  0.0000000000000000  0.5179795620000007  0.6733679179999967
  0.0000000000000000  0.7679795620000007  0.7822452779999978
  0.0000000269999987  0.0179796219999986  0.8911225800000011
  0.9999999400000021  0.2679796219999986  0.0000001189999992
  0.4999999400000021  0.5179794430000015  0.4556131359999966
  0.5000000000000000  0.7679795029999994  0.5644905569999992
  0.4999999110000033  0.0179795029999994  0.6733679179999967
  0.4999999110000033  0.2679795029999994  0.7822452779999978
  0.4999999110000033  0.5179795029999994  0.8911225800000011
  0.5000000599999979  0.7679797409999978  0.0000001189999992
  0.9999999400000021  0.5179794430000015  0.4556131359999966
  0.0000000000000000  0.7679795029999994  0.5644905569999992
  0.9999999400000021  0.0179795029999994  0.6733679179999967
  0.9999998810000008  0.2679795029999994  0.7822452779999978
  0.0000000000000000  0.5179795029999994  0.8911225800000011
  0.0000000570000012  0.7679797409999978  0.0000001189999992
  0.4999999699999975  0.0179795080000034  0.4556131359999966
  0.5000000000000000  0.2679795029999994  0.5644905569999992
  0.5000000000000000  0.5179795620000007  0.6733679179999967
  0.4999998810000008  0.7679795620000007  0.7822452779999978
  0.5000000599999979  0.0179796219999986  0.8911225800000011
  0.4999999400000021  0.2679796219999986  0.0000001189999992
  0.1249999699999975  0.3929794729999969  0.4556131359999966
  0.1250000000000000  0.6429795029999994  0.5644905569999992
  0.1249999180000003  0.8929795029999994  0.6733679179999967
  0.1250000300000025  0.1429796219999986  0.7822452779999978
  0.1250000300000025  0.3929796219999986  0.8911226390000024
  0.1250000149999977  0.6429796219999986  0.9999999400000021
  0.6249999400000021  0.8929794430000015  0.4556131359999966
  0.6250000000000000  0.1429795029999994  0.5644905569999992
  0.6249999400000021  0.3929795029999994  0.6733679179999967
  0.6250000599999979  0.6429796219999986  0.7822452779999978
  0.6250000000000000  0.8929796219999986  0.8911226390000024
  0.6250000000000000  0.1429796219999986  0.9999999400000021
  0.1249999779999982  0.8929794430000015  0.4556131359999966
  0.1249999930000030  0.1429795029999994  0.5644905569999992
  0.1249999850000023  0.3929795029999994  0.6733679179999967
  0.1250000300000025  0.6429796219999986  0.7822452779999978
  0.1250000149999977  0.8929796219999986  0.8911226390000024
  0.1250000000000000  0.1429796219999986  0.9999999400000021
  0.6249999400000021  0.3929794729999969  0.4556131359999966
  0.6250000000000000  0.6429795029999994  0.5644905569999992
  0.6249999400000021  0.8929795029999994  0.6733679179999967
  0.6249999400000021  0.1429796219999986  0.7822452779999978
  0.6250000599999979  0.3929796219999986  0.8911225800000011
  0.6249999400000021  0.6429796219999986  0.0000001189999992
 
  0.00000000E+00  0.00000000E+00  0.00000000E+00
  0.00000000E+00  0.00000000E+00  0.00000000E+00
  0.00000000E+00  0.00000000E+00  0.00000000E+00
  0.00000000E+00  0.00000000E+00  0.00000000E+00
  0.00000000E+00  0.00000000E+00  0.00000000E+00
  0.00000000E+00  0.00000000E+00  0.00000000E+00
  0.00000000E+00  0.00000000E+00  0.00000000E+00
  0.00000000E+00  0.00000000E+00  0.00000000E+00
  0.00000000E+00  0.00000000E+00  0.00000000E+00
  0.00000000E+00  0.00000000E+00  0.00000000E+00
  0.00000000E+00  0.00000000E+00  0.00000000E+00
  0.00000000E+00  0.00000000E+00  0.00000000E+00
  0.00000000E+00  0.00000000E+00  0.00000000E+00
  0.00000000E+00  0.00000000E+00  0.00000000E+00
  0.00000000E+00  0.00000000E+00  0.00000000E+00
  0.00000000E+00  0.00000000E+00  0.00000000E+00
  0.00000000E+00  0.00000000E+00  0.00000000E+00
  0.00000000E+00  0.00000000E+00  0.00000000E+00
  0.00000000E+00  0.00000000E+00  0.00000000E+00
  0.00000000E+00  0.00000000E+00  0.00000000E+00
  0.00000000E+00  0.00000000E+00  0.00000000E+00
  0.00000000E+00  0.00000000E+00  0.00000000E+00
  0.00000000E+00  0.00000000E+00  0.00000000E+00
  0.00000000E+00  0.00000000E+00  0.00000000E+00
  0.00000000E+00  0.00000000E+00  0.00000000E+00
  0.00000000E+00  0.00000000E+00  0.00000000E+00
  0.00000000E+00  0.00000000E+00  0.00000000E+00
  0.00000000E+00  0.00000000E+00  0.00000000E+00
  0.00000000E+00  0.00000000E+00  0.00000000E+00
  0.00000000E+00  0.00000000E+00  0.00000000E+00
  0.00000000E+00  0.00000000E+00  0.00000000E+00
  0.00000000E+00  0.00000000E+00  0.00000000E+00
  0.00000000E+00  0.00000000E+00  0.00000000E+00
  0.00000000E+00  0.00000000E+00  0.00000000E+00
  0.00000000E+00  0.00000000E+00  0.00000000E+00
  0.00000000E+00  0.00000000E+00  0.00000000E+00
  0.00000000E+00  0.00000000E+00  0.00000000E+00
  0.00000000E+00  0.00000000E+00  0.00000000E+00
  0.00000000E+00  0.00000000E+00  0.00000000E+00
  0.00000000E+00  0.00000000E+00  0.00000000E+00
  0.00000000E+00  0.00000000E+00  0.00000000E+00
  0.00000000E+00  0.00000000E+00  0.00000000E+00
  0.00000000E+00  0.00000000E+00  0.00000000E+00
  0.00000000E+00  0.00000000E+00  0.00000000E+00
  0.00000000E+00  0.00000000E+00  0.00000000E+00
  0.00000000E+00  0.00000000E+00  0.00000000E+00
  0.00000000E+00  0.00000000E+00  0.00000000E+00
  0.00000000E+00  0.00000000E+00  0.00000000E+00
  0.00000000E+00  0.00000000E+00  0.00000000E+00
  0.00000000E+00  0.00000000E+00  0.00000000E+00
  0.00000000E+00  0.00000000E+00  0.00000000E+00
  0.00000000E+00  0.00000000E+00  0.00000000E+00
  0.00000000E+00  0.00000000E+00  0.00000000E+00
  0.00000000E+00  0.00000000E+00  0.00000000E+00
  0.00000000E+00  0.00000000E+00  0.00000000E+00
  0.00000000E+00  0.00000000E+00  0.00000000E+00
  0.00000000E+00  0.00000000E+00  0.00000000E+00
  0.00000000E+00  0.00000000E+00  0.00000000E+00
  0.00000000E+00  0.00000000E+00  0.00000000E+00
  0.00000000E+00  0.00000000E+00  0.00000000E+00
  0.00000000E+00  0.00000000E+00  0.00000000E+00
  0.00000000E+00  0.00000000E+00  0.00000000E+00
  0.00000000E+00  0.00000000E+00  0.00000000E+00
  0.00000000E+00  0.00000000E+00  0.00000000E+00
  0.00000000E+00  0.00000000E+00  0.00000000E+00
  0.00000000E+00  0.00000000E+00  0.00000000E+00
  0.00000000E+00  0.00000000E+00  0.00000000E+00
  0.00000000E+00  0.00000000E+00  0.00000000E+00
  0.00000000E+00  0.00000000E+00  0.00000000E+00
  0.00000000E+00  0.00000000E+00  0.00000000E+00
  0.00000000E+00  0.00000000E+00  0.00000000E+00
  0.00000000E+00  0.00000000E+00  0.00000000E+00
  0.00000000E+00  0.00000000E+00  0.00000000E+00
  0.00000000E+00  0.00000000E+00  0.00000000E+00
  0.00000000E+00  0.00000000E+00  0.00000000E+00
  0.00000000E+00  0.00000000E+00  0.00000000E+00
  0.00000000E+00  0.00000000E+00  0.00000000E+00
  0.00000000E+00  0.00000000E+00  0.00000000E+00
  0.00000000E+00  0.00000000E+00  0.00000000E+00
  0.00000000E+00  0.00000000E+00  0.00000000E+00
  0.00000000E+00  0.00000000E+00  0.00000000E+00
  0.00000000E+00  0.00000000E+00  0.00000000E+00
  0.00000000E+00  0.00000000E+00  0.00000000E+00
  0.00000000E+00  0.00000000E+00  0.00000000E+00
  0.00000000E+00  0.00000000E+00  0.00000000E+00
  0.00000000E+00  0.00000000E+00  0.00000000E+00
  0.00000000E+00  0.00000000E+00  0.00000000E+00
  0.00000000E+00  0.00000000E+00  0.00000000E+00
  0.00000000E+00  0.00000000E+00  0.00000000E+00
  0.00000000E+00  0.00000000E+00  0.00000000E+00
  0.00000000E+00  0.00000000E+00  0.00000000E+00
  0.00000000E+00  0.00000000E+00  0.00000000E+00
  0.00000000E+00  0.00000000E+00  0.00000000E+00
  0.00000000E+00  0.00000000E+00  0.00000000E+00
  0.00000000E+00  0.00000000E+00  0.00000000E+00
  0.00000000E+00  0.00000000E+00  0.00000000E+00
  0.00000000E+00  0.00000000E+00  0.00000000E+00
  0.00000000E+00  0.00000000E+00  0.00000000E+00
  0.00000000E+00  0.00000000E+00  0.00000000E+00
  0.00000000E+00  0.00000000E+00  0.00000000E+00
  0.00000000E+00  0.00000000E+00  0.00000000E+00
  0.00000000E+00  0.00000000E+00  0.00000000E+00
  0.00000000E+00  0.00000000E+00  0.00000000E+00
  0.00000000E+00  0.00000000E+00  0.00000000E+00
  0.00000000E+00  0.00000000E+00  0.00000000E+00
  0.00000000E+00  0.00000000E+00  0.00000000E+00
  0.00000000E+00  0.00000000E+00  0.00000000E+00
  0.00000000E+00  0.00000000E+00  0.00000000E+00
  0.00000000E+00  0.00000000E+00  0.00000000E+00
  0.00000000E+00  0.00000000E+00  0.00000000E+00
  0.00000000E+00  0.00000000E+00  0.00000000E+00
  0.00000000E+00  0.00000000E+00  0.00000000E+00
  0.00000000E+00  0.00000000E+00  0.00000000E+00
  0.00000000E+00  0.00000000E+00  0.00000000E+00
  0.00000000E+00  0.00000000E+00  0.00000000E+00
  0.00000000E+00  0.00000000E+00  0.00000000E+00
  0.00000000E+00  0.00000000E+00  0.00000000E+00
  0.00000000E+00  0.00000000E+00  0.00000000E+00
  0.00000000E+00  0.00000000E+00  0.00000000E+00
  0.00000000E+00  0.00000000E+00  0.00000000E+00
