Si+Sn
    1.000000000
    9.406767845    0.000000000    0.000000000
   -9.406768799   13.303179741    0.000000000
    0.000000000    0.000000000   21.072139740
Si  Sn 
72     48
Direct
    0.978517294    0.978517294    0.000000002
    0.728517234    0.728517175    0.091122620
    0.478517175    0.478517115    0.182245240
    0.228517175    0.228517056    0.273367882
    0.978517056    0.978516936    0.364490479
    0.728517056    0.728516817    0.455613166
    0.978517294    0.311850637    0.000000002
    0.728517234    0.061850566    0.091122620
    0.478517175    0.811850488    0.182245240
    0.228517175    0.561850429    0.273367882
    0.978517056    0.311850309    0.364490479
    0.728517056    0.061850250    0.455613166
    0.978517294    0.645184040    0.000000002
    0.728517234    0.395183951    0.091122620
    0.478517175    0.145183876    0.182245240
    0.228517175    0.895183802    0.273367882
    0.978517056    0.645183682    0.364490479
    0.728517056    0.395183563    0.455613166
    0.478517294    0.145183966    0.000000000
    0.228517249    0.895183861    0.091122620
    0.978517234    0.645183802    0.182245240
    0.728517175    0.395183742    0.273367852
    0.478517115    0.145183623    0.364490479
    0.228516996    0.895183563    0.455613166
    0.478517294    0.478517324    0.000000000
    0.228517249    0.228517234    0.091122620
    0.978517234    0.978517175    0.182245240
    0.728517175    0.728517115    0.273367852
    0.478517115    0.478516996    0.364490479
    0.228516996    0.228516936    0.455613166
    0.478517294    0.811850667    0.000000000
    0.228517249    0.561850607    0.091122620
    0.978517234    0.311850548    0.182245240
    0.728517175    0.061850492    0.273367852
    0.478517115    0.811850369    0.364490479
    0.228516996    0.561850250    0.455613166
    0.728517354    0.145183966    0.000000000
    0.478517294    0.895183861    0.091122612
    0.228517264    0.645183802    0.182245240
    0.978517234    0.395183682    0.273367882
    0.728517175    0.145183623    0.364490479
    0.478517115    0.895183563    0.455613136
    0.728517354    0.478517294    0.000000000
    0.478517294    0.228517219    0.091122612
    0.228517264    0.978517175    0.182245240
    0.978517234    0.728517056    0.273367882
    0.728517175    0.478516996    0.364490479
    0.478517115    0.228516877    0.455613136
    0.728517354    0.811850727    0.000000000
    0.478517294    0.561850667    0.091122612
    0.228517264    0.311850578    0.182245240
    0.978517234    0.061850484    0.273367882
    0.728517175    0.811850369    0.364490479
    0.478517115    0.561850309    0.455613136
    0.228517294    0.978517294    0.000000001
    0.978517234    0.728517175    0.091122620
    0.728517175    0.478517115    0.182245240
    0.478517234    0.228517056    0.273367852
    0.228517115    0.978516936    0.364490479
    0.978517056    0.728516936    0.455613166
    0.228517294    0.311850607    0.000000001
    0.978517234    0.061850544    0.091122620
    0.728517175    0.811850488    0.182245240
    0.478517234    0.561850429    0.273367852
    0.228517115    0.311850309    0.364490479
    0.978517056    0.061850190    0.455613166
    0.228517294    0.645184100    0.000000001
    0.978517234    0.395183951    0.091122620
    0.728517175    0.145183891    0.182245240
    0.478517234    0.895183802    0.273367852
    0.228517115    0.645183682    0.364490479
    0.978517056    0.395183623    0.455613166
    0.000000000    0.017979508    0.455613136
    0.000000000    0.267979503    0.564490557
    0.000000000    0.517979562    0.673367918
    0.000000000    0.767979562    0.782245278
    0.000000027    0.017979622    0.891122580
    0.999999940    0.267979622    1.000000119
    0.499999940    0.517979443    0.455613136
    0.500000000    0.767979503    0.564490557
    0.499999911    0.017979503    0.673367918
    0.499999911    0.267979503    0.782245278
    0.499999911    0.517979503    0.891122580
    0.500000060    0.767979741    1.000000119
    0.999999940    0.517979443    0.455613136
    0.000000000    0.767979503    0.564490557
    0.999999940    0.017979503    0.673367918
    0.999999881    0.267979503    0.782245278
    0.000000000    0.517979503    0.891122580
    0.000000057    0.767979741    1.000000119
    0.499999970    0.017979508    0.455613136
    0.500000000    0.267979503    0.564490557
    0.500000000    0.517979562    0.673367918
    0.499999881    0.767979562    0.782245278
    0.500000060    0.017979622    0.891122580
    0.499999940    0.267979622    1.000000119
    0.124999970    0.392979473    0.455613136
    0.125000000    0.642979503    0.564490557
    0.124999918    0.892979503    0.673367918
    0.125000030    0.142979622    0.782245278
    0.125000030    0.392979622    0.891122639
    0.125000015    0.642979622    0.999999940
    0.624999940    0.892979443    0.455613136
    0.625000000    0.142979503    0.564490557
    0.624999940    0.392979503    0.673367918
    0.625000060    0.642979622    0.782245278
    0.625000000    0.892979622    0.891122639
    0.625000000    0.142979622    0.999999940
    0.124999978    0.892979443    0.455613136
    0.124999993    0.142979503    0.564490557
    0.124999985    0.392979503    0.673367918
    0.125000030    0.642979622    0.782245278
    0.125000015    0.892979622    0.891122639
    0.125000000    0.142979622    0.999999940
    0.624999940    0.392979473    0.455613136
    0.625000000    0.642979503    0.564490557
    0.624999940    0.892979503    0.673367918
    0.624999940    0.142979622    0.782245278
    0.625000060    0.392979622    0.891122580
    0.624999940    0.642979622    1.000000119
