Si+Si
    1.000000000
    7.680594444    0.000000000    0.000000000
    0.000000000   16.292999268    0.000000000
    0.000000000    0.000000000    6.400500298
Si 
48
Direct
    0.943514049    0.912132978    0.000000013
    0.693513989    0.523244023    0.099999987
    0.443513989    0.134355128    0.200000033
    0.193513930    0.745466113    0.299999952
    0.943513870    0.356577158    0.400000036
    0.693513751    0.967687845    0.499999881
    0.193514079    0.662133038    0.000000000
    0.943514049    0.273244023    0.099999987
    0.693514049    0.884355128    0.199999973
    0.443513870    0.495466053    0.299999982
    0.193513811    0.106577039    0.399999917
    0.943513751    0.717687964    0.500000060
    0.693514168    0.662133038    0.000000000
    0.443514049    0.273243994    0.099999972
    0.193514034    0.884355068    0.199999958
    0.943513989    0.495466053    0.299999982
    0.693513870    0.106577039    0.399999917
    0.443513811    0.717687964    0.499999970
    0.443514079    0.912132978    0.000000008
    0.193513989    0.523244023    0.100000024
    0.943513989    0.134355128    0.200000033
    0.693513989    0.745466113    0.299999952
    0.443513930    0.356577039    0.400000036
    0.193513691    0.967688084    0.500000060
    0.056485940    0.912132978    0.500000119
    0.306486011    0.523244023    0.600000024
    0.556486011    0.134355128    0.700000048
    0.806486070    0.745466113    0.800000072
    0.056486130    0.356577158    0.899999976
    0.306486249    0.967687845    0.999999881
    0.806486011    0.662133038    0.500000119
    0.056486011    0.273243994    0.600000024
    0.306486011    0.884355128    0.699999928
    0.556486249    0.495466053    0.800000072
    0.806486130    0.106577039    0.899999857
    0.056486368    0.717687964    1.000000000
    0.306486011    0.662133038    0.500000119
    0.556486011    0.273244023    0.600000024
    0.806486070    0.884355128    0.699999928
    0.056486130    0.495466053    0.800000072
    0.306486130    0.106577039    0.899999857
    0.556486249    0.717687964    1.000000000
    0.556485951    0.912132978    0.500000119
    0.806485951    0.523244023    0.600000024
    0.056486011    0.134355128    0.700000048
    0.306486011    0.745466113    0.800000072
    0.556486368    0.356577039    0.899999857
    0.806486249    0.967688084    0.999999881
