Si+C
    1.000000000
   13.303179741    0.000000000    0.000000000
   -6.651589394   11.520891190    0.000000000
    0.000000000    0.000000000   21.679416656
Si  C  
72     308
Direct
    0.348160356    0.681493700    0.000000013
    0.681493759    0.014827132    0.144634396
    0.014827251    0.348160625    0.289268821
    0.014827028    0.014827028    0.000000014
    0.348160386    0.348160386    0.144634396
    0.681493878    0.681493878    0.289268821
    0.681493700    0.348160356    0.000000000
    0.014827132    0.681493759    0.144634396
    0.348160625    0.014827251    0.289268792
    0.014827013    0.681493759    0.036158606
    0.348160386    0.014827132    0.180793017
    0.681493878    0.348160625    0.325427473
    0.348160416    0.348160416    0.036158621
    0.681493759    0.681493819    0.180793032
    0.014827251    0.014827251    0.325427473
    0.681493759    0.014827013    0.036158606
    0.014827132    0.348160386    0.180793017
    0.348160625    0.681493878    0.325427443
    0.014827028    0.514827013    0.000000017
    0.348160416    0.848160446    0.144634411
    0.681493819    0.181493878    0.289268821
    0.681493759    0.848160386    0.000000038
    0.014827132    0.181493759    0.144634396
    0.348160625    0.514827251    0.289268821
    0.348160386    0.181493685    0.000000008
    0.681493759    0.514827073    0.144634396
    0.014827132    0.848160505    0.289268792
    0.348160416    0.848160267    0.036158569
    0.681493878    0.181493759    0.180793002
    0.014827132    0.514827013    0.325427413
    0.014827132    0.181493700    0.036158592
    0.348160505    0.514827132    0.180793002
    0.681493759    0.848160446    0.325427353
    0.681493819    0.514827073    0.036158577
    0.014827251    0.848160505    0.180793017
    0.348160625    0.181493878    0.325427413
    0.181493700    0.848160386    0.000000024
    0.514827073    0.181493759    0.144634396
    0.848160565    0.514827251    0.289268821
    0.514827013    0.514827013    0.000000014
    0.848160446    0.848160386    0.144634396
    0.181493878    0.181493878    0.289268821
    0.848160386    0.181493700    0.000000005
    0.181493759    0.514827073    0.144634381
    0.514827251    0.848160565    0.289268821
    0.181493685    0.514827013    0.036158577
    0.514827132    0.848160505    0.180793017
    0.848160446    0.181493759    0.325427413
    0.848160386    0.848160386    0.036158562
    0.181493878    0.181493878    0.180793017
    0.514827251    0.514827251    0.325427413
    0.514827073    0.181493670    0.036158577
    0.848160505    0.514827132    0.180793017
    0.181493759    0.848160446    0.325427413
    0.181493700    0.348160356    0.000000013
    0.514827073    0.681493759    0.144634396
    0.848160505    0.014827132    0.289268821
    0.848160386    0.681493759    0.000000027
    0.181493759    0.014827132    0.144634396
    0.514827251    0.348160625    0.289268821
    0.514827013    0.014827021    0.000000013
    0.848160386    0.348160416    0.144634396
    0.181493878    0.681493819    0.289268821
    0.514827013    0.681493640    0.036158621
    0.848160386    0.014827013    0.180793017
    0.181493878    0.348160505    0.325427473
    0.181493655    0.014827013    0.036158614
    0.514827013    0.348160386    0.180793017
    0.848160446    0.681493878    0.325427473
    0.848160446    0.348160386    0.036158606
    0.181493878    0.681493759    0.180793017
    0.514827251    0.014827251    0.325427443
    0.918128431    0.232887849    0.876437604
    0.680033326    0.185268879    0.496484011
    0.489557117    0.947173655    0.591472447
    0.299080819    0.709078312    0.686460853
    0.108604550    0.470983028    0.781449199
    0.060985565    0.661459327    0.876437724
    0.822890460    0.613840401    0.496484041
    0.632414222    0.375745118    0.591472447
    0.441937953    0.137649775    0.686460853
    0.251461655    0.899554491    0.781449258
    0.632414103    0.375744998    0.876437724
    0.394318998    0.328126073    0.496484011
    0.203842804    0.090030789    0.591472447
    0.013366461    0.851935506    0.686460853
    0.822890282    0.613840163    0.781449258
    0.775271297    0.804316401    0.876437604
    0.537176192    0.756697536    0.496484011
    0.346699953    0.518602252    0.591472447
    0.156223655    0.280506879    0.686460853
    0.965747416    0.042411566    0.781449258
    0.203842700    0.090030789    0.876437604
    0.965747595    0.042411685    0.496484011
    0.775271356    0.804316521    0.591472447
    0.584795058    0.566221178    0.686460853
    0.394318819    0.328125894    0.781449199
    0.346699834    0.518602133    0.876437604
    0.108604670    0.470983207    0.496484011
    0.918128490    0.232887954    0.591472447
    0.727652252    0.994792640    0.686460853
    0.537175953    0.756697297    0.781449199
    0.489556968    0.947173595    0.876437604
    0.251461864    0.899554670    0.496484011
    0.060985684    0.661459386    0.591472447
    0.870509386    0.423364043    0.686460853
    0.680033088    0.185268641    0.781449199
    0.156223595    0.280506849    0.900184691
    0.108604789    0.470983207    0.425242722
    0.918128490    0.232887909    0.520231128
    0.727652311    0.994792640    0.615219593
    0.537176013    0.756697297    0.710207939
    0.346699715    0.518602014    0.805196404
    0.870509267    0.423363984    0.900184691
    0.822890520    0.613840461    0.425242692
    0.632414281    0.375745118    0.520231068
    0.441938013    0.137649775    0.615219533
    0.251461715    0.899554491    0.710207939
    0.060985446    0.661459267    0.805196345
    0.013366461    0.851935506    0.900184751
    0.965747714    0.042411923    0.425242692
    0.775271475    0.804316580    0.520231128
    0.584795177    0.566221297    0.615219533
    0.394318908    0.328125924    0.710207939
    0.203842700    0.090030670    0.805196404
    0.441937864    0.137649775    0.900184691
    0.394319057    0.328126103    0.425242722
    0.203842804    0.090030789    0.520231128
    0.013366580    0.851935506    0.615219593
    0.822890282    0.613840163    0.710207939
    0.632413983    0.375744939    0.805196464
    0.584794998    0.566221178    0.900184691
    0.537176251    0.756697536    0.425242722
    0.346699983    0.518602252    0.520231128
    0.156223714    0.280506939    0.615219593
    0.965747416    0.042411566    0.710207939
    0.775271177    0.804316342    0.805196404
    0.727652192    0.994792581    0.900184751
    0.680033386    0.185268998    0.425242722
    0.489557147    0.947173715    0.520231128
    0.299080878    0.709078431    0.615219593
    0.108604550    0.470983058    0.710207939
    0.918128371    0.232887834    0.805196404
    0.299080729    0.709078312    0.900184751
    0.251461893    0.899554670    0.425242722
    0.060985565    0.661459386    0.520231128
    0.870509386    0.423364073    0.615219593
    0.680033088    0.185268760    0.710207939
    0.489556909    0.947173476    0.805196464
    0.132414207    0.375744998    0.876437604
    0.894319117    0.328126073    0.496484011
    0.703842938    0.090030789    0.591472447
    0.513366580    0.851935506    0.686460853
    0.322890341    0.613840222    0.781449199
    0.703842700    0.090030670    0.876437604
    0.465747595    0.042411804    0.496484011
    0.275271386    0.804316521    0.591472447
    0.084795117    0.566221178    0.686460853
    0.894318819    0.328125834    0.781449258
    0.846699834    0.518602192    0.876437604
    0.608604789    0.470983207    0.496484041
    0.418128550    0.232887954    0.591472447
    0.227652282    0.994792640    0.686460853
    0.037176013    0.756697297    0.781449258
    0.989556909    0.947173595    0.876437724
    0.751461864    0.899554670    0.496484041
    0.560985625    0.661459386    0.591472447
    0.370509356    0.423364013    0.686460853
    0.180033058    0.185268641    0.781449258
    0.418128371    0.232887790    0.876437604
    0.180033296    0.185268879    0.496484011
    0.989557087    0.947173715    0.591472447
    0.799080789    0.709078252    0.686460853
    0.608604550    0.470982969    0.781449258
    0.560985506    0.661459267    0.876437604
    0.322890431    0.613840342    0.496484041
    0.132414237    0.375745118    0.591472447
    0.941937923    0.137649775    0.686460853
    0.751461685    0.899554431    0.781449258
    0.275271237    0.804316401    0.876437604
    0.037176132    0.756697476    0.496484011
    0.846699953    0.518602252    0.591472447
    0.656223655    0.280506879    0.686460853
    0.465747356    0.042411566    0.781449199
    0.941937923    0.137649655    0.900184751
    0.894319117    0.328126103    0.425242722
    0.703842938    0.090030789    0.520231128
    0.513366699    0.851935506    0.615219593
    0.322890311    0.613840163    0.710207939
    0.132414117    0.375744939    0.805196404
    0.084794998    0.566221118    0.900184751
    0.037176251    0.756697536    0.425242722
    0.846700072    0.518602252    0.520231128
    0.656223834    0.280506939    0.615219593
    0.465747476    0.042411566    0.710207939
    0.275271267    0.804316342    0.805196404
    0.656223655    0.280506849    0.900184691
    0.608604789    0.470983237    0.425242692
    0.418128550    0.232887939    0.520231068
    0.227652341    0.994792759    0.615219474
    0.037176013    0.756697357    0.710207939
    0.846699834    0.518602133    0.805196345
    0.799080789    0.709078312    0.900184691
    0.751461983    0.899554729    0.425242662
    0.560985684    0.661459386    0.520231068
    0.370509535    0.423364192    0.615219474
    0.180033192    0.185268760    0.710207939
    0.989556968    0.947173536    0.805196345
    0.370509326    0.423363984    0.900184691
    0.322890490    0.613840401    0.425242692
    0.132414222    0.375745088    0.520231068
    0.941938043    0.137649894    0.615219474
    0.751461744    0.899554491    0.710207939
    0.560985565    0.661459327    0.805196345
    0.513366520    0.851935506    0.900184691
    0.465747684    0.042411923    0.425242692
    0.275271386    0.804316580    0.520231068
    0.084795237    0.566221297    0.615219474
    0.894318879    0.328125924    0.710207939
    0.703842640    0.090030670    0.805196345
    0.227652133    0.994792640    0.900184691
    0.180033326    0.185268998    0.425242692
    0.989557087    0.947173715    0.520231068
    0.799080849    0.709078491    0.615219474
    0.608604550    0.470983088    0.710207939
    0.418128312    0.232887834    0.805196345
    0.060985565    0.161459327    0.876437724
    0.822890520    0.113840342    0.496484041
    0.632414341    0.875745118    0.591472447
    0.441937983    0.637649775    0.686460853
    0.251461744    0.399554491    0.781449258
    0.775271297    0.304316461    0.876437724
    0.537176192    0.256697506    0.496484041
    0.346699983    0.018602252    0.591472447
    0.156223714    0.780506968    0.686460853
    0.965747476    0.542411625    0.781449258
    0.918128431    0.732887864    0.876437604
    0.680033326    0.685268879    0.496484011
    0.489557117    0.447173655    0.591472447
    0.299080819    0.209078312    0.686460853
    0.108604431    0.970983028    0.781449199
    0.489556968    0.447173536    0.876437604
    0.251461864    0.399554610    0.496484011
    0.060985684    0.161459327    0.591472447
    0.870509386    0.923364043    0.686460853
    0.680033147    0.685268700    0.781449199
    0.632414103    0.875744939    0.876437604
    0.394319057    0.828126073    0.496484011
    0.203842819    0.590030789    0.591472447
    0.013366461    0.351935446    0.686460853
    0.822890282    0.113840103    0.781449199
    0.203842640    0.590030670    0.876437604
    0.965747595    0.542411745    0.496484011
    0.775271356    0.304316521    0.591472447
    0.584795058    0.066221118    0.686460853
    0.394318759    0.828125834    0.781449199
    0.346699774    0.018602133    0.876437724
    0.108604670    0.970983267    0.496483982
    0.918128490    0.732887983    0.591472447
    0.727652311    0.494792759    0.686460793
    0.537175894    0.256697297    0.781449258
    0.013366461    0.351935327    0.900184751
    0.965747714    0.542411745    0.425242722
    0.775271475    0.304316461    0.520231128
    0.584795177    0.066221118    0.615219593
    0.394318879    0.828125834    0.710207939
    0.203842685    0.590030611    0.805196404
    0.156223655    0.780506849    0.900184691
    0.108604789    0.970983267    0.425242722
    0.918128550    0.732887983    0.520231128
    0.727652311    0.494792640    0.615219593
    0.537176013    0.256697297    0.710207939
    0.346699774    0.018602014    0.805196404
    0.727652192    0.494792581    0.900184751
    0.680033386    0.685268998    0.425242692
    0.489557147    0.447173685    0.520231128
    0.299080938    0.209078431    0.615219533
    0.108604550    0.970983088    0.710207939
    0.918128371    0.732887864    0.805196404
    0.870509386    0.923364043    0.900184691
    0.822890520    0.113840342    0.425242692
    0.632414281    0.875745118    0.520231068
    0.441938102    0.637649894    0.615219474
    0.251461774    0.399554491    0.710207939
    0.060985565    0.161459208    0.805196345
    0.299080789    0.209078193    0.900184691
    0.251461923    0.399554640    0.425242692
    0.060985684    0.161459327    0.520231068
    0.870509505    0.923364103    0.615219474
    0.680033207    0.685268760    0.710207939
    0.489556968    0.447173536    0.805196345
    0.441937923    0.637649775    0.900184691
    0.394319087    0.828126192    0.425242692
    0.203842819    0.590030849    0.520231068
    0.013366580    0.351935625    0.615219474
    0.822890282    0.113840222    0.710207939
    0.632414103    0.875744939    0.805196345
    0.584795058    0.066221118    0.900184691
    0.537176192    0.256697506    0.425242692
    0.346699983    0.018602133    0.520231068
    0.156223759    0.780506968    0.615219474
    0.965747476    0.542411625    0.710207939
    0.775271237    0.304316401    0.805196345
    0.989557087    0.447173595    0.876437724
    0.751461983    0.399554610    0.496484041
    0.560985744    0.161459327    0.591472447
    0.370509475    0.923364043    0.686460853
    0.180033147    0.685268700    0.781449318
    0.132414162    0.875744998    0.876437604
    0.894319117    0.828126073    0.496483982
    0.703842878    0.590030849    0.591472447
    0.513366580    0.351935476    0.686460853
    0.322890282    0.113840103    0.781449199
    0.560985565    0.161459208    0.876437604
    0.322890431    0.113840342    0.496484011
    0.132414237    0.875745058    0.591472447
    0.941937923    0.637649715    0.686460853
    0.751461625    0.399554431    0.781449258
    0.703842759    0.590030730    0.876437604
    0.465747565    0.542411745    0.496484011
    0.275271386    0.304316521    0.591472447
    0.084795117    0.066221237    0.686460853
    0.894318819    0.828125834    0.781449258
    0.846699893    0.018602133    0.876437604
    0.608604789    0.970983267    0.496483982
    0.418128580    0.732888043    0.591472447
    0.227652282    0.494792640    0.686460853
    0.037176013    0.256697327    0.781449258
    0.275271237    0.304316461    0.876437604
    0.037176132    0.256697476    0.496484011
    0.846699953    0.018602252    0.591472447
    0.656223655    0.780506849    0.686460853
    0.465747356    0.542411566    0.781449258
    0.418128431    0.732887864    0.876437604
    0.180033296    0.685268998    0.496484011
    0.989557087    0.447173744    0.591472447
    0.799080789    0.209078431    0.686460853
    0.608604550    0.970983148    0.781449199
    0.799080729    0.209078312    0.900184751
    0.751461983    0.399554700    0.425242722
    0.560985744    0.161459446    0.520231128
    0.370509505    0.923364162    0.615219593
    0.180033207    0.685268819    0.710207939
    0.989557028    0.447173476    0.805196404
    0.941938043    0.637649715    0.900184691
    0.894319177    0.828126192    0.425242692
    0.703842938    0.590030849    0.520231068
    0.513366640    0.351935536    0.615219533
    0.322890371    0.113840222    0.710207939
    0.132414162    0.875744939    0.805196345
    0.084794998    0.066221118    0.900184691
    0.037176251    0.256697536    0.425242692
    0.846700013    0.018602252    0.520231068
    0.656223834    0.780506968    0.615219593
    0.465747446    0.542411566    0.710207939
    0.275271267    0.304316282    0.805196404
    0.513366461    0.351935387    0.900184751
    0.465747684    0.542411804    0.425242722
    0.275271416    0.304316521    0.520231128
    0.084795117    0.066221237    0.615219593
    0.894318879    0.828125954    0.710207939
    0.703842700    0.590030670    0.805196404
    0.656223536    0.780506849    0.900184691
    0.608604789    0.970983267    0.425242692
    0.418128550    0.732887983    0.520231068
    0.227652282    0.494792640    0.615219533
    0.037176013    0.256697297    0.710207939
    0.846699834    0.018602014    0.805196404
    0.227652192    0.494792640    0.900184691
    0.180033356    0.685268998    0.425242722
    0.989557147    0.447173715    0.520231128
    0.799080849    0.209078431    0.615219593
    0.608604550    0.970983028    0.710207939
    0.418128312    0.732887805    0.805196404
    0.370509326    0.923364043    0.900184691
    0.322890550    0.113840461    0.425242692
    0.132414281    0.875745118    0.520231068
    0.941938043    0.637649834    0.615219593
    0.751461744    0.399554491    0.710207939
    0.560985565    0.161459208    0.805196345
