Si+C
    1.000000000
   13.303179741    0.000000000    0.000000000
    6.651589394   11.520891190    0.000000000
    0.000000000    0.000000000   21.679414749
Si  C  
72     308
Direct
    0.000000000    0.681493819    0.289268851
    0.000000000    0.014827055    0.000000008
    0.000000000    0.348160446    0.144634441
    0.333333343    0.014827132    0.289268851
    0.333333343    0.348160386    0.000000009
    0.333333343    0.681493819    0.144634441
    0.666666687    0.348160386    0.289268821
    0.666666687    0.681493759    0.000000006
    0.666666687    0.014827132    0.144634441
    0.000000000    0.014827251    0.325427473
    0.000000000    0.348160416    0.036158621
    0.000000000    0.681493819    0.180793047
    0.333333343    0.348160505    0.325427443
    0.333333343    0.681493819    0.036158621
    0.333333343    0.014827132    0.180793032
    0.666666746    0.681493998    0.325427473
    0.666666746    0.014827132    0.036158621
    0.666666746    0.348160505    0.180793062
    0.166666672    0.848160446    0.289268821
    0.166666672    0.181493714    0.000000004
    0.166666672    0.514827132    0.144634441
    0.500000060    0.181493759    0.289268821
    0.500000000    0.514827073    0.000000001
    0.500000000    0.848160505    0.144634441
    0.833333373    0.514827251    0.289268851
    0.833333373    0.848160446    0.000000000
    0.833333373    0.181493759    0.144634411
    0.166666687    0.181493759    0.325427383
    0.166666687    0.514827073    0.036158580
    0.166666687    0.848160505    0.180793002
    0.500000000    0.514827132    0.325427383
    0.500000000    0.848160326    0.036158577
    0.500000000    0.181493759    0.180793017
    0.833333313    0.848160446    0.325427383
    0.833333313    0.181493714    0.036158577
    0.833333313    0.514827132    0.180793047
    0.000000000    0.181493759    0.289268821
    0.000000000    0.514827073    0.000000011
    0.000000000    0.848160446    0.144634441
    0.333333343    0.514827251    0.289268851
    0.333333343    0.848160505    0.000000016
    0.333333343    0.181493878    0.144634470
    0.666666687    0.848160446    0.289268821
    0.666666687    0.181493714    0.000000001
    0.666666687    0.514827132    0.144634441
    0.000000014    0.514827251    0.325427443
    0.000000014    0.848160446    0.036158580
    0.000000014    0.181493878    0.180793032
    0.333333373    0.848160446    0.325427443
    0.333333373    0.181493714    0.036158580
    0.333333373    0.514827073    0.180793002
    0.666666746    0.181493878    0.325427443
    0.666666746    0.514827073    0.036158580
    0.666666746    0.848160505    0.180793017
    0.166666672    0.348160386    0.289268821
    0.166666672    0.681493759    0.000000009
    0.166666672    0.014827132    0.144634470
    0.500000000    0.681493759    0.289268851
    0.500000000    0.014827051    0.000000009
    0.500000000    0.348160475    0.144634441
    0.833333313    0.014827132    0.289268821
    0.833333313    0.348160416    0.000000006
    0.833333313    0.681493759    0.144634426
    0.166666687    0.681493878    0.325427473
    0.166666687    0.014827132    0.036158640
    0.166666687    0.348160386    0.180793032
    0.500000000    0.014827251    0.325427473
    0.500000000    0.348160416    0.036158610
    0.500000000    0.681493759    0.180793032
    0.833333373    0.348160505    0.325427443
    0.833333373    0.681493700    0.036158621
    0.833333373    0.014827013    0.180793032
    0.143236578    0.969520867    0.876437724
    0.905141532    0.159997463    0.496484041
    0.714665353    0.112378359    0.591472507
    0.524188995    0.064759135    0.686460912
    0.333712757    0.017140031    0.781449318
    0.286093771    0.255235225    0.876437724
    0.047998667    0.445711762    0.496484011
    0.857522428    0.398092628    0.591472507
    0.667046130    0.350473464    0.686460912
    0.476569891    0.302854329    0.781449318
    0.428950906    0.540949583    0.876437724
    0.190855801    0.731426001    0.496484011
    0.000379562    0.683806956    0.591472507
    0.809903324    0.636187792    0.686460912
    0.619427025    0.588568628    0.781449378
    0.714665234    0.112378120    0.876437724
    0.476570100    0.302854598    0.496484011
    0.286093891    0.255235493    0.591472447
    0.095617592    0.207616314    0.686460912
    0.905141354    0.159997225    0.781449318
    0.571808040    0.826663733    0.876437724
    0.333712965    0.017140388    0.496484011
    0.143236727    0.969521165    0.591472447
    0.952760577    0.921902061    0.686460793
    0.762284100    0.874282837    0.781449318
    0.857522309    0.398092359    0.876437724
    0.619427264    0.588568866    0.496484011
    0.428951055    0.540949762    0.591472507
    0.238474846    0.493330657    0.686460853
    0.047998428    0.445711493    0.781449318
    0.000379443    0.683806658    0.876437724
    0.762284338    0.874283195    0.496484011
    0.571808159    0.826664031    0.591472447
    0.381331861    0.779044926    0.686460912
    0.190855563    0.731425762    0.781449318
    0.238474667    0.493330479    0.900184810
    0.190855831    0.731426120    0.425242722
    0.000379562    0.683806956    0.520231128
    0.809903324    0.636187851    0.615219593
    0.619427025    0.588568687    0.710208058
    0.428950846    0.540949583    0.805196404
    0.524188936    0.064759016    0.900184810
    0.476570129    0.302854717    0.425242752
    0.286093891    0.255235553    0.520231128
    0.095617622    0.207616434    0.615219593
    0.905141294    0.159997225    0.710208058
    0.714665115    0.112378120    0.805196404
    0.381331742    0.779044747    0.900184810
    0.333712995    0.017140508    0.425242722
    0.143236712    0.969521284    0.520231128
    0.952760518    0.921902120    0.615219593
    0.762284160    0.874282956    0.710208058
    0.571807921    0.826663852    0.805196404
    0.667046070    0.350473285    0.900184810
    0.619427323    0.588568985    0.425242722
    0.428951055    0.540949821    0.520231128
    0.238474786    0.493330717    0.615219593
    0.047998428    0.445711553    0.710208058
    0.857522249    0.398092449    0.805196404
    0.809903204    0.636187553    0.900184810
    0.762284458    0.874283314    0.425242722
    0.571808159    0.826664090    0.520231187
    0.381331921    0.779044986    0.615219593
    0.190855622    0.731425822    0.710208058
    0.000379324    0.683806717    0.805196404
    0.095617466    0.207616106    0.900184870
    0.047998667    0.445711792    0.425242752
    0.857522428    0.398092687    0.520231128
    0.667046249    0.350473523    0.615219593
    0.476569891    0.302854359    0.710208058
    0.286093712    0.255235255    0.805196464
    0.952760339    0.921901882    0.900184810
    0.905141532    0.159997582    0.425242722
    0.714665294    0.112378478    0.520231128
    0.524189055    0.064759374    0.615219593
    0.333712786    0.017140150    0.710208058
    0.143236548    0.969520986    0.805196404
    0.214665174    0.112378120    0.876437724
    0.976570070    0.302854598    0.496484011
    0.786093891    0.255235463    0.591472507
    0.595617592    0.207616299    0.686460912
    0.405141294    0.159997225    0.781449378
    0.357522309    0.398092419    0.876437724
    0.119427219    0.588568926    0.496484011
    0.928951025    0.540949821    0.591472507
    0.738474727    0.493330657    0.686460912
    0.547998428    0.445711523    0.781449318
    0.643236578    0.969520926    0.876437724
    0.405141503    0.159997463    0.496484011
    0.214665294    0.112378359    0.591472507
    0.024188995    0.064759135    0.686460912
    0.833712697    0.017140031    0.781449378
    0.500379384    0.683806658    0.876437724
    0.262284368    0.874283195    0.496484011
    0.071808100    0.826664090    0.591472507
    0.881331980    0.779044986    0.686460853
    0.690855563    0.731425762    0.781449378
    0.786093771    0.255235195    0.876437724
    0.547998726    0.445711732    0.496483982
    0.357522488    0.398092628    0.591472507
    0.167046309    0.350473523    0.686460853
    0.976569951    0.302854329    0.781449318
    0.928950965    0.540949523    0.876437724
    0.690855861    0.731426060    0.496484011
    0.500379682    0.683806956    0.591472447
    0.309903383    0.636187792    0.686460912
    0.119427092    0.588568628    0.781449318
    0.071808115    0.826663792    0.876437724
    0.833713055    0.017140388    0.496484011
    0.643236816    0.969521165    0.591472507
    0.452760547    0.921902001    0.686460912
    0.262284249    0.874282897    0.781449318
    0.167046130    0.350473285    0.900184810
    0.119427279    0.588568926    0.425242722
    0.928951025    0.540949821    0.520231128
    0.738474846    0.493330717    0.615219533
    0.547998488    0.445711523    0.710208058
    0.357522309    0.398092389    0.805196404
    0.309903204    0.636187613    0.900184810
    0.262284428    0.874283254    0.425242692
    0.071808159    0.826664150    0.520231128
    0.881331980    0.779044986    0.615219533
    0.690855682    0.731425822    0.710208058
    0.500379443    0.683806717    0.805196404
    0.595617533    0.207616135    0.900184810
    0.547998667    0.445711821    0.425242722
    0.357522458    0.398092687    0.520231128
    0.167046249    0.350473553    0.615219533
    0.976569951    0.302854389    0.710208058
    0.786093712    0.255235255    0.805196404
    0.452760398    0.921901941    0.900184810
    0.405141562    0.159997582    0.425242722
    0.214665294    0.112378478    0.520231128
    0.024189115    0.064759374    0.615219533
    0.833712757    0.017140269    0.710208058
    0.643236578    0.969521046    0.805196404
    0.738474667    0.493330538    0.900184810
    0.690855861    0.731426179    0.425242722
    0.500379562    0.683807075    0.520231128
    0.309903383    0.636187911    0.615219533
    0.119427063    0.588568747    0.710208058
    0.928950846    0.540949643    0.805196404
    0.024188995    0.064759016    0.900184810
    0.976570249    0.302854717    0.425242692
    0.786093950    0.255235553    0.520231128
    0.595617771    0.207616419    0.615219533
    0.405141473    0.159997225    0.710208058
    0.214665234    0.112378120    0.805196404
    0.881331801    0.779044688    0.900184810
    0.833712995    0.017140388    0.425242692
    0.643236756    0.969521284    0.520231128
    0.452760577    0.921902180    0.615219533
    0.262284219    0.874282956    0.710208058
    0.071808010    0.826663852    0.805196345
    0.214665174    0.612378120    0.876437724
    0.976570070    0.802854598    0.496484011
    0.786093891    0.755235553    0.591472507
    0.595617592    0.707616329    0.686460912
    0.405141294    0.659997225    0.781449318
    0.500379443    0.183806658    0.876437724
    0.262284368    0.374283135    0.496484041
    0.071808159    0.326664031    0.591472507
    0.881331861    0.279044867    0.686460912
    0.690855563    0.231425732    0.781449378
    0.357522309    0.898092330    0.876437724
    0.119427271    0.088568926    0.496483982
    0.928951025    0.040949821    0.591472447
    0.738474846    0.993330657    0.686460793
    0.547998428    0.945711493    0.781449318
    0.643236578    0.469520926    0.876437724
    0.405141532    0.659997404    0.496484011
    0.214665264    0.612378299    0.591472507
    0.024189115    0.564759195    0.686460853
    0.833712697    0.517140031    0.781449318
    0.928950846    0.040949464    0.876437724
    0.690855801    0.231426030    0.496484011
    0.500379562    0.183806896    0.591472507
    0.309903383    0.136187792    0.686460853
    0.119426996    0.088568568    0.781449318
    0.786093771    0.755235255    0.876437724
    0.547998726    0.945711792    0.496484011
    0.357522517    0.898092687    0.591472447
    0.167046189    0.850473523    0.686460912
    0.976569951    0.802854359    0.781449318
    0.071808055    0.326663822    0.876437724
    0.833712995    0.517140329    0.496484011
    0.643236756    0.469521224    0.591472507
    0.452760488    0.421902061    0.686460912
    0.262284189    0.374282926    0.781449318
    0.309903264    0.136187553    0.900184810
    0.262284428    0.374283254    0.425242722
    0.071808159    0.326664150    0.520231128
    0.881331980    0.279044986    0.615219533
    0.690855682    0.231425837    0.710208058
    0.500379443    0.183806777    0.805196404
    0.167046070    0.850473285    0.900184810
    0.119427249    0.088569045    0.425242722
    0.928951025    0.040949941    0.520231128
    0.738474846    0.993330777    0.615219533
    0.547998488    0.945711553    0.710208058
    0.357522309    0.898092449    0.805196404
    0.452760398    0.421901882    0.900184810
    0.405141562    0.659997582    0.425242722
    0.214665323    0.612378418    0.520231128
    0.024189115    0.564759314    0.615219533
    0.833712816    0.517140150    0.710208058
    0.643236578    0.469520986    0.805196404
    0.738474667    0.993330419    0.900184810
    0.690855801    0.231426105    0.425242722
    0.500379562    0.183807015    0.520231128
    0.309903413    0.136187911    0.615219533
    0.119427070    0.088568687    0.710208058
    0.928950846    0.040949583    0.805196404
    0.595617533    0.707616210    0.900184810
    0.547998726    0.945711851    0.425242692
    0.357522458    0.898092747    0.520231128
    0.167046249    0.850473642    0.615219533
    0.976569951    0.802854419    0.710208058
    0.786093712    0.755235314    0.805196404
    0.881331801    0.279044747    0.900184810
    0.833713055    0.517140448    0.425242692
    0.643236756    0.469521284    0.520231128
    0.452760577    0.421902150    0.615219533
    0.262284219    0.374283016    0.710208058
    0.071808010    0.326663911    0.805196404
    0.024188876    0.564759076    0.900184810
    0.976570070    0.802854717    0.425242722
    0.786093831    0.755235612    0.520231128
    0.595617652    0.707616448    0.615219533
    0.405141294    0.659997284    0.710208058
    0.214665085    0.612378180    0.805196404
    0.143236578    0.469520926    0.876437724
    0.905141532    0.659997463    0.496484011
    0.714665294    0.612378359    0.591472507
    0.524188995    0.564759195    0.686460912
    0.333712697    0.517140031    0.781449378
    0.428950906    0.040949583    0.876437724
    0.190855801    0.231426030    0.496484011
    0.000379562    0.183806896    0.591472507
    0.809903324    0.136187792    0.686460912
    0.619427025    0.088568568    0.781449318
    0.286093712    0.755235136    0.876437724
    0.047998667    0.945711672    0.496484011
    0.857522428    0.898092568    0.591472507
    0.667046249    0.850473464    0.686460853
    0.476569831    0.802854240    0.781449318
    0.571808040    0.326663733    0.876437724
    0.333712995    0.517140269    0.496483982
    0.143236727    0.469521165    0.591472507
    0.952760577    0.421902061    0.686460853
    0.762284160    0.374282897    0.781449318
    0.714665234    0.612378120    0.876437724
    0.476570100    0.802854657    0.496484011
    0.286093920    0.755235493    0.591472447
    0.095617592    0.707616329    0.686460912
    0.905141294    0.659997225    0.781449318
    0.000379443    0.183806658    0.876437724
    0.762284338    0.374283195    0.496484011
    0.571808219    0.326664060    0.591472507
    0.381331861    0.279044926    0.686460912
    0.190855533    0.231425777    0.781449318
    0.857522309    0.898092330    0.876437724
    0.619427264    0.088568926    0.496484011
    0.428951025    0.040949821    0.591472507
    0.238474697    0.993330657    0.686460912
    0.047998428    0.945711434    0.781449318
    0.238474607    0.993330419    0.900184870
    0.190855861    0.231426120    0.425242752
    0.000379562    0.183807015    0.520231128
    0.809903383    0.136187911    0.615219593
    0.619427085    0.088568687    0.710208058
    0.428950906    0.040949583    0.805196404
    0.381331801    0.279044688    0.900184870
    0.333712995    0.517140388    0.425242752
    0.143236756    0.469521224    0.520231128
    0.952760518    0.421902120    0.615219653
    0.762284219    0.374282956    0.710208058
    0.571808040    0.326663852    0.805196404
    0.524188936    0.564759076    0.900184810
    0.476570129    0.802854717    0.425242722
    0.286093861    0.755235612    0.520231128
    0.095617615    0.707616448    0.615219653
    0.905141294    0.659997284    0.710208058
    0.714665115    0.612378180    0.805196404
    0.809903204    0.136187553    0.900184810
    0.762284458    0.374283254    0.425242722
    0.571808219    0.326664120    0.520231128
    0.381331950    0.279044956    0.615219653
    0.190855652    0.231425822    0.710208058
    0.000379443    0.183806658    0.805196404
    0.667046070    0.850473344    0.900184810
    0.619427264    0.088569045    0.425242722
    0.428950995    0.040949941    0.520231187
    0.238474786    0.993330717    0.615219593
    0.047998428    0.945711553    0.710208058
    0.857522249    0.898092449    0.805196464
    0.952760339    0.421901852    0.900184810
    0.905141592    0.659997523    0.425242722
    0.714665294    0.612378418    0.520231128
    0.524189055    0.564759254    0.615219533
    0.333712757    0.517140090    0.710208058
    0.143236548    0.469520986    0.805196404
    0.095617585    0.707616150    0.900184810
    0.047998786    0.945711851    0.425242722
    0.857522547    0.898092687    0.520231128
    0.667046249    0.850473583    0.615219593
    0.476569951    0.802854359    0.710208058
    0.286093771    0.755235255    0.805196404
