Si+C                                    
   1.00000000000000     
    13.3031797409999992    0.0000000000000000    0.0000000000000000
    -6.6515893940000002   14.8734064099999994    0.0000000000000000
     0.0000000000000000    0.0000000000000000    8.3900594710000007
   Si   C 
    36    84
Direct
  0.9971509579999989  0.9800565840000033  0.0000000000000000
  0.9638175369999971  0.7467231749999996  0.1447438300000030
  0.9304841160000024  0.5133898260000009  0.2894876599999989
  0.3304842109999981  0.3133898680000016  0.0000000000000000
  0.2971507910000000  0.0800564740000027  0.1447438300000030
  0.2638173699999982  0.8467230799999967  0.2894876599999989
  0.6638174650000011  0.6467231510000033  0.0000000000000000
  0.6304840450000029  0.4133897130000008  0.1447438300000030
  0.5971506240000011  0.1800563339999997  0.2894876599999989
  0.3138175309999980  0.9467233419999985  0.0723717589999993
  0.2804841100000033  0.7133899929999998  0.2171155810000016
  0.2471506890000015  0.4800565840000033  0.3618593509999997
  0.6471508150000034  0.2800565659999990  0.0723717589999993
  0.6138173940000016  0.0467231940000019  0.2171155509999991
  0.5804839729999998  0.8133897780000012  0.3618593810000021
  0.9804844259999967  0.6133898499999972  0.0723717879999981
  0.9471510050000020  0.3800564710000032  0.2171155509999991
  0.9138175849999968  0.1467230920000020  0.3618593509999997
  0.1638175699999991  0.6467230920000020  0.0000000020000002
  0.1304841640000021  0.4133897130000008  0.1447438300000030
  0.0971507499999973  0.1800563190000020  0.2894876599999989
  0.4971508980000010  0.9800566429999975  0.0000000049999969
  0.4638174179999979  0.7467231749999996  0.1447437699999981
  0.4304840559999974  0.5133898260000009  0.2894876000000011
  0.8304841519999968  0.3133898680000016  0.0000000049999969
  0.7971507310000021  0.0800565259999999  0.1447437699999981
  0.7638173100000003  0.8467230799999967  0.2894876000000011
  0.1471509040000001  0.2800565659999990  0.0723717730000004
  0.1138174829999983  0.0467231650000031  0.2171155810000016
  0.0804840699999971  0.8133897780000012  0.3618593810000021
  0.4804842169999972  0.6133899089999986  0.0723717730000004
  0.4471508259999979  0.3800565299999974  0.2171155509999991
  0.4138174059999997  0.1467231660000010  0.3618593810000021
  0.8138175010000026  0.9467232820000007  0.0723717589999993
  0.7804841399999987  0.7133898740000006  0.2171155509999991
  0.7471507189999969  0.4800564649999970  0.3618593810000021
  0.5884380339999993  0.9515773059999972  0.7522248630000021
  0.3884378970000029  0.5515773890000020  0.5621044040000029
  0.4884379510000016  0.2515773479999979  0.6571646929999986
  0.8741523619999967  0.0944344400000006  0.7522248630000021
  0.6741521360000036  0.6944345240000018  0.5621044040000029
  0.7741522789999991  0.3944344820000012  0.6571646929999986
  0.1598665710000020  0.2372915150000026  0.7522248630000021
  0.9598664640000010  0.8372915980000002  0.5621044040000029
  0.0598665480000022  0.5372915860000020  0.6571646929999986
  0.4455809000000031  0.3801487679999980  0.7522248630000021
  0.2455807629999995  0.9801488519999992  0.5621044040000029
  0.3455808160000018  0.6801488400000011  0.6571646929999986
  0.7312951680000026  0.5230059029999978  0.7522248630000021
  0.5312950020000002  0.1230060159999979  0.5621044040000029
  0.6312950849999979  0.8230059739999973  0.6571646929999986
  0.0170094969999965  0.6658630370000012  0.7522248630000021
  0.8170092699999998  0.2658631500000013  0.5621044040000029
  0.9170093540000011  0.9658631089999972  0.6571646929999986
  0.3027236459999969  0.8087201120000032  0.7522248630000021
  0.1027234789999980  0.4087202850000011  0.5621044040000029
  0.2027236220000006  0.1087202360000035  0.6571646929999986
  0.5670095090000018  0.2658631210000024  0.7997548580000000
  0.3670093420000029  0.8658632639999979  0.6096344589999987
  0.4670094250000005  0.5658632519999998  0.7046946290000022
  0.7098665830000002  0.8372916579999981  0.7997548580000000
  0.5098664160000013  0.4372917410000028  0.6096344589999987
  0.6098665000000025  0.1372916999999987  0.7046946290000022
  0.9955808520000033  0.9801489709999984  0.7997548580000000
  0.7955806260000031  0.5801490549999997  0.6096344589999987
  0.8955807090000008  0.2801489829999966  0.7046946880000036
  0.2812951800000008  0.1230060680000022  0.7997547980000022
  0.0812950130000019  0.7230061289999981  0.6096344589999987
  0.1812950369999982  0.4230060880000011  0.7046946880000036
  0.8527237770000013  0.4087201950000008  0.7997548580000000
  0.6527236100000025  0.0087203980000012  0.6096344589999987
  0.7527236939999966  0.7087202069999989  0.7046946290000022
  0.1384379859999996  0.5515775080000012  0.7997548580000000
  0.9384378190000007  0.1515775920000024  0.6096344589999987
  0.0384378429999970  0.8515775199999993  0.7046946290000022
  0.4241521360000036  0.6944345240000018  0.7997548580000000
  0.2241519689999976  0.2944346669999973  0.6096344589999987
  0.3241521120000002  0.9944345950000013  0.7046946290000022
  0.6598666309999999  0.2372914850000001  0.7522248630000021
  0.4598664049999996  0.8372916579999981  0.5621044040000029
  0.5598665480000022  0.5372915860000020  0.6571646929999986
  0.5170094369999987  0.6658630370000012  0.7522248630000021
  0.3170093299999976  0.2658631210000024  0.5621044040000029
  0.4170093829999999  0.9658630489999993  0.6571646929999986
  0.8027237060000019  0.8087201120000032  0.7522248630000021
  0.6027235390000030  0.4087202549999986  0.5621044040000029
  0.7027236220000006  0.1087202060000010  0.6571646929999986
  0.0884379150000001  0.9515772459999994  0.7522248630000021
  0.8884378079999991  0.5515773300000006  0.5621044040000029
  0.9884380100000030  0.2515773180000025  0.6571646929999986
  0.3741523030000025  0.0944343729999986  0.7522248630000021
  0.1741521360000036  0.6944345240000018  0.5621044040000029
  0.2741521599999999  0.3944344220000033  0.6571646929999986
  0.9455808399999981  0.3801487679999980  0.7522248630000021
  0.7455806729999992  0.9801488519999992  0.5621044040000029
  0.8455808160000018  0.6801487800000032  0.6571646929999986
  0.2312951090000013  0.5230058430000000  0.7522248630000021
  0.0312949420000024  0.1230059789999984  0.5621044040000029
  0.1312950849999979  0.8230059150000031  0.6571646929999986
  0.4955808520000033  0.9801489709999984  0.7997548580000000
  0.2955806849999973  0.5801490549999997  0.6096344589999987
  0.3955807689999986  0.2801489829999966  0.7046946880000036
  0.7812951800000008  0.1230060529999975  0.7997548580000000
  0.5812950130000019  0.7230061289999981  0.6096344589999987
  0.6812950970000031  0.4230060880000011  0.7046946880000036
  0.0670094489999968  0.2658631799999966  0.7997548580000000
  0.8670092819999979  0.8658632639999979  0.6096344589999987
  0.9670093659999992  0.5658631319999969  0.7046946880000036
  0.6384380459999974  0.5515775679999990  0.7997548580000000
  0.4384378789999985  0.1515776520000003  0.6096344589999987
  0.5384379030000019  0.8515775799999972  0.7046946290000022
  0.9241523150000006  0.6944346430000010  0.7997547980000022
  0.7241521480000017  0.2944347259999986  0.6096344589999987
  0.8241521719999980  0.9944345950000013  0.7046946880000036
  0.2098664049999996  0.8372915980000002  0.7997547980000022
  0.0098662380000007  0.4372916820000015  0.6096344589999987
  0.1098663810000033  0.1372916700000033  0.7046946290000022
  0.3527237180000000  0.4087201950000008  0.7997549179999979
  0.1527234320000019  0.0087203980000012  0.6096344589999987
  0.2527235749999974  0.7087202069999989  0.7046946880000036
 
  0.00000000E+00  0.00000000E+00  0.00000000E+00
  0.00000000E+00  0.00000000E+00  0.00000000E+00
  0.00000000E+00  0.00000000E+00  0.00000000E+00
  0.00000000E+00  0.00000000E+00  0.00000000E+00
  0.00000000E+00  0.00000000E+00  0.00000000E+00
  0.00000000E+00  0.00000000E+00  0.00000000E+00
  0.00000000E+00  0.00000000E+00  0.00000000E+00
  0.00000000E+00  0.00000000E+00  0.00000000E+00
  0.00000000E+00  0.00000000E+00  0.00000000E+00
  0.00000000E+00  0.00000000E+00  0.00000000E+00
  0.00000000E+00  0.00000000E+00  0.00000000E+00
  0.00000000E+00  0.00000000E+00  0.00000000E+00
  0.00000000E+00  0.00000000E+00  0.00000000E+00
  0.00000000E+00  0.00000000E+00  0.00000000E+00
  0.00000000E+00  0.00000000E+00  0.00000000E+00
  0.00000000E+00  0.00000000E+00  0.00000000E+00
  0.00000000E+00  0.00000000E+00  0.00000000E+00
  0.00000000E+00  0.00000000E+00  0.00000000E+00
  0.00000000E+00  0.00000000E+00  0.00000000E+00
  0.00000000E+00  0.00000000E+00  0.00000000E+00
  0.00000000E+00  0.00000000E+00  0.00000000E+00
  0.00000000E+00  0.00000000E+00  0.00000000E+00
  0.00000000E+00  0.00000000E+00  0.00000000E+00
  0.00000000E+00  0.00000000E+00  0.00000000E+00
  0.00000000E+00  0.00000000E+00  0.00000000E+00
  0.00000000E+00  0.00000000E+00  0.00000000E+00
  0.00000000E+00  0.00000000E+00  0.00000000E+00
  0.00000000E+00  0.00000000E+00  0.00000000E+00
  0.00000000E+00  0.00000000E+00  0.00000000E+00
  0.00000000E+00  0.00000000E+00  0.00000000E+00
  0.00000000E+00  0.00000000E+00  0.00000000E+00
  0.00000000E+00  0.00000000E+00  0.00000000E+00
  0.00000000E+00  0.00000000E+00  0.00000000E+00
  0.00000000E+00  0.00000000E+00  0.00000000E+00
  0.00000000E+00  0.00000000E+00  0.00000000E+00
  0.00000000E+00  0.00000000E+00  0.00000000E+00
  0.00000000E+00  0.00000000E+00  0.00000000E+00
  0.00000000E+00  0.00000000E+00  0.00000000E+00
  0.00000000E+00  0.00000000E+00  0.00000000E+00
  0.00000000E+00  0.00000000E+00  0.00000000E+00
  0.00000000E+00  0.00000000E+00  0.00000000E+00
  0.00000000E+00  0.00000000E+00  0.00000000E+00
  0.00000000E+00  0.00000000E+00  0.00000000E+00
  0.00000000E+00  0.00000000E+00  0.00000000E+00
  0.00000000E+00  0.00000000E+00  0.00000000E+00
  0.00000000E+00  0.00000000E+00  0.00000000E+00
  0.00000000E+00  0.00000000E+00  0.00000000E+00
  0.00000000E+00  0.00000000E+00  0.00000000E+00
  0.00000000E+00  0.00000000E+00  0.00000000E+00
  0.00000000E+00  0.00000000E+00  0.00000000E+00
  0.00000000E+00  0.00000000E+00  0.00000000E+00
  0.00000000E+00  0.00000000E+00  0.00000000E+00
  0.00000000E+00  0.00000000E+00  0.00000000E+00
  0.00000000E+00  0.00000000E+00  0.00000000E+00
  0.00000000E+00  0.00000000E+00  0.00000000E+00
  0.00000000E+00  0.00000000E+00  0.00000000E+00
  0.00000000E+00  0.00000000E+00  0.00000000E+00
  0.00000000E+00  0.00000000E+00  0.00000000E+00
  0.00000000E+00  0.00000000E+00  0.00000000E+00
  0.00000000E+00  0.00000000E+00  0.00000000E+00
  0.00000000E+00  0.00000000E+00  0.00000000E+00
  0.00000000E+00  0.00000000E+00  0.00000000E+00
  0.00000000E+00  0.00000000E+00  0.00000000E+00
  0.00000000E+00  0.00000000E+00  0.00000000E+00
  0.00000000E+00  0.00000000E+00  0.00000000E+00
  0.00000000E+00  0.00000000E+00  0.00000000E+00
  0.00000000E+00  0.00000000E+00  0.00000000E+00
  0.00000000E+00  0.00000000E+00  0.00000000E+00
  0.00000000E+00  0.00000000E+00  0.00000000E+00
  0.00000000E+00  0.00000000E+00  0.00000000E+00
  0.00000000E+00  0.00000000E+00  0.00000000E+00
  0.00000000E+00  0.00000000E+00  0.00000000E+00
  0.00000000E+00  0.00000000E+00  0.00000000E+00
  0.00000000E+00  0.00000000E+00  0.00000000E+00
  0.00000000E+00  0.00000000E+00  0.00000000E+00
  0.00000000E+00  0.00000000E+00  0.00000000E+00
  0.00000000E+00  0.00000000E+00  0.00000000E+00
  0.00000000E+00  0.00000000E+00  0.00000000E+00
  0.00000000E+00  0.00000000E+00  0.00000000E+00
  0.00000000E+00  0.00000000E+00  0.00000000E+00
  0.00000000E+00  0.00000000E+00  0.00000000E+00
  0.00000000E+00  0.00000000E+00  0.00000000E+00
  0.00000000E+00  0.00000000E+00  0.00000000E+00
  0.00000000E+00  0.00000000E+00  0.00000000E+00
  0.00000000E+00  0.00000000E+00  0.00000000E+00
  0.00000000E+00  0.00000000E+00  0.00000000E+00
  0.00000000E+00  0.00000000E+00  0.00000000E+00
  0.00000000E+00  0.00000000E+00  0.00000000E+00
  0.00000000E+00  0.00000000E+00  0.00000000E+00
  0.00000000E+00  0.00000000E+00  0.00000000E+00
  0.00000000E+00  0.00000000E+00  0.00000000E+00
  0.00000000E+00  0.00000000E+00  0.00000000E+00
  0.00000000E+00  0.00000000E+00  0.00000000E+00
  0.00000000E+00  0.00000000E+00  0.00000000E+00
  0.00000000E+00  0.00000000E+00  0.00000000E+00
  0.00000000E+00  0.00000000E+00  0.00000000E+00
  0.00000000E+00  0.00000000E+00  0.00000000E+00
  0.00000000E+00  0.00000000E+00  0.00000000E+00
  0.00000000E+00  0.00000000E+00  0.00000000E+00
  0.00000000E+00  0.00000000E+00  0.00000000E+00
  0.00000000E+00  0.00000000E+00  0.00000000E+00
  0.00000000E+00  0.00000000E+00  0.00000000E+00
  0.00000000E+00  0.00000000E+00  0.00000000E+00
  0.00000000E+00  0.00000000E+00  0.00000000E+00
  0.00000000E+00  0.00000000E+00  0.00000000E+00
  0.00000000E+00  0.00000000E+00  0.00000000E+00
  0.00000000E+00  0.00000000E+00  0.00000000E+00
  0.00000000E+00  0.00000000E+00  0.00000000E+00
  0.00000000E+00  0.00000000E+00  0.00000000E+00
  0.00000000E+00  0.00000000E+00  0.00000000E+00
  0.00000000E+00  0.00000000E+00  0.00000000E+00
  0.00000000E+00  0.00000000E+00  0.00000000E+00
  0.00000000E+00  0.00000000E+00  0.00000000E+00
  0.00000000E+00  0.00000000E+00  0.00000000E+00
  0.00000000E+00  0.00000000E+00  0.00000000E+00
  0.00000000E+00  0.00000000E+00  0.00000000E+00
  0.00000000E+00  0.00000000E+00  0.00000000E+00
  0.00000000E+00  0.00000000E+00  0.00000000E+00
  0.00000000E+00  0.00000000E+00  0.00000000E+00
  0.00000000E+00  0.00000000E+00  0.00000000E+00
