C+Si
    1.000000000
   13.345743179    0.000000000    0.000000000
   -6.672872543   11.557754517    0.000000000
   -0.000000204   -0.000000118   17.351547241
C   Si 
308     72
Direct
    0.920635223    0.519841015    0.593403518
    0.015873071    0.996031702    0.000000046
    0.396825522    0.900793552    0.118680738
    0.777777910    0.805555403    0.237361401
    0.158730388    0.710317314    0.356042117
    0.539682865    0.615079045    0.474722803
    0.349206924    0.662698150    0.593403578
    0.444444537    0.138888881    0.000000043
    0.825397015    0.043650717    0.118680723
    0.206349373    0.948412597    0.237361386
    0.587301850    0.853174448    0.356042117
    0.968254209    0.757936239    0.474722803
    0.777778149    0.805555284    0.593403518
    0.873015940    0.281746000    0.000000047
    0.253968358    0.186507881    0.118680730
    0.634920835    0.091269724    0.237361401
    0.015873432    0.996031642    0.356042147
    0.396826029    0.900793433    0.474722892
    0.206349850    0.948412418    0.593403518
    0.301587403    0.424603164    0.000000046
    0.682539821    0.329365015    0.118680723
    0.063492179    0.234126896    0.237361386
    0.444444776    0.138888702    0.356042147
    0.825397253    0.043650553    0.474722803
    0.634921074    0.091269515    0.593403518
    0.730158865    0.567460299    0.000000049
    0.111111403    0.472222239    0.118680768
    0.492063642    0.376984090    0.237361446
    0.873016238    0.281745940    0.356042147
    0.253968716    0.186507747    0.474722832
    0.063492537    0.234126732    0.593403518
    0.158730224    0.710317433    0.000000064
    0.539682686    0.615079284    0.118680738
    0.920635045    0.519841194    0.237361401
    0.301587582    0.424603015    0.356042117
    0.682539940    0.329364866    0.474722832
    0.492063761    0.376983881    0.593403518
    0.587301672    0.853174567    0.000000043
    0.968254149    0.757936418    0.118680723
    0.349206567    0.662698269    0.237361401
    0.730159044    0.567460179    0.356042117
    0.111111641    0.472222000    0.474722832
    0.825396895    0.043650798    0.029670242
    0.206349373    0.948412657    0.148350894
    0.587301850    0.853174567    0.267031610
    0.968254328    0.757936358    0.385712355
    0.349206924    0.662698150    0.504393101
    0.253968358    0.186507910    0.029670216
    0.634920776    0.091269769    0.148350894
    0.015873313    0.996031642    0.267031610
    0.396825790    0.900793433    0.385712296
    0.777778268    0.805555344    0.504393041
    0.682539821    0.329365075    0.029670231
    0.063492298    0.234126881    0.148350894
    0.444444776    0.138888776    0.267031610
    0.825397253    0.043650653    0.385712326
    0.206349850    0.948412418    0.504393041
    0.111111186    0.472222179    0.029670233
    0.492063642    0.376984060    0.148350880
    0.873016059    0.281745911    0.267031580
    0.253968716    0.186507747    0.385712296
    0.634921074    0.091269635    0.504393041
    0.539682686    0.615079403    0.029670237
    0.920635045    0.519841254    0.148350894
    0.301587582    0.424603164    0.267031610
    0.682540178    0.329364985    0.385712326
    0.063492775    0.234126762    0.504393041
    0.968253970    0.757936478    0.029670233
    0.349206448    0.662698328    0.148350894
    0.730158925    0.567460120    0.267031550
    0.111111403    0.472221971    0.385712296
    0.492064238    0.376983851    0.504392982
    0.396825492    0.900793672    0.029670214
    0.777777910    0.805555582    0.148350894
    0.158730388    0.710317373    0.267031610
    0.539682746    0.615079165    0.385712296
    0.920635581    0.519841075    0.504393041
    0.420635462    0.519841015    0.593403518
    0.515873075    0.996031702    0.000000042
    0.896825552    0.900793552    0.118680730
    0.277777910    0.805555463    0.237361401
    0.658730388    0.710317254    0.356042117
    0.039682865    0.615079045    0.474722832
    0.849206924    0.662698150    0.593403518
    0.944444537    0.138888881    0.000000052
    0.325397015    0.043650780    0.118680768
    0.706349373    0.948412657    0.237361461
    0.087301970    0.853174448    0.356042117
    0.468254328    0.757936180    0.474722892
    0.277778149    0.805555224    0.593403578
    0.373015970    0.281746030    0.000000056
    0.753968418    0.186507896    0.118680738
    0.134920716    0.091269769    0.237361401
    0.515873313    0.996031582    0.356042117
    0.896825790    0.900793433    0.474722803
    0.706349611    0.948412418    0.593403518
    0.801587462    0.424603164    0.000000022
    0.182539940    0.329365075    0.118680738
    0.563492298    0.234126925    0.237361446
    0.944444656    0.138888776    0.356042147
    0.325397491    0.043650545    0.474722803
    0.134921074    0.091269650    0.593403578
    0.230158791    0.567460358    0.000000039
    0.611111224    0.472222179    0.118680723
    0.992063642    0.376984060    0.237361386
    0.373016000    0.281745911    0.356042147
    0.753968596    0.186507702    0.474722832
    0.563492537    0.234126717    0.593403518
    0.658730268    0.710317433    0.000000035
    0.039682746    0.615079284    0.118680708
    0.420635104    0.519841194    0.237361401
    0.801587582    0.424603075    0.356042147
    0.182540178    0.329364836    0.474722832
    0.992063999    0.376983821    0.593403518
    0.087301657    0.853174627    0.000000032
    0.468254060    0.757936418    0.118680723
    0.849206567    0.662698269    0.237361401
    0.230158925    0.567460179    0.356042117
    0.611111522    0.472221971    0.474722803
    0.325396925    0.043650761    0.029670188
    0.706349432    0.948412657    0.148350880
    0.087301731    0.853174508    0.267031550
    0.468254328    0.757936299    0.385712266
    0.849206567    0.662698209    0.504392982
    0.753968418    0.186507910    0.029670177
    0.134920835    0.091269769    0.148350880
    0.515873313    0.996031702    0.267031550
    0.896825671    0.900793433    0.385712266
    0.277778387    0.805555284    0.504392982
    0.182539731    0.329365045    0.029670184
    0.563492239    0.234126896    0.148350880
    0.944444656    0.138888747    0.267031580
    0.325397134    0.043650605    0.385712266
    0.706349611    0.948412478    0.504392982
    0.611111224    0.472222239    0.029670184
    0.992063701    0.376984060    0.148350880
    0.373016238    0.281745940    0.267031580
    0.753968596    0.186507747    0.385712266
    0.134920835    0.091269627    0.504392982
    0.039682508    0.615079403    0.029670194
    0.420634985    0.519841254    0.148350894
    0.801587582    0.424603134    0.267031580
    0.182539940    0.329364926    0.385712266
    0.563492298    0.234126821    0.504392982
    0.468254030    0.757936478    0.029670205
    0.849206507    0.662698388    0.148350894
    0.230158925    0.567460179    0.267031580
    0.611111522    0.472222060    0.385712266
    0.992063761    0.376983911    0.504392922
    0.896825433    0.900793672    0.029670211
    0.277777910    0.805555522    0.148350909
    0.658730388    0.710317433    0.267031610
    0.039682865    0.615079224    0.385712296
    0.420635223    0.519841075    0.504392982
    0.634921074    0.591269612    0.593403518
    0.730158806    0.067460321    0.000000063
    0.111111164    0.972222149    0.118680775
    0.492063642    0.876984060    0.237361401
    0.873016119    0.781745911    0.356042176
    0.253968716    0.686507642    0.474722922
    0.063492298    0.734126687    0.593403518
    0.158730209    0.210317448    0.000000035
    0.539682686    0.115079299    0.118680738
    0.920635104    0.019841198    0.237361416
    0.301587582    0.924602985    0.356042147
    0.682540178    0.829364896    0.474722832
    0.492063999    0.876983762    0.593403518
    0.587301672    0.353174597    0.000000034
    0.968254149    0.257936448    0.118680753
    0.349206448    0.162698269    0.237361401
    0.730159044    0.067460060    0.356042027
    0.111111403    0.972222030    0.474722773
    0.920635223    0.019841053    0.593403459
    0.015873073    0.496031731    0.000000035
    0.396825552    0.400793582    0.118680730
    0.777777970    0.305555463    0.237361446
    0.158730388    0.210317284    0.356042117
    0.539683104    0.115079165    0.474722832
    0.349206686    0.162698179    0.593403518
    0.444444567    0.638888955    0.000000060
    0.825397015    0.543650746    0.118680738
    0.206349373    0.448412597    0.237361401
    0.587301970    0.353174508    0.356042147
    0.968254566    0.257936299    0.474722892
    0.777778387    0.305555314    0.593403518
    0.873015940    0.781746030    0.000000055
    0.253968358    0.686507881    0.118680753
    0.634920835    0.591269672    0.237361446
    0.015873194    0.496031553    0.356042117
    0.396825790    0.400793493    0.474722832
    0.206349611    0.448412418    0.593403518
    0.301587343    0.924603224    0.000000000
    0.682539761    0.829365075    0.118680693
    0.063492298    0.734126866    0.237361401
    0.444444656    0.638888776    0.356042027
    0.825397253    0.543650627    0.474722773
    0.539682686    0.115079328    0.029670199
    0.920635164    0.019841203    0.148350894
    0.301587582    0.924602985    0.267031550
    0.682540178    0.829364836    0.385712296
    0.063492537    0.734126747    0.504392922
    0.968254089    0.257936448    0.029670194
    0.349206686    0.162698314    0.148350880
    0.730159163    0.067460164    0.267031610
    0.111111641    0.972222090    0.385712266
    0.492063999    0.876983881    0.504392922
    0.396825492    0.400793612    0.029670194
    0.777777970    0.305555463    0.148350880
    0.158730507    0.210317284    0.267031580
    0.539682984    0.115079142    0.385712296
    0.920635343    0.019841030    0.504392922
    0.825396955    0.543650746    0.029670214
    0.206349492    0.448412567    0.148350880
    0.587301970    0.353174388    0.267031580
    0.968254328    0.257936388    0.385712296
    0.349206686    0.162698165    0.504392922
    0.253968328    0.686507940    0.029670188
    0.634920776    0.591269791    0.148350894
    0.015873194    0.496031702    0.267031580
    0.396825790    0.400793493    0.385712296
    0.777778149    0.305555373    0.504392922
    0.682539701    0.829365015    0.029670177
    0.063492298    0.734126866    0.148350924
    0.444444656    0.638888717    0.267031610
    0.825397253    0.543650568    0.385712266
    0.206349611    0.448412448    0.504392922
    0.111111201    0.972222149    0.029670192
    0.492063671    0.876984000    0.148350865
    0.873016119    0.781745911    0.267031550
    0.253968716    0.686507702    0.385712266
    0.634921074    0.591269612    0.504392982
    0.134921074    0.591269553    0.593403518
    0.230158776    0.067460306    0.000000044
    0.611111283    0.972222149    0.118680730
    0.992063701    0.876984000    0.237361446
    0.373016119    0.781745911    0.356042117
    0.753968716    0.686507702    0.474722832
    0.563492537    0.734126687    0.593403518
    0.658730268    0.210317433    0.000000025
    0.039682746    0.115079314    0.118680753
    0.420635223    0.019841187    0.237361386
    0.801587582    0.924602985    0.356042027
    0.182540178    0.829364777    0.474722803
    0.992063880    0.876983821    0.593403459
    0.087301634    0.353174597    0.000000057
    0.468254089    0.257936448    0.118680738
    0.849206507    0.162698328    0.237361446
    0.230159044    0.067460164    0.356042117
    0.611111522    0.972221971    0.474722892
    0.420635462    0.019840980    0.593403518
    0.515873075    0.496031731    0.000000046
    0.896825612    0.400793612    0.118680753
    0.277777910    0.305555463    0.237361401
    0.658730507    0.210317239    0.356042117
    0.039682865    0.115079090    0.474722773
    0.849206924    0.162698299    0.593403518
    0.944444537    0.638888836    0.000000038
    0.325397015    0.543650687    0.118680723
    0.706349492    0.448412567    0.237361416
    0.087301731    0.353174448    0.356042117
    0.468254328    0.257936299    0.474722832
    0.277778149    0.305555344    0.593403518
    0.373015940    0.781746030    0.000000028
    0.753968358    0.686507881    0.118680701
    0.134920835    0.591269732    0.237361401
    0.515873194    0.496031612    0.356042027
    0.896825671    0.400793403    0.474722803
    0.706349611    0.448412538    0.593403518
    0.801587403    0.924603164    0.000000028
    0.182539821    0.829365015    0.118680701
    0.563492298    0.734126866    0.237361401
    0.944444656    0.638888776    0.356042027
    0.325397253    0.543650627    0.474722803
    0.039682508    0.115079306    0.029670216
    0.420634985    0.019841196    0.148350924
    0.801587343    0.924603105    0.267031610
    0.182539940    0.829364836    0.385712296
    0.563492537    0.734126806    0.504393041
    0.468254000    0.257936507    0.029670214
    0.849206388    0.162698388    0.148350894
    0.230158806    0.067460179    0.267031610
    0.611111403    0.972222030    0.385712296
    0.992063999    0.876983941    0.504393041
    0.896825492    0.400793672    0.029670229
    0.277777910    0.305555463    0.148350909
    0.658730268    0.210317343    0.267031640
    0.039683104    0.115079246    0.385712326
    0.420635462    0.019841013    0.504393041
    0.325396925    0.543650746    0.029670233
    0.706349313    0.448412627    0.148350894
    0.087301850    0.353174478    0.267031580
    0.468254447    0.257936358    0.385712296
    0.849206805    0.162698165    0.504393041
    0.753968239    0.686507881    0.029670196
    0.134920716    0.591269732    0.148350924
    0.515873075    0.496031642    0.267031610
    0.896825671    0.400793463    0.385712266
    0.277778387    0.305555373    0.504393041
    0.182539761    0.829365015    0.029670227
    0.563492179    0.734126925    0.148350909
    0.944444656    0.638888657    0.267031610
    0.325397253    0.543650568    0.385712326
    0.706349730    0.448412389    0.504393041
    0.611111164    0.972222149    0.029670212
    0.992063642    0.876983941    0.148350894
    0.373016000    0.781745791    0.267031610
    0.753968716    0.686507642    0.385712326
    0.134921074    0.591269493    0.504393041
    0.014827028    0.000000000    0.593403578
    0.348160386    0.000000000    0.774113059
    0.681493878    0.000000000    0.954822659
    0.681493700    0.333333343    0.593403578
    0.014827132    0.333333343    0.774113059
    0.348160625    0.333333343    0.954822659
    0.348160386    0.666666687    0.593403578
    0.681493700    0.666666687    0.774113059
    0.014827251    0.666666687    0.954822659
    0.348160416    0.000000000    0.638581038
    0.681493759    0.000000000    0.819290459
    0.014827251    0.000000000    1.000000119
    0.014827013    0.333333343    0.638581038
    0.348160386    0.333333343    0.819290459
    0.681493878    0.333333343    1.000000119
    0.681493759    0.666666687    0.638580978
    0.014827132    0.666666687    0.819290459
    0.348160625    0.666666687    1.000000119
    0.348160386    0.166666672    0.593403578
    0.681493759    0.166666672    0.774113059
    0.014827132    0.166666672    0.954822659
    0.014827028    0.500000000    0.593403578
    0.348160386    0.500000000    0.774113059
    0.681493878    0.500000000    0.954822659
    0.681493700    0.833333373    0.593403578
    0.014827132    0.833333373    0.774113059
    0.348160505    0.833333373    0.954822659
    0.681493819    0.166666687    0.638580978
    0.014827251    0.166666687    0.819290400
    0.348160625    0.166666687    1.000000000
    0.348160386    0.500000000    0.638580978
    0.681493878    0.500000000    0.819290459
    0.014827251    0.500000000    1.000000000
    0.014827132    0.833333433    0.638580978
    0.348160505    0.833333433    0.819290400
    0.681493759    0.833333433    0.999999881
    0.514827013    0.000000000    0.593403578
    0.848160446    0.000000000    0.774113059
    0.181493878    0.000000000    0.954822659
    0.181493700    0.333333343    0.593403578
    0.514827073    0.333333343    0.774113059
    0.848160565    0.333333343    0.954822659
    0.848160386    0.666666687    0.593403578
    0.181493759    0.666666687    0.774113059
    0.514827251    0.666666687    0.954822659
    0.848160386    0.000000014    0.638580978
    0.181493878    0.000000014    0.819290459
    0.514827251    0.000000014    1.000000000
    0.514827073    0.333333343    0.638580978
    0.848160505    0.333333343    0.819290459
    0.181493878    0.333333343    1.000000000
    0.181493640    0.666666687    0.638580978
    0.514827073    0.666666687    0.819290400
    0.848160386    0.666666687    1.000000000
    0.848160386    0.166666672    0.593403578
    0.181493759    0.166666672    0.774113059
    0.514827251    0.166666672    0.954822659
    0.514827013    0.500000000    0.593403578
    0.848160386    0.500000000    0.774113059
    0.181493878    0.500000000    0.954822659
    0.181493714    0.833333313    0.593403578
    0.514827073    0.833333313    0.774113059
    0.848160505    0.833333313    0.954822659
    0.181493640    0.166666687    0.638580978
    0.514827073    0.166666687    0.819290459
    0.848160505    0.166666687    1.000000119
    0.848160446    0.500000000    0.638580978
    0.181493878    0.500000000    0.819290459
    0.514827251    0.500000000    1.000000119
    0.514827013    0.833333373    0.638581038
    0.848160386    0.833333373    0.819290459
    0.181493878    0.833333373    1.000000119
