Ge+Sn                                   
   1.00000000000000     
    11.3156003950000006    0.0000000000000000    0.0000000000000000
   -11.3156003950000006   16.0026760099999983    0.0000000000000000
     0.0000000000000000    0.0000000000000000   25.8009395599999998
   Ge   Sn
    96    72
Direct
  0.9853314160000011  0.4559941589999994  0.0000000180000015
  0.8603314160000011  0.0809941369999976  0.0775295349999965
  0.7353314160000011  0.7059941289999969  0.1550590690000035
  0.6103314160000011  0.3309942480000032  0.2325885300000010
  0.4853313569999997  0.9559941289999969  0.3101180789999987
  0.3603313569999997  0.5809941289999969  0.3876476289999999
  0.4853313859999986  0.4559941589999994  0.0000000180000015
  0.3603314160000011  0.0809941369999976  0.0775295349999965
  0.2353313569999997  0.7059941289999969  0.1550590690000035
  0.1103313790000016  0.3309942480000032  0.2325885300000010
  0.9853314759999989  0.9559941289999969  0.3101180789999987
  0.8603314160000011  0.5809941289999969  0.3876476289999999
  0.9853313569999997  0.9559941289999969  0.0000000160000013
  0.8603314160000011  0.5809941289999969  0.0775295420000006
  0.7353314160000011  0.2059941289999969  0.1550590539999988
  0.6103314160000011  0.8309943679999989  0.2325885300000010
  0.4853314160000011  0.4559941289999969  0.3101181090000011
  0.3603313569999997  0.0809941289999969  0.3876475989999975
  0.4853313859999986  0.9559941289999969  0.0000000160000013
  0.3603313569999997  0.5809941289999969  0.0775295420000006
  0.2353314460000036  0.2059941289999969  0.1550590539999988
  0.1103314909999966  0.8309943679999989  0.2325885300000010
  0.9853312970000019  0.4559941289999969  0.3101181090000011
  0.8603313569999997  0.0809941289999969  0.3876475989999975
  0.2353313710000009  0.7059941289999969  0.0000000209999982
  0.1103313710000009  0.3309941289999969  0.0775295349999965
  0.9853313569999997  0.9559941289999969  0.1550590539999988
  0.8603313569999997  0.5809942480000032  0.2325885589999999
  0.7353313569999997  0.2059941890000019  0.3101181090000011
  0.6103312970000019  0.8309941289999969  0.3876476289999999
  0.7353313569999997  0.7059941289999969  0.0000000209999982
  0.6103313569999997  0.3309941289999969  0.0775295349999965
  0.4853313269999973  0.9559941289999969  0.1550590539999988
  0.3603313569999997  0.5809942480000032  0.2325885589999999
  0.2353313710000009  0.2059941890000019  0.3101181090000011
  0.1103313639999968  0.8309941289999969  0.3876476289999999
  0.2353313859999986  0.2059941440000017  0.0000000169999979
  0.1103313939999992  0.8309941289999969  0.0775295349999965
  0.9853313569999997  0.4559941289999969  0.1550590539999988
  0.8603313569999997  0.0809942480000032  0.2325885589999999
  0.7353314759999989  0.7059942480000032  0.3101180789999987
  0.6103313569999997  0.3309941289999969  0.3876475989999975
  0.7353312970000019  0.2059941440000017  0.0000000169999979
  0.6103313569999997  0.8309941289999969  0.0775295349999965
  0.4853313859999986  0.4559941289999969  0.1550590539999988
  0.3603312970000019  0.0809942480000032  0.2325885589999999
  0.2353313859999986  0.7059942480000032  0.3101180789999987
  0.1103312600000024  0.3309941289999969  0.3876475989999975
  0.9853314160000011  0.5809941890000019  0.0000000260000022
  0.8603314160000011  0.2059941589999994  0.0775295349999965
  0.7353313569999997  0.8309941289999969  0.1550590539999988
  0.6103314160000011  0.4559942480000032  0.2325885300000010
  0.4853313569999997  0.0809941890000019  0.3101181090000011
  0.3603313569999997  0.7059941289999969  0.3876476289999999
  0.4853314160000011  0.5809941890000019  0.0000000260000022
  0.3603314160000011  0.2059941589999994  0.0775295349999965
  0.2353314010000034  0.8309941289999969  0.1550590539999988
  0.1103314309999988  0.4559942480000032  0.2325885300000010
  0.9853313569999997  0.0809941890000019  0.3101181090000011
  0.8603314160000011  0.7059941289999969  0.3876476289999999
  0.9853313569999997  0.0809941369999976  0.0000000129999975
  0.8603314160000011  0.7059941289999969  0.0775295349999965
  0.7353314160000011  0.3309941289999969  0.1550590539999988
  0.6103314160000011  0.9559942480000032  0.2325885589999999
  0.4853314160000011  0.5809942480000032  0.3101180789999987
  0.3603313569999997  0.2059940099999977  0.3876475989999975
  0.4853313859999986  0.0809941369999976  0.0000000129999975
  0.3603313569999997  0.7059941289999969  0.0775295349999965
  0.2353314010000034  0.3309941289999969  0.1550590539999988
  0.1103314460000036  0.9559942480000032  0.2325885589999999
  0.9853315350000003  0.5809942480000032  0.3101180789999987
  0.8603312369999969  0.2059940099999977  0.3876475989999975
  0.2353314460000036  0.8309941890000019  0.0000000000000000
  0.1103314160000011  0.4559941890000019  0.0775295349999965
  0.9853314160000011  0.0809941739999971  0.1550590539999988
  0.8603314160000011  0.7059943080000011  0.2325885300000010
  0.7353314160000011  0.3309942480000032  0.3101180789999987
  0.6103314160000011  0.9559941289999969  0.3876475690000021
  0.7353314160000011  0.8309941890000019  0.0000000000000000
  0.6103314160000011  0.4559941890000019  0.0775295349999965
  0.4853313859999986  0.0809941739999971  0.1550590539999988
  0.3603314160000011  0.7059943080000011  0.2325885300000010
  0.2353314160000011  0.3309942480000032  0.3101180789999987
  0.1103313569999997  0.9559941289999969  0.3876475690000021
  0.2353313710000009  0.3309941289999969  0.0000000180000015
  0.1103313790000016  0.9559941289999969  0.0775295420000006
  0.9853313569999997  0.5809941289999969  0.1550590539999988
  0.8603314160000011  0.2059942480000032  0.2325885589999999
  0.7353313569999997  0.8309941289999969  0.3101180789999987
  0.6103314160000011  0.4559941289999969  0.3876475989999975
  0.7353313569999997  0.3309941289999969  0.0000000180000015
  0.6103313569999997  0.9559941289999969  0.0775295420000006
  0.4853313859999986  0.5809941289999969  0.1550590539999988
  0.3603314160000011  0.2059942480000032  0.2325885589999999
  0.2353314610000012  0.8309941289999969  0.3101180789999987
  0.1103313039999989  0.4559941289999969  0.3876475989999975
  0.2320204970000006  0.2384307379999981  0.4715180099999969
  0.9820204970000006  0.9884307379999981  0.5604403609999977
  0.7320203780000014  0.7384306189999990  0.6493626829999997
  0.4820203190000001  0.4884304999999998  0.7382849449999966
  0.2320202590000022  0.2384304999999998  0.8272072079999973
  0.9820202590000022  0.9884303810000006  0.9161295890000005
  0.2320204970000006  0.9050974849999989  0.4715180099999969
  0.9820204970000006  0.6550974250000010  0.5604403609999977
  0.7320203780000014  0.4050972459999969  0.6493626829999997
  0.4820203190000001  0.1550971269999977  0.7382849449999966
  0.2320202590000022  0.9050971269999977  0.8272072079999973
  0.9820202590000022  0.6550970079999985  0.9161295890000005
  0.2320204970000006  0.5717641119999968  0.4715180099999969
  0.9820204970000006  0.3217639920000011  0.5604403609999977
  0.7320203780000014  0.0717638730000019  0.6493626829999997
  0.4820203190000001  0.8217637540000027  0.7382849449999966
  0.2320202590000022  0.5717637540000027  0.8272072079999973
  0.9820202590000022  0.3217636350000035  0.9161295890000005
  0.7320204970000006  0.4050974849999989  0.4715180099999969
  0.4820204970000006  0.1550973650000032  0.5604403609999977
  0.2320203780000014  0.9050973060000018  0.6493626239999983
  0.9820203780000014  0.6550971870000026  0.7382849449999966
  0.7320203190000001  0.4050971269999977  0.8272072079999973
  0.4820202590000022  0.1550970079999985  0.9161295890000005
  0.7320204970000006  0.0717641119999968  0.4715180099999969
  0.4820204970000006  0.8217640519999989  0.5604403609999977
  0.2320203780000014  0.5717639920000011  0.6493626239999983
  0.9820203780000014  0.3217637540000027  0.7382849449999966
  0.7320203190000001  0.0717637540000027  0.8272072079999973
  0.4820202590000022  0.8217636939999977  0.9161295890000005
  0.7320204970000006  0.7384307980000031  0.4715180099999969
  0.4820204970000006  0.4884307379999981  0.5604403609999977
  0.2320203780000014  0.2384306189999990  0.6493626239999983
  0.9820203780000014  0.9884304400000019  0.7382849449999966
  0.7320203190000001  0.7384303810000006  0.8272072079999973
  0.4820202590000022  0.4884302620000014  0.9161295890000005
  0.9820204970000006  0.2384308580000010  0.4715180099999969
  0.7320204970000006  0.9884308580000010  0.5604404210000027
  0.4820203780000014  0.7384306789999968  0.6493626829999997
  0.2320203780000014  0.4884304999999998  0.7382849449999966
  0.9820202590000022  0.2384304999999998  0.8272072669999986
  0.7320202590000022  0.9884304400000019  0.9161295890000005
  0.9820204970000006  0.9050974849999989  0.4715180099999969
  0.7320204970000006  0.6550973650000032  0.5604404210000027
  0.4820203780000014  0.4050972459999969  0.6493626829999997
  0.2320203780000014  0.1550971269999977  0.7382849449999966
  0.9820202590000022  0.9050971269999977  0.8272072669999986
  0.7320202590000022  0.6550970079999985  0.9161295890000005
  0.9820204970000006  0.5717641119999968  0.4715180099999969
  0.7320204970000006  0.3217639920000011  0.5604404210000027
  0.4820203780000014  0.0717639920000011  0.6493626829999997
  0.2320203780000014  0.8217638129999969  0.7382849449999966
  0.9820202590000022  0.5717637540000027  0.8272072669999986
  0.7320202590000022  0.3217637540000027  0.9161295890000005
  0.4820204970000006  0.4050974849999989  0.4715180099999969
  0.2320204970000006  0.1550973650000032  0.5604404210000027
  0.9820203780000014  0.9050971870000026  0.6493626829999997
  0.7320202590000022  0.6550970669999998  0.7382849449999966
  0.4820203190000001  0.4050970079999985  0.8272072079999973
  0.2320202590000022  0.1550970079999985  0.9161295890000005
  0.4820204970000006  0.0717641119999968  0.4715180099999969
  0.2320204970000006  0.8217640519999989  0.5604404210000027
  0.9820203780000014  0.5717639920000011  0.6493626829999997
  0.7320202590000022  0.3217637540000027  0.7382849449999966
  0.4820203190000001  0.0717637540000027  0.8272072079999973
  0.2320202590000022  0.8217636939999977  0.9161295890000005
  0.4820204970000006  0.7384307379999981  0.4715180099999969
  0.2320204970000006  0.4884307379999981  0.5604404210000027
  0.9820203780000014  0.2384306189999990  0.6493626829999997
  0.7320202590000022  0.9884304400000019  0.7382849449999966
  0.4820203190000001  0.7384304999999998  0.8272072079999973
  0.2320202590000022  0.4884302620000014  0.9161295890000005
 
  0.00000000E+00  0.00000000E+00  0.00000000E+00
  0.00000000E+00  0.00000000E+00  0.00000000E+00
  0.00000000E+00  0.00000000E+00  0.00000000E+00
  0.00000000E+00  0.00000000E+00  0.00000000E+00
  0.00000000E+00  0.00000000E+00  0.00000000E+00
  0.00000000E+00  0.00000000E+00  0.00000000E+00
  0.00000000E+00  0.00000000E+00  0.00000000E+00
  0.00000000E+00  0.00000000E+00  0.00000000E+00
  0.00000000E+00  0.00000000E+00  0.00000000E+00
  0.00000000E+00  0.00000000E+00  0.00000000E+00
  0.00000000E+00  0.00000000E+00  0.00000000E+00
  0.00000000E+00  0.00000000E+00  0.00000000E+00
  0.00000000E+00  0.00000000E+00  0.00000000E+00
  0.00000000E+00  0.00000000E+00  0.00000000E+00
  0.00000000E+00  0.00000000E+00  0.00000000E+00
  0.00000000E+00  0.00000000E+00  0.00000000E+00
  0.00000000E+00  0.00000000E+00  0.00000000E+00
  0.00000000E+00  0.00000000E+00  0.00000000E+00
  0.00000000E+00  0.00000000E+00  0.00000000E+00
  0.00000000E+00  0.00000000E+00  0.00000000E+00
  0.00000000E+00  0.00000000E+00  0.00000000E+00
  0.00000000E+00  0.00000000E+00  0.00000000E+00
  0.00000000E+00  0.00000000E+00  0.00000000E+00
  0.00000000E+00  0.00000000E+00  0.00000000E+00
  0.00000000E+00  0.00000000E+00  0.00000000E+00
  0.00000000E+00  0.00000000E+00  0.00000000E+00
  0.00000000E+00  0.00000000E+00  0.00000000E+00
  0.00000000E+00  0.00000000E+00  0.00000000E+00
  0.00000000E+00  0.00000000E+00  0.00000000E+00
  0.00000000E+00  0.00000000E+00  0.00000000E+00
  0.00000000E+00  0.00000000E+00  0.00000000E+00
  0.00000000E+00  0.00000000E+00  0.00000000E+00
  0.00000000E+00  0.00000000E+00  0.00000000E+00
  0.00000000E+00  0.00000000E+00  0.00000000E+00
  0.00000000E+00  0.00000000E+00  0.00000000E+00
  0.00000000E+00  0.00000000E+00  0.00000000E+00
  0.00000000E+00  0.00000000E+00  0.00000000E+00
  0.00000000E+00  0.00000000E+00  0.00000000E+00
  0.00000000E+00  0.00000000E+00  0.00000000E+00
  0.00000000E+00  0.00000000E+00  0.00000000E+00
  0.00000000E+00  0.00000000E+00  0.00000000E+00
  0.00000000E+00  0.00000000E+00  0.00000000E+00
  0.00000000E+00  0.00000000E+00  0.00000000E+00
  0.00000000E+00  0.00000000E+00  0.00000000E+00
  0.00000000E+00  0.00000000E+00  0.00000000E+00
  0.00000000E+00  0.00000000E+00  0.00000000E+00
  0.00000000E+00  0.00000000E+00  0.00000000E+00
  0.00000000E+00  0.00000000E+00  0.00000000E+00
  0.00000000E+00  0.00000000E+00  0.00000000E+00
  0.00000000E+00  0.00000000E+00  0.00000000E+00
  0.00000000E+00  0.00000000E+00  0.00000000E+00
  0.00000000E+00  0.00000000E+00  0.00000000E+00
  0.00000000E+00  0.00000000E+00  0.00000000E+00
  0.00000000E+00  0.00000000E+00  0.00000000E+00
  0.00000000E+00  0.00000000E+00  0.00000000E+00
  0.00000000E+00  0.00000000E+00  0.00000000E+00
  0.00000000E+00  0.00000000E+00  0.00000000E+00
  0.00000000E+00  0.00000000E+00  0.00000000E+00
  0.00000000E+00  0.00000000E+00  0.00000000E+00
  0.00000000E+00  0.00000000E+00  0.00000000E+00
  0.00000000E+00  0.00000000E+00  0.00000000E+00
  0.00000000E+00  0.00000000E+00  0.00000000E+00
  0.00000000E+00  0.00000000E+00  0.00000000E+00
  0.00000000E+00  0.00000000E+00  0.00000000E+00
  0.00000000E+00  0.00000000E+00  0.00000000E+00
  0.00000000E+00  0.00000000E+00  0.00000000E+00
  0.00000000E+00  0.00000000E+00  0.00000000E+00
  0.00000000E+00  0.00000000E+00  0.00000000E+00
  0.00000000E+00  0.00000000E+00  0.00000000E+00
  0.00000000E+00  0.00000000E+00  0.00000000E+00
  0.00000000E+00  0.00000000E+00  0.00000000E+00
  0.00000000E+00  0.00000000E+00  0.00000000E+00
  0.00000000E+00  0.00000000E+00  0.00000000E+00
  0.00000000E+00  0.00000000E+00  0.00000000E+00
  0.00000000E+00  0.00000000E+00  0.00000000E+00
  0.00000000E+00  0.00000000E+00  0.00000000E+00
  0.00000000E+00  0.00000000E+00  0.00000000E+00
  0.00000000E+00  0.00000000E+00  0.00000000E+00
  0.00000000E+00  0.00000000E+00  0.00000000E+00
  0.00000000E+00  0.00000000E+00  0.00000000E+00
  0.00000000E+00  0.00000000E+00  0.00000000E+00
  0.00000000E+00  0.00000000E+00  0.00000000E+00
  0.00000000E+00  0.00000000E+00  0.00000000E+00
  0.00000000E+00  0.00000000E+00  0.00000000E+00
  0.00000000E+00  0.00000000E+00  0.00000000E+00
  0.00000000E+00  0.00000000E+00  0.00000000E+00
  0.00000000E+00  0.00000000E+00  0.00000000E+00
  0.00000000E+00  0.00000000E+00  0.00000000E+00
  0.00000000E+00  0.00000000E+00  0.00000000E+00
  0.00000000E+00  0.00000000E+00  0.00000000E+00
  0.00000000E+00  0.00000000E+00  0.00000000E+00
  0.00000000E+00  0.00000000E+00  0.00000000E+00
  0.00000000E+00  0.00000000E+00  0.00000000E+00
  0.00000000E+00  0.00000000E+00  0.00000000E+00
  0.00000000E+00  0.00000000E+00  0.00000000E+00
  0.00000000E+00  0.00000000E+00  0.00000000E+00
  0.00000000E+00  0.00000000E+00  0.00000000E+00
  0.00000000E+00  0.00000000E+00  0.00000000E+00
  0.00000000E+00  0.00000000E+00  0.00000000E+00
  0.00000000E+00  0.00000000E+00  0.00000000E+00
  0.00000000E+00  0.00000000E+00  0.00000000E+00
  0.00000000E+00  0.00000000E+00  0.00000000E+00
  0.00000000E+00  0.00000000E+00  0.00000000E+00
  0.00000000E+00  0.00000000E+00  0.00000000E+00
  0.00000000E+00  0.00000000E+00  0.00000000E+00
  0.00000000E+00  0.00000000E+00  0.00000000E+00
  0.00000000E+00  0.00000000E+00  0.00000000E+00
  0.00000000E+00  0.00000000E+00  0.00000000E+00
  0.00000000E+00  0.00000000E+00  0.00000000E+00
  0.00000000E+00  0.00000000E+00  0.00000000E+00
  0.00000000E+00  0.00000000E+00  0.00000000E+00
  0.00000000E+00  0.00000000E+00  0.00000000E+00
  0.00000000E+00  0.00000000E+00  0.00000000E+00
  0.00000000E+00  0.00000000E+00  0.00000000E+00
  0.00000000E+00  0.00000000E+00  0.00000000E+00
  0.00000000E+00  0.00000000E+00  0.00000000E+00
  0.00000000E+00  0.00000000E+00  0.00000000E+00
  0.00000000E+00  0.00000000E+00  0.00000000E+00
  0.00000000E+00  0.00000000E+00  0.00000000E+00
  0.00000000E+00  0.00000000E+00  0.00000000E+00
  0.00000000E+00  0.00000000E+00  0.00000000E+00
  0.00000000E+00  0.00000000E+00  0.00000000E+00
  0.00000000E+00  0.00000000E+00  0.00000000E+00
  0.00000000E+00  0.00000000E+00  0.00000000E+00
  0.00000000E+00  0.00000000E+00  0.00000000E+00
  0.00000000E+00  0.00000000E+00  0.00000000E+00
  0.00000000E+00  0.00000000E+00  0.00000000E+00
  0.00000000E+00  0.00000000E+00  0.00000000E+00
  0.00000000E+00  0.00000000E+00  0.00000000E+00
  0.00000000E+00  0.00000000E+00  0.00000000E+00
  0.00000000E+00  0.00000000E+00  0.00000000E+00
  0.00000000E+00  0.00000000E+00  0.00000000E+00
  0.00000000E+00  0.00000000E+00  0.00000000E+00
  0.00000000E+00  0.00000000E+00  0.00000000E+00
  0.00000000E+00  0.00000000E+00  0.00000000E+00
  0.00000000E+00  0.00000000E+00  0.00000000E+00
  0.00000000E+00  0.00000000E+00  0.00000000E+00
  0.00000000E+00  0.00000000E+00  0.00000000E+00
  0.00000000E+00  0.00000000E+00  0.00000000E+00
  0.00000000E+00  0.00000000E+00  0.00000000E+00
  0.00000000E+00  0.00000000E+00  0.00000000E+00
  0.00000000E+00  0.00000000E+00  0.00000000E+00
  0.00000000E+00  0.00000000E+00  0.00000000E+00
  0.00000000E+00  0.00000000E+00  0.00000000E+00
  0.00000000E+00  0.00000000E+00  0.00000000E+00
  0.00000000E+00  0.00000000E+00  0.00000000E+00
  0.00000000E+00  0.00000000E+00  0.00000000E+00
  0.00000000E+00  0.00000000E+00  0.00000000E+00
  0.00000000E+00  0.00000000E+00  0.00000000E+00
  0.00000000E+00  0.00000000E+00  0.00000000E+00
  0.00000000E+00  0.00000000E+00  0.00000000E+00
  0.00000000E+00  0.00000000E+00  0.00000000E+00
  0.00000000E+00  0.00000000E+00  0.00000000E+00
  0.00000000E+00  0.00000000E+00  0.00000000E+00
  0.00000000E+00  0.00000000E+00  0.00000000E+00
  0.00000000E+00  0.00000000E+00  0.00000000E+00
  0.00000000E+00  0.00000000E+00  0.00000000E+00
  0.00000000E+00  0.00000000E+00  0.00000000E+00
  0.00000000E+00  0.00000000E+00  0.00000000E+00
  0.00000000E+00  0.00000000E+00  0.00000000E+00
  0.00000000E+00  0.00000000E+00  0.00000000E+00
  0.00000000E+00  0.00000000E+00  0.00000000E+00
  0.00000000E+00  0.00000000E+00  0.00000000E+00
  0.00000000E+00  0.00000000E+00  0.00000000E+00
  0.00000000E+00  0.00000000E+00  0.00000000E+00
  0.00000000E+00  0.00000000E+00  0.00000000E+00
  0.00000000E+00  0.00000000E+00  0.00000000E+00
  0.00000000E+00  0.00000000E+00  0.00000000E+00
