Ge+Ge
    1.000000000
   12.651226044    0.000000000    0.000000000
    2.530245304   12.395620346    0.000000000
    0.000000000    0.000000000   13.933910370
Ge 
96
Direct
    0.784256577    0.489798665    0.414418638
    0.992590368    0.948132515    0.000000022
    0.950923562    0.656465769    0.082883760
    0.909256816    0.364798903    0.165767506
    0.867590070    0.073132217    0.248651221
    0.825923324    0.781465530    0.331534892
    0.842973709    0.502510905    0.582883716
    0.492590368    0.448132515    0.000000028
    0.450923622    0.156465769    0.082883760
    0.409256876    0.864798963    0.165767506
    0.509640455    0.419177681    0.500000000
    0.325923383    0.281465530    0.331534922
    0.384640455    0.294177651    0.500000000
    0.367590398    0.823132634    0.000000012
    0.325923622    0.531465828    0.082883760
    0.284256876    0.239799008    0.165767536
    0.242590174    0.948132396    0.248651192
    0.926306963    0.335844189    0.665767550
    0.884640455    0.794177651    0.500000000
    0.867590487    0.323132575    0.000000012
    0.825923681    0.031465776    0.082883760
    0.784256876    0.739798903    0.165767506
    0.092973590    0.252510905    0.582883716
    0.700923383    0.156465530    0.331534892
    0.884640455    0.794177651    0.500000000
    0.242590353    0.698132634    0.000000000
    0.200923592    0.406465799    0.082883753
    0.159256846    0.114798956    0.165767506
    0.842973709    0.502510905    0.582883716
    0.075923339    0.531465530    0.331534892
    0.676307023    0.585844219    0.665767550
    0.742590427    0.198132515    0.000000021
    0.700923622    0.906465709    0.082883768
    0.659256876    0.614798903    0.165767506
    0.617590249    0.323132336    0.248651221
    0.575923443    0.031465471    0.331534892
    0.592973650    0.752510905    0.582883716
    0.117590360    0.073132515    0.000000021
    0.075923599    0.781465769    0.082883760
    0.034256846    0.489798963    0.165767506
    0.992590070    0.198132217    0.248651221
    0.301306963    0.710844219    0.665767550
    0.409256607    0.114798844    0.414418697
    0.617590487    0.573132575    0.000000012
    0.575923622    0.281465828    0.082883753
    0.534256935    0.989799023    0.165767536
    0.492590189    0.698132277    0.248651251
    0.134640455    0.544177651    0.500000000
    0.926306605    0.085843921    0.914418697
    0.159256637    0.364798784    0.414418697
    0.742590129    0.448132336    0.248651192
    0.801306903    0.210844159    0.665767550
    0.509640157    0.169177413    0.748651266
    0.217973471    0.127510667    0.831534982
    0.426306605    0.585843921    0.914418697
    0.659256577    0.864798665    0.414418638
    0.909256577    0.614798784    0.414418697
    0.950923383    0.906465530    0.331534922
    0.009640217    0.669177413    0.748651266
    0.717973411    0.627510667    0.831534982
    0.801306725    0.460843980    0.914418697
    0.259640574    0.669177711    0.500000000
    0.967973769    0.627510905    0.582883716
    0.534256697    0.739798665    0.414418697
    0.384640336    0.544177473    0.748651266
    0.092973590    0.502510726    0.831534982
    0.301306605    0.960843921    0.914418578
    0.200923383    0.656465650    0.331534922
    0.467973709    0.127511024    0.582883716
    0.176306963    0.085844159    0.665767550
    0.884640276    0.044177532    0.748651266
    0.592973471    0.002510667    0.831534982
    0.676306665    0.335843891    0.914418697
    0.450923443    0.406465530    0.331534952
    0.117590085    0.823132396    0.248651177
    0.551306963    0.460844159    0.665767550
    0.259640217    0.419177413    0.748651147
    0.967973471    0.377510667    0.831534863
    0.176306605    0.835844040    0.914418697
    0.634640455    0.044177771    0.500000000
    0.342973709    0.002511024    0.582883716
    0.051306963    0.960844159    0.665767550
    0.759640217    0.919177532    0.748651266
    0.467973411    0.877510786    0.831534982
    0.051306605    0.210843921    0.914418697
    0.367590129    0.573132277    0.248651221
    0.217973709    0.377510905    0.582883716
    0.200923383    0.656465650    0.331534922
    0.634640157    0.294177413    0.748651147
    0.342973471    0.252510667    0.831534982
    0.551306725    0.710844040    0.914418697
    0.159256637    0.364798784    0.414418697
    0.717973709    0.877510905    0.582883716
    0.426306963    0.835844278    0.665767550
    0.134640217    0.794177532    0.748651266
    0.842973471    0.752510786    0.831534982
