Sn+Si
    1.000000000
   19.467599869    0.000000000    0.000000000
    0.000000000   19.467599869    0.000000000
    0.000000000    0.000000000   19.300252914
Sn  Si 
108     156
Direct
    0.995035112    0.666666687    0.000000000
    0.828368425    0.666666687    0.168111786
    0.900730491    0.521449208    0.534267545
    0.995035112    0.333333343    0.000000000
    0.035345793    0.694525957    0.886011779
    0.208422899    0.059910655    0.534267545
    0.419961095    0.617602944    0.886011779
    0.828368425    0.000000000    0.168111786
    0.631499708    0.175295234    0.534267545
    0.328368455    0.666666687    0.000000000
    0.161701739    0.666666687    0.168111786
    0.573807418    0.386833787    0.604616404
    0.328368455    0.333333343    0.000000000
    0.161701739    0.333333343    0.168111786
    0.995035112    0.333333343    0.336223543
    0.689191937    0.963756800    0.886011779
    0.161701739    0.000000000    0.168111786
    0.995035112    0.000000000    0.336223543
    0.535345733    0.194525957    0.886011779
    0.495035112    0.666666687    0.168111786
    0.328368455    0.666666687    0.336223543
    0.958422780    0.309910566    0.886011779
    0.496884257    0.002218366    0.886011779
    0.328368455    0.333333343    0.336223543
    0.661701798    0.000000000    0.000000000
    0.996884227    0.502218246    0.886011779
    0.328368455    0.000000000    0.336223543
    0.078368433    0.916666746    0.084055893
    0.911701798    0.916666746    0.252167612
    0.745035052    0.916666746    0.420279443
    0.766115010    0.348372102    0.886011779
    0.911701798    0.583333433    0.252167612
    0.745035052    0.583333433    0.420279443
    0.078368433    0.250000000    0.084055893
    0.911701798    0.250000000    0.252167612
    0.169961333    0.867603004    0.534267545
    0.411701769    0.916666746    0.084055893
    0.245035097    0.916666746    0.252167612
    0.078368381    0.916666746    0.420279443
    0.411701769    0.583333433    0.084055893
    0.246884346    0.252218425    0.534267545
    0.078368381    0.583333433    0.420279443
    0.411701769    0.250000000    0.084055893
    0.746884346    0.752218425    0.534267545
    0.439191937    0.213756800    0.534267545
    0.745035172    0.916666746    0.084055893
    0.578368545    0.916666746    0.252167612
    0.285345912    0.444526017    0.534267545
    0.745035172    0.583333433    0.084055893
    0.785345912    0.944526136    0.534267545
    0.708422780    0.559910774    0.534267545
    0.745035172    0.250000000    0.084055893
    0.578368545    0.250000000    0.252167612
    0.411701798    0.250000000    0.420279443
    0.161701769    0.833333313    0.000000000
    0.169961214    0.867602885    0.815662920
    0.516115069    0.598372281    0.534267545
    0.161701769    0.500000000    0.000000000
    0.073807359    0.886833668    0.886011779
    0.828368425    0.500000000    0.336223543
    0.343038082    0.232987538    0.886011779
    0.381499529    0.425295234    0.886011779
    0.828368425    0.166666672    0.336223543
    0.495035112    0.833333313    0.000000000
    0.328368425    0.833333313    0.168111786
    0.161701754    0.833333313    0.336223543
    0.495035112    0.500000000    0.000000000
    0.328368425    0.500000000    0.168111786
    0.161701754    0.500000000    0.336223543
    0.189191818    0.463756770    0.886011779
    0.328368425    0.166666672    0.168111786
    0.161701754    0.166666672    0.336223543
    0.828368545    0.833333313    0.000000000
    0.804576576    0.540679872    0.886011779
    0.495035201    0.833333313    0.336223543
    0.828368545    0.500000000    0.000000000
    0.843038082    0.732987523    0.886011779
    0.495035201    0.500000000    0.336223543
    0.828368545    0.166666672    0.000000000
    0.661701858    0.166666672    0.168111786
    0.495035201    0.166666672    0.336223543
    0.245035097    0.750000060    0.084055893
    0.078368433    0.750000060    0.252167612
    0.911701739    0.750000060    0.420279443
    0.823807359    0.136833668    0.815662920
    0.078368433    0.416666716    0.252167612
    0.093038201    0.482987642    0.534267545
    0.245035097    0.083333343    0.084055893
    0.078368433    0.083333343    0.252167612
    0.911701739    0.083333343    0.420279443
    0.578368485    0.750000060    0.084055893
    0.593038201    0.982987702    0.534267545
    0.245035127    0.750000060    0.420279443
    0.578368485    0.416666716    0.084055893
    0.411701858    0.416666716    0.252167612
    0.939192057    0.713756859    0.534267545
    0.578368485    0.083333343    0.084055893
    0.554576635    0.790679932    0.534267545
    0.245035127    0.083333343    0.420279443
    0.881499648    0.925295353    0.886011779
    0.823807478    0.136833906    0.534267545
    0.578368366    0.750000060    0.420279443
    0.150730371    0.271449059    0.886011779
    0.131499648    0.675295353    0.534267545
    0.578368366    0.416666716    0.420279443
    0.458422691    0.809910655    0.886011779
    0.919961333    0.117603064    0.604616404
    0.578368366    0.083333343    0.420279443
    0.078368381    0.250000000    0.420279443
    0.323807359    0.136833668    0.674965203
    0.208422661    0.059910536    0.815662920
    0.828368425    0.833333313    0.336223543
    0.400730371    0.521449149    0.674965203
    0.285345793    0.444526017    0.815662920
    0.669961214    0.367603004    0.534267545
    0.554576576    0.290679902    0.674965203
    0.439191937    0.213756800    0.815662920
    0.411701858    0.750000060    0.252167612
    0.477653503    0.906064570    0.674965203
    0.362268806    0.829141438    0.815662920
    0.245035097    0.250000000    0.252167612
    0.631499708    0.675295293    0.674965203
    0.516115010    0.598372161    0.815662920
    0.661701739    0.666666687    0.336223543
    0.785345793    0.444526047    0.674965203
    0.669961154    0.367602915    0.815662920
    0.054576635    0.290679932    0.534267545
    0.939191937    0.213756800    0.674965203
    0.245035097    0.416666716    0.084055893
    0.745035052    0.750000060    0.252167612
    0.708422780    0.059910774    0.674965203
    0.593038142    0.982987583    0.815662920
    0.977653623    0.906064570    0.534267545
    0.862268925    0.829141438    0.674965203
    0.746884227    0.752218306    0.815662920
    0.745035052    0.416666716    0.252167612
    0.016115069    0.598372221    0.674965203
    0.900730371    0.521449089    0.815662920
    0.411701798    0.916666746    0.420279443
    0.169961214    0.367602885    0.674965203
    0.054576516    0.290679753    0.815662920
    0.661701739    0.333333343    0.336223543
    0.093038201    0.982987583    0.674965203
    0.977653503    0.906064451    0.815662920
    0.362269044    0.829141498    0.534267545
    0.246884346    0.752218366    0.674965203
    0.131499648    0.675295234    0.815662920
    0.458422810    0.809910715    0.604616404
    0.343038201    0.732987583    0.745314062
    0.227653503    0.656064451    0.886011779
    0.612268925    0.579141498    0.604616404
    0.496884257    0.502218366    0.745314062
    0.995035052    0.166666672    0.168111786
    0.766115069    0.348372251    0.604616404
    0.650730431    0.271449119    0.745314062
    0.661701798    0.666666687    0.000000000
    0.535345852    0.194526076    0.604616404
    0.419961214    0.117602944    0.745314062
    0.304576516    0.040679812    0.886011779
    0.689192057    0.963756919    0.604616404
    0.573807359    0.886833787    0.745314062
    0.911701739    0.083333343    0.084055893
    0.843038201    0.732987702    0.604616404
    0.727653563    0.656064510    0.745314062
    0.612268925    0.579141378    0.886011779
    0.996884346    0.502218366    0.604616404
    0.881499648    0.425295234    0.745314062
    0.078368433    0.583333433    0.084055893
    0.150730491    0.271449149    0.604616404
    0.035345793    0.194525957    0.745314062
    0.919961154    0.117602825    0.886011779
    0.745035052    0.083333343    0.252167612
    0.804576635    0.040679932    0.745314062
    0.328368455    0.000000000    0.000000000
    0.073807478    0.886833847    0.604616404
    0.958422780    0.809910655    0.745314062
    0.661701858    0.500000000    0.168111786
    0.227653623    0.656064570    0.604616404
    0.112268925    0.579141378    0.745314062
    0.495035112    0.000000000    0.168111786
    0.381499767    0.425295353    0.604616404
    0.266115069    0.348372191    0.745314062
    0.911701739    0.416666716    0.084055893
    0.304576874    0.040679932    0.604616404
    0.189192176    0.963756859    0.745314062
    0.995035052    0.500000000    0.168111786
    0.477653563    0.406064570    0.534267545
    0.362268925    0.329141438    0.674965203
    0.246884227    0.252218306    0.815662920
    0.411701858    0.083333343    0.252167612
    0.439191937    0.713756859    0.674965203
    0.323807240    0.636833668    0.815662920
    0.411701798    0.583333433    0.420279443
    0.593038142    0.482987642    0.674965203
    0.477653444    0.406064510    0.815662920
    0.862268925    0.329141438    0.534267545
    0.746884286    0.252218306    0.674965203
    0.631499588    0.175295115    0.815662920
    0.661701739    0.000000000    0.336223543
    0.516115010    0.098372102    0.674965203
    0.400730371    0.021449089    0.815662920
    0.578368545    0.583333433    0.252167612
    0.669961214    0.867603004    0.674965203
    0.554576516    0.790679872    0.815662920
    0.245035127    0.416666716    0.420279443
    0.823807359    0.636833727    0.674965203
    0.708422661    0.559910595    0.815662920
    0.911701739    0.416666716    0.420279443
    0.977653623    0.406064510    0.674965203
    0.862268925    0.329141378    0.815662920
    0.245035097    0.583333433    0.252167612
    0.131499648    0.175295234    0.674965203
    0.016115069    0.098372102    0.815662920
    0.016115069    0.098372221    0.534267545
    0.900730371    0.021449089    0.674965203
    0.785345793    0.944525957    0.815662920
    0.745035052    0.250000000    0.420279443
    0.054576635    0.790679872    0.674965203
    0.939191937    0.713756680    0.815662920
    0.323807478    0.636833847    0.534267545
    0.208422780    0.559910715    0.674965203
    0.093038082    0.482987583    0.815662920
    0.400730610    0.021449089    0.534267545
    0.285345912    0.944526017    0.674965203
    0.995035052    0.833333313    0.168111786
    0.995035112    0.666666687    0.336223543
    0.458422720    0.309910685    0.745314062
    0.161701769    0.166666672    0.000000000
    0.496884316    0.002218485    0.604616404
    0.381499648    0.925295293    0.745314062
    0.266114950    0.848372161    0.886011779
    0.650730491    0.771449268    0.604616404
    0.535345852    0.694526076    0.745314062
    0.995035112    0.000000000    0.000000000
    0.804576635    0.540679991    0.604616404
    0.689191997    0.463756859    0.745314062
    0.573807299    0.386833698    0.886011779
    0.958422780    0.309910685    0.604616404
    0.843038201    0.232987568    0.745314062
    0.727653503    0.156064391    0.886011779
    0.727653623    0.156064630    0.604616404
    0.612268925    0.079141498    0.745314062
    0.495035112    0.333333343    0.168111786
    0.881499767    0.925295472    0.604616404
    0.766115069    0.848372281    0.745314062
    0.650730371    0.771449149    0.886011779
    0.035345912    0.694526136    0.604616404
    0.919961214    0.617603004    0.745314062
    0.661701858    0.833333313    0.168111786
    0.189192057    0.463756859    0.604616404
    0.073807359    0.386833727    0.745314062
    0.661701798    0.333333343    0.000000000
    0.343038201    0.232987627    0.604616404
    0.227653503    0.156064510    0.745314062
    0.112268925    0.079141378    0.886011779
    0.112269044    0.079141617    0.604616404
    0.996884346    0.002218485    0.745314062
    0.911701739    0.750000060    0.084055893
    0.266115189    0.848372281    0.604616404
    0.150730491    0.771449149    0.745314062
    0.828368425    0.333333343    0.168111786
    0.419961214    0.617603064    0.604616404
    0.304576516    0.540679932    0.745314062
    0.495035112    0.166666672    0.000000000
