C+Si
    1.000000000
   13.345744133    0.000000000    0.000000000
    6.672872066   11.557753563    0.000000000
    0.000000408   -0.000000236   17.351549149
C   Si 
308     72
Direct
    0.317878604    0.317878962    0.593403459
    0.984545767    0.984545767    0.000000059
    0.651212335    0.651212394    0.118680745
    0.317878902    0.317879021    0.237361431
    0.984545350    0.984545469    0.356042206
    0.651211977    0.651212096    0.474722862
    0.603592873    0.460736036    0.593403459
    0.270260096    0.127402917    0.000000063
    0.936926663    0.794069529    0.118680753
    0.603593230    0.460736156    0.237361446
    0.270259619    0.127402604    0.356042147
    0.936926246    0.794069290    0.474722803
    0.460735798    0.889307380    0.593403459
    0.127402931    0.555974305    0.000000055
    0.794069529    0.222640932    0.118680730
    0.460736096    0.889307559    0.237361401
    0.127402425    0.555974007    0.356042147
    0.794069171    0.222640693    0.474722862
    0.889307261    0.603593111    0.593403459
    0.555974364    0.270260066    0.000000076
    0.222640932    0.936926663    0.118680753
    0.889307499    0.603593290    0.237361446
    0.555973887    0.270259738    0.356042206
    0.222640574    0.936926365    0.474722892
    0.746449947    0.032164514    0.593403459
    0.413117230    0.698831499    0.000000034
    0.079783782    0.365498126    0.118680723
    0.746450305    0.032164693    0.237361401
    0.413116932    0.698831320    0.356042087
    0.079783380    0.365497768    0.474722862
    0.175021410    0.746450186    0.593403459
    0.841688573    0.413117200    0.000000034
    0.508355200    0.079783812    0.118680723
    0.175021753    0.746450424    0.237361401
    0.841688395    0.413117051    0.356042087
    0.508354783    0.079783499    0.474722862
    0.032164276    0.175021648    0.593403459
    0.698831439    0.841688573    0.000000061
    0.365498036    0.508355200    0.118680730
    0.032164611    0.175021812    0.237361401
    0.698831022    0.841688275    0.356042147
    0.365497649    0.508354962    0.474722803
    0.079783827    0.365498096    0.029670238
    0.746450424    0.032164700    0.148350909
    0.413116992    0.698831320    0.267031610
    0.079783440    0.365497887    0.385712266
    0.746449947    0.032164395    0.504393041
    0.508355260    0.079783827    0.029670233
    0.175021827    0.746450424    0.148350894
    0.841688395    0.413117111    0.267031580
    0.508354902    0.079783618    0.385712296
    0.175021350    0.746450067    0.504393041
    0.365498096    0.508355200    0.029670212
    0.032164671    0.175021842    0.148350880
    0.698831201    0.841688454    0.267031580
    0.365497708    0.508355021    0.385712296
    0.032164216    0.175021589    0.504392982
    0.794069469    0.222640947    0.029670212
    0.460736096    0.889307559    0.148350909
    0.127402633    0.555974185    0.267031610
    0.794069111    0.222640693    0.385712296
    0.460735619    0.889307261    0.504392982
    0.222640961    0.936926723    0.029670224
    0.889307499    0.603593290    0.148350894
    0.555974126    0.270259917    0.267031610
    0.222640574    0.936926365    0.385712326
    0.889307141    0.603592992    0.504392982
    0.651212454    0.651212394    0.029670212
    0.317879021    0.317878991    0.148350909
    0.984545588    0.984545588    0.267031610
    0.651212096    0.651212096    0.385712326
    0.317878544    0.317878664    0.504393041
    0.936926723    0.794069529    0.029670179
    0.603593230    0.460736126    0.148350880
    0.270259857    0.127402753    0.267031580
    0.936926365    0.794069350    0.385712266
    0.603592873    0.460735857    0.504392982
    0.532164335    0.675021648    0.593403459
    0.198831484    0.341688633    0.000000058
    0.865498066    0.008355225    0.118680730
    0.532164633    0.675021827    0.237361431
    0.198831022    0.341688275    0.356042147
    0.865497708    0.008355021    0.474722803
    0.960735798    0.389307380    0.593403459
    0.627402961    0.055974353    0.000000031
    0.294069469    0.722640991    0.118680723
    0.960736036    0.389307618    0.237361401
    0.627402425    0.055974007    0.356042147
    0.294069111    0.722640753    0.474722803
    0.389307141    0.103593051    0.593403459
    0.055974375    0.770260036    0.000000053
    0.722640991    0.436926663    0.118680730
    0.389307499    0.103593223    0.237361431
    0.055974126    0.770259917    0.356042117
    0.722640634    0.436926365    0.474722862
    0.817878604    0.817878842    0.593403459
    0.484545797    0.484545767    0.000000053
    0.151212350    0.151212379    0.118680730
    0.817878842    0.817878962    0.237361431
    0.484545529    0.484545588    0.356042117
    0.151211977    0.151212096    0.474722803
    0.246450007    0.532164454    0.593403459
    0.913117170    0.198831514    0.000000000
    0.579783797    0.865498126    0.118680701
    0.246450335    0.532164693    0.237361401
    0.913116932    0.198831379    0.356042087
    0.579783320    0.865497828    0.474722862
    0.675021410    0.246450305    0.593403459
    0.341688663    0.913117230    0.000000068
    0.008355177    0.579783797    0.118680768
    0.675021768    0.246450439    0.237361431
    0.341688156    0.913116872    0.356042147
    0.008354843    0.579783559    0.474722803
    0.103592932    0.960736036    0.593403459
    0.770260096    0.627402902    0.000000110
    0.436926633    0.294069499    0.118680768
    0.103593230    0.960736156    0.237361446
    0.770259619    0.627402544    0.356042206
    0.436926246    0.294069290    0.474722862
    0.151212394    0.151212409    0.029670196
    0.817878962    0.817878962    0.148350880
    0.484545529    0.484545648    0.267031550
    0.151212037    0.151212215    0.385712266
    0.817878604    0.817878723    0.504393041
    0.008355271    0.579783797    0.029670198
    0.675021768    0.246450394    0.148350880
    0.341688454    0.913117051    0.267031550
    0.008354902    0.579783618    0.385712266
    0.675021529    0.246450126    0.504392982
    0.436926693    0.294069529    0.029670198
    0.103593215    0.960736096    0.148350880
    0.770259798    0.627402782    0.267031550
    0.436926305    0.294069350    0.385712266
    0.103592753    0.960735917    0.504392982
    0.865498006    0.008355216    0.029670198
    0.532164633    0.675021827    0.148350880
    0.198831230    0.341688454    0.267031550
    0.865497768    0.008355021    0.385712266
    0.532164276    0.675021529    0.504392982
    0.294069558    0.722640991    0.029670175
    0.960736096    0.389307529    0.148350880
    0.627402663    0.055974133    0.267031550
    0.294069231    0.722640753    0.385712266
    0.960735679    0.389307261    0.504392982
    0.722641051    0.436926693    0.029670175
    0.389307559    0.103593230    0.148350909
    0.055974148    0.770259857    0.267031610
    0.722640693    0.436926425    0.385712296
    0.389307201    0.103592932    0.504393041
    0.579783797    0.865498066    0.029670205
    0.246450350    0.532164633    0.148350894
    0.913116932    0.198831216    0.267031580
    0.579783440    0.865497828    0.385712296
    0.246450007    0.532164395    0.504392982
    0.460735798    0.389307380    0.593403518
    0.127402917    0.055974346    0.000000063
    0.794069469    0.722640991    0.118680745
    0.460736096    0.389307618    0.237361431
    0.127402484    0.055974066    0.356042147
    0.794069052    0.722640634    0.474722862
    0.317878723    0.817878842    0.593403459
    0.984545827    0.484545767    0.000000058
    0.651212335    0.151212364    0.118680745
    0.317878962    0.817878962    0.237361446
    0.984545350    0.484545410    0.356042147
    0.651211977    0.151212156    0.474722862
    0.746450067    0.532164574    0.593403459
    0.413117230    0.198831499    0.000000052
    0.079783797    0.865498126    0.118680745
    0.746450365    0.532164693    0.237361431
    0.413116753    0.198831141    0.356042147
    0.079783440    0.865497828    0.474722862
    0.603592873    0.960735917    0.593403518
    0.270260066    0.627402961    0.000000042
    0.936926603    0.294069588    0.118680716
    0.603593171    0.960736156    0.237361401
    0.270259798    0.627402842    0.356042087
    0.936926246    0.294069231    0.474722862
    0.032164335    0.675021648    0.593403459
    0.698831499    0.341688663    0.000000021
    0.365498096    0.008355270    0.118680701
    0.032164644    0.675021827    0.237361401
    0.698831260    0.341688514    0.356042087
    0.365497708    0.008354962    0.474722862
    0.889307141    0.103593111    0.593403459
    0.555974364    0.770260036    0.000000068
    0.222640917    0.436926663    0.118680745
    0.889307499    0.103593290    0.237361431
    0.555973887    0.770259738    0.356042147
    0.222640574    0.436926425    0.474722803
    0.175021470    0.246450186    0.593403459
    0.841688633    0.913117170    0.000000063
    0.508355200    0.579783797    0.118680730
    0.175021768    0.246450424    0.237361431
    0.841688156    0.913116872    0.356042147
    0.508354843    0.579783559    0.474722803
    0.365498096    0.008355243    0.029670212
    0.032164611    0.675021827    0.148350909
    0.698831201    0.341688454    0.267031610
    0.365497708    0.008355081    0.385712266
    0.032164216    0.675021529    0.504393041
    0.222641021    0.436926633    0.029670222
    0.889307559    0.103593238    0.148350880
    0.555974126    0.770259857    0.267031550
    0.222640634    0.436926425    0.385712266
    0.889307141    0.103593051    0.504392982
    0.651212394    0.151212379    0.029670222
    0.317878962    0.817878962    0.148350894
    0.984545529    0.484545648    0.267031580
    0.651212037    0.151212156    0.385712266
    0.317878604    0.817878723    0.504392982
    0.079783864    0.865498126    0.029670216
    0.746450365    0.532164693    0.148350909
    0.413116992    0.198831320    0.267031610
    0.079783499    0.865497947    0.385712296
    0.746449947    0.532164454    0.504393041
    0.508355260    0.579783797    0.029670175
    0.175021783    0.246450379    0.148350865
    0.841688335    0.913116992    0.267031550
    0.508354902    0.579783559    0.385712236
    0.175021410    0.246450126    0.504392982
    0.936926782    0.294069529    0.029670198
    0.603593349    0.960736096    0.148350880
    0.270259917    0.627402723    0.267031580
    0.936926365    0.294069290    0.385712266
    0.603592873    0.960735917    0.504392982
    0.794069588    0.722640991    0.029670212
    0.460736096    0.389307529    0.148350909
    0.127402708    0.055974159    0.267031610
    0.794069171    0.722640753    0.385712266
    0.460735738    0.389307320    0.504392982
    0.389307380    0.603593111    0.593403459
    0.055974361    0.270260066    0.000000053
    0.722640872    0.936926663    0.118680730
    0.389307499    0.603593290    0.237361431
    0.055973887    0.270259738    0.356042147
    0.722640514    0.936926484    0.474722803
    0.817878604    0.317878842    0.593403459
    0.484545767    0.984545767    0.000000053
    0.151212320    0.651212394    0.118680730
    0.817878902    0.317879021    0.237361431
    0.484545290    0.984545469    0.356042147
    0.151211917    0.651212215    0.474722773
    0.675021410    0.746450305    0.593403459
    0.341688633    0.413117200    0.000000055
    0.008355197    0.079783849    0.118680723
    0.675021768    0.746450424    0.237361431
    0.341688335    0.413117111    0.356042087
    0.008354783    0.079783559    0.474722862
    0.103592813    0.460735917    0.593403518
    0.770259976    0.127402887    0.000000050
    0.436926603    0.794069529    0.118680716
    0.103593118    0.460736096    0.237361431
    0.770259738    0.127402782    0.356042087
    0.436926186    0.794069290    0.474722803
    0.532164216    0.175021648    0.593403459
    0.198831499    0.841688573    0.000000066
    0.865498066    0.508355200    0.118680753
    0.532164693    0.175021812    0.237361401
    0.198831022    0.841688275    0.356042147
    0.865497589    0.508354902    0.474722862
    0.960735798    0.889307380    0.593403399
    0.627402961    0.555974364    0.000000034
    0.294069499    0.222640947    0.118680701
    0.960736096    0.889307559    0.237361386
    0.627402484    0.555974007    0.356042117
    0.294069111    0.222640693    0.474722803
    0.246450007    0.032164514    0.593403459
    0.913117170    0.698831439    0.000000061
    0.579783797    0.365498036    0.118680775
    0.246450335    0.032164663    0.237361431
    0.913116753    0.698831081    0.356042147
    0.579783440    0.365497828    0.474722862
    0.008355283    0.079783902    0.029670229
    0.675021887    0.746450543    0.148350894
    0.341688395    0.413117111    0.267031610
    0.008354902    0.079783678    0.385712296
    0.675021410    0.746450186    0.504393041
    0.294069588    0.222641021    0.029670248
    0.960736156    0.889307618    0.148350909
    0.627402663    0.555974245    0.267031610
    0.294069171    0.222640753    0.385712296
    0.960735679    0.889307380    0.504393041
    0.151212469    0.651212394    0.029670222
    0.817879021    0.317879051    0.148350894
    0.484545588    0.984545648    0.267031580
    0.151212037    0.651212215    0.385712296
    0.817878604    0.317878723    0.504393041
    0.579783857    0.365498155    0.029670222
    0.246450409    0.032164771    0.148350894
    0.913116992    0.698831379    0.267031610
    0.579783440    0.365497887    0.385712296
    0.246449947    0.032164454    0.504393041
    0.436926663    0.794069529    0.029670212
    0.103593215    0.460736156    0.148350880
    0.770259798    0.127402768    0.267031550
    0.436926246    0.794069290    0.385712296
    0.103592753    0.460735798    0.504392982
    0.865498066    0.508355200    0.029670203
    0.532164633    0.175021827    0.148350909
    0.198831201    0.841688454    0.267031610
    0.865497649    0.508354962    0.385712326
    0.532164156    0.175021529    0.504392982
    0.722640991    0.936926782    0.029670270
    0.389307559    0.603593409    0.148350954
    0.055974152    0.270260036    0.267031610
    0.722640634    0.936926484    0.385712326
    0.389307141    0.603593111    0.504393041
    0.681493759    0.666666687    0.593403518
    0.014827132    0.666666687    0.774112999
    0.348160505    0.666666687    0.954822540
    0.348160356    0.333333343    0.593403518
    0.681493759    0.333333343    0.774112999
    0.014827251    0.333333343    0.954822540
    0.014827028    0.000000000    0.593403518
    0.348160386    0.000000000    0.774112999
    0.681493878    0.000000000    0.954822540
    0.014827013    0.666666687    0.638580918
    0.348160505    0.666666687    0.819290400
    0.681493878    0.666666687    0.999999881
    0.681493700    0.333333343    0.638580918
    0.014827132    0.333333343    0.819290340
    0.348160625    0.333333343    0.999999881
    0.348160416    0.000000000    0.638580918
    0.681493759    0.000000000    0.819290400
    0.014827251    0.000000000    1.000000000
    0.348160416    0.833333313    0.593403578
    0.681493759    0.833333313    0.774112999
    0.014827251    0.833333313    0.954822540
    0.014827028    0.500000000    0.593403518
    0.348160416    0.500000000    0.774112999
    0.681493819    0.500000000    0.954822540
    0.681493759    0.166666657    0.593403518
    0.014827013    0.166666657    0.774112999
    0.348160505    0.166666657    0.954822540
    0.681493759    0.833333313    0.638580918
    0.014827013    0.833333313    0.819290340
    0.348160505    0.833333313    0.999999881
    0.348160416    0.500000000    0.638580918
    0.681493878    0.500000000    0.819290400
    0.014827251    0.500000000    0.999999881
    0.014827013    0.166666642    0.638580918
    0.348160386    0.166666642    0.819290340
    0.681493878    0.166666642    0.999999881
    0.181493685    0.666666687    0.593403518
    0.514827073    0.666666687    0.774112999
    0.848160565    0.666666687    0.954822540
    0.848160446    0.333333343    0.593403518
    0.181493759    0.333333343    0.774112999
    0.514827132    0.333333343    0.954822421
    0.514827013    0.000000000    0.593403518
    0.848160446    0.000000000    0.774112999
    0.181493878    0.000000000    0.954822540
    0.514827013    0.666666746    0.638580859
    0.848160505    0.666666746    0.819290340
    0.181493878    0.666666746    0.999999881
    0.181493655    0.333333313    0.638580918
    0.514827073    0.333333313    0.819290340
    0.848160446    0.333333313    0.999999881
    0.848160386    0.000000000    0.638580859
    0.181493878    0.000000000    0.819290340
    0.514827251    0.000000000    0.999999881
    0.848160446    0.833333373    0.593403578
    0.181493759    0.833333373    0.774112999
    0.514827251    0.833333373    0.954822421
    0.514827073    0.500000000    0.593403518
    0.848160386    0.500000000    0.774112999
    0.181493878    0.500000000    0.954822540
    0.181493700    0.166666672    0.593403518
    0.514827073    0.166666672    0.774112999
    0.848160505    0.166666672    0.954822540
    0.181493655    0.833333433    0.638580918
    0.514827013    0.833333433    0.819290340
    0.848160446    0.833333433    1.000000000
    0.848160386    0.500000060    0.638580918
    0.181493759    0.500000060    0.819290340
    0.514827251    0.500000060    0.999999881
    0.514827013    0.166666657    0.638580918
    0.848160386    0.166666657    0.819290340
    0.181493878    0.166666657    1.000000000
