C+Si
    1.000000000
    7.975607395    0.000000000    0.000000000
  -11.165850639    6.380486488    0.000000000
    0.000000000    0.000000000   11.513581276
C   Si 
48     24
Direct
    0.036984481    0.000000000    0.000000000
    0.536984503    0.000000000    0.154895365
    0.036984563    0.000000014    0.309790730
    0.786984503    0.249999985    0.000000000
    0.286984563    0.250000000    0.154895365
    0.786984444    0.249999955    0.309790730
    0.536984444    0.499999970    0.000000000
    0.036984444    0.499999970    0.154895365
    0.536984563    0.499999970    0.309790730
    0.286984444    0.750000000    0.000000000
    0.786984444    0.750000000    0.154895365
    0.286984444    0.749999940    0.309790730
    0.349484473    0.187499985    0.077447683
    0.849484444    0.187499970    0.232343033
    0.349484563    0.187499970    0.387238413
    0.099484444    0.437499940    0.077447683
    0.599484324    0.437499940    0.232343033
    0.099484444    0.437499970    0.387238413
    0.849484444    0.687499940    0.077447683
    0.349484444    0.687499940    0.232343033
    0.849484444    0.687499940    0.387238413
    0.599484384    0.937500000    0.077447683
    0.099484444    0.937499940    0.232343033
    0.599484444    0.937499940    0.387238413
    0.911984563    0.125000015    0.000000000
    0.411984563    0.125000015    0.154895365
    0.911984444    0.124999940    0.309790730
    0.661984444    0.374999970    0.000000000
    0.161984444    0.374999970    0.154895365
    0.661984563    0.375000000    0.309790730
    0.411984473    0.625000000    0.000000000
    0.911984444    0.624999940    0.154895365
    0.411984563    0.624999940    0.309790730
    0.161984414    0.874999940    0.000000000
    0.661984384    0.874999881    0.154895365
    0.161984444    0.874999881    0.309790730
    0.474484503    0.062500000    0.077447683
    0.974484444    0.062499974    0.232343033
    0.474484682    0.062499955    0.387238413
    0.224484563    0.312500000    0.077447683
    0.724484444    0.312499940    0.232343033
    0.224484682    0.312499970    0.387238413
    0.974484444    0.562499940    0.077447683
    0.474484444    0.562499940    0.232343033
    0.974484563    0.562499940    0.387238413
    0.724484503    0.812499940    0.077447683
    0.224484444    0.812499940    0.232343033
    0.724484563    0.812499940    0.387238413
    0.000000000    0.985172987    0.387238443
    0.000000000    0.651839614    0.659576833
    0.000000000    0.318506122    0.931915343
    0.000000017    0.651839614    0.455323040
    0.000000017    0.318506241    0.727661371
    0.000000017    0.985172749    1.000000000
    0.500000000    0.985172987    0.387238443
    0.500000000    0.651839614    0.659576833
    0.500000000    0.318506181    0.931915343
    0.500000000    0.651839674    0.455322981
    0.500000000    0.318506241    0.727661371
    0.500000000    0.985172868    0.999999940
    0.500000000    0.485172987    0.387238443
    0.500000000    0.151839614    0.659576833
    0.500000000    0.818506122    0.931915343
    0.500000000    0.151839659    0.455322981
    0.500000000    0.818506241    0.727661371
    0.500000000    0.485172868    0.999999940
    0.000000000    0.485172987    0.387238443
    0.000000000    0.151839629    0.659576833
    0.000000000    0.818506181    0.931915343
    0.000000000    0.151839688    0.455323040
    0.000000000    0.818506300    0.727661490
    0.000000000    0.485172808    1.000000000
