fcc Si+fcc Ge                           
   1.00000000000000     
    12.2536525170000008    0.0000000000000000    0.0000000000000000
    -9.8029220129999999    7.3521915099999999    0.0000000000000000
     0.0000000000000000    0.0000000000000000   19.6583333330000016
   Si   Ge
    66    12
Direct
  0.5000000000000000  0.7500000000000000  0.0696905470000004
  0.8333333329999988  0.9166666670000012  0.2090716410000013
  0.1666666670000012  0.0833333329999988  0.3484527339999985
  0.5000000000000000  0.2500000000000000  0.4878338279999994
  0.8333333329999988  0.4166666670000012  0.6272149220000003
  0.1666666670000012  0.0833333329999988  0.0696905470000004
  0.5000000000000000  0.2500000000000000  0.2090716410000013
  0.8333333329999988  0.4166666670000012  0.3484527339999985
  0.1666666670000012  0.5833333329999988  0.4878338279999994
  0.5000000000000000  0.7500000000000000  0.6272149220000003
  0.8333333329999988  0.4166666670000012  0.0696905470000004
  0.1666666670000012  0.5833333329999988  0.2090716410000013
  0.5000000000000000  0.7500000000000000  0.3484527339999985
  0.8333333329999988  0.9166666670000012  0.4878338279999994
  0.1666666670000012  0.0833333329999988  0.6272149220000003
  0.3333333329999988  0.9166666670000012  0.0696905470000004
  0.6666666670000012  0.0833333329999988  0.2090716410000013
  0.0000000000000000  0.2500000000000000  0.3484527339999985
  0.3333333329999988  0.4166666670000012  0.4878338279999994
  0.6666666670000012  0.5833333329999988  0.6272149220000003
  0.6666666670000012  0.5833333329999988  0.0696905470000004
  0.0000000000000000  0.7500000000000000  0.2090716410000013
  0.3333333329999988  0.9166666670000012  0.3484527339999985
  0.6666666670000012  0.0833333329999988  0.4878338279999994
  0.0000000000000000  0.2500000000000000  0.6272149220000003
  0.0000000000000000  0.2500000000000000  0.0696905470000004
  0.3333333329999988  0.4166666670000012  0.2090716410000013
  0.6666666670000012  0.5833333329999988  0.3484527339999985
  0.0000000000000000  0.7500000000000000  0.4878338279999994
  0.3333333329999988  0.9166666670000012  0.6272149220000003
  0.9166666670000012  0.8333333329999988  0.0000000000000000
  0.2500000000000000  0.0000000000000000  0.1393810940000009
  0.5833333329999988  0.1666666670000012  0.2787621869999981
  0.9166666670000012  0.3333333329999988  0.4181432809999990
  0.2500000000000000  0.5000000000000000  0.5575243749999998
  0.5833333329999988  0.6666666670000012  0.6969054679999971
  0.2500000000000000  0.5000000000000000  0.0000000000000000
  0.5833333329999988  0.6666666670000012  0.1393810940000009
  0.9166666670000012  0.8333333329999988  0.2787621869999981
  0.2500000000000000  0.0000000000000000  0.4181432809999990
  0.5833333329999988  0.1666666670000012  0.5575243749999998
  0.9166666670000012  0.3333333329999988  0.6969054679999971
  0.5833333329999988  0.1666666670000012  0.0000000000000000
  0.9166666670000012  0.3333333329999988  0.1393810940000009
  0.2500000000000000  0.5000000000000000  0.2787621869999981
  0.5833333329999988  0.6666666670000012  0.4181432809999990
  0.9166666670000012  0.8333333329999988  0.5575243749999998
  0.2500000000000000  0.0000000000000000  0.6969054679999971
  0.0833333329999988  0.6666666670000012  0.0000000000000000
  0.4166666670000012  0.8333333329999988  0.1393810940000009
  0.7500000000000000  0.0000000000000000  0.2787621869999981
  0.0833333329999988  0.1666666670000012  0.4181432809999990
  0.4166666670000012  0.3333333329999988  0.5575243749999998
  0.7500000000000000  0.5000000000000000  0.6969054679999971
  0.4166666670000012  0.3333333329999988  0.0000000000000000
  0.7500000000000000  0.5000000000000000  0.1393810940000009
  0.0833333329999988  0.6666666670000012  0.2787621869999981
  0.4166666670000012  0.8333333329999988  0.4181432809999990
  0.7500000000000000  0.0000000000000000  0.5575243749999998
  0.0833333329999988  0.1666666670000012  0.6969054679999971
  0.7500000000000000  0.0000000000000000  0.0000000000000000
  0.0833333329999988  0.1666666670000012  0.1393810940000009
  0.4166666670000012  0.3333333329999988  0.2787621869999981
  0.7500000000000000  0.5000000000000000  0.4181432809999990
  0.0833333329999988  0.6666666670000012  0.5575243749999998
  0.4166666670000012  0.8333333329999988  0.6969054679999971
  0.3032786890000025  0.3196721309999973  0.7884696910000031
  0.1921675769999993  0.9307832419999968  0.8364561249999980
  0.0810564659999997  0.5418943530000035  0.8844425599999965
  0.8032786890000025  0.8196721309999973  0.7884696910000031
  0.6921675769999993  0.4307832419999968  0.8364561249999980
  0.5810564659999997  0.0418943530000035  0.8844425599999965
  0.4977231330000009  0.6252276869999989  0.8124629080000005
  0.3866120220000013  0.2363387979999985  0.8604493429999991
  0.2755009110000017  0.8474499089999981  0.9084357779999976
  0.9977231330000009  0.1252276869999989  0.8124629080000005
  0.8866120220000013  0.7363387979999985  0.8604493429999991
  0.7755009110000017  0.3474499089999981  0.9084357779999976
 
  0.00000000E+00  0.00000000E+00  0.00000000E+00
  0.00000000E+00  0.00000000E+00  0.00000000E+00
  0.00000000E+00  0.00000000E+00  0.00000000E+00
  0.00000000E+00  0.00000000E+00  0.00000000E+00
  0.00000000E+00  0.00000000E+00  0.00000000E+00
  0.00000000E+00  0.00000000E+00  0.00000000E+00
  0.00000000E+00  0.00000000E+00  0.00000000E+00
  0.00000000E+00  0.00000000E+00  0.00000000E+00
  0.00000000E+00  0.00000000E+00  0.00000000E+00
  0.00000000E+00  0.00000000E+00  0.00000000E+00
  0.00000000E+00  0.00000000E+00  0.00000000E+00
  0.00000000E+00  0.00000000E+00  0.00000000E+00
  0.00000000E+00  0.00000000E+00  0.00000000E+00
  0.00000000E+00  0.00000000E+00  0.00000000E+00
  0.00000000E+00  0.00000000E+00  0.00000000E+00
  0.00000000E+00  0.00000000E+00  0.00000000E+00
  0.00000000E+00  0.00000000E+00  0.00000000E+00
  0.00000000E+00  0.00000000E+00  0.00000000E+00
  0.00000000E+00  0.00000000E+00  0.00000000E+00
  0.00000000E+00  0.00000000E+00  0.00000000E+00
  0.00000000E+00  0.00000000E+00  0.00000000E+00
  0.00000000E+00  0.00000000E+00  0.00000000E+00
  0.00000000E+00  0.00000000E+00  0.00000000E+00
  0.00000000E+00  0.00000000E+00  0.00000000E+00
  0.00000000E+00  0.00000000E+00  0.00000000E+00
  0.00000000E+00  0.00000000E+00  0.00000000E+00
  0.00000000E+00  0.00000000E+00  0.00000000E+00
  0.00000000E+00  0.00000000E+00  0.00000000E+00
  0.00000000E+00  0.00000000E+00  0.00000000E+00
  0.00000000E+00  0.00000000E+00  0.00000000E+00
  0.00000000E+00  0.00000000E+00  0.00000000E+00
  0.00000000E+00  0.00000000E+00  0.00000000E+00
  0.00000000E+00  0.00000000E+00  0.00000000E+00
  0.00000000E+00  0.00000000E+00  0.00000000E+00
  0.00000000E+00  0.00000000E+00  0.00000000E+00
  0.00000000E+00  0.00000000E+00  0.00000000E+00
  0.00000000E+00  0.00000000E+00  0.00000000E+00
  0.00000000E+00  0.00000000E+00  0.00000000E+00
  0.00000000E+00  0.00000000E+00  0.00000000E+00
  0.00000000E+00  0.00000000E+00  0.00000000E+00
  0.00000000E+00  0.00000000E+00  0.00000000E+00
  0.00000000E+00  0.00000000E+00  0.00000000E+00
  0.00000000E+00  0.00000000E+00  0.00000000E+00
  0.00000000E+00  0.00000000E+00  0.00000000E+00
  0.00000000E+00  0.00000000E+00  0.00000000E+00
  0.00000000E+00  0.00000000E+00  0.00000000E+00
  0.00000000E+00  0.00000000E+00  0.00000000E+00
  0.00000000E+00  0.00000000E+00  0.00000000E+00
  0.00000000E+00  0.00000000E+00  0.00000000E+00
  0.00000000E+00  0.00000000E+00  0.00000000E+00
  0.00000000E+00  0.00000000E+00  0.00000000E+00
  0.00000000E+00  0.00000000E+00  0.00000000E+00
  0.00000000E+00  0.00000000E+00  0.00000000E+00
  0.00000000E+00  0.00000000E+00  0.00000000E+00
  0.00000000E+00  0.00000000E+00  0.00000000E+00
  0.00000000E+00  0.00000000E+00  0.00000000E+00
  0.00000000E+00  0.00000000E+00  0.00000000E+00
  0.00000000E+00  0.00000000E+00  0.00000000E+00
  0.00000000E+00  0.00000000E+00  0.00000000E+00
  0.00000000E+00  0.00000000E+00  0.00000000E+00
  0.00000000E+00  0.00000000E+00  0.00000000E+00
  0.00000000E+00  0.00000000E+00  0.00000000E+00
  0.00000000E+00  0.00000000E+00  0.00000000E+00
  0.00000000E+00  0.00000000E+00  0.00000000E+00
  0.00000000E+00  0.00000000E+00  0.00000000E+00
  0.00000000E+00  0.00000000E+00  0.00000000E+00
  0.00000000E+00  0.00000000E+00  0.00000000E+00
  0.00000000E+00  0.00000000E+00  0.00000000E+00
  0.00000000E+00  0.00000000E+00  0.00000000E+00
  0.00000000E+00  0.00000000E+00  0.00000000E+00
  0.00000000E+00  0.00000000E+00  0.00000000E+00
  0.00000000E+00  0.00000000E+00  0.00000000E+00
  0.00000000E+00  0.00000000E+00  0.00000000E+00
  0.00000000E+00  0.00000000E+00  0.00000000E+00
  0.00000000E+00  0.00000000E+00  0.00000000E+00
  0.00000000E+00  0.00000000E+00  0.00000000E+00
  0.00000000E+00  0.00000000E+00  0.00000000E+00
  0.00000000E+00  0.00000000E+00  0.00000000E+00
