Ge+Si
    1.000000000
   16.002676010    0.000000000    0.000000000
    0.000000000   16.973402023    0.000000000
    0.000000000    0.000000000   13.293919563
Ge  Si 
48     108
Direct
    0.913237751    0.910024285    0.000000019
    0.538237751    0.521135390    0.050156742
    0.163237810    0.132246494    0.100313440
    0.788237810    0.743357420    0.150470227
    0.413237810    0.354468584    0.200626925
    0.038237691    0.965579510    0.250783652
    0.413237691    0.910024285    0.000000022
    0.038237717    0.521135330    0.050156742
    0.663237751    0.132246435    0.100313440
    0.288237691    0.743357420    0.150470182
    0.913237810    0.354468465    0.200626925
    0.538237810    0.965579748    0.250783741
    0.038237728    0.660024226    0.000000019
    0.663237751    0.271135300    0.050156724
    0.288237810    0.882246375    0.100313447
    0.913237810    0.493357420    0.150470182
    0.538237691    0.104468405    0.200626895
    0.163237691    0.715579629    0.250783652
    0.538237691    0.660024226    0.000000019
    0.163237706    0.271135300    0.050156724
    0.788237751    0.882246375    0.100313447
    0.413237691    0.493357480    0.150470182
    0.038237751    0.104468465    0.200626940
    0.663237691    0.715579629    0.250783682
    0.288237751    0.660024226    0.000000019
    0.913237751    0.271135300    0.050156724
    0.538237810    0.882246375    0.100313447
    0.163237810    0.493357420    0.150470182
    0.788237810    0.104468465    0.200626895
    0.413237810    0.715579510    0.250783652
    0.788237691    0.660024166    0.000000000
    0.413237721    0.271135300    0.050156724
    0.038237784    0.882246375    0.100313447
    0.663237751    0.493357420    0.150470167
    0.288237691    0.104468465    0.200626895
    0.913237810    0.715579629    0.250783682
    0.163237721    0.910024285    0.000000019
    0.788237691    0.521135330    0.050156742
    0.413237810    0.132246494    0.100313470
    0.038237751    0.743357420    0.150470227
    0.663237810    0.354468584    0.200626880
    0.288237691    0.965579510    0.250783652
    0.663237691    0.910024285    0.000000027
    0.288237751    0.521135330    0.050156724
    0.913237751    0.132246494    0.100313470
    0.538237810    0.743357420    0.150470227
    0.163237691    0.354468465    0.200626880
    0.788237810    0.965579748    0.250783652
    0.163522020    0.970399141    0.370058954
    0.163522020    0.803732395    0.574325264
    0.163522020    0.637065649    0.778591633
    0.496855378    0.970399141    0.370058954
    0.496855378    0.803732395    0.574325264
    0.496855378    0.637065649    0.778591633
    0.830188692    0.970399141    0.370058954
    0.830188692    0.803732395    0.574325264
    0.830188692    0.637065649    0.778591633
    0.163522020    0.303732395    0.370058954
    0.163522020    0.137065768    0.574325264
    0.163522020    0.970399022    0.778591633
    0.496855378    0.303732395    0.370058954
    0.496855378    0.137065768    0.574325264
    0.496855378    0.970399022    0.778591633
    0.830188692    0.303732395    0.370058954
    0.830188692    0.137065768    0.574325264
    0.830188692    0.970399022    0.778591633
    0.163522020    0.637065768    0.370058954
    0.163522020    0.470399022    0.574325264
    0.163522020    0.303732395    0.778591633
    0.496855378    0.637065768    0.370058954
    0.496855378    0.470399022    0.574325264
    0.496855378    0.303732395    0.778591633
    0.830188692    0.637065768    0.370058954
    0.830188692    0.470399022    0.574325264
    0.830188692    0.303732395    0.778591633
    0.246855348    0.053732395    0.472192138
    0.246855348    0.887065649    0.676458359
    0.246855348    0.720399022    0.880724788
    0.580188692    0.053732395    0.472192138
    0.580188692    0.887065649    0.676458359
    0.580188692    0.720399022    0.880724788
    0.913522005    0.053732395    0.472192138
    0.913522005    0.887065649    0.676458359
    0.913522005    0.720399022    0.880724788
    0.246855348    0.387065649    0.472192138
    0.246855348    0.220399022    0.676458359
    0.246855348    0.053732395    0.880724788
    0.580188692    0.387065649    0.472192138
    0.580188692    0.220399022    0.676458359
    0.580188692    0.053732395    0.880724788
    0.913522005    0.387065649    0.472192138
    0.913522005    0.220399022    0.676458359
    0.913522005    0.053732395    0.880724788
    0.246855348    0.720399141    0.472192138
    0.246855348    0.553732395    0.676458359
    0.246855348    0.387065649    0.880724788
    0.580188692    0.720399141    0.472192138
    0.580188692    0.553732395    0.676458359
    0.580188692    0.387065649    0.880724788
    0.913522005    0.720399141    0.472192138
    0.913522005    0.553732395    0.676458359
    0.913522005    0.387065649    0.880724788
    0.330188692    0.137065768    0.370058954
    0.330188692    0.970399022    0.574325264
    0.330188692    0.803732395    0.778591633
    0.663522005    0.137065768    0.370058954
    0.663522005    0.970399022    0.574325264
    0.663522005    0.803732395    0.778591633
    0.996855378    0.137065768    0.370058954
    0.996855378    0.970399022    0.574325264
    0.996855378    0.803732395    0.778591633
    0.330188692    0.470399022    0.370058954
    0.330188692    0.303732395    0.574325264
    0.330188692    0.137065649    0.778591633
    0.663522005    0.470399022    0.370058954
    0.663522005    0.303732395    0.574325264
    0.663522005    0.137065649    0.778591633
    0.996855378    0.470399022    0.370058954
    0.996855378    0.303732395    0.574325264
    0.996855378    0.137065649    0.778591633
    0.330188692    0.803732395    0.370058954
    0.330188692    0.637065649    0.574325264
    0.330188692    0.470399022    0.778591633
    0.663522005    0.803732395    0.370058954
    0.663522005    0.637065649    0.574325264
    0.663522005    0.470399022    0.778591633
    0.996855378    0.803732395    0.370058954
    0.996855378    0.637065649    0.574325264
    0.996855378    0.470399022    0.778591633
    0.413522005    0.220399022    0.472192138
    0.413522005    0.053732395    0.676458359
    0.413522005    0.887065649    0.880724788
    0.746855378    0.220399022    0.472192138
    0.746855378    0.053732395    0.676458359
    0.746855378    0.887065649    0.880724788
    0.080188751    0.220399022    0.472192138
    0.080188751    0.053732395    0.676458359
    0.080188751    0.887065649    0.880724788
    0.413522005    0.553732514    0.472192138
    0.413522005    0.387065768    0.676458359
    0.413522005    0.220399141    0.880724788
    0.746855378    0.553732514    0.472192138
    0.746855378    0.387065768    0.676458359
    0.746855378    0.220399141    0.880724788
    0.080188751    0.553732514    0.472192138
    0.080188751    0.387065768    0.676458359
    0.080188751    0.220399141    0.880724788
    0.413522005    0.887065649    0.472192138
    0.413522005    0.720399022    0.676458359
    0.413522005    0.553732395    0.880724788
    0.746855378    0.887065649    0.472192138
    0.746855378    0.720399022    0.676458359
    0.746855378    0.553732395    0.880724788
    0.080188751    0.887065649    0.472192138
    0.080188751    0.720399022    0.676458359
    0.080188751    0.553732395    0.880724788
