Sn+Ge
    1.000000000
   12.978400230    0.000000000    0.000000000
    0.000000000   12.978400230    0.000000000
    0.000000000    0.000000000   19.583751678
Sn  Ge 
48     60
Direct
    0.992552638    0.499999970    0.000000000
    0.742552638    0.499999970    0.165678188
    0.492552757    0.499999970    0.331356287
    0.992552638    0.000000000    0.000000000
    0.742552638    0.000000000    0.165678188
    0.492552757    0.000000000    0.331356287
    0.492552608    0.499999970    0.000000000
    0.242552638    0.499999970    0.165678188
    0.992552698    0.499999970    0.331356287
    0.492552608    0.000000000    0.000000000
    0.242552638    0.000000000    0.165678188
    0.992552698    0.000000000    0.331356287
    0.117552646    0.874999940    0.082839087
    0.867552757    0.874999940    0.248517260
    0.617552698    0.874999940    0.414195418
    0.117552646    0.374999970    0.082839087
    0.867552757    0.374999970    0.248517260
    0.617552698    0.374999970    0.414195418
    0.617552578    0.874999940    0.082839087
    0.367552698    0.874999940    0.248517260
    0.117552668    0.874999940    0.414195418
    0.617552578    0.374999970    0.082839087
    0.367552698    0.374999970    0.248517260
    0.117552668    0.374999970    0.414195418
    0.242552638    0.749999940    0.000000000
    0.992552638    0.749999940    0.165678188
    0.742552757    0.749999940    0.331356287
    0.242552638    0.249999985    0.000000000
    0.992552638    0.249999985    0.165678188
    0.742552757    0.249999985    0.331356287
    0.742552578    0.749999940    0.000000000
    0.492552608    0.749999940    0.165678188
    0.242552698    0.749999940    0.331356287
    0.742552578    0.249999985    0.000000000
    0.492552608    0.249999985    0.165678188
    0.242552698    0.249999985    0.331356287
    0.367552638    0.624999940    0.082839087
    0.117552713    0.624999940    0.248517260
    0.867552698    0.624999940    0.414195418
    0.367552638    0.124999993    0.082839087
    0.117552713    0.124999993    0.248517260
    0.867552698    0.124999993    0.414195418
    0.867552638    0.624999940    0.082839087
    0.617552757    0.624999940    0.248517260
    0.367552698    0.624999940    0.414195418
    0.867552638    0.124999993    0.082839087
    0.617552757    0.124999993    0.248517260
    0.367552698    0.124999993    0.414195418
    0.472868204    0.181801662    0.526533484
    0.472868264    0.681801677    0.670984805
    0.472868294    0.181801721    0.815436304
    0.672868192    0.781801641    0.526533484
    0.672868192    0.281801641    0.670984805
    0.672868371    0.781801641    0.815436304
    0.872868180    0.381801665    0.526533484
    0.872868240    0.881801605    0.670984805
    0.872868299    0.381801665    0.815436304
    0.072868228    0.981801689    0.526533484
    0.072868228    0.481801689    0.670984805
    0.072868347    0.981801689    0.815436304
    0.272868156    0.581801653    0.526533484
    0.272868156    0.081801534    0.670984805
    0.272868156    0.581801713    0.815436304
    0.622868180    0.131801486    0.598759174
    0.622868240    0.631801665    0.743210614
    0.622868299    0.131801605    0.887661994
    0.822868228    0.731801689    0.598759174
    0.822868228    0.231801674    0.743210614
    0.822868347    0.731801689    0.887661994
    0.022868156    0.331801593    0.598759174
    0.022868156    0.831801713    0.743210614
    0.022868156    0.331801593    0.887661994
    0.222868204    0.931801677    0.598759174
    0.222868323    0.431801736    0.743210614
    0.222868323    0.931801736    0.887661994
    0.422868252    0.531801641    0.598759174
    0.422868252    0.031801581    0.743210614
    0.422868371    0.531801641    0.887661994
    0.572868228    0.481801629    0.526533484
    0.572868288    0.981801629    0.670984805
    0.572868347    0.481801569    0.815436304
    0.772868276    0.081801534    0.526533484
    0.772868276    0.581801593    0.670984805
    0.772868395    0.081801534    0.815436304
    0.972868204    0.681801677    0.526533484
    0.972868264    0.181801602    0.670984805
    0.972868323    0.681801736    0.815436304
    0.172868252    0.281801641    0.526533484
    0.172868252    0.781801641    0.670984805
    0.172868371    0.281801641    0.815436304
    0.372868180    0.881801605    0.526533484
    0.372868299    0.381801665    0.670984805
    0.372868299    0.881801546    0.815436304
    0.522868216    0.831801653    0.598759174
    0.522868276    0.331801713    0.743210614
    0.522868335    0.831801713    0.887661994
    0.722868204    0.431801677    0.598759174
    0.722868264    0.931801677    0.743210614
    0.722868323    0.431801736    0.887661994
    0.922868192    0.031801581    0.598759174
    0.922868192    0.531801641    0.743210614
    0.922868371    0.031801581    0.887661994
    0.122868180    0.631801665    0.598759174
    0.122868299    0.131801605    0.743210614
    0.122868299    0.631801784    0.887661994
    0.322868347    0.231801674    0.598759174
    0.322868347    0.731801689    0.743210614
    0.322868466    0.231801674    0.887661994
