Si+C                                    
   1.00000000000000     
    16.2930011750000006    0.0000000000000000    0.0000000000000000
   -10.8620004649999995   12.1440858840000008    0.0000000000000000
     0.0000000000000000    0.0000000000000000    7.4017848969999998
   Si   C 
    36    84
Direct
  0.9829056259999973  0.6410251260000024  0.0000000020000002
  0.7829055790000012  0.3410250250000004  0.1640697570000000
  0.5829054120000023  0.0410249350000029  0.3281395140000001
  0.9829056259999973  0.3076917830000028  0.0000000020000002
  0.7829055790000012  0.0076917150000000  0.1640697570000000
  0.5829054120000023  0.7076916689999990  0.3281395140000001
  0.9829056259999973  0.9743584989999974  0.0000000020000002
  0.7829055790000012  0.6743583680000000  0.1640697570000000
  0.5829054120000023  0.3743582959999969  0.3281395140000001
  0.6329056619999989  0.6576917169999987  0.0820347069999983
  0.4329055850000003  0.3576916159999968  0.2461044790000031
  0.2329055220000029  0.0576915779999965  0.4101742209999983
  0.6329056619999989  0.3243584630000029  0.0820347069999983
  0.4329055850000003  0.0243583689999980  0.2461044790000031
  0.2329055220000029  0.7243583200000003  0.4101742209999983
  0.6329056619999989  0.9910252090000000  0.0820347069999983
  0.4329055850000003  0.6910251380000005  0.2461044790000031
  0.2329055220000029  0.3910250659999974  0.4101742209999983
  0.4829056259999973  0.8076917530000003  0.0000000000000000
  0.2829055489999988  0.5076916220000030  0.1640697570000000
  0.0829054419999977  0.2076916099999977  0.3281395140000001
  0.4829056259999973  0.4743584389999995  0.0000000000000000
  0.2829055489999988  0.1743583530000024  0.1640697570000000
  0.0829054419999977  0.8743582959999969  0.3281395140000001
  0.4829056259999973  0.1410251410000001  0.0000000000000000
  0.2829055489999988  0.8410250539999993  0.1640697570000000
  0.0829054419999977  0.5410249829999998  0.3281395140000001
  0.1329056769999966  0.8243585230000008  0.0820347220000031
  0.9329055549999978  0.5243583920000034  0.2461044790000031
  0.7329055069999981  0.2243583799999982  0.4101742209999983
  0.1329056769999966  0.4910252090000000  0.0820347220000031
  0.9329055549999978  0.1910251079999981  0.2461044790000031
  0.7329055069999981  0.8910251260000024  0.4101742209999983
  0.1329056769999966  0.1576919560000007  0.0820347220000031
  0.9329055549999978  0.8576918839999976  0.2461044790000031
  0.7329055069999981  0.5576919319999973  0.4101742209999983
  0.8890123369999969  0.0279448029999969  0.5703964229999983
  0.1318695550000015  0.9993733169999999  0.6781489850000000
  0.3747267720000025  0.9708018299999992  0.7859014869999967
  0.1747266049999965  0.1708019519999979  0.5703964229999983
  0.4175838230000011  0.1422304660000009  0.6781489850000000
  0.6604410409999986  0.1136589939999979  0.7859014869999967
  0.4604408739999997  0.3136590720000001  0.5703964229999983
  0.7032980919999972  0.2850875849999994  0.6781489850000000
  0.9461553690000031  0.2565161289999978  0.7859014869999967
  0.7461552620000020  0.4565162660000013  0.5703964229999983
  0.9890124200000017  0.4279447790000006  0.6781489850000000
  0.2318696979999970  0.3993733229999989  0.7859014869999967
  0.0318694110000024  0.5993733410000033  0.5703964229999983
  0.2747266289999999  0.5708019140000005  0.6781489850000000
  0.5175838469999974  0.5422304269999998  0.7859014869999967
  0.3175837989999977  0.7422305349999974  0.5703964229999983
  0.5604410170000023  0.7136590479999967  0.6781489850000000
  0.8032982349999997  0.6850875619999997  0.7859014869999967
  0.6032979490000017  0.8850876690000007  0.5703964229999983
  0.8461551669999992  0.8565161229999987  0.6781489850000000
  0.0890123840000001  0.8279446960000030  0.7859014869999967
  0.7247264390000012  0.1208019549999975  0.6242726449999978
  0.9675838349999992  0.0922304839999981  0.7320250869999967
  0.2104411130000017  0.0636589679999986  0.8397776480000019
  0.0104407070000008  0.2636590899999973  0.6242725849999999
  0.2532980439999974  0.2350876180000014  0.7320250869999967
  0.4961552620000020  0.2065161020000019  0.8397777079999997
  0.2961550950000031  0.4065162839999985  0.6242725849999999
  0.5390123130000006  0.3779447969999978  0.7320250869999967
  0.7818696499999973  0.3493733110000008  0.8397777079999997
  0.5818693639999992  0.5493733879999994  0.6242725849999999
  0.8247267010000030  0.5208019020000023  0.7320250869999967
  0.0675840379999997  0.4922305050000020  0.8397777079999997
  0.8675835729999974  0.6922305229999992  0.6242725849999999
  0.1104409690000026  0.6636590359999985  0.7320250869999967
  0.3532979490000017  0.6350875500000015  0.8397777079999997
  0.1532980200000011  0.8350876570000025  0.6242726449999978
  0.3961553569999978  0.8065161110000005  0.7320250869999967
  0.6390125750000024  0.7779446839999977  0.8397776480000019
  0.4390121699999980  0.9779447319999974  0.6242726449999978
  0.6818693880000026  0.9493733050000017  0.7320250869999967
  0.9247266650000014  0.9208018180000010  0.8397776480000019
  0.5318696499999973  0.0993733999999975  0.5703964229999983
  0.7747266289999999  0.0708018990000028  0.6781489850000000
  0.0175840850000029  0.0422304720000000  0.7859014869999967
  0.8175839190000005  0.2422305489999985  0.5703964229999983
  0.0604410170000023  0.2136590329999990  0.6781489850000000
  0.3032982349999997  0.1850875470000020  0.7859014869999967
  0.1032980680000009  0.3850876990000032  0.5703964229999983
  0.3461552859999983  0.3565162120000025  0.6781489850000000
  0.5890125040000029  0.3279447259999984  0.7859014869999967
  0.3890123369999969  0.5279448029999969  0.5703964229999983
  0.6318695550000015  0.4993733470000024  0.6781489850000000
  0.8747268320000003  0.4708018899999971  0.7859014869999967
  0.6747266050000036  0.6708019379999968  0.5703964229999983
  0.9175838829999989  0.6422305110000011  0.6781489850000000
  0.1604409219999994  0.6136589649999991  0.7859014869999967
  0.9604408739999997  0.8136591319999980  0.5703964229999983
  0.2032980919999972  0.7850877050000022  0.6781489850000000
  0.4461554290000009  0.7565162180000016  0.7859014869999967
  0.2461551430000029  0.9565162660000013  0.5703964229999983
  0.4890123610000003  0.9279448389999985  0.6781489850000000
  0.7318696979999970  0.8993733530000014  0.7859014869999967
  0.0818694829999984  0.0493733960000000  0.6242725849999999
  0.3247267010000030  0.0208019020000023  0.7320250869999967
  0.5675840379999997  0.9922304150000016  0.8397777079999997
  0.3675836319999988  0.1922305379999969  0.6242725849999999
  0.6104409690000026  0.1636590359999985  0.7320250869999967
  0.8532981870000000  0.1350875939999980  0.8397776480000019
  0.6532979010000020  0.3350876570000025  0.6242725849999999
  0.8961552979999965  0.3065162299999997  0.7320251459999980
  0.1390125750000024  0.2779447730000015  0.8397776480000019
  0.9390121100000002  0.4779448210000012  0.6242725849999999
  0.1818695070000018  0.4493733640000031  0.7320250869999967
  0.4247267249999993  0.4208018479999964  0.8397776480000019
  0.2247265580000004  0.6208018660000008  0.6242725849999999
  0.4675838949999971  0.5922303799999966  0.7320250869999967
  0.7104411130000017  0.5636589530000009  0.8397777079999997
  0.5104408260000000  0.7636590600000019  0.6242725849999999
  0.7532981629999966  0.7350875739999978  0.7320250869999967
  0.9961554409999991  0.7065162060000034  0.8397777079999997
  0.7961549759999969  0.9065161939999982  0.6242725849999999
  0.0390124319999998  0.8779447670000025  0.7320250869999967
  0.2818696499999973  0.8493732809999983  0.8397777079999997
 
  0.00000000E+00  0.00000000E+00  0.00000000E+00
  0.00000000E+00  0.00000000E+00  0.00000000E+00
  0.00000000E+00  0.00000000E+00  0.00000000E+00
  0.00000000E+00  0.00000000E+00  0.00000000E+00
  0.00000000E+00  0.00000000E+00  0.00000000E+00
  0.00000000E+00  0.00000000E+00  0.00000000E+00
  0.00000000E+00  0.00000000E+00  0.00000000E+00
  0.00000000E+00  0.00000000E+00  0.00000000E+00
  0.00000000E+00  0.00000000E+00  0.00000000E+00
  0.00000000E+00  0.00000000E+00  0.00000000E+00
  0.00000000E+00  0.00000000E+00  0.00000000E+00
  0.00000000E+00  0.00000000E+00  0.00000000E+00
  0.00000000E+00  0.00000000E+00  0.00000000E+00
  0.00000000E+00  0.00000000E+00  0.00000000E+00
  0.00000000E+00  0.00000000E+00  0.00000000E+00
  0.00000000E+00  0.00000000E+00  0.00000000E+00
  0.00000000E+00  0.00000000E+00  0.00000000E+00
  0.00000000E+00  0.00000000E+00  0.00000000E+00
  0.00000000E+00  0.00000000E+00  0.00000000E+00
  0.00000000E+00  0.00000000E+00  0.00000000E+00
  0.00000000E+00  0.00000000E+00  0.00000000E+00
  0.00000000E+00  0.00000000E+00  0.00000000E+00
  0.00000000E+00  0.00000000E+00  0.00000000E+00
  0.00000000E+00  0.00000000E+00  0.00000000E+00
  0.00000000E+00  0.00000000E+00  0.00000000E+00
  0.00000000E+00  0.00000000E+00  0.00000000E+00
  0.00000000E+00  0.00000000E+00  0.00000000E+00
  0.00000000E+00  0.00000000E+00  0.00000000E+00
  0.00000000E+00  0.00000000E+00  0.00000000E+00
  0.00000000E+00  0.00000000E+00  0.00000000E+00
  0.00000000E+00  0.00000000E+00  0.00000000E+00
  0.00000000E+00  0.00000000E+00  0.00000000E+00
  0.00000000E+00  0.00000000E+00  0.00000000E+00
  0.00000000E+00  0.00000000E+00  0.00000000E+00
  0.00000000E+00  0.00000000E+00  0.00000000E+00
  0.00000000E+00  0.00000000E+00  0.00000000E+00
  0.00000000E+00  0.00000000E+00  0.00000000E+00
  0.00000000E+00  0.00000000E+00  0.00000000E+00
  0.00000000E+00  0.00000000E+00  0.00000000E+00
  0.00000000E+00  0.00000000E+00  0.00000000E+00
  0.00000000E+00  0.00000000E+00  0.00000000E+00
  0.00000000E+00  0.00000000E+00  0.00000000E+00
  0.00000000E+00  0.00000000E+00  0.00000000E+00
  0.00000000E+00  0.00000000E+00  0.00000000E+00
  0.00000000E+00  0.00000000E+00  0.00000000E+00
  0.00000000E+00  0.00000000E+00  0.00000000E+00
  0.00000000E+00  0.00000000E+00  0.00000000E+00
  0.00000000E+00  0.00000000E+00  0.00000000E+00
  0.00000000E+00  0.00000000E+00  0.00000000E+00
  0.00000000E+00  0.00000000E+00  0.00000000E+00
  0.00000000E+00  0.00000000E+00  0.00000000E+00
  0.00000000E+00  0.00000000E+00  0.00000000E+00
  0.00000000E+00  0.00000000E+00  0.00000000E+00
  0.00000000E+00  0.00000000E+00  0.00000000E+00
  0.00000000E+00  0.00000000E+00  0.00000000E+00
  0.00000000E+00  0.00000000E+00  0.00000000E+00
  0.00000000E+00  0.00000000E+00  0.00000000E+00
  0.00000000E+00  0.00000000E+00  0.00000000E+00
  0.00000000E+00  0.00000000E+00  0.00000000E+00
  0.00000000E+00  0.00000000E+00  0.00000000E+00
  0.00000000E+00  0.00000000E+00  0.00000000E+00
  0.00000000E+00  0.00000000E+00  0.00000000E+00
  0.00000000E+00  0.00000000E+00  0.00000000E+00
  0.00000000E+00  0.00000000E+00  0.00000000E+00
  0.00000000E+00  0.00000000E+00  0.00000000E+00
  0.00000000E+00  0.00000000E+00  0.00000000E+00
  0.00000000E+00  0.00000000E+00  0.00000000E+00
  0.00000000E+00  0.00000000E+00  0.00000000E+00
  0.00000000E+00  0.00000000E+00  0.00000000E+00
  0.00000000E+00  0.00000000E+00  0.00000000E+00
  0.00000000E+00  0.00000000E+00  0.00000000E+00
  0.00000000E+00  0.00000000E+00  0.00000000E+00
  0.00000000E+00  0.00000000E+00  0.00000000E+00
  0.00000000E+00  0.00000000E+00  0.00000000E+00
  0.00000000E+00  0.00000000E+00  0.00000000E+00
  0.00000000E+00  0.00000000E+00  0.00000000E+00
  0.00000000E+00  0.00000000E+00  0.00000000E+00
  0.00000000E+00  0.00000000E+00  0.00000000E+00
  0.00000000E+00  0.00000000E+00  0.00000000E+00
  0.00000000E+00  0.00000000E+00  0.00000000E+00
  0.00000000E+00  0.00000000E+00  0.00000000E+00
  0.00000000E+00  0.00000000E+00  0.00000000E+00
  0.00000000E+00  0.00000000E+00  0.00000000E+00
  0.00000000E+00  0.00000000E+00  0.00000000E+00
  0.00000000E+00  0.00000000E+00  0.00000000E+00
  0.00000000E+00  0.00000000E+00  0.00000000E+00
  0.00000000E+00  0.00000000E+00  0.00000000E+00
  0.00000000E+00  0.00000000E+00  0.00000000E+00
  0.00000000E+00  0.00000000E+00  0.00000000E+00
  0.00000000E+00  0.00000000E+00  0.00000000E+00
  0.00000000E+00  0.00000000E+00  0.00000000E+00
  0.00000000E+00  0.00000000E+00  0.00000000E+00
  0.00000000E+00  0.00000000E+00  0.00000000E+00
  0.00000000E+00  0.00000000E+00  0.00000000E+00
  0.00000000E+00  0.00000000E+00  0.00000000E+00
  0.00000000E+00  0.00000000E+00  0.00000000E+00
  0.00000000E+00  0.00000000E+00  0.00000000E+00
  0.00000000E+00  0.00000000E+00  0.00000000E+00
  0.00000000E+00  0.00000000E+00  0.00000000E+00
  0.00000000E+00  0.00000000E+00  0.00000000E+00
  0.00000000E+00  0.00000000E+00  0.00000000E+00
  0.00000000E+00  0.00000000E+00  0.00000000E+00
  0.00000000E+00  0.00000000E+00  0.00000000E+00
  0.00000000E+00  0.00000000E+00  0.00000000E+00
  0.00000000E+00  0.00000000E+00  0.00000000E+00
  0.00000000E+00  0.00000000E+00  0.00000000E+00
  0.00000000E+00  0.00000000E+00  0.00000000E+00
  0.00000000E+00  0.00000000E+00  0.00000000E+00
  0.00000000E+00  0.00000000E+00  0.00000000E+00
  0.00000000E+00  0.00000000E+00  0.00000000E+00
  0.00000000E+00  0.00000000E+00  0.00000000E+00
  0.00000000E+00  0.00000000E+00  0.00000000E+00
  0.00000000E+00  0.00000000E+00  0.00000000E+00
  0.00000000E+00  0.00000000E+00  0.00000000E+00
  0.00000000E+00  0.00000000E+00  0.00000000E+00
  0.00000000E+00  0.00000000E+00  0.00000000E+00
  0.00000000E+00  0.00000000E+00  0.00000000E+00
  0.00000000E+00  0.00000000E+00  0.00000000E+00
  0.00000000E+00  0.00000000E+00  0.00000000E+00
  0.00000000E+00  0.00000000E+00  0.00000000E+00
