Ge+Si                                   
   1.00000000000000     
     8.0013380049999991    0.0000000000000000    0.0000000000000000
     0.0000000000000000   16.0026760099999983    0.0000000000000000
     0.0000000000000000    0.0000000000000000   13.2643241879999998
   Ge   Si
    48    24
Direct
  0.9914582970000012  0.9957291480000023  0.0000000000000000
  0.7414582970000012  0.8707291480000023  0.2132713199999969
  0.4914582970000012  0.7457291480000023  0.4265426700000035
  0.9914582370000034  0.4957290890000010  0.0000000000000000
  0.7414582970000012  0.3707291190000035  0.2132713199999969
  0.4914582970000012  0.2457291190000035  0.4265426700000035
  0.4914582370000034  0.2457291190000035  0.0000000000000000
  0.2414582669999987  0.1207291329999975  0.2132713199999969
  0.9914582970000012  0.9957291480000023  0.4265426700000035
  0.4914582370000034  0.7457290890000010  0.0000000000000000
  0.2414582820000035  0.6207290890000010  0.2132713199999969
  0.9914582370000034  0.4957290890000010  0.4265426700000035
  0.2414582820000035  0.9957291480000023  0.1066356600000020
  0.9914582970000012  0.8707291480000023  0.3199070100000014
  0.7414582970000012  0.7457291480000023  0.5331783290000018
  0.2414582370000034  0.4957290890000010  0.1066356600000020
  0.9914582370000034  0.3707290890000010  0.3199070100000014
  0.7414582370000034  0.2457290890000010  0.5331783290000018
  0.7414582970000012  0.2457291480000023  0.1066356600000020
  0.4914582970000012  0.1207291480000023  0.3199070100000014
  0.2414582820000035  0.9957291480000023  0.5331783290000018
  0.7414582970000012  0.7457290890000010  0.1066356600000020
  0.4914582669999987  0.6207290890000010  0.3199070100000014
  0.2414582669999987  0.4957291190000035  0.5331783290000018
  0.9914582970000012  0.2457291329999975  0.0000000000000000
  0.7414582970000012  0.1207291329999975  0.2132713199999969
  0.4914582970000012  0.9957291480000023  0.4265426700000035
  0.4914582669999987  0.9957291480000023  0.0000000000000000
  0.2414582669999987  0.8707291480000023  0.2132713199999969
  0.9914582970000012  0.7457291480000023  0.4265426700000035
  0.9914582370000034  0.7457291480000023  0.0000000000000000
  0.7414582970000012  0.6207291480000023  0.2132713199999969
  0.4914582970000012  0.4957291480000023  0.4265426700000035
  0.4914582669999987  0.4957291190000035  0.0000000000000000
  0.2414583119999989  0.3707291480000023  0.2132713199999969
  0.9914582970000012  0.2457291480000023  0.4265426700000035
  0.2414582820000035  0.2457291190000035  0.1066356600000020
  0.9914582970000012  0.1207291329999975  0.3199070100000014
  0.7414582970000012  0.9957291480000023  0.5331783290000018
  0.7414582370000034  0.9957291480000023  0.1066356600000020
  0.4914582669999987  0.8707291480000023  0.3199070100000014
  0.2414582520000010  0.7457290890000010  0.5331783290000018
  0.2414582820000035  0.7457290890000010  0.1066356600000020
  0.9914582970000012  0.6207290890000010  0.3199070100000014
  0.7414582970000012  0.4957290890000010  0.5331783290000018
  0.7414582370000034  0.4957290890000010  0.1066356600000020
  0.4914582669999987  0.3707291190000035  0.3199070100000014
  0.2414582520000010  0.2457290890000010  0.5331783290000018
  0.8802229169999976  0.1008121970000033  0.6459553839999970
  0.6302227970000018  0.7119232419999975  0.6942088600000034
  0.3802227970000018  0.3230343760000025  0.7424623969999971
  0.1302227970000018  0.9341453310000034  0.7907158140000021
  0.8802227970000018  0.5452563759999975  0.8389693499999993
  0.6302225590000035  0.1563670640000012  0.8872227669999972
  0.1302229169999976  0.8508123160000025  0.6459553839999970
  0.8802229169999976  0.4619232710000034  0.6942088600000034
  0.6302229169999976  0.0730344059999979  0.7424623969999971
  0.3802227970000018  0.6841453310000034  0.7907158730000035
  0.1302226780000026  0.2952562870000008  0.8389692900000014
  0.8802225590000035  0.9063671830000004  0.8872228860000035
  0.6302230359999967  0.8508123160000025  0.6459553839999970
  0.3802229169999976  0.4619232419999975  0.6942088600000034
  0.1302229169999976  0.0730342860000022  0.7424623969999971
  0.8802227970000018  0.6841453310000034  0.7907158730000035
  0.6302227970000018  0.2952562870000008  0.8389692900000014
  0.3802226780000026  0.9063671830000004  0.8872228259999986
  0.3802229169999976  0.1008121970000033  0.6459553839999970
  0.1302227970000018  0.7119232419999975  0.6942088600000034
  0.8802227970000018  0.3230343760000025  0.7424623969999971
  0.6302227970000018  0.9341453310000034  0.7907158140000021
  0.3802227970000018  0.5452562569999984  0.8389693499999993
  0.1302225590000035  0.1563673019999996  0.8872228860000035
 
  0.00000000E+00  0.00000000E+00  0.00000000E+00
  0.00000000E+00  0.00000000E+00  0.00000000E+00
  0.00000000E+00  0.00000000E+00  0.00000000E+00
  0.00000000E+00  0.00000000E+00  0.00000000E+00
  0.00000000E+00  0.00000000E+00  0.00000000E+00
  0.00000000E+00  0.00000000E+00  0.00000000E+00
  0.00000000E+00  0.00000000E+00  0.00000000E+00
  0.00000000E+00  0.00000000E+00  0.00000000E+00
  0.00000000E+00  0.00000000E+00  0.00000000E+00
  0.00000000E+00  0.00000000E+00  0.00000000E+00
  0.00000000E+00  0.00000000E+00  0.00000000E+00
  0.00000000E+00  0.00000000E+00  0.00000000E+00
  0.00000000E+00  0.00000000E+00  0.00000000E+00
  0.00000000E+00  0.00000000E+00  0.00000000E+00
  0.00000000E+00  0.00000000E+00  0.00000000E+00
  0.00000000E+00  0.00000000E+00  0.00000000E+00
  0.00000000E+00  0.00000000E+00  0.00000000E+00
  0.00000000E+00  0.00000000E+00  0.00000000E+00
  0.00000000E+00  0.00000000E+00  0.00000000E+00
  0.00000000E+00  0.00000000E+00  0.00000000E+00
  0.00000000E+00  0.00000000E+00  0.00000000E+00
  0.00000000E+00  0.00000000E+00  0.00000000E+00
  0.00000000E+00  0.00000000E+00  0.00000000E+00
  0.00000000E+00  0.00000000E+00  0.00000000E+00
  0.00000000E+00  0.00000000E+00  0.00000000E+00
  0.00000000E+00  0.00000000E+00  0.00000000E+00
  0.00000000E+00  0.00000000E+00  0.00000000E+00
  0.00000000E+00  0.00000000E+00  0.00000000E+00
  0.00000000E+00  0.00000000E+00  0.00000000E+00
  0.00000000E+00  0.00000000E+00  0.00000000E+00
  0.00000000E+00  0.00000000E+00  0.00000000E+00
  0.00000000E+00  0.00000000E+00  0.00000000E+00
  0.00000000E+00  0.00000000E+00  0.00000000E+00
  0.00000000E+00  0.00000000E+00  0.00000000E+00
  0.00000000E+00  0.00000000E+00  0.00000000E+00
  0.00000000E+00  0.00000000E+00  0.00000000E+00
  0.00000000E+00  0.00000000E+00  0.00000000E+00
  0.00000000E+00  0.00000000E+00  0.00000000E+00
  0.00000000E+00  0.00000000E+00  0.00000000E+00
  0.00000000E+00  0.00000000E+00  0.00000000E+00
  0.00000000E+00  0.00000000E+00  0.00000000E+00
  0.00000000E+00  0.00000000E+00  0.00000000E+00
  0.00000000E+00  0.00000000E+00  0.00000000E+00
  0.00000000E+00  0.00000000E+00  0.00000000E+00
  0.00000000E+00  0.00000000E+00  0.00000000E+00
  0.00000000E+00  0.00000000E+00  0.00000000E+00
  0.00000000E+00  0.00000000E+00  0.00000000E+00
  0.00000000E+00  0.00000000E+00  0.00000000E+00
  0.00000000E+00  0.00000000E+00  0.00000000E+00
  0.00000000E+00  0.00000000E+00  0.00000000E+00
  0.00000000E+00  0.00000000E+00  0.00000000E+00
  0.00000000E+00  0.00000000E+00  0.00000000E+00
  0.00000000E+00  0.00000000E+00  0.00000000E+00
  0.00000000E+00  0.00000000E+00  0.00000000E+00
  0.00000000E+00  0.00000000E+00  0.00000000E+00
  0.00000000E+00  0.00000000E+00  0.00000000E+00
  0.00000000E+00  0.00000000E+00  0.00000000E+00
  0.00000000E+00  0.00000000E+00  0.00000000E+00
  0.00000000E+00  0.00000000E+00  0.00000000E+00
  0.00000000E+00  0.00000000E+00  0.00000000E+00
  0.00000000E+00  0.00000000E+00  0.00000000E+00
  0.00000000E+00  0.00000000E+00  0.00000000E+00
  0.00000000E+00  0.00000000E+00  0.00000000E+00
  0.00000000E+00  0.00000000E+00  0.00000000E+00
  0.00000000E+00  0.00000000E+00  0.00000000E+00
  0.00000000E+00  0.00000000E+00  0.00000000E+00
  0.00000000E+00  0.00000000E+00  0.00000000E+00
  0.00000000E+00  0.00000000E+00  0.00000000E+00
  0.00000000E+00  0.00000000E+00  0.00000000E+00
  0.00000000E+00  0.00000000E+00  0.00000000E+00
  0.00000000E+00  0.00000000E+00  0.00000000E+00
  0.00000000E+00  0.00000000E+00  0.00000000E+00
