Sn+Ge
    1.000000000
   12.978400230    0.000000000    0.000000000
  -12.978400230   12.978400230    0.000000000
    0.000000000    0.000000000   19.583751678
Sn  Ge 
48     60
Direct
    0.492552608    0.000000000    0.000000000
    0.242552638    0.000000000    0.165678188
    0.992552698    0.000000000    0.331356287
    0.992552638    0.000000000    0.000000000
    0.742552638    0.000000000    0.165678188
    0.492552757    0.000000000    0.331356287
    0.492552608    0.499999970    0.000000000
    0.242552638    0.499999970    0.165678188
    0.992552698    0.499999970    0.331356287
    0.992552638    0.499999970    0.000000000
    0.742552638    0.499999970    0.165678188
    0.492552698    0.499999970    0.331356287
    0.492552608    0.124999993    0.082839087
    0.242552668    0.124999993    0.248517260
    0.992552638    0.124999993    0.414195418
    0.992552638    0.124999993    0.082839087
    0.742552757    0.124999993    0.248517260
    0.492552698    0.124999993    0.414195418
    0.492552578    0.624999940    0.082839087
    0.242552638    0.624999940    0.248517260
    0.992552638    0.624999940    0.414195418
    0.992552638    0.624999940    0.082839087
    0.742552698    0.624999940    0.248517260
    0.492552698    0.624999940    0.414195418
    0.492552638    0.249999985    0.000000000
    0.242552638    0.249999985    0.165678188
    0.992552698    0.249999985    0.331356287
    0.992552638    0.249999985    0.000000000
    0.742552638    0.249999985    0.165678188
    0.492552757    0.249999985    0.331356287
    0.492552608    0.749999940    0.000000000
    0.242552593    0.749999940    0.165678188
    0.992552698    0.749999940    0.331356287
    0.992552638    0.749999940    0.000000000
    0.742552638    0.749999940    0.165678188
    0.492552698    0.749999940    0.331356287
    0.492552608    0.374999970    0.082839087
    0.242552668    0.374999970    0.248517260
    0.992552638    0.374999970    0.414195418
    0.992552638    0.374999970    0.082839087
    0.742552757    0.374999970    0.248517260
    0.492552698    0.374999970    0.414195418
    0.492552608    0.874999940    0.082839087
    0.242552698    0.874999940    0.248517260
    0.992552638    0.874999940    0.414195418
    0.992552638    0.874999940    0.082839087
    0.742552757    0.874999940    0.248517260
    0.492552757    0.874999940    0.414195418
    0.936118186    0.421995938    0.526533484
    0.836118162    0.521995902    0.670984805
    0.736118078    0.621995986    0.815436304
    0.136118174    0.221995920    0.526533484
    0.036118150    0.321995944    0.670984805
    0.936118126    0.421995997    0.815436304
    0.736118257    0.621995986    0.526533484
    0.636118174    0.721996009    0.670984805
    0.536118150    0.821996033    0.815436304
    0.536118269    0.821995974    0.526533484
    0.436118186    0.921995997    0.670984805
    0.336118162    0.021996021    0.815436304
    0.336118221    0.021996021    0.526533484
    0.236118183    0.121996045    0.670984805
    0.136118174    0.221996009    0.815436304
    0.036118269    0.571995974    0.598759174
    0.936118186    0.671995997    0.743210614
    0.836118162    0.771996021    0.887661994
    0.236118197    0.371995926    0.598759174
    0.136118174    0.471995980    0.743210614
    0.036118150    0.571995974    0.887661994
    0.836118221    0.771995962    0.598759174
    0.736118138    0.871996045    0.743210614
    0.636118114    0.971996069    0.887661994
    0.636118233    0.971995950    0.598759174
    0.536118209    0.071995974    0.743210614
    0.436118156    0.171996117    0.887661994
    0.436118156    0.171996117    0.598759174
    0.336118132    0.271996081    0.743210614
    0.236118078    0.371996105    0.887661994
    0.536118269    0.321995944    0.526533484
    0.436118215    0.421995968    0.670984805
    0.336118162    0.521996021    0.815436304
    0.336118221    0.521995962    0.526533484
    0.236118183    0.621995986    0.670984805
    0.136118174    0.721996009    0.815436304
    0.936118186    0.921995997    0.526533484
    0.836118162    0.021996021    0.670984805
    0.736118138    0.121996045    0.815436304
    0.136118174    0.721995950    0.526533484
    0.036118269    0.821995974    0.670984805
    0.936118126    0.921996057    0.815436304
    0.736118138    0.121996045    0.526533484
    0.636118114    0.221996009    0.670984805
    0.536118031    0.321996152    0.815436304
    0.836118221    0.271995962    0.598759174
    0.736118138    0.371995986    0.743210614
    0.636118114    0.471996039    0.887661994
    0.636118174    0.471995950    0.598759174
    0.536118150    0.571995974    0.743210614
    0.436118126    0.671995997    0.887661994
    0.436118186    0.671995997    0.598759174
    0.336118162    0.771996021    0.743210614
    0.236118123    0.871996045    0.887661994
    0.036118269    0.071995974    0.598759174
    0.936118245    0.171996117    0.743210614
    0.836118221    0.271996081    0.887661994
    0.236118168    0.871995986    0.598759174
    0.136118174    0.971996009    0.743210614
    0.036118031    0.071995974    0.887661994
