Ge+Sn
    1.000000000
   11.315600395    0.000000000    0.000000000
  -11.315600395   16.002676010    0.000000000
    0.000000000    0.000000000   25.800939560
Ge  Sn 
96     72
Direct
    0.985331416    0.455994159    0.000000018
    0.860331416    0.080994137    0.077529535
    0.735331416    0.705994129    0.155059069
    0.610331416    0.330994248    0.232588530
    0.485331357    0.955994129    0.310118079
    0.360331357    0.580994129    0.387647629
    0.485331386    0.455994159    0.000000018
    0.360331416    0.080994137    0.077529535
    0.235331357    0.705994129    0.155059069
    0.110331379    0.330994248    0.232588530
    0.985331476    0.955994129    0.310118079
    0.860331416    0.580994129    0.387647629
    0.985331357    0.955994129    0.000000016
    0.860331416    0.580994129    0.077529542
    0.735331416    0.205994129    0.155059054
    0.610331416    0.830994368    0.232588530
    0.485331416    0.455994129    0.310118109
    0.360331357    0.080994129    0.387647599
    0.485331386    0.955994129    0.000000016
    0.360331357    0.580994129    0.077529542
    0.235331446    0.205994129    0.155059054
    0.110331491    0.830994368    0.232588530
    0.985331297    0.455994129    0.310118109
    0.860331357    0.080994129    0.387647599
    0.235331371    0.705994129    0.000000021
    0.110331371    0.330994129    0.077529535
    0.985331357    0.955994129    0.155059054
    0.860331357    0.580994248    0.232588559
    0.735331357    0.205994189    0.310118109
    0.610331297    0.830994129    0.387647629
    0.735331357    0.705994129    0.000000021
    0.610331357    0.330994129    0.077529535
    0.485331327    0.955994129    0.155059054
    0.360331357    0.580994248    0.232588559
    0.235331371    0.205994189    0.310118109
    0.110331364    0.830994129    0.387647629
    0.235331386    0.205994144    0.000000017
    0.110331394    0.830994129    0.077529535
    0.985331357    0.455994129    0.155059054
    0.860331357    0.080994248    0.232588559
    0.735331476    0.705994248    0.310118079
    0.610331357    0.330994129    0.387647599
    0.735331297    0.205994144    0.000000017
    0.610331357    0.830994129    0.077529535
    0.485331386    0.455994129    0.155059054
    0.360331297    0.080994248    0.232588559
    0.235331386    0.705994248    0.310118079
    0.110331260    0.330994129    0.387647599
    0.985331416    0.580994189    0.000000026
    0.860331416    0.205994159    0.077529535
    0.735331357    0.830994129    0.155059054
    0.610331416    0.455994248    0.232588530
    0.485331357    0.080994189    0.310118109
    0.360331357    0.705994129    0.387647629
    0.485331416    0.580994189    0.000000026
    0.360331416    0.205994159    0.077529535
    0.235331401    0.830994129    0.155059054
    0.110331431    0.455994248    0.232588530
    0.985331357    0.080994189    0.310118109
    0.860331416    0.705994129    0.387647629
    0.985331357    0.080994137    0.000000013
    0.860331416    0.705994129    0.077529535
    0.735331416    0.330994129    0.155059054
    0.610331416    0.955994248    0.232588559
    0.485331416    0.580994248    0.310118079
    0.360331357    0.205994010    0.387647599
    0.485331386    0.080994137    0.000000013
    0.360331357    0.705994129    0.077529535
    0.235331401    0.330994129    0.155059054
    0.110331446    0.955994248    0.232588559
    0.985331535    0.580994248    0.310118079
    0.860331237    0.205994010    0.387647599
    0.235331446    0.830994189    0.000000000
    0.110331416    0.455994189    0.077529535
    0.985331416    0.080994174    0.155059054
    0.860331416    0.705994308    0.232588530
    0.735331416    0.330994248    0.310118079
    0.610331416    0.955994129    0.387647569
    0.735331416    0.830994189    0.000000000
    0.610331416    0.455994189    0.077529535
    0.485331386    0.080994174    0.155059054
    0.360331416    0.705994308    0.232588530
    0.235331416    0.330994248    0.310118079
    0.110331357    0.955994129    0.387647569
    0.235331371    0.330994129    0.000000018
    0.110331379    0.955994129    0.077529542
    0.985331357    0.580994129    0.155059054
    0.860331416    0.205994248    0.232588559
    0.735331357    0.830994129    0.310118079
    0.610331416    0.455994129    0.387647599
    0.735331357    0.330994129    0.000000018
    0.610331357    0.955994129    0.077529542
    0.485331386    0.580994129    0.155059054
    0.360331416    0.205994248    0.232588559
    0.235331461    0.830994129    0.310118079
    0.110331304    0.455994129    0.387647599
    0.240949035    0.243559003    0.471518010
    0.990949035    0.993558943    0.560440361
    0.740948915    0.743558824    0.649362683
    0.490948886    0.493558645    0.738284945
    0.240948796    0.243558645    0.827207208
    0.990948796    0.993558586    0.916129589
    0.240949035    0.910225630    0.471518010
    0.990949035    0.660225630    0.560440361
    0.740948915    0.410225391    0.649362683
    0.490948886    0.160225391    0.738284945
    0.240948796    0.910225332    0.827207208
    0.990948796    0.660225213    0.916129589
    0.240949035    0.576892376    0.471518010
    0.990949035    0.326892257    0.560440361
    0.740948915    0.076892138    0.649362683
    0.490948886    0.826891959    0.738284945
    0.240948796    0.576891899    0.827207208
    0.990948796    0.326891899    0.916129589
    0.740949035    0.410225630    0.471518010
    0.490949035    0.160225630    0.560440361
    0.240948915    0.910225511    0.649362624
    0.990948915    0.660225391    0.738284945
    0.740948915    0.410225391    0.827207208
    0.490948826    0.160225153    0.916129589
    0.740949035    0.076892257    0.471518010
    0.490949035    0.826892257    0.560440361
    0.240948915    0.576892138    0.649362624
    0.990948915    0.326892018    0.738284945
    0.740948915    0.076891899    0.827207208
    0.490948826    0.826891899    0.916129589
    0.740949035    0.743559003    0.471518010
    0.490949035    0.493558884    0.560440361
    0.240948915    0.243558884    0.649362624
    0.990948915    0.993558645    0.738284945
    0.740948915    0.743558586    0.827207208
    0.490948826    0.493558407    0.916129589
    0.990949035    0.243559122    0.471518010
    0.740949035    0.993559003    0.560440421
    0.490948975    0.743558884    0.649362683
    0.240948915    0.493558764    0.738284945
    0.990948796    0.243558764    0.827207267
    0.740948796    0.993558645    0.916129589
    0.990949035    0.910225630    0.471518010
    0.740949035    0.660225630    0.560440421
    0.490948975    0.410225391    0.649362683
    0.240948915    0.160225391    0.738284945
    0.990948796    0.910225332    0.827207267
    0.740948796    0.660225213    0.916129589
    0.990949035    0.576892376    0.471518010
    0.740949035    0.326892257    0.560440421
    0.490948975    0.076892138    0.649362683
    0.240948915    0.826892018    0.738284945
    0.990948796    0.576891899    0.827207267
    0.740948796    0.326891899    0.916129589
    0.490949064    0.410225630    0.471518010
    0.240949035    0.160225630    0.560440421
    0.990948915    0.910225391    0.649362683
    0.740948796    0.660225272    0.738284945
    0.490948886    0.410225272    0.827207208
    0.240948796    0.160225153    0.916129589
    0.490949064    0.076892257    0.471518010
    0.240949035    0.826892257    0.560440421
    0.990948915    0.576892138    0.649362683
    0.740948796    0.326892018    0.738284945
    0.490948886    0.076891899    0.827207208
    0.240948796    0.826891899    0.916129589
    0.490949064    0.743559003    0.471518010
    0.240949035    0.493558884    0.560440421
    0.990948915    0.243558884    0.649362683
    0.740948796    0.993558645    0.738284945
    0.490948886    0.743558705    0.827207208
    0.240948796    0.493558407    0.916129589
