Ge+Si
    1.000000000
   16.973400116    0.000000000    0.000000000
    0.000000000   16.973400116    0.000000000
    0.000000000    0.000000000   17.861000061
Ge  Si 
108     120
Direct
    0.994305491    0.666666567    0.000000000
    0.827638865    0.666666567    0.158384174
    0.660972118    0.666666567    0.316768378
    0.994305491    0.333333284    0.000000000
    0.827638865    0.333333284    0.158384174
    0.660972118    0.333333284    0.316768378
    0.994305491    0.000000000    0.000000000
    0.827638865    0.000000000    0.158384174
    0.660972118    0.000000000    0.316768378
    0.327638805    0.666666567    0.000000000
    0.160972148    0.666666567    0.158384174
    0.994305432    0.666666567    0.316768378
    0.327638805    0.333333284    0.000000000
    0.160972148    0.333333284    0.158384174
    0.994305432    0.333333284    0.316768378
    0.327638805    0.000000000    0.000000000
    0.160972148    0.000000000    0.158384174
    0.994305432    0.000000000    0.316768378
    0.660972118    0.666666567    0.000000000
    0.494305432    0.666666567    0.158384174
    0.327638745    0.666666567    0.316768378
    0.660972118    0.333333284    0.000000000
    0.494305432    0.333333284    0.158384174
    0.327638745    0.333333284    0.316768378
    0.660972118    0.000000000    0.000000000
    0.494305432    0.000000000    0.158384174
    0.327638745    0.000000000    0.316768378
    0.077638842    0.916666567    0.079192095
    0.910972118    0.916666567    0.237576291
    0.744305491    0.916666567    0.395960480
    0.077638842    0.583333313    0.079192095
    0.910972118    0.583333313    0.237576291
    0.744305491    0.583333313    0.395960480
    0.077638842    0.249999955    0.079192095
    0.910972118    0.249999955    0.237576291
    0.744305491    0.249999955    0.395960480
    0.410972089    0.916666567    0.079192095
    0.244305417    0.916666567    0.237576291
    0.077638723    0.916666567    0.395960480
    0.410972089    0.583333313    0.079192095
    0.244305417    0.583333313    0.237576291
    0.077638723    0.583333313    0.395960480
    0.410972089    0.249999955    0.079192095
    0.244305417    0.249999955    0.237576291
    0.077638723    0.249999955    0.395960480
    0.744305491    0.916666567    0.079192095
    0.577638745    0.916666567    0.237576291
    0.410972059    0.916666567    0.395960480
    0.744305491    0.583333313    0.079192095
    0.577638745    0.583333313    0.237576291
    0.410972059    0.583333313    0.395960480
    0.744305491    0.249999955    0.079192095
    0.577638745    0.249999955    0.237576291
    0.410972059    0.249999955    0.395960480
    0.160972163    0.833333194    0.000000000
    0.994305491    0.833333194    0.158384174
    0.827638805    0.833333194    0.316768378
    0.160972163    0.499999911    0.000000000
    0.994305491    0.499999911    0.158384174
    0.827638805    0.499999911    0.316768378
    0.160972163    0.166666642    0.000000000
    0.994305491    0.166666642    0.158384174
    0.827638805    0.166666642    0.316768378
    0.494305432    0.833333194    0.000000000
    0.327638745    0.833333194    0.158384174
    0.160972074    0.833333194    0.316768378
    0.494305432    0.499999911    0.000000000
    0.327638745    0.499999911    0.158384174
    0.160972074    0.499999911    0.316768378
    0.494305432    0.166666642    0.000000000
    0.327638745    0.166666642    0.158384174
    0.160972074    0.166666642    0.316768378
    0.827638805    0.833333194    0.000000000
    0.660972118    0.833333194    0.158384174
    0.494305432    0.833333194    0.316768378
    0.827638805    0.499999911    0.000000000
    0.660972118    0.499999911    0.158384174
    0.494305432    0.499999911    0.316768378
    0.827638805    0.166666642    0.000000000
    0.660972118    0.166666642    0.158384174
    0.494305432    0.166666642    0.316768378
    0.244305462    0.749999881    0.079192095
    0.077638783    0.749999881    0.237576291
    0.910972118    0.749999881    0.395960480
    0.244305462    0.416666627    0.079192095
    0.077638783    0.416666627    0.237576291
    0.910972118    0.416666627    0.395960480
    0.244305462    0.083333328    0.079192095
    0.077638783    0.083333328    0.237576291
    0.910972118    0.083333328    0.395960480
    0.577638865    0.749999881    0.079192095
    0.410972148    0.749999881    0.237576291
    0.244305447    0.749999881    0.395960480
    0.577638865    0.416666627    0.079192095
    0.410972148    0.416666627    0.237576291
    0.244305447    0.416666627    0.395960480
    0.577638865    0.083333328    0.079192095
    0.410972148    0.083333328    0.237576291
    0.244305447    0.083333328    0.395960480
    0.910972178    0.749999881    0.079192095
    0.744305491    0.749999881    0.237576291
    0.577638745    0.749999881    0.395960480
    0.910972178    0.416666627    0.079192095
    0.744305491    0.416666627    0.237576291
    0.577638745    0.416666627    0.395960480
    0.910972178    0.083333328    0.079192095
    0.744305491    0.083333328    0.237576291
    0.577638745    0.083333328    0.395960480
    0.741966486    0.087256670    0.507936299
    0.691966534    0.737256646    0.659971476
    0.641966343    0.387256503    0.812006712
    0.841966510    0.787256777    0.507936299
    0.791966498    0.437256694    0.659971476
    0.741966367    0.087256551    0.812006712
    0.941966534    0.487256706    0.507936299
    0.891966462    0.137256637    0.659971476
    0.841966391    0.787256479    0.812006712
    0.041966558    0.187256694    0.507936299
    0.991966426    0.837256670    0.659971476
    0.941966355    0.487256467    0.812006712
    0.141966581    0.887256742    0.507936299
    0.091966510    0.537256598    0.659971476
    0.041966438    0.187256485    0.812006712
    0.241966486    0.587256730    0.507936299
    0.191966414    0.237256646    0.659971476
    0.141966343    0.887256503    0.812006712
    0.341966510    0.287256688    0.507936299
    0.291966438    0.937256634    0.659971476
    0.241966367    0.587256491    0.812006712
    0.441966653    0.987256825    0.507936299
    0.391966581    0.637256682    0.659971476
    0.341966510    0.287256569    0.812006712
    0.541966558    0.687256753    0.507936299
    0.491966486    0.337256640    0.659971476
    0.441966414    0.987256527    0.812006712
    0.641966581    0.387256742    0.507936299
    0.591966629    0.037256598    0.659971476
    0.541966438    0.687256515    0.812006712
    0.741966486    0.337256700    0.583953917
    0.691966414    0.987256587    0.735989094
    0.641966343    0.637256503    0.888024211
    0.841966510    0.037256598    0.583953917
    0.791966438    0.687256575    0.735989094
    0.741966367    0.337256432    0.888024211
    0.941966534    0.737256706    0.583953917
    0.891966462    0.387256593    0.735989094
    0.841966391    0.037256479    0.888024211
    0.041966558    0.437256664    0.583953917
    0.991966486    0.087256551    0.735989094
    0.941966414    0.737256527    0.888024211
    0.141966581    0.137256682    0.583953917
    0.091966391    0.787256598    0.735989094
    0.041966438    0.437256515    0.888024211
    0.241966605    0.837256730    0.583953917
    0.191966534    0.487256616    0.735989094
    0.141966462    0.137256563    0.888024211
    0.341966510    0.537256598    0.583953917
    0.291966438    0.187256530    0.735989094
    0.241966367    0.837256491    0.888024211
    0.441966653    0.237256706    0.583953917
    0.391966581    0.887256622    0.735989094
    0.341966510    0.537256539    0.888024211
    0.541966677    0.937256753    0.583953917
    0.491966486    0.587256610    0.735989094
    0.441966534    0.237256527    0.888024211
    0.641966581    0.637256682    0.583953917
    0.591966510    0.287256569    0.735989094
    0.541966438    0.937256515    0.888024211
    0.741966486    0.587256730    0.507936299
    0.691966534    0.237256646    0.659971476
    0.641966343    0.887256503    0.812006712
    0.841966510    0.287256688    0.507936299
    0.791966438    0.937256634    0.659971476
    0.741966367    0.587256491    0.812006712
    0.941966534    0.987256706    0.507936299
    0.891966462    0.637256622    0.659971476
    0.841966391    0.287256479    0.812006712
    0.041966558    0.687256694    0.507936299
    0.991966486    0.337256640    0.659971476
    0.941966414    0.987256527    0.812006712
    0.141966581    0.387256712    0.507936299
    0.091966510    0.037256598    0.659971476
    0.041966438    0.687256515    0.812006712
    0.241966486    0.087256670    0.507936299
    0.191966534    0.737256587    0.659971476
    0.141966343    0.387256444    0.812006712
    0.341966510    0.787256718    0.507936299
    0.291966438    0.437256634    0.659971476
    0.241966367    0.087256432    0.812006712
    0.441966534    0.487256676    0.507936299
    0.391966462    0.137256593    0.659971476
    0.341966391    0.787256479    0.812006712
    0.541966558    0.187256664    0.507936299
    0.491966486    0.837256551    0.659971476
    0.441966414    0.487256467    0.812006712
    0.641966581    0.887256742    0.507936299
    0.591966629    0.537256658    0.659971476
    0.541966438    0.187256515    0.812006712
    0.741966486    0.837256789    0.583953917
    0.691966414    0.487256646    0.735989094
    0.641966343    0.137256578    0.888024211
    0.841966510    0.537256718    0.583953917
    0.791966438    0.187256604    0.735989094
    0.741966367    0.837256551    0.888024211
    0.941966534    0.237256691    0.583953917
    0.891966462    0.887256622    0.735989094
    0.841966391    0.537256539    0.888024211
    0.041966558    0.937256753    0.583953917
    0.991966486    0.587256610    0.735989094
    0.941966414    0.237256527    0.888024211
    0.141966581    0.637256801    0.583953917
    0.091966510    0.287256688    0.735989094
    0.041966438    0.937256634    0.888024211
    0.241966486    0.337256670    0.583953917
    0.191966534    0.987256587    0.735989094
    0.141966343    0.637256503    0.888024211
    0.341966629    0.037256718    0.583953917
    0.291966438    0.687256634    0.735989094
    0.241966486    0.337256551    0.888024211
    0.441966534    0.737256765    0.583953917
    0.391966581    0.387256622    0.735989094
    0.341966391    0.037256598    0.888024211
    0.541966438    0.437256664    0.583953917
    0.491966486    0.087256551    0.735989094
    0.441966295    0.737256527    0.888024211
    0.641966581    0.137256667    0.583953917
    0.591966391    0.787256598    0.735989094
    0.541966438    0.437256455    0.888024211
