Ge+Si                                   
   1.00000000000000     
    16.9734001160000005    0.0000000000000000    0.0000000000000000
     0.0000000000000000   16.9734001160000005    0.0000000000000000
     0.0000000000000000    0.0000000000000000   13.8610000610000004
   Ge   Si
   108   120
Direct
  0.9943054909999987  0.6666665670000000  0.0000000000000000
  0.8276388649999973  0.6666665670000000  0.2040905949999967
  0.6609721179999966  0.6666665670000000  0.4081812200000030
  0.9943054909999987  0.3333332839999983  0.0000000000000000
  0.8276388649999973  0.3333332839999983  0.2040905949999967
  0.6609721179999966  0.3333332839999983  0.4081812200000030
  0.9943054909999987  0.0000000000000000  0.0000000000000000
  0.8276388649999973  0.0000000000000000  0.2040905949999967
  0.6609721179999966  0.0000000000000000  0.4081812200000030
  0.3276388049999994  0.6666665670000000  0.0000000000000000
  0.1609721479999990  0.6666665670000000  0.2040905949999967
  0.9943054319999973  0.6666665670000000  0.4081812200000030
  0.3276388049999994  0.3333332839999983  0.0000000000000000
  0.1609721479999990  0.3333332839999983  0.2040905949999967
  0.9943054319999973  0.3333332839999983  0.4081812200000030
  0.3276388049999994  0.0000000000000000  0.0000000000000000
  0.1609721479999990  0.0000000000000000  0.2040905949999967
  0.9943054319999973  0.0000000000000000  0.4081812200000030
  0.6609721179999966  0.6666665670000000  0.0000000000000000
  0.4943054319999973  0.6666665670000000  0.2040905949999967
  0.3276387450000016  0.6666665670000000  0.4081812200000030
  0.6609721179999966  0.3333332839999983  0.0000000000000000
  0.4943054319999973  0.3333332839999983  0.2040905949999967
  0.3276387450000016  0.3333332839999983  0.4081812200000030
  0.6609721179999966  0.0000000000000000  0.0000000000000000
  0.4943054319999973  0.0000000000000000  0.2040905949999967
  0.3276387450000016  0.0000000000000000  0.4081812200000030
  0.0776388419999989  0.9166665670000000  0.1020453049999972
  0.9109721179999966  0.9166665670000000  0.3061359229999994
  0.7443054909999987  0.9166665670000000  0.5102265479999986
  0.0776388419999989  0.5833333129999971  0.1020453049999972
  0.9109721179999966  0.5833333129999971  0.3061359229999994
  0.7443054909999987  0.5833333129999971  0.5102265479999986
  0.0776388419999989  0.2499999549999998  0.1020453049999972
  0.9109721179999966  0.2499999549999998  0.3061359229999994
  0.7443054909999987  0.2499999549999998  0.5102265479999986
  0.4109720889999977  0.9166665670000000  0.1020453049999972
  0.2443054169999996  0.9166665670000000  0.3061359229999994
  0.0776387229999997  0.9166665670000000  0.5102265479999986
  0.4109720889999977  0.5833333129999971  0.1020453049999972
  0.2443054169999996  0.5833333129999971  0.3061359229999994
  0.0776387229999997  0.5833333129999971  0.5102265479999986
  0.4109720889999977  0.2499999549999998  0.1020453049999972
  0.2443054169999996  0.2499999549999998  0.3061359229999994
  0.0776387229999997  0.2499999549999998  0.5102265479999986
  0.7443054909999987  0.9166665670000000  0.1020453049999972
  0.5776387450000016  0.9166665670000000  0.3061359229999994
  0.4109720590000023  0.9166665670000000  0.5102265479999986
  0.7443054909999987  0.5833333129999971  0.1020453049999972
  0.5776387450000016  0.5833333129999971  0.3061359229999994
  0.4109720590000023  0.5833333129999971  0.5102265479999986
  0.7443054909999987  0.2499999549999998  0.1020453049999972
  0.5776387450000016  0.2499999549999998  0.3061359229999994
  0.4109720590000023  0.2499999549999998  0.5102265479999986
  0.1609721629999967  0.8333331939999979  0.0000000000000000
  0.9943054909999987  0.8333331939999979  0.2040905949999967
  0.8276388049999994  0.8333331939999979  0.4081812200000030
  0.1609721629999967  0.4999999110000033  0.0000000000000000
  0.9943054909999987  0.4999999110000033  0.2040905949999967
  0.8276388049999994  0.4999999110000033  0.4081812200000030
  0.1609721629999967  0.1666666420000027  0.0000000000000000
  0.9943054909999987  0.1666666420000027  0.2040905949999967
  0.8276388049999994  0.1666666420000027  0.4081812200000030
  0.4943054319999973  0.8333331939999979  0.0000000000000000
  0.3276387450000016  0.8333331939999979  0.2040905949999967
  0.1609720740000000  0.8333331939999979  0.4081812200000030
  0.4943054319999973  0.4999999110000033  0.0000000000000000
  0.3276387450000016  0.4999999110000033  0.2040905949999967
  0.1609720740000000  0.4999999110000033  0.4081812200000030
  0.4943054319999973  0.1666666420000027  0.0000000000000000
  0.3276387450000016  0.1666666420000027  0.2040905949999967
  0.1609720740000000  0.1666666420000027  0.4081812200000030
  0.8276388049999994  0.8333331939999979  0.0000000000000000
  0.6609721179999966  0.8333331939999979  0.2040905949999967
  0.4943054319999973  0.8333331939999979  0.4081812200000030
  0.8276388049999994  0.4999999110000033  0.0000000000000000
  0.6609721179999966  0.4999999110000033  0.2040905949999967
  0.4943054319999973  0.4999999110000033  0.4081812200000030
  0.8276388049999994  0.1666666420000027  0.0000000000000000
  0.6609721179999966  0.1666666420000027  0.2040905949999967
  0.4943054319999973  0.1666666420000027  0.4081812200000030
  0.2443054619999998  0.7499998810000008  0.1020453049999972
  0.0776387829999976  0.7499998810000008  0.3061359229999994
  0.9109721179999966  0.7499998810000008  0.5102265479999986
  0.2443054619999998  0.4166666269999979  0.1020453049999972
  0.0776387829999976  0.4166666269999979  0.3061359229999994
  0.9109721179999966  0.4166666269999979  0.5102265479999986
  0.2443054619999998  0.0833333280000019  0.1020453049999972
  0.0776387829999976  0.0833333280000019  0.3061359229999994
  0.9109721179999966  0.0833333280000019  0.5102265479999986
  0.5776388649999973  0.7499998810000008  0.1020453049999972
  0.4109721479999990  0.7499998810000008  0.3061359229999994
  0.2443054470000021  0.7499998810000008  0.5102265479999986
  0.5776388649999973  0.4166666269999979  0.1020453049999972
  0.4109721479999990  0.4166666269999979  0.3061359229999994
  0.2443054470000021  0.4166666269999979  0.5102265479999986
  0.5776388649999973  0.0833333280000019  0.1020453049999972
  0.4109721479999990  0.0833333280000019  0.3061359229999994
  0.2443054470000021  0.0833333280000019  0.5102265479999986
  0.9109721780000015  0.7499998810000008  0.1020453049999972
  0.7443054909999987  0.7499998810000008  0.3061359229999994
  0.5776387450000016  0.7499998810000008  0.5102265479999986
  0.9109721780000015  0.4166666269999979  0.1020453049999972
  0.7443054909999987  0.4166666269999979  0.3061359229999994
  0.5776387450000016  0.4166666269999979  0.5102265479999986
  0.9109721780000015  0.0833333280000019  0.1020453049999972
  0.7443054909999987  0.0833333280000019  0.3061359229999994
  0.5776387450000016  0.0833333280000019  0.5102265479999986
  0.9964043499999988  0.9748306870000008  0.5102266069999999
  0.9464043380000007  0.6248306040000031  0.7061359879999998
  0.8964042659999976  0.2748304610000005  0.9020454879999988
  0.0964044030000011  0.6748307350000005  0.5102266069999999
  0.0464043360000019  0.3248306509999992  0.7061359879999998
  0.9964042309999996  0.9748305079999966  0.9020454879999988
  0.1964044119999997  0.3748306629999973  0.5102266069999999
  0.1464043410000002  0.0248305969999976  0.7061359879999998
  0.0964042620000001  0.6748304369999971  0.9020454879999988
  0.2964043919999995  0.0748306589999999  0.5102266069999999
  0.2464043049999987  0.7248306270000029  0.7061359879999998
  0.1964042339999992  0.3748304249999990  0.9020454879999988
  0.3964044450000017  0.7748306989999989  0.5102266069999999
  0.3464043740000022  0.4248305859999988  0.7061359879999998
  0.2964043019999991  0.0748304580000010  0.9020454879999988
  0.4964043800000013  0.4748306870000008  0.5102266069999999
  0.4464043079999982  0.1248306040000031  0.7061359879999998
  0.3964042369999987  0.7748304610000005  0.9020454879999988
  0.5964043740000022  0.1748306450000001  0.5102266069999999
  0.5464043019999991  0.8248305919999979  0.7061359879999998
  0.4964042599999985  0.4748304490000024  0.9020454879999988
  0.6964045169999977  0.8748307819999965  0.5102266069999999
  0.6464044450000017  0.5248306390000010  0.7061359879999998
  0.5964043740000022  0.1748305409999986  0.9020454879999988
  0.7964044209999983  0.5748307109999971  0.5102266069999999
  0.7464043499999988  0.2248306130000017  0.7061359879999998
  0.6964042780000028  0.8748304840000003  0.9020454879999988
  0.8964045049999996  0.2748306989999989  0.5102266069999999
  0.8464044330000036  0.9248306160000013  0.7061359879999998
  0.7964043619999970  0.5748304720000021  0.9020454879999988
  0.9964044090000002  0.2248306720000031  0.6081812979999981
  0.9464042780000028  0.8748305439999982  0.8040906789999980
  0.8964042659999976  0.5248304610000005  0.0000000000000000
  0.0964043660000016  0.9248306160000013  0.6081812979999981
  0.0464042870000014  0.5748305320000000  0.8040906789999980
  0.9964042309999996  0.2248303889999974  0.0000000000000000
  0.1964044119999997  0.6248306629999973  0.6081812979999981
  0.1464043410000002  0.2748305499999972  0.8040906789999980
  0.0964042620000001  0.9248304959999984  0.0000000000000000
  0.2964044209999983  0.3248306209999967  0.6081812979999981
  0.2464043350000011  0.9748305079999966  0.8040906789999980
  0.1964042629999980  0.6248304840000003  0.0000000000000000
  0.3964044149999992  0.0248306390000010  0.6081812979999981
  0.3464043139999973  0.6748305560000034  0.8040906789999980
  0.2964042429999978  0.3248304720000021  0.0000000000000000
  0.4964044990000005  0.7248306870000008  0.6081812979999981
  0.4464044269999974  0.3748305740000006  0.8040906789999980
  0.3964043559999979  0.0248305240000022  0.0000000000000000
  0.5964043740000022  0.4248305859999988  0.6081812979999981
  0.5464043019999991  0.0748304950000005  0.8040906789999980
  0.4964042599999985  0.7248304490000024  0.0000000000000000
  0.6964045169999977  0.1248306629999973  0.6081812979999981
  0.6464043860000004  0.7748305799999997  0.8040906789999980
  0.5964043740000022  0.4248304959999984  0.0000000000000000
  0.7964044810000033  0.8248307109999971  0.6081812979999981
  0.7464044090000002  0.4748305680000016  0.8040906789999980
  0.6964043380000007  0.1248304840000003  0.0000000000000000
  0.8964044450000017  0.5248306390000010  0.6081812979999981
  0.8464043740000022  0.1748305409999986  0.8040906789999980
  0.7964043019999991  0.8248304720000021  0.0000000000000000
  0.9964044090000002  0.4748306870000008  0.5102266069999999
  0.9464043380000007  0.1248306040000031  0.7061359879999998
  0.8964042659999976  0.7748304610000005  0.9020454879999988
  0.0964043809999993  0.1748306599999978  0.5102266069999999
  0.0464043129999965  0.8248305919999979  0.7061359879999998
  0.9964042309999996  0.4748304490000024  0.9020454879999988
  0.1964044119999997  0.8748306629999973  0.5102266069999999
  0.1464043260000025  0.5248305799999997  0.7061359879999998
  0.0964042620000001  0.1748304369999971  0.9020454879999988
  0.2964044209999983  0.5748306509999992  0.5102266069999999
  0.2464043200000035  0.2248305979999969  0.7061359879999998
  0.1964042480000003  0.8748304840000003  0.9020454879999988
  0.3964044450000017  0.2748306690000035  0.5102266069999999
  0.3464043740000022  0.9248306160000013  0.7061359879999998
  0.2964043019999991  0.5748304720000021  0.9020454879999988
  0.4964044090000002  0.9748306270000029  0.5102266069999999
  0.4464043380000007  0.6248305439999982  0.7061359879999998
  0.3964042369999987  0.2748304010000027  0.9020454879999988
  0.5964043740000022  0.6748306750000026  0.5102266069999999
  0.5464043019999991  0.3248305919999979  0.7061359879999998
  0.4964042309999996  0.9748304490000024  0.9020454879999988
  0.6964043970000020  0.3748306330000020  0.5102266069999999
  0.6464043260000025  0.0248305610000017  0.7061359879999998
  0.5964042539999994  0.6748304369999971  0.9020454879999988
  0.7964044209999983  0.0748306360000015  0.5102266069999999
  0.7464043499999988  0.7248305079999966  0.7061359879999998
  0.6964042780000028  0.3748304249999990  0.9020454879999988
  0.8964045049999996  0.7748306989999989  0.5102266069999999
  0.8464044330000036  0.4248306160000013  0.7061359879999998
  0.7964043619999970  0.0748304800000028  0.9020454879999988
  0.9964043499999988  0.7248307469999986  0.6081812979999981
  0.9464042780000028  0.3748306040000031  0.8040906789999980
  0.8964042659999976  0.0248305389999999  0.0000000000000000
  0.0964043889999999  0.4248306750000026  0.6081812979999981
  0.0464043059999995  0.0748305689999995  0.8040906789999980
  0.9964042309999996  0.7248305079999966  0.0000000000000000
  0.1964044119999997  0.1248306560000003  0.6081812979999981
  0.1464043410000002  0.7748305799999997  0.8040906789999980
  0.0964042689999971  0.4248304959999984  0.0000000000000000
  0.2964043919999995  0.8248307109999971  0.6081812979999981
  0.2464043200000035  0.4748305680000016  0.8040906789999980
  0.1964042480000003  0.1248304840000003  0.0000000000000000
  0.3964044149999992  0.5248307589999968  0.6081812979999981
  0.3464043439999998  0.1748306450000001  0.8040906789999980
  0.2964042719999966  0.8248305919999979  0.0000000000000000
  0.4964044090000002  0.2248306420000006  0.6081812979999981
  0.4464043380000007  0.8748305439999982  0.8040906789999980
  0.3964042369999987  0.5248304610000005  0.0000000000000000
  0.5964044330000036  0.9248306750000026  0.6081812979999981
  0.5464043619999970  0.5748305919999979  0.8040906789999980
  0.4964042900000010  0.2248305079999966  0.0000000000000000
  0.6964044569999999  0.6248307230000023  0.6081812979999981
  0.6464043860000004  0.2748305799999997  0.8040906789999980
  0.5964043139999973  0.9248305560000034  0.0000000000000000
  0.7964043619999970  0.3248306209999967  0.6081812979999981
  0.7464042900000010  0.9748305079999966  0.8040906789999980
  0.6964042190000015  0.6248304840000003  0.0000000000000000
  0.8964043860000004  0.0248306260000035  0.6081812979999981
  0.8464043139999973  0.6748305560000034  0.8040906789999980
  0.7964042429999978  0.3248304130000008  0.0000000000000000
 
  0.00000000E+00  0.00000000E+00  0.00000000E+00
  0.00000000E+00  0.00000000E+00  0.00000000E+00
  0.00000000E+00  0.00000000E+00  0.00000000E+00
  0.00000000E+00  0.00000000E+00  0.00000000E+00
  0.00000000E+00  0.00000000E+00  0.00000000E+00
  0.00000000E+00  0.00000000E+00  0.00000000E+00
  0.00000000E+00  0.00000000E+00  0.00000000E+00
  0.00000000E+00  0.00000000E+00  0.00000000E+00
  0.00000000E+00  0.00000000E+00  0.00000000E+00
  0.00000000E+00  0.00000000E+00  0.00000000E+00
  0.00000000E+00  0.00000000E+00  0.00000000E+00
  0.00000000E+00  0.00000000E+00  0.00000000E+00
  0.00000000E+00  0.00000000E+00  0.00000000E+00
  0.00000000E+00  0.00000000E+00  0.00000000E+00
  0.00000000E+00  0.00000000E+00  0.00000000E+00
  0.00000000E+00  0.00000000E+00  0.00000000E+00
  0.00000000E+00  0.00000000E+00  0.00000000E+00
  0.00000000E+00  0.00000000E+00  0.00000000E+00
  0.00000000E+00  0.00000000E+00  0.00000000E+00
  0.00000000E+00  0.00000000E+00  0.00000000E+00
  0.00000000E+00  0.00000000E+00  0.00000000E+00
  0.00000000E+00  0.00000000E+00  0.00000000E+00
  0.00000000E+00  0.00000000E+00  0.00000000E+00
  0.00000000E+00  0.00000000E+00  0.00000000E+00
  0.00000000E+00  0.00000000E+00  0.00000000E+00
  0.00000000E+00  0.00000000E+00  0.00000000E+00
  0.00000000E+00  0.00000000E+00  0.00000000E+00
  0.00000000E+00  0.00000000E+00  0.00000000E+00
  0.00000000E+00  0.00000000E+00  0.00000000E+00
  0.00000000E+00  0.00000000E+00  0.00000000E+00
  0.00000000E+00  0.00000000E+00  0.00000000E+00
  0.00000000E+00  0.00000000E+00  0.00000000E+00
  0.00000000E+00  0.00000000E+00  0.00000000E+00
  0.00000000E+00  0.00000000E+00  0.00000000E+00
  0.00000000E+00  0.00000000E+00  0.00000000E+00
  0.00000000E+00  0.00000000E+00  0.00000000E+00
  0.00000000E+00  0.00000000E+00  0.00000000E+00
  0.00000000E+00  0.00000000E+00  0.00000000E+00
  0.00000000E+00  0.00000000E+00  0.00000000E+00
  0.00000000E+00  0.00000000E+00  0.00000000E+00
  0.00000000E+00  0.00000000E+00  0.00000000E+00
  0.00000000E+00  0.00000000E+00  0.00000000E+00
  0.00000000E+00  0.00000000E+00  0.00000000E+00
  0.00000000E+00  0.00000000E+00  0.00000000E+00
  0.00000000E+00  0.00000000E+00  0.00000000E+00
  0.00000000E+00  0.00000000E+00  0.00000000E+00
  0.00000000E+00  0.00000000E+00  0.00000000E+00
  0.00000000E+00  0.00000000E+00  0.00000000E+00
  0.00000000E+00  0.00000000E+00  0.00000000E+00
  0.00000000E+00  0.00000000E+00  0.00000000E+00
  0.00000000E+00  0.00000000E+00  0.00000000E+00
  0.00000000E+00  0.00000000E+00  0.00000000E+00
  0.00000000E+00  0.00000000E+00  0.00000000E+00
  0.00000000E+00  0.00000000E+00  0.00000000E+00
  0.00000000E+00  0.00000000E+00  0.00000000E+00
  0.00000000E+00  0.00000000E+00  0.00000000E+00
  0.00000000E+00  0.00000000E+00  0.00000000E+00
  0.00000000E+00  0.00000000E+00  0.00000000E+00
  0.00000000E+00  0.00000000E+00  0.00000000E+00
  0.00000000E+00  0.00000000E+00  0.00000000E+00
  0.00000000E+00  0.00000000E+00  0.00000000E+00
  0.00000000E+00  0.00000000E+00  0.00000000E+00
  0.00000000E+00  0.00000000E+00  0.00000000E+00
  0.00000000E+00  0.00000000E+00  0.00000000E+00
  0.00000000E+00  0.00000000E+00  0.00000000E+00
  0.00000000E+00  0.00000000E+00  0.00000000E+00
  0.00000000E+00  0.00000000E+00  0.00000000E+00
  0.00000000E+00  0.00000000E+00  0.00000000E+00
  0.00000000E+00  0.00000000E+00  0.00000000E+00
  0.00000000E+00  0.00000000E+00  0.00000000E+00
  0.00000000E+00  0.00000000E+00  0.00000000E+00
  0.00000000E+00  0.00000000E+00  0.00000000E+00
  0.00000000E+00  0.00000000E+00  0.00000000E+00
  0.00000000E+00  0.00000000E+00  0.00000000E+00
  0.00000000E+00  0.00000000E+00  0.00000000E+00
  0.00000000E+00  0.00000000E+00  0.00000000E+00
  0.00000000E+00  0.00000000E+00  0.00000000E+00
  0.00000000E+00  0.00000000E+00  0.00000000E+00
  0.00000000E+00  0.00000000E+00  0.00000000E+00
  0.00000000E+00  0.00000000E+00  0.00000000E+00
  0.00000000E+00  0.00000000E+00  0.00000000E+00
  0.00000000E+00  0.00000000E+00  0.00000000E+00
  0.00000000E+00  0.00000000E+00  0.00000000E+00
  0.00000000E+00  0.00000000E+00  0.00000000E+00
  0.00000000E+00  0.00000000E+00  0.00000000E+00
  0.00000000E+00  0.00000000E+00  0.00000000E+00
  0.00000000E+00  0.00000000E+00  0.00000000E+00
  0.00000000E+00  0.00000000E+00  0.00000000E+00
  0.00000000E+00  0.00000000E+00  0.00000000E+00
  0.00000000E+00  0.00000000E+00  0.00000000E+00
  0.00000000E+00  0.00000000E+00  0.00000000E+00
  0.00000000E+00  0.00000000E+00  0.00000000E+00
  0.00000000E+00  0.00000000E+00  0.00000000E+00
  0.00000000E+00  0.00000000E+00  0.00000000E+00
  0.00000000E+00  0.00000000E+00  0.00000000E+00
  0.00000000E+00  0.00000000E+00  0.00000000E+00
  0.00000000E+00  0.00000000E+00  0.00000000E+00
  0.00000000E+00  0.00000000E+00  0.00000000E+00
  0.00000000E+00  0.00000000E+00  0.00000000E+00
  0.00000000E+00  0.00000000E+00  0.00000000E+00
  0.00000000E+00  0.00000000E+00  0.00000000E+00
  0.00000000E+00  0.00000000E+00  0.00000000E+00
  0.00000000E+00  0.00000000E+00  0.00000000E+00
  0.00000000E+00  0.00000000E+00  0.00000000E+00
  0.00000000E+00  0.00000000E+00  0.00000000E+00
  0.00000000E+00  0.00000000E+00  0.00000000E+00
  0.00000000E+00  0.00000000E+00  0.00000000E+00
  0.00000000E+00  0.00000000E+00  0.00000000E+00
  0.00000000E+00  0.00000000E+00  0.00000000E+00
  0.00000000E+00  0.00000000E+00  0.00000000E+00
  0.00000000E+00  0.00000000E+00  0.00000000E+00
  0.00000000E+00  0.00000000E+00  0.00000000E+00
  0.00000000E+00  0.00000000E+00  0.00000000E+00
  0.00000000E+00  0.00000000E+00  0.00000000E+00
  0.00000000E+00  0.00000000E+00  0.00000000E+00
  0.00000000E+00  0.00000000E+00  0.00000000E+00
  0.00000000E+00  0.00000000E+00  0.00000000E+00
  0.00000000E+00  0.00000000E+00  0.00000000E+00
  0.00000000E+00  0.00000000E+00  0.00000000E+00
  0.00000000E+00  0.00000000E+00  0.00000000E+00
  0.00000000E+00  0.00000000E+00  0.00000000E+00
  0.00000000E+00  0.00000000E+00  0.00000000E+00
  0.00000000E+00  0.00000000E+00  0.00000000E+00
  0.00000000E+00  0.00000000E+00  0.00000000E+00
  0.00000000E+00  0.00000000E+00  0.00000000E+00
  0.00000000E+00  0.00000000E+00  0.00000000E+00
  0.00000000E+00  0.00000000E+00  0.00000000E+00
  0.00000000E+00  0.00000000E+00  0.00000000E+00
  0.00000000E+00  0.00000000E+00  0.00000000E+00
  0.00000000E+00  0.00000000E+00  0.00000000E+00
  0.00000000E+00  0.00000000E+00  0.00000000E+00
  0.00000000E+00  0.00000000E+00  0.00000000E+00
  0.00000000E+00  0.00000000E+00  0.00000000E+00
  0.00000000E+00  0.00000000E+00  0.00000000E+00
  0.00000000E+00  0.00000000E+00  0.00000000E+00
  0.00000000E+00  0.00000000E+00  0.00000000E+00
  0.00000000E+00  0.00000000E+00  0.00000000E+00
  0.00000000E+00  0.00000000E+00  0.00000000E+00
  0.00000000E+00  0.00000000E+00  0.00000000E+00
  0.00000000E+00  0.00000000E+00  0.00000000E+00
  0.00000000E+00  0.00000000E+00  0.00000000E+00
  0.00000000E+00  0.00000000E+00  0.00000000E+00
  0.00000000E+00  0.00000000E+00  0.00000000E+00
  0.00000000E+00  0.00000000E+00  0.00000000E+00
  0.00000000E+00  0.00000000E+00  0.00000000E+00
  0.00000000E+00  0.00000000E+00  0.00000000E+00
  0.00000000E+00  0.00000000E+00  0.00000000E+00
  0.00000000E+00  0.00000000E+00  0.00000000E+00
  0.00000000E+00  0.00000000E+00  0.00000000E+00
  0.00000000E+00  0.00000000E+00  0.00000000E+00
  0.00000000E+00  0.00000000E+00  0.00000000E+00
  0.00000000E+00  0.00000000E+00  0.00000000E+00
  0.00000000E+00  0.00000000E+00  0.00000000E+00
  0.00000000E+00  0.00000000E+00  0.00000000E+00
  0.00000000E+00  0.00000000E+00  0.00000000E+00
  0.00000000E+00  0.00000000E+00  0.00000000E+00
  0.00000000E+00  0.00000000E+00  0.00000000E+00
  0.00000000E+00  0.00000000E+00  0.00000000E+00
  0.00000000E+00  0.00000000E+00  0.00000000E+00
  0.00000000E+00  0.00000000E+00  0.00000000E+00
  0.00000000E+00  0.00000000E+00  0.00000000E+00
  0.00000000E+00  0.00000000E+00  0.00000000E+00
  0.00000000E+00  0.00000000E+00  0.00000000E+00
  0.00000000E+00  0.00000000E+00  0.00000000E+00
  0.00000000E+00  0.00000000E+00  0.00000000E+00
  0.00000000E+00  0.00000000E+00  0.00000000E+00
  0.00000000E+00  0.00000000E+00  0.00000000E+00
  0.00000000E+00  0.00000000E+00  0.00000000E+00
  0.00000000E+00  0.00000000E+00  0.00000000E+00
  0.00000000E+00  0.00000000E+00  0.00000000E+00
  0.00000000E+00  0.00000000E+00  0.00000000E+00
  0.00000000E+00  0.00000000E+00  0.00000000E+00
  0.00000000E+00  0.00000000E+00  0.00000000E+00
  0.00000000E+00  0.00000000E+00  0.00000000E+00
  0.00000000E+00  0.00000000E+00  0.00000000E+00
  0.00000000E+00  0.00000000E+00  0.00000000E+00
  0.00000000E+00  0.00000000E+00  0.00000000E+00
  0.00000000E+00  0.00000000E+00  0.00000000E+00
  0.00000000E+00  0.00000000E+00  0.00000000E+00
  0.00000000E+00  0.00000000E+00  0.00000000E+00
  0.00000000E+00  0.00000000E+00  0.00000000E+00
  0.00000000E+00  0.00000000E+00  0.00000000E+00
  0.00000000E+00  0.00000000E+00  0.00000000E+00
  0.00000000E+00  0.00000000E+00  0.00000000E+00
  0.00000000E+00  0.00000000E+00  0.00000000E+00
  0.00000000E+00  0.00000000E+00  0.00000000E+00
  0.00000000E+00  0.00000000E+00  0.00000000E+00
  0.00000000E+00  0.00000000E+00  0.00000000E+00
  0.00000000E+00  0.00000000E+00  0.00000000E+00
  0.00000000E+00  0.00000000E+00  0.00000000E+00
  0.00000000E+00  0.00000000E+00  0.00000000E+00
  0.00000000E+00  0.00000000E+00  0.00000000E+00
  0.00000000E+00  0.00000000E+00  0.00000000E+00
  0.00000000E+00  0.00000000E+00  0.00000000E+00
  0.00000000E+00  0.00000000E+00  0.00000000E+00
  0.00000000E+00  0.00000000E+00  0.00000000E+00
  0.00000000E+00  0.00000000E+00  0.00000000E+00
  0.00000000E+00  0.00000000E+00  0.00000000E+00
  0.00000000E+00  0.00000000E+00  0.00000000E+00
  0.00000000E+00  0.00000000E+00  0.00000000E+00
  0.00000000E+00  0.00000000E+00  0.00000000E+00
  0.00000000E+00  0.00000000E+00  0.00000000E+00
  0.00000000E+00  0.00000000E+00  0.00000000E+00
  0.00000000E+00  0.00000000E+00  0.00000000E+00
  0.00000000E+00  0.00000000E+00  0.00000000E+00
  0.00000000E+00  0.00000000E+00  0.00000000E+00
  0.00000000E+00  0.00000000E+00  0.00000000E+00
  0.00000000E+00  0.00000000E+00  0.00000000E+00
  0.00000000E+00  0.00000000E+00  0.00000000E+00
  0.00000000E+00  0.00000000E+00  0.00000000E+00
  0.00000000E+00  0.00000000E+00  0.00000000E+00
  0.00000000E+00  0.00000000E+00  0.00000000E+00
  0.00000000E+00  0.00000000E+00  0.00000000E+00
  0.00000000E+00  0.00000000E+00  0.00000000E+00
  0.00000000E+00  0.00000000E+00  0.00000000E+00
  0.00000000E+00  0.00000000E+00  0.00000000E+00
  0.00000000E+00  0.00000000E+00  0.00000000E+00
  0.00000000E+00  0.00000000E+00  0.00000000E+00
  0.00000000E+00  0.00000000E+00  0.00000000E+00
  0.00000000E+00  0.00000000E+00  0.00000000E+00
  0.00000000E+00  0.00000000E+00  0.00000000E+00
  0.00000000E+00  0.00000000E+00  0.00000000E+00
  0.00000000E+00  0.00000000E+00  0.00000000E+00
  0.00000000E+00  0.00000000E+00  0.00000000E+00
  0.00000000E+00  0.00000000E+00  0.00000000E+00
  0.00000000E+00  0.00000000E+00  0.00000000E+00
  0.00000000E+00  0.00000000E+00  0.00000000E+00
  0.00000000E+00  0.00000000E+00  0.00000000E+00
