Si+C
    1.000000000
   13.303179741    0.000000000    0.000000000
    6.651589394   11.520891190    0.000000000
    0.000000000    0.000000000   21.679414749
Si  C  
72     308
Direct
    0.000000000    0.681493819    0.289268851
    0.000000000    0.014827055    0.000000008
    0.000000000    0.348160446    0.144634441
    0.333333343    0.014827132    0.289268851
    0.333333343    0.348160386    0.000000009
    0.333333343    0.681493819    0.144634441
    0.666666687    0.348160386    0.289268821
    0.666666687    0.681493759    0.000000006
    0.666666687    0.014827132    0.144634441
    0.000000000    0.014827251    0.325427473
    0.000000000    0.348160416    0.036158621
    0.000000000    0.681493819    0.180793047
    0.333333343    0.348160505    0.325427443
    0.333333343    0.681493819    0.036158621
    0.333333343    0.014827132    0.180793032
    0.666666746    0.681493998    0.325427473
    0.666666746    0.014827132    0.036158621
    0.666666746    0.348160505    0.180793062
    0.166666672    0.848160446    0.289268821
    0.166666672    0.181493714    0.000000004
    0.166666672    0.514827132    0.144634441
    0.500000060    0.181493759    0.289268821
    0.500000000    0.514827073    0.000000001
    0.500000000    0.848160505    0.144634441
    0.833333373    0.514827251    0.289268851
    0.833333373    0.848160446    0.000000000
    0.833333373    0.181493759    0.144634411
    0.166666687    0.181493759    0.325427383
    0.166666687    0.514827073    0.036158580
    0.166666687    0.848160505    0.180793002
    0.500000000    0.514827132    0.325427383
    0.500000000    0.848160326    0.036158577
    0.500000000    0.181493759    0.180793017
    0.833333313    0.848160446    0.325427383
    0.833333313    0.181493714    0.036158577
    0.833333313    0.514827132    0.180793047
    0.000000000    0.181493759    0.289268821
    0.000000000    0.514827073    0.000000011
    0.000000000    0.848160446    0.144634441
    0.333333343    0.514827251    0.289268851
    0.333333343    0.848160505    0.000000016
    0.333333343    0.181493878    0.144634470
    0.666666687    0.848160446    0.289268821
    0.666666687    0.181493714    0.000000001
    0.666666687    0.514827132    0.144634441
    0.000000014    0.514827251    0.325427443
    0.000000014    0.848160446    0.036158580
    0.000000014    0.181493878    0.180793032
    0.333333373    0.848160446    0.325427443
    0.333333373    0.181493714    0.036158580
    0.333333373    0.514827073    0.180793002
    0.666666746    0.181493878    0.325427443
    0.666666746    0.514827073    0.036158580
    0.666666746    0.848160505    0.180793017
    0.166666672    0.348160386    0.289268821
    0.166666672    0.681493759    0.000000009
    0.166666672    0.014827132    0.144634470
    0.500000000    0.681493759    0.289268851
    0.500000000    0.014827051    0.000000009
    0.500000000    0.348160475    0.144634441
    0.833333313    0.014827132    0.289268821
    0.833333313    0.348160416    0.000000006
    0.833333313    0.681493759    0.144634426
    0.166666687    0.681493878    0.325427473
    0.166666687    0.014827132    0.036158640
    0.166666687    0.348160386    0.180793032
    0.500000000    0.014827251    0.325427473
    0.500000000    0.348160416    0.036158610
    0.500000000    0.681493759    0.180793032
    0.833333373    0.348160505    0.325427443
    0.833333373    0.681493700    0.036158621
    0.833333373    0.014827013    0.180793032
    0.165963843    0.014975429    0.876437724
    0.927868783    0.205451965    0.496484041
    0.737392604    0.157832861    0.591472507
    0.546916246    0.110213757    0.686460912
    0.356440008    0.062594652    0.781449318
    0.308821023    0.300689787    0.876437724
    0.070725918    0.491166294    0.496484011
    0.880249679    0.443547189    0.591472507
    0.689773381    0.395928025    0.686460912
    0.499297142    0.348308891    0.781449318
    0.451678157    0.586404085    0.876437724
    0.213583067    0.776880562    0.496484011
    0.023106933    0.729261518    0.591472507
    0.832630575    0.681642354    0.686460912
    0.642154276    0.634023190    0.781449378
    0.737392485    0.157832623    0.876437724
    0.499297380    0.348309159    0.496484011
    0.308821172    0.300690025    0.591472447
    0.118344873    0.253070861    0.686460912
    0.927868605    0.205451727    0.781449318
    0.594535291    0.872118294    0.876437724
    0.356440246    0.062594891    0.496484011
    0.165963992    0.014975786    0.591472447
    0.975487828    0.967356622    0.686460793
    0.785011351    0.919737399    0.781449318
    0.880249560    0.443546891    0.876437724
    0.642154515    0.634023428    0.496484011
    0.451678336    0.586404324    0.591472507
    0.261202127    0.538785219    0.686460853
    0.070725679    0.491166025    0.781449318
    0.023106694    0.729261160    0.876437724
    0.785011590    0.919737756    0.496484011
    0.594535410    0.872118592    0.591472447
    0.404059112    0.824499488    0.686460912
    0.213582829    0.776880324    0.781449318
    0.261201918    0.538784981    0.900184810
    0.213583097    0.776880682    0.425242722
    0.023106933    0.729261518    0.520231128
    0.832630575    0.681642413    0.615219593
    0.642154276    0.634023249    0.710208058
    0.451678097    0.586404085    0.805196404
    0.546916187    0.110213518    0.900184810
    0.499297380    0.348309249    0.425242752
    0.308821172    0.300690114    0.520231128
    0.118344896    0.253070980    0.615219593
    0.927868545    0.205451727    0.710208058
    0.737392366    0.157832623    0.805196404
    0.404058993    0.824499309    0.900184810
    0.356440246    0.062595010    0.425242722
    0.165963978    0.014975786    0.520231128
    0.975487769    0.967356682    0.615219593
    0.785011411    0.919737518    0.710208058
    0.594535172    0.872118413    0.805196404
    0.689773321    0.395927846    0.900184810
    0.642154574    0.634023547    0.425242722
    0.451678336    0.586404383    0.520231128
    0.261202037    0.538785279    0.615219593
    0.070725799    0.491166115    0.710208058
    0.880249500    0.443546981    0.805196404
    0.832630455    0.681642115    0.900184810
    0.785011709    0.919737875    0.425242722
    0.594535410    0.872118652    0.520231187
    0.404059172    0.824499547    0.615219593
    0.213582888    0.776880383    0.710208058
    0.023106694    0.729261279    0.805196404
    0.118344739    0.253070652    0.900184870
    0.070726037    0.491166353    0.425242752
    0.880249679    0.443547219    0.520231128
    0.689773500    0.395928085    0.615219593
    0.499297142    0.348308921    0.710208058
    0.308820963    0.300689787    0.805196464
    0.975487590    0.967356443    0.900184810
    0.927868783    0.205452204    0.425242722
    0.737392545    0.157832980    0.520231128
    0.546916366    0.110213876    0.615219593
    0.356440067    0.062594652    0.710208058
    0.165963829    0.014975548    0.805196404
    0.237392440    0.157832623    0.876437724
    0.999297321    0.348309129    0.496484011
    0.808821142    0.300689995    0.591472507
    0.618344843    0.253070831    0.686460912
    0.427868545    0.205451727    0.781449378
    0.380249560    0.443546951    0.876437724
    0.142154485    0.634023428    0.496484011
    0.951678276    0.586404383    0.591472507
    0.761201978    0.538785219    0.686460912
    0.570725679    0.491166055    0.781449318
    0.665963829    0.014975548    0.876437724
    0.427868783    0.205451965    0.496484011
    0.237392575    0.157832861    0.591472507
    0.046916246    0.110213757    0.686460912
    0.856439948    0.062594652    0.781449378
    0.523106635    0.729261160    0.876437724
    0.285011649    0.919737756    0.496484011
    0.094535381    0.872118652    0.591472507
    0.904059231    0.824499547    0.686460853
    0.713582814    0.776880324    0.781449378
    0.808821023    0.300689757    0.876437724
    0.570725977    0.491166294    0.496483982
    0.380249739    0.443547189    0.591472507
    0.189773589    0.395928055    0.686460853
    0.999297202    0.348308861    0.781449318
    0.951678216    0.586404085    0.876437724
    0.713583112    0.776880622    0.496484011
    0.523106933    0.729261518    0.591472447
    0.332630634    0.681642294    0.686460912
    0.142154366    0.634023190    0.781449318
    0.094535388    0.872118354    0.876437724
    0.856440306    0.062594891    0.496484011
    0.665964067    0.014975786    0.591472507
    0.475487828    0.967356563    0.686460912
    0.285011530    0.919737458    0.781449318
    0.189773396    0.395927817    0.900184810
    0.142154545    0.634023488    0.425242722
    0.951678276    0.586404324    0.520231128
    0.761202097    0.538785219    0.615219533
    0.570725739    0.491166055    0.710208058
    0.380249560    0.443546951    0.805196404
    0.332630455    0.681642175    0.900184810
    0.285011709    0.919737816    0.425242692
    0.094535433    0.872118711    0.520231128
    0.904059231    0.824499547    0.615219533
    0.713582933    0.776880383    0.710208058
    0.523106694    0.729261279    0.805196404
    0.618344784    0.253070682    0.900184810
    0.570725977    0.491166353    0.425242722
    0.380249739    0.443547219    0.520231128
    0.189773530    0.395928085    0.615219533
    0.999297202    0.348308921    0.710208058
    0.808820963    0.300689816    0.805196404
    0.475487649    0.967356503    0.900184810
    0.427868843    0.205452204    0.425242722
    0.237392560    0.157833099    0.520231128
    0.046916366    0.110213995    0.615219533
    0.856440008    0.062594771    0.710208058
    0.665963829    0.014975548    0.805196404
    0.761201918    0.538785100    0.900184810
    0.713583112    0.776880741    0.425242722
    0.523106873    0.729261637    0.520231128
    0.332630634    0.681642473    0.615219533
    0.142154336    0.634023309    0.710208058
    0.951678097    0.586404204    0.805196404
    0.046916246    0.110213518    0.900184810
    0.999297500    0.348309249    0.425242692
    0.808821201    0.300690114    0.520231128
    0.618345022    0.253070951    0.615219533
    0.427868724    0.205451727    0.710208058
    0.237392500    0.157832623    0.805196404
    0.904059052    0.824499249    0.900184810
    0.856440246    0.062594891    0.425242692
    0.665964007    0.014975786    0.520231128
    0.475487828    0.967356741    0.615219533
    0.285011470    0.919737518    0.710208058
    0.094535284    0.872118413    0.805196345
    0.237392440    0.657832623    0.876437724
    0.999297321    0.848309159    0.496484011
    0.808821142    0.800690114    0.591472507
    0.618344843    0.753070891    0.686460912
    0.427868545    0.705451727    0.781449318
    0.523106694    0.229261160    0.876437724
    0.285011649    0.419737697    0.496484041
    0.094535440    0.372118592    0.591472507
    0.904059112    0.324499428    0.686460912
    0.713582814    0.276880264    0.781449378
    0.380249560    0.943546891    0.876437724
    0.142154545    0.134023428    0.496483982
    0.951678276    0.086404324    0.591472447
    0.761202097    0.038785219    0.686460793
    0.570725679    0.991166055    0.781449318
    0.665963829    0.514975429    0.876437724
    0.427868783    0.705451965    0.496484011
    0.237392530    0.657832861    0.591472507
    0.046916366    0.610213757    0.686460853
    0.856439948    0.562594533    0.781449318
    0.951678097    0.086404085    0.876437724
    0.713583052    0.276880592    0.496484011
    0.523106873    0.229261398    0.591472507
    0.332630634    0.181642294    0.686460853
    0.142154276    0.134023190    0.781449318
    0.808821023    0.800689816    0.876437724
    0.570725977    0.991166353    0.496484011
    0.380249798    0.943547249    0.591472447
    0.189773470    0.895928085    0.686460912
    0.999297202    0.848308921    0.781449318
    0.094535328    0.372118354    0.876437724
    0.856440246    0.562594891    0.496484011
    0.665964007    0.514975786    0.591472507
    0.475487769    0.467356622    0.686460912
    0.285011470    0.419737458    0.781449318
    0.332630515    0.181642056    0.900184810
    0.285011709    0.419737816    0.425242722
    0.094535425    0.372118682    0.520231128
    0.904059231    0.324499547    0.615219533
    0.713582933    0.276880383    0.710208058
    0.523106694    0.229261279    0.805196404
    0.189773336    0.895927846    0.900184810
    0.142154515    0.134023547    0.425242722
    0.951678276    0.086404443    0.520231128
    0.761202097    0.038785338    0.615219533
    0.570725739    0.991166115    0.710208058
    0.380249560    0.943547010    0.805196404
    0.475487649    0.467356443    0.900184810
    0.427868843    0.705452085    0.425242722
    0.237392589    0.657832980    0.520231128
    0.046916366    0.610213876    0.615219533
    0.856440067    0.562594652    0.710208058
    0.665963829    0.514975548    0.805196404
    0.761201918    0.038784981    0.900184810
    0.713583052    0.276880652    0.425242722
    0.523106873    0.229261518    0.520231128
    0.332630694    0.181642413    0.615219533
    0.142154336    0.134023190    0.710208058
    0.951678097    0.086404085    0.805196404
    0.618344784    0.753070772    0.900184810
    0.570725977    0.991166413    0.425242692
    0.380249739    0.943547308    0.520231128
    0.189773530    0.895928204    0.615219533
    0.999297202    0.848308980    0.710208058
    0.808820963    0.800689876    0.805196404
    0.904059052    0.324499309    0.900184810
    0.856440306    0.562595010    0.425242692
    0.665964007    0.514975846    0.520231128
    0.475487828    0.467356682    0.615219533
    0.285011500    0.419737548    0.710208058
    0.094535284    0.372118443    0.805196404
    0.046916127    0.610213637    0.900184810
    0.999297321    0.848309278    0.425242722
    0.808821082    0.800690174    0.520231128
    0.618344903    0.753071010    0.615219533
    0.427868545    0.705451846    0.710208058
    0.237392351    0.657832742    0.805196404
    0.165963843    0.514975429    0.876437724
    0.927868783    0.705451965    0.496484011
    0.737392545    0.657832861    0.591472507
    0.546916246    0.610213757    0.686460912
    0.356439948    0.562594593    0.781449378
    0.451678157    0.086404085    0.876437724
    0.213583067    0.276880562    0.496484011
    0.023106933    0.229261398    0.591472507
    0.832630575    0.181642294    0.686460912
    0.642154276    0.134023190    0.781449318
    0.308820963    0.800689697    0.876437724
    0.070725918    0.991166234    0.496484011
    0.880249679    0.943547130    0.591472507
    0.689773500    0.895928025    0.686460853
    0.499297082    0.848308802    0.781449318
    0.594535291    0.372118294    0.876437724
    0.356440246    0.562594831    0.496483982
    0.165964007    0.514975667    0.591472507
    0.975487828    0.467356592    0.686460853
    0.785011411    0.419737458    0.781449318
    0.737392485    0.657832623    0.876437724
    0.499297380    0.848309219    0.496484011
    0.308821201    0.800690055    0.591472447
    0.118344873    0.753070891    0.686460912
    0.927868545    0.705451787    0.781449318
    0.023106694    0.229261160    0.876437724
    0.785011590    0.419737726    0.496484011
    0.594535470    0.372118592    0.591472507
    0.404059112    0.324499458    0.686460912
    0.213582814    0.276880324    0.781449318
    0.880249560    0.943546891    0.876437724
    0.642154515    0.134023428    0.496484011
    0.451678276    0.086404324    0.591472507
    0.261201978    0.038785219    0.686460912
    0.070725679    0.991165996    0.781449318
    0.261201859    0.038784981    0.900184870
    0.213583127    0.276880682    0.425242752
    0.023106933    0.229261518    0.520231128
    0.832630634    0.181642413    0.615219593
    0.642154336    0.134023190    0.710208058
    0.451678157    0.086404085    0.805196404
    0.404059052    0.324499249    0.900184870
    0.356440246    0.562594950    0.425242752
    0.165964037    0.514975786    0.520231128
    0.975487769    0.467356682    0.615219653
    0.785011470    0.419737518    0.710208058
    0.594535291    0.372118384    0.805196404
    0.546916187    0.610213637    0.900184810
    0.499297380    0.848309278    0.425242722
    0.308821142    0.800690174    0.520231128
    0.118344888    0.753071010    0.615219653
    0.927868545    0.705451846    0.710208058
    0.737392366    0.657832742    0.805196404
    0.832630455    0.181642056    0.900184810
    0.785011709    0.419737816    0.425242722
    0.594535470    0.372118652    0.520231128
    0.404059231    0.324499518    0.615219653
    0.213582918    0.276880354    0.710208058
    0.023106694    0.229261160    0.805196404
    0.689773321    0.895927906    0.900184810
    0.642154515    0.134023666    0.425242722
    0.451678276    0.086404443    0.520231187
    0.261202037    0.038785219    0.615219593
    0.070725799    0.991166115    0.710208058
    0.880249500    0.943547010    0.805196464
    0.975487590    0.467356384    0.900184810
    0.927868843    0.705452085    0.425242722
    0.737392545    0.657832980    0.520231128
    0.546916366    0.610213816    0.615219533
    0.356440008    0.562594652    0.710208058
    0.165963814    0.514975548    0.805196404
    0.118344858    0.753070712    0.900184810
    0.070726037    0.991166413    0.425242722
    0.880249798    0.943547249    0.520231128
    0.689773500    0.895928144    0.615219593
    0.499297202    0.848308921    0.710208058
    0.308821023    0.800689816    0.805196404
