fcc Si+fcc Ge
    1.000000000
   12.253652517    0.000000000    0.000000000
   -2.450730503   18.009117691    0.000000000
    0.000000000    0.000000000   23.943001579
Si    Ge   
72     154
Direct
    0.000000000    0.000000000    0.000000000
    0.694444444    0.972222222    0.046719302
    0.388888889    0.944444444    0.093438604
    0.083333333    0.916666667    0.140157905
    0.777777778    0.888888889    0.186877207
    0.472222222    0.861111111    0.233596509
    0.666666667    0.333333333    0.000000000
    0.361111111    0.305555556    0.046719302
    0.055555556    0.277777778    0.093438604
    0.750000000    0.250000000    0.140157905
    0.444444444    0.222222222    0.186877207
    0.138888889    0.194444444    0.233596509
    0.333333333    0.666666667    0.000000000
    0.027777778    0.638888889    0.046719302
    0.722222222    0.611111111    0.093438604
    0.416666667    0.583333333    0.140157905
    0.111111111    0.555555556    0.186877207
    0.805555556    0.527777778    0.233596509
    0.833333333    0.166666667    0.000000000
    0.527777778    0.138888889    0.046719302
    0.222222222    0.111111111    0.093438604
    0.916666667    0.083333333    0.140157905
    0.611111111    0.055555556    0.186877207
    0.305555556    0.027777778    0.233596509
    0.500000000    0.500000000    0.000000000
    0.194444444    0.472222222    0.046719302
    0.888888889    0.444444444    0.093438604
    0.583333333    0.416666667    0.140157905
    0.277777778    0.388888889    0.186877207
    0.972222222    0.361111111    0.233596509
    0.166666667    0.833333333    0.000000000
    0.861111111    0.805555556    0.046719302
    0.555555556    0.777777778    0.093438604
    0.250000000    0.750000000    0.140157905
    0.944444444    0.722222222    0.186877207
    0.638888889    0.694444444    0.233596509
    0.000000000    0.250000000    0.000000000
    0.694444444    0.222222222    0.046719302
    0.388888889    0.194444444    0.093438604
    0.083333333    0.166666667    0.140157905
    0.777777778    0.138888889    0.186877207
    0.472222222    0.111111111    0.233596509
    0.666666667    0.583333333    0.000000000
    0.361111111    0.555555556    0.046719302
    0.055555556    0.527777778    0.093438604
    0.750000000    0.500000000    0.140157905
    0.444444444    0.472222222    0.186877207
    0.138888889    0.444444444    0.233596509
    0.333333333    0.916666667    0.000000000
    0.027777778    0.888888889    0.046719302
    0.722222222    0.861111111    0.093438604
    0.416666667    0.833333333    0.140157905
    0.111111111    0.805555556    0.186877207
    0.805555556    0.777777778    0.233596509
    0.166666667    0.083333333    0.000000000
    0.861111111    0.055555556    0.046719302
    0.555555556    0.027777778    0.093438604
    0.250000000    0.000000000    0.140157905
    0.944444444    0.972222222    0.186877207
    0.638888889    0.944444444    0.233596509
    0.833333333    0.416666667    0.000000000
    0.527777778    0.388888889    0.046719302
    0.222222222    0.361111111    0.093438604
    0.916666667    0.333333333    0.140157905
    0.611111111    0.305555556    0.186877207
    0.305555556    0.277777778    0.233596509
    0.500000000    0.750000000    0.000000000
    0.194444444    0.722222222    0.046719302
    0.888888889    0.694444444    0.093438604
    0.583333333    0.666666667    0.140157905
    0.277777778    0.638888889    0.186877207
    0.972222222    0.611111111    0.233596509
    0.254098361    0.099447514    0.321304810
    0.754098361    0.099447514    0.439502188
    0.254098361    0.099447514    0.557699566
    0.754098361    0.099447514    0.675896943
    0.254098361    0.099447514    0.794094321
    0.754098361    0.099447514    0.912291699
    0.682669789    0.242304657    0.321304810
    0.182669789    0.242304657    0.439502188
    0.682669789    0.242304657    0.557699566
    0.182669789    0.242304657    0.675896943
    0.682669789    0.242304657    0.794094321
    0.182669789    0.242304657    0.912291699
    0.111241218    0.385161800    0.321304810
    0.611241218    0.385161800    0.439502188
    0.111241218    0.385161800    0.557699566
    0.611241218    0.385161800    0.675896943
    0.111241218    0.385161800    0.794094321
    0.611241218    0.385161800    0.912291699
    0.539812646    0.528018942    0.321304810
    0.039812646    0.528018942    0.439502188
    0.539812646    0.528018942    0.557699566
    0.039812646    0.528018942    0.675896943
    0.539812646    0.528018942    0.794094321
    0.039812646    0.528018942    0.912291699
    0.968384075    0.670876085    0.321304810
    0.468384075    0.670876085    0.439502188
    0.968384075    0.670876085    0.557699566
    0.468384075    0.670876085    0.675896943
    0.968384075    0.670876085    0.794094321
    0.468384075    0.670876085    0.912291699
    0.396955504    0.813733228    0.321304810
    0.896955504    0.813733228    0.439502188
    0.396955504    0.813733228    0.557699566
    0.896955504    0.813733228    0.675896943
    0.396955504    0.813733228    0.794094321
    0.896955504    0.813733228    0.912291699
    0.825526932    0.956590371    0.321304810
    0.325526932    0.956590371    0.439502188
    0.825526932    0.956590371    0.557699566
    0.325526932    0.956590371    0.675896943
    0.825526932    0.956590371    0.794094321
    0.325526932    0.956590371    0.912291699
    0.968384075    0.170876085    0.321304810
    0.468384075    0.170876085    0.439502188
    0.968384075    0.170876085    0.557699566
    0.468384075    0.170876085    0.675896943
    0.968384075    0.170876085    0.794094321
    0.468384075    0.170876085    0.912291699
    0.396955504    0.313733228    0.321304810
    0.896955504    0.313733228    0.439502188
    0.396955504    0.313733228    0.557699566
    0.896955504    0.313733228    0.675896943
    0.396955504    0.313733228    0.794094321
    0.896955504    0.313733228    0.912291699
    0.825526932    0.456590371    0.321304810
    0.325526932    0.456590371    0.439502188
    0.825526932    0.456590371    0.557699566
    0.325526932    0.456590371    0.675896943
    0.825526932    0.456590371    0.794094321
    0.325526932    0.456590371    0.912291699
    0.254098361    0.599447514    0.321304810
    0.754098361    0.599447514    0.439502188
    0.254098361    0.599447514    0.557699566
    0.754098361    0.599447514    0.675896943
    0.254098361    0.599447514    0.794094321
    0.754098361    0.599447514    0.912291699
    0.682669789    0.742304657    0.321304810
    0.182669789    0.742304657    0.439502188
    0.682669789    0.742304657    0.557699566
    0.182669789    0.742304657    0.675896943
    0.682669789    0.742304657    0.794094321
    0.182669789    0.742304657    0.912291699
    0.111241218    0.885161800    0.321304810
    0.611241218    0.885161800    0.439502188
    0.111241218    0.885161800    0.557699566
    0.611241218    0.885161800    0.675896943
    0.111241218    0.885161800    0.794094321
    0.611241218    0.885161800    0.912291699
    0.539812646    0.028018942    0.321304810
    0.039812646    0.028018942    0.439502188
    0.539812646    0.028018942    0.557699566
    0.039812646    0.028018942    0.675896943
    0.539812646    0.028018942    0.794094321
    0.039812646    0.028018942    0.912291699
    0.325526932    0.206590371    0.380403499
    0.825526932    0.206590371    0.498600877
    0.325526932    0.206590371    0.616798254
    0.825526932    0.206590371    0.734995632
    0.325526932    0.206590371    0.853193010
    0.754098361    0.349447514    0.380403499
    0.254098361    0.349447514    0.498600877
    0.754098361    0.349447514    0.616798254
    0.254098361    0.349447514    0.734995632
    0.754098361    0.349447514    0.853193010
    0.182669789    0.492304657    0.380403499
    0.682669789    0.492304657    0.498600877
    0.182669789    0.492304657    0.616798254
    0.682669789    0.492304657    0.734995632
    0.182669789    0.492304657    0.853193010
    0.611241218    0.635161800    0.380403499
    0.111241218    0.635161800    0.498600877
    0.611241218    0.635161800    0.616798254
    0.111241218    0.635161800    0.734995632
    0.611241218    0.635161800    0.853193010
    0.039812646    0.778018942    0.380403499
    0.539812646    0.778018942    0.498600877
    0.039812646    0.778018942    0.616798254
    0.539812646    0.778018942    0.734995632
    0.039812646    0.778018942    0.853193010
    0.468384075    0.920876085    0.380403499
    0.968384075    0.920876085    0.498600877
    0.468384075    0.920876085    0.616798254
    0.968384075    0.920876085    0.734995632
    0.468384075    0.920876085    0.853193010
    0.896955504    0.063733228    0.380403499
    0.396955504    0.063733228    0.498600877
    0.896955504    0.063733228    0.616798254
    0.396955504    0.063733228    0.734995632
    0.896955504    0.063733228    0.853193010
    0.611241218    0.135161800    0.380403499
    0.111241218    0.135161800    0.498600877
    0.611241218    0.135161800    0.616798254
    0.111241218    0.135161800    0.734995632
    0.611241218    0.135161800    0.853193010
    0.039812646    0.278018942    0.380403499
    0.539812646    0.278018942    0.498600877
    0.039812646    0.278018942    0.616798254
    0.539812646    0.278018942    0.734995632
    0.039812646    0.278018942    0.853193010
    0.468384075    0.420876085    0.380403499
    0.968384075    0.420876085    0.498600877
    0.468384075    0.420876085    0.616798254
    0.968384075    0.420876085    0.734995632
    0.468384075    0.420876085    0.853193010
    0.896955504    0.563733228    0.380403499
    0.396955504    0.563733228    0.498600877
    0.896955504    0.563733228    0.616798254
    0.396955504    0.563733228    0.734995632
    0.896955504    0.563733228    0.853193010
    0.325526932    0.706590371    0.380403499
    0.825526932    0.706590371    0.498600877
    0.325526932    0.706590371    0.616798254
    0.825526932    0.706590371    0.734995632
    0.325526932    0.706590371    0.853193010
    0.754098361    0.849447514    0.380403499
    0.254098361    0.849447514    0.498600877
    0.754098361    0.849447514    0.616798254
    0.254098361    0.849447514    0.734995632
    0.754098361    0.849447514    0.853193010
    0.182669789    0.992304657    0.380403499
    0.682669789    0.992304657    0.498600877
    0.182669789    0.992304657    0.616798254
    0.682669789    0.992304657    0.734995632
    0.182669789    0.992304657    0.853193010
