Sn+Ge                                   
   1.00000000000000     
    12.9784002300000001    0.0000000000000000    0.0000000000000000
   -12.9784002300000001   14.5102930069999996    0.0000000000000000
     0.0000000000000000    0.0000000000000000    9.1904115680000000
   Sn   Ge
    24    24
Direct
  0.9795643089999970  0.0306535329999988  0.0000000089999972
  0.7795642609999973  0.3306535780000033  0.1578851490000019
  0.5795641540000034  0.6306536199999968  0.3157702979999968
  0.4795642500000028  0.0306535329999988  0.0000000089999972
  0.2795642020000031  0.3306535780000033  0.1578851490000019
  0.0795641320000016  0.6306536199999968  0.3157702979999968
  0.2545643150000032  0.6806535119999992  0.0789424179999969
  0.0545641590000017  0.9806534650000032  0.2368275819999965
  0.8545641300000000  0.2806535960000005  0.3947126870000019
  0.7545644039999999  0.6806535119999992  0.0789424179999969
  0.5545642379999975  0.9806534650000032  0.2368275819999965
  0.3545641600000025  0.2806535960000005  0.3947126870000019
  0.2295642790000016  0.5306534770000013  0.0000000000000000
  0.0295641909999986  0.8306534889999995  0.1578851490000019
  0.8295640349999971  0.1306536199999968  0.3157702979999968
  0.7295641899999978  0.5306534770000013  0.0000000000000000
  0.5295641419999981  0.8306534889999995  0.1578851490000019
  0.3295640349999971  0.1306536199999968  0.3157702979999968
  0.0045643300000009  0.1806535119999992  0.0789424259999976
  0.8045641779999997  0.4806535840000024  0.2368275819999965
  0.6045642500000028  0.7806536559999984  0.3947126870000019
  0.5045642850000007  0.1806535119999992  0.0789424259999976
  0.3045641779999997  0.4806535840000024  0.2368275819999965
  0.1045641680000031  0.7806536559999984  0.3947126870000019
  0.0505266190000029  0.9035974740000015  0.5568605659999974
  0.9338598849999968  0.4869307279999973  0.6130588050000014
  0.8171931509999979  0.0702639820000002  0.6692572239999990
  0.7005262970000032  0.6535972360000031  0.7254555820000022
  0.5838596219999985  0.2369306089999981  0.7816537619999977
  0.4671927990000029  0.8202636239999990  0.8378521200000009
  0.5505266190000029  0.1535974439999990  0.5568605659999974
  0.4338598849999968  0.7369306679999994  0.6130588050000014
  0.3171931210000025  0.3202639820000002  0.6692572239999990
  0.2005263269999986  0.9035972360000031  0.7254554029999980
  0.0838595700000013  0.4869304899999989  0.7816537019999998
  0.9671928879999996  0.0702636239999990  0.8378520010000017
  0.5505266190000029  0.4035974439999990  0.5568606260000024
  0.4338598550000015  0.9869307279999973  0.6130589249999971
  0.3171930910000000  0.5702639820000002  0.6692572239999990
  0.2005263570000011  0.1535971759999981  0.7254555230000008
  0.0838596299999992  0.7369304899999989  0.7816537619999977
  0.9671927690000004  0.3202635049999998  0.8378521200000009
  0.0505266190000029  0.6535974740000015  0.5568606260000024
  0.9338598249999990  0.2369306829999971  0.6130589249999971
  0.8171930910000000  0.8202639220000023  0.6692572239999990
  0.7005262970000032  0.4035971759999981  0.7254555230000008
  0.5838595629999972  0.9869304899999989  0.7816538209999990
  0.4671927990000029  0.5702635049999998  0.8378521200000009
 
  0.00000000E+00  0.00000000E+00  0.00000000E+00
  0.00000000E+00  0.00000000E+00  0.00000000E+00
  0.00000000E+00  0.00000000E+00  0.00000000E+00
  0.00000000E+00  0.00000000E+00  0.00000000E+00
  0.00000000E+00  0.00000000E+00  0.00000000E+00
  0.00000000E+00  0.00000000E+00  0.00000000E+00
  0.00000000E+00  0.00000000E+00  0.00000000E+00
  0.00000000E+00  0.00000000E+00  0.00000000E+00
  0.00000000E+00  0.00000000E+00  0.00000000E+00
  0.00000000E+00  0.00000000E+00  0.00000000E+00
  0.00000000E+00  0.00000000E+00  0.00000000E+00
  0.00000000E+00  0.00000000E+00  0.00000000E+00
  0.00000000E+00  0.00000000E+00  0.00000000E+00
  0.00000000E+00  0.00000000E+00  0.00000000E+00
  0.00000000E+00  0.00000000E+00  0.00000000E+00
  0.00000000E+00  0.00000000E+00  0.00000000E+00
  0.00000000E+00  0.00000000E+00  0.00000000E+00
  0.00000000E+00  0.00000000E+00  0.00000000E+00
  0.00000000E+00  0.00000000E+00  0.00000000E+00
  0.00000000E+00  0.00000000E+00  0.00000000E+00
  0.00000000E+00  0.00000000E+00  0.00000000E+00
  0.00000000E+00  0.00000000E+00  0.00000000E+00
  0.00000000E+00  0.00000000E+00  0.00000000E+00
  0.00000000E+00  0.00000000E+00  0.00000000E+00
  0.00000000E+00  0.00000000E+00  0.00000000E+00
  0.00000000E+00  0.00000000E+00  0.00000000E+00
  0.00000000E+00  0.00000000E+00  0.00000000E+00
  0.00000000E+00  0.00000000E+00  0.00000000E+00
  0.00000000E+00  0.00000000E+00  0.00000000E+00
  0.00000000E+00  0.00000000E+00  0.00000000E+00
  0.00000000E+00  0.00000000E+00  0.00000000E+00
  0.00000000E+00  0.00000000E+00  0.00000000E+00
  0.00000000E+00  0.00000000E+00  0.00000000E+00
  0.00000000E+00  0.00000000E+00  0.00000000E+00
  0.00000000E+00  0.00000000E+00  0.00000000E+00
  0.00000000E+00  0.00000000E+00  0.00000000E+00
  0.00000000E+00  0.00000000E+00  0.00000000E+00
  0.00000000E+00  0.00000000E+00  0.00000000E+00
  0.00000000E+00  0.00000000E+00  0.00000000E+00
  0.00000000E+00  0.00000000E+00  0.00000000E+00
  0.00000000E+00  0.00000000E+00  0.00000000E+00
  0.00000000E+00  0.00000000E+00  0.00000000E+00
  0.00000000E+00  0.00000000E+00  0.00000000E+00
  0.00000000E+00  0.00000000E+00  0.00000000E+00
  0.00000000E+00  0.00000000E+00  0.00000000E+00
  0.00000000E+00  0.00000000E+00  0.00000000E+00
  0.00000000E+00  0.00000000E+00  0.00000000E+00
  0.00000000E+00  0.00000000E+00  0.00000000E+00
