Si+C                                    
   1.00000000000000     
    13.3031797409999992    0.0000000000000000    0.0000000000000000
     6.6515893940000002   14.8734064099999994    0.0000000000000000
     0.0000000000000000    0.0000000000000000    8.3900594710000007
   Si   C 
    36    84
Direct
  0.9829056259999973  0.6581194999999980  0.0000000049999969
  0.7829055790000012  0.5581192969999975  0.1447438000000005
  0.5829054120000023  0.4581190939999971  0.2894876000000011
  0.9829056259999973  0.3247861270000030  0.0000000049999969
  0.7829055790000012  0.2247859690000027  0.1447438000000005
  0.5829054120000023  0.1247858030000017  0.2894876000000011
  0.9829056259999973  0.9914528130000022  0.0000000049999969
  0.7829055790000012  0.8914526699999996  0.1447438000000005
  0.5829054120000023  0.7914525269999970  0.2894876000000011
  0.6329056619999989  0.6914526819999978  0.0723717440000016
  0.4329055850000003  0.5914524789999973  0.2171155509999991
  0.2329055220000029  0.4914524260000022  0.3618593509999997
  0.6329056619999989  0.3581194280000020  0.0723717440000016
  0.4329055850000003  0.2581192849999994  0.2171155509999991
  0.2329055220000029  0.1581191419999968  0.3618593509999997
  0.6329056619999989  0.0247861369999995  0.0723717440000016
  0.4329055850000003  0.9247859720000022  0.2171155509999991
  0.2329055220000029  0.8247858289999996  0.3618593509999997
  0.4829056259999973  0.6581194999999980  0.0000000000000000
  0.2829055489999988  0.5581192969999975  0.1447438000000005
  0.0829054419999977  0.4581190939999971  0.2894876000000011
  0.4829056259999973  0.3247861270000030  0.0000000000000000
  0.2829055489999988  0.2247859539999979  0.1447438000000005
  0.0829054419999977  0.1247858110000024  0.2894876000000011
  0.4829056259999973  0.9914528130000022  0.0000000000000000
  0.2829055489999988  0.8914526699999996  0.1447438000000005
  0.0829054419999977  0.7914525269999970  0.2894876000000011
  0.1329056769999966  0.6914527420000027  0.0723717589999993
  0.9329055549999978  0.5914524789999973  0.2171155509999991
  0.7329055069999981  0.4914523959999997  0.3618593509999997
  0.1329056769999966  0.3581194879999998  0.0723717589999993
  0.9329055549999978  0.2581192849999994  0.2171155509999991
  0.7329055069999981  0.1581191269999991  0.3618593509999997
  0.1329056769999966  0.0247861369999995  0.0723717589999993
  0.9329055549999978  0.9247859720000022  0.2171155509999991
  0.7329055069999981  0.8247858289999996  0.3618593509999997
  0.8682928090000033  0.1450181009999980  0.5621044040000029
  0.8397212030000034  0.4164467160000029  0.6571646929999986
  0.8111495969999964  0.6878753299999971  0.7522249220000035
  0.0111498830000016  0.2878752350000013  0.5621044040000029
  0.9825783369999996  0.5593038800000016  0.6571646929999986
  0.9540067909999976  0.8307325239999983  0.7522249220000035
  0.1540069579999965  0.4307323990000000  0.5621044040000029
  0.1254354719999995  0.7021610139999979  0.6571646929999986
  0.0968639849999988  0.9735897179999995  0.7522249220000035
  0.2968641519999977  0.5735895629999987  0.5621044040000029
  0.2682926649999970  0.8450182079999990  0.6571646929999986
  0.2397210600000008  0.1164468529999994  0.7522249220000035
  0.4397213459999989  0.7164466979999986  0.5621044040000029
  0.4111497399999990  0.9878752830000010  0.6571646929999986
  0.3825781350000028  0.2593039269999977  0.7522249220000035
  0.5825784210000009  0.8593037719999970  0.5621044040000029
  0.5540068150000010  0.1307324169999973  0.6571646929999986
  0.5254353280000004  0.4021610019999997  0.7522249220000035
  0.7254356150000021  0.0021610260000031  0.5621044040000029
  0.6968641280000014  0.2735896109999985  0.6571646929999986
  0.6682924030000024  0.5450181960000009  0.7522249220000035
  0.9611499310000013  0.8878750800000006  0.6096344589999987
  0.9325783849999993  0.1593036650000030  0.7046946880000036
  0.9040068389999973  0.4307323689999976  0.7997549179999979
  0.1040070060000033  0.0307323930000010  0.6096344589999987
  0.0754354000000035  0.3021609780000034  0.7046946880000036
  0.0468639139999993  0.5735896830000016  0.7997549179999979
  0.2468641999999974  0.1735894680000030  0.6096344589999987
  0.2182925939999976  0.4450181719999975  0.7046946880000036
  0.1897209879999977  0.7164467569999999  0.7997548580000000
  0.3897212740000029  0.3164465429999979  0.6096344589999987
  0.3611497879999988  0.5878751870000016  0.7046946880000036
  0.3325781819999989  0.8593037130000027  0.7997548580000000
  0.5325784679999970  0.4593038260000029  0.6096344589999987
  0.5040068630000007  0.7307324410000007  0.7046946880000036
  0.4754352570000009  0.0021611450000023  0.7997548580000000
  0.6754355429999990  0.6021609310000002  0.6096344589999987
  0.6468639369999991  0.8735895749999969  0.7046946880000036
  0.6182925700000013  0.1450182199999972  0.7997549179999979
  0.8182927370000002  0.7450180649999965  0.6096344589999987
  0.7897212510000031  0.0164467099999968  0.7046946880000036
  0.7611496450000033  0.2878751750000035  0.7997548580000000
  0.9397212860000010  0.7164466380000007  0.5621044040000029
  0.9111497399999990  0.9878752830000010  0.6571646929999986
  0.8825781350000028  0.2593039269999977  0.7522249220000035
  0.0825784210000009  0.8593037719999970  0.5621044040000029
  0.0540068150000010  0.1307324169999973  0.6571646929999986
  0.0254354480000032  0.4021611209999989  0.7522249220000035
  0.2254356150000021  0.0021609069999968  0.5621044040000029
  0.1968641280000014  0.2735896109999985  0.6571646929999986
  0.1682925220000016  0.5450181960000009  0.7522248630000021
  0.3682928090000033  0.1450181009999980  0.5621044040000029
  0.3397212030000034  0.4164467160000029  0.6571646929999986
  0.3111495969999964  0.6878753299999971  0.7522249220000035
  0.5111498830000016  0.2878751750000035  0.5621044040000029
  0.4825782779999983  0.5593038199999967  0.6571646929999986
  0.4540067909999976  0.8307324649999970  0.7522249220000035
  0.6540070770000028  0.4307323990000000  0.5621044040000029
  0.6254354719999995  0.7021610139999979  0.6571646929999986
  0.5968639849999988  0.9735896589999982  0.7522249220000035
  0.7968642709999969  0.5735895039999974  0.5621044040000029
  0.7682926649999970  0.8450181480000012  0.6571646929999986
  0.7397210600000008  0.1164467329999965  0.7522249220000035
  0.8897212740000029  0.3164465730000003  0.6096344589999987
  0.8611497879999988  0.5878751870000016  0.7046946880000036
  0.8325781819999989  0.8593038320000019  0.7997548580000000
  0.0325784679999970  0.4593036170000033  0.6096344589999987
  0.0040068630000007  0.7307322619999965  0.7046946880000036
  0.9754353760000001  0.0021609069999968  0.7997548580000000
  0.1754355429999990  0.6021609310000002  0.6096344589999987
  0.1468640570000019  0.8735895160000027  0.7046946880000036
  0.1182924510000021  0.1450181009999980  0.7997549179999979
  0.3182927370000002  0.7450180049999986  0.6096344589999987
  0.2897211310000003  0.0164465900000010  0.7046946880000036
  0.2611496450000033  0.2878751750000035  0.7997549179999979
  0.4611498120000022  0.8878750209999993  0.6096344589999987
  0.4325783250000015  0.1593036650000030  0.7046946880000036
  0.4040067199999982  0.4307323689999976  0.7997549179999979
  0.6040070060000033  0.0307322740000018  0.6096344589999987
  0.5754354000000035  0.3021609780000034  0.7046946880000036
  0.5468637939999965  0.5735894439999996  0.7997549179999979
  0.7468640800000017  0.1735893489999967  0.6096344589999987
  0.7182924749999984  0.4450179339999991  0.7046946880000036
  0.6897208689999985  0.7164465190000016  0.7997548580000000
 
  0.00000000E+00  0.00000000E+00  0.00000000E+00
  0.00000000E+00  0.00000000E+00  0.00000000E+00
  0.00000000E+00  0.00000000E+00  0.00000000E+00
  0.00000000E+00  0.00000000E+00  0.00000000E+00
  0.00000000E+00  0.00000000E+00  0.00000000E+00
  0.00000000E+00  0.00000000E+00  0.00000000E+00
  0.00000000E+00  0.00000000E+00  0.00000000E+00
  0.00000000E+00  0.00000000E+00  0.00000000E+00
  0.00000000E+00  0.00000000E+00  0.00000000E+00
  0.00000000E+00  0.00000000E+00  0.00000000E+00
  0.00000000E+00  0.00000000E+00  0.00000000E+00
  0.00000000E+00  0.00000000E+00  0.00000000E+00
  0.00000000E+00  0.00000000E+00  0.00000000E+00
  0.00000000E+00  0.00000000E+00  0.00000000E+00
  0.00000000E+00  0.00000000E+00  0.00000000E+00
  0.00000000E+00  0.00000000E+00  0.00000000E+00
  0.00000000E+00  0.00000000E+00  0.00000000E+00
  0.00000000E+00  0.00000000E+00  0.00000000E+00
  0.00000000E+00  0.00000000E+00  0.00000000E+00
  0.00000000E+00  0.00000000E+00  0.00000000E+00
  0.00000000E+00  0.00000000E+00  0.00000000E+00
  0.00000000E+00  0.00000000E+00  0.00000000E+00
  0.00000000E+00  0.00000000E+00  0.00000000E+00
  0.00000000E+00  0.00000000E+00  0.00000000E+00
  0.00000000E+00  0.00000000E+00  0.00000000E+00
  0.00000000E+00  0.00000000E+00  0.00000000E+00
  0.00000000E+00  0.00000000E+00  0.00000000E+00
  0.00000000E+00  0.00000000E+00  0.00000000E+00
  0.00000000E+00  0.00000000E+00  0.00000000E+00
  0.00000000E+00  0.00000000E+00  0.00000000E+00
  0.00000000E+00  0.00000000E+00  0.00000000E+00
  0.00000000E+00  0.00000000E+00  0.00000000E+00
  0.00000000E+00  0.00000000E+00  0.00000000E+00
  0.00000000E+00  0.00000000E+00  0.00000000E+00
  0.00000000E+00  0.00000000E+00  0.00000000E+00
  0.00000000E+00  0.00000000E+00  0.00000000E+00
  0.00000000E+00  0.00000000E+00  0.00000000E+00
  0.00000000E+00  0.00000000E+00  0.00000000E+00
  0.00000000E+00  0.00000000E+00  0.00000000E+00
  0.00000000E+00  0.00000000E+00  0.00000000E+00
  0.00000000E+00  0.00000000E+00  0.00000000E+00
  0.00000000E+00  0.00000000E+00  0.00000000E+00
  0.00000000E+00  0.00000000E+00  0.00000000E+00
  0.00000000E+00  0.00000000E+00  0.00000000E+00
  0.00000000E+00  0.00000000E+00  0.00000000E+00
  0.00000000E+00  0.00000000E+00  0.00000000E+00
  0.00000000E+00  0.00000000E+00  0.00000000E+00
  0.00000000E+00  0.00000000E+00  0.00000000E+00
  0.00000000E+00  0.00000000E+00  0.00000000E+00
  0.00000000E+00  0.00000000E+00  0.00000000E+00
  0.00000000E+00  0.00000000E+00  0.00000000E+00
  0.00000000E+00  0.00000000E+00  0.00000000E+00
  0.00000000E+00  0.00000000E+00  0.00000000E+00
  0.00000000E+00  0.00000000E+00  0.00000000E+00
  0.00000000E+00  0.00000000E+00  0.00000000E+00
  0.00000000E+00  0.00000000E+00  0.00000000E+00
  0.00000000E+00  0.00000000E+00  0.00000000E+00
  0.00000000E+00  0.00000000E+00  0.00000000E+00
  0.00000000E+00  0.00000000E+00  0.00000000E+00
  0.00000000E+00  0.00000000E+00  0.00000000E+00
  0.00000000E+00  0.00000000E+00  0.00000000E+00
  0.00000000E+00  0.00000000E+00  0.00000000E+00
  0.00000000E+00  0.00000000E+00  0.00000000E+00
  0.00000000E+00  0.00000000E+00  0.00000000E+00
  0.00000000E+00  0.00000000E+00  0.00000000E+00
  0.00000000E+00  0.00000000E+00  0.00000000E+00
  0.00000000E+00  0.00000000E+00  0.00000000E+00
  0.00000000E+00  0.00000000E+00  0.00000000E+00
  0.00000000E+00  0.00000000E+00  0.00000000E+00
  0.00000000E+00  0.00000000E+00  0.00000000E+00
  0.00000000E+00  0.00000000E+00  0.00000000E+00
  0.00000000E+00  0.00000000E+00  0.00000000E+00
  0.00000000E+00  0.00000000E+00  0.00000000E+00
  0.00000000E+00  0.00000000E+00  0.00000000E+00
  0.00000000E+00  0.00000000E+00  0.00000000E+00
  0.00000000E+00  0.00000000E+00  0.00000000E+00
  0.00000000E+00  0.00000000E+00  0.00000000E+00
  0.00000000E+00  0.00000000E+00  0.00000000E+00
  0.00000000E+00  0.00000000E+00  0.00000000E+00
  0.00000000E+00  0.00000000E+00  0.00000000E+00
  0.00000000E+00  0.00000000E+00  0.00000000E+00
  0.00000000E+00  0.00000000E+00  0.00000000E+00
  0.00000000E+00  0.00000000E+00  0.00000000E+00
  0.00000000E+00  0.00000000E+00  0.00000000E+00
  0.00000000E+00  0.00000000E+00  0.00000000E+00
  0.00000000E+00  0.00000000E+00  0.00000000E+00
  0.00000000E+00  0.00000000E+00  0.00000000E+00
  0.00000000E+00  0.00000000E+00  0.00000000E+00
  0.00000000E+00  0.00000000E+00  0.00000000E+00
  0.00000000E+00  0.00000000E+00  0.00000000E+00
  0.00000000E+00  0.00000000E+00  0.00000000E+00
  0.00000000E+00  0.00000000E+00  0.00000000E+00
  0.00000000E+00  0.00000000E+00  0.00000000E+00
  0.00000000E+00  0.00000000E+00  0.00000000E+00
  0.00000000E+00  0.00000000E+00  0.00000000E+00
  0.00000000E+00  0.00000000E+00  0.00000000E+00
  0.00000000E+00  0.00000000E+00  0.00000000E+00
  0.00000000E+00  0.00000000E+00  0.00000000E+00
  0.00000000E+00  0.00000000E+00  0.00000000E+00
  0.00000000E+00  0.00000000E+00  0.00000000E+00
  0.00000000E+00  0.00000000E+00  0.00000000E+00
  0.00000000E+00  0.00000000E+00  0.00000000E+00
  0.00000000E+00  0.00000000E+00  0.00000000E+00
  0.00000000E+00  0.00000000E+00  0.00000000E+00
  0.00000000E+00  0.00000000E+00  0.00000000E+00
  0.00000000E+00  0.00000000E+00  0.00000000E+00
  0.00000000E+00  0.00000000E+00  0.00000000E+00
  0.00000000E+00  0.00000000E+00  0.00000000E+00
  0.00000000E+00  0.00000000E+00  0.00000000E+00
  0.00000000E+00  0.00000000E+00  0.00000000E+00
  0.00000000E+00  0.00000000E+00  0.00000000E+00
  0.00000000E+00  0.00000000E+00  0.00000000E+00
  0.00000000E+00  0.00000000E+00  0.00000000E+00
  0.00000000E+00  0.00000000E+00  0.00000000E+00
  0.00000000E+00  0.00000000E+00  0.00000000E+00
  0.00000000E+00  0.00000000E+00  0.00000000E+00
  0.00000000E+00  0.00000000E+00  0.00000000E+00
  0.00000000E+00  0.00000000E+00  0.00000000E+00
  0.00000000E+00  0.00000000E+00  0.00000000E+00
  0.00000000E+00  0.00000000E+00  0.00000000E+00
