Si+C
    1.000000000
   13.303179741    0.000000000    0.000000000
    6.651589394   14.873406410    0.000000000
    0.000000000    0.000000000    8.390059471
Si  C  
36     84
Direct
    0.982905626    0.658119500    0.000000005
    0.782905579    0.558119297    0.144743800
    0.582905412    0.458119094    0.289487600
    0.982905626    0.324786127    0.000000005
    0.782905579    0.224785969    0.144743800
    0.582905412    0.124785803    0.289487600
    0.982905626    0.991452813    0.000000005
    0.782905579    0.891452670    0.144743800
    0.582905412    0.791452527    0.289487600
    0.632905662    0.691452682    0.072371744
    0.432905585    0.591452479    0.217115551
    0.232905522    0.491452426    0.361859351
    0.632905662    0.358119428    0.072371744
    0.432905585    0.258119285    0.217115551
    0.232905522    0.158119142    0.361859351
    0.632905662    0.024786137    0.072371744
    0.432905585    0.924785972    0.217115551
    0.232905522    0.824785829    0.361859351
    0.482905626    0.658119500    0.000000000
    0.282905549    0.558119297    0.144743800
    0.082905442    0.458119094    0.289487600
    0.482905626    0.324786127    0.000000000
    0.282905549    0.224785954    0.144743800
    0.082905442    0.124785811    0.289487600
    0.482905626    0.991452813    0.000000000
    0.282905549    0.891452670    0.144743800
    0.082905442    0.791452527    0.289487600
    0.132905677    0.691452742    0.072371759
    0.932905555    0.591452479    0.217115551
    0.732905507    0.491452396    0.361859351
    0.132905677    0.358119488    0.072371759
    0.932905555    0.258119285    0.217115551
    0.732905507    0.158119127    0.361859351
    0.132905677    0.024786137    0.072371759
    0.932905555    0.924785972    0.217115551
    0.732905507    0.824785829    0.361859351
    0.868292809    0.145018101    0.562104404
    0.839721203    0.416446716    0.657164693
    0.811149597    0.687875330    0.752224922
    0.011149883    0.287875235    0.562104404
    0.982578337    0.559303880    0.657164693
    0.954006791    0.830732524    0.752224922
    0.154006958    0.430732399    0.562104404
    0.125435472    0.702161014    0.657164693
    0.096863985    0.973589718    0.752224922
    0.296864152    0.573589563    0.562104404
    0.268292665    0.845018208    0.657164693
    0.239721060    0.116446853    0.752224922
    0.439721346    0.716446698    0.562104404
    0.411149740    0.987875283    0.657164693
    0.382578135    0.259303927    0.752224922
    0.582578421    0.859303772    0.562104404
    0.554006815    0.130732417    0.657164693
    0.525435328    0.402161002    0.752224922
    0.725435615    0.002161026    0.562104404
    0.696864128    0.273589611    0.657164693
    0.668292403    0.545018196    0.752224922
    0.961149931    0.887875080    0.609634459
    0.932578385    0.159303665    0.704694688
    0.904006839    0.430732369    0.799754918
    0.104007006    0.030732393    0.609634459
    0.075435400    0.302160978    0.704694688
    0.046863914    0.573589683    0.799754918
    0.246864200    0.173589468    0.609634459
    0.218292594    0.445018172    0.704694688
    0.189720988    0.716446757    0.799754858
    0.389721274    0.316446543    0.609634459
    0.361149788    0.587875187    0.704694688
    0.332578182    0.859303713    0.799754858
    0.532578468    0.459303826    0.609634459
    0.504006863    0.730732441    0.704694688
    0.475435257    0.002161145    0.799754858
    0.675435543    0.602160931    0.609634459
    0.646863937    0.873589575    0.704694688
    0.618292570    0.145018220    0.799754918
    0.818292737    0.745018065    0.609634459
    0.789721251    0.016446710    0.704694688
    0.761149645    0.287875175    0.799754858
    0.939721286    0.716446638    0.562104404
    0.911149740    0.987875283    0.657164693
    0.882578135    0.259303927    0.752224922
    0.082578421    0.859303772    0.562104404
    0.054006815    0.130732417    0.657164693
    0.025435448    0.402161121    0.752224922
    0.225435615    0.002160907    0.562104404
    0.196864128    0.273589611    0.657164693
    0.168292522    0.545018196    0.752224863
    0.368292809    0.145018101    0.562104404
    0.339721203    0.416446716    0.657164693
    0.311149597    0.687875330    0.752224922
    0.511149883    0.287875175    0.562104404
    0.482578278    0.559303820    0.657164693
    0.454006791    0.830732465    0.752224922
    0.654007077    0.430732399    0.562104404
    0.625435472    0.702161014    0.657164693
    0.596863985    0.973589659    0.752224922
    0.796864271    0.573589504    0.562104404
    0.768292665    0.845018148    0.657164693
    0.739721060    0.116446733    0.752224922
    0.889721274    0.316446573    0.609634459
    0.861149788    0.587875187    0.704694688
    0.832578182    0.859303832    0.799754858
    0.032578468    0.459303617    0.609634459
    0.004006863    0.730732262    0.704694688
    0.975435376    0.002160907    0.799754858
    0.175435543    0.602160931    0.609634459
    0.146864057    0.873589516    0.704694688
    0.118292451    0.145018101    0.799754918
    0.318292737    0.745018005    0.609634459
    0.289721131    0.016446590    0.704694688
    0.261149645    0.287875175    0.799754918
    0.461149812    0.887875021    0.609634459
    0.432578325    0.159303665    0.704694688
    0.404006720    0.430732369    0.799754918
    0.604007006    0.030732274    0.609634459
    0.575435400    0.302160978    0.704694688
    0.546863794    0.573589444    0.799754918
    0.746864080    0.173589349    0.609634459
    0.718292475    0.445017934    0.704694688
    0.689720869    0.716446519    0.799754858
