Si+Ge
    1.000000000
    7.680594444    0.000000000    0.000000000
    0.000000000   16.292999268    0.000000000
    0.000000000    0.000000000   13.463778496
Si  Ge 
24     48
Direct
    0.943514049    0.912132978    0.000000006
    0.693513989    0.523244023    0.047538657
    0.443513989    0.134355128    0.095077343
    0.193513930    0.745466113    0.142615959
    0.943513870    0.356577158    0.190154672
    0.693513751    0.967687845    0.237693265
    0.193514079    0.662133038    0.000000000
    0.943514049    0.273244023    0.047538657
    0.693514049    0.884355128    0.095077313
    0.443513870    0.495466053    0.142615974
    0.193513811    0.106577039    0.190154627
    0.943513751    0.717687964    0.237693354
    0.693514168    0.662133038    0.000000000
    0.443514049    0.273243994    0.047538649
    0.193514034    0.884355068    0.095077313
    0.943513989    0.495466053    0.142615974
    0.693513870    0.106577039    0.190154627
    0.443513811    0.717687964    0.237693310
    0.443514079    0.912132978    0.000000004
    0.193513989    0.523244023    0.047538679
    0.943513989    0.134355128    0.095077343
    0.693513989    0.745466113    0.142615959
    0.443513930    0.356577039    0.190154672
    0.193513691    0.967688084    0.237693354
    0.570405722    0.372272372    0.356206775
    0.320405722    0.247272372    0.566318631
    0.070405722    0.122272372    0.776430547
    0.570405602    0.872272313    0.356206775
    0.320405722    0.747272372    0.566318631
    0.070405722    0.622272372    0.776430547
    0.070405602    0.622272372    0.356206775
    0.820405602    0.497272372    0.566318631
    0.570405722    0.372272372    0.776430547
    0.070405602    0.122272253    0.356206775
    0.820405662    0.997272313    0.566318631
    0.570405602    0.872272313    0.776430547
    0.820405662    0.372272372    0.461262703
    0.570405722    0.247272372    0.671374559
    0.320405722    0.122272372    0.881486535
    0.820405602    0.872272313    0.461262703
    0.570405602    0.747272313    0.671374559
    0.320405602    0.622272313    0.881486535
    0.320405722    0.622272372    0.461262703
    0.070405722    0.497272372    0.671374559
    0.820405662    0.372272372    0.881486535
    0.320405722    0.122272253    0.461262703
    0.070405602    0.997272313    0.671374559
    0.820405602    0.872272372    0.881486535
    0.570405722    0.622272372    0.356206775
    0.320405722    0.497272372    0.566318631
    0.070405722    0.372272372    0.776430547
    0.070405602    0.372272372    0.356206775
    0.820405602    0.247272372    0.566318631
    0.570405722    0.122272372    0.776430547
    0.570405602    0.122272372    0.356206775
    0.320405722    0.997272372    0.566318631
    0.070405722    0.872272372    0.776430547
    0.070405602    0.872272372    0.356206775
    0.820405662    0.747272372    0.566318631
    0.570405722    0.622272372    0.776430547
    0.820405662    0.622272372    0.461262703
    0.570405722    0.497272372    0.671374559
    0.320405722    0.372272372    0.881486535
    0.320405602    0.372272372    0.461262703
    0.070405602    0.247272372    0.671374559
    0.820405602    0.122272253    0.881486535
    0.820405662    0.122272253    0.461262703
    0.570405722    0.997272313    0.671374559
    0.320405722    0.872272313    0.881486535
    0.320405602    0.872272313    0.461262703
    0.070405602    0.747272372    0.671374559
    0.820405602    0.622272313    0.881486535
