Sn+Si
    1.000000000
   19.467599869    0.000000000    0.000000000
    0.000000000   19.467599869    0.000000000
    0.000000000    0.000000000   19.300252914
Sn  Si 
108     156
Direct
    0.995035112    0.666666687    0.000000000
    0.828368425    0.666666687    0.168111786
    0.661701739    0.666666687    0.336223543
    0.995035112    0.333333343    0.000000000
    0.828368425    0.333333343    0.168111786
    0.661701739    0.333333343    0.336223543
    0.995035112    0.000000000    0.000000000
    0.828368425    0.000000000    0.168111786
    0.661701739    0.000000000    0.336223543
    0.328368455    0.666666687    0.000000000
    0.161701739    0.666666687    0.168111786
    0.995035112    0.666666687    0.336223543
    0.328368455    0.333333343    0.000000000
    0.161701739    0.333333343    0.168111786
    0.995035112    0.333333343    0.336223543
    0.328368455    0.000000000    0.000000000
    0.161701739    0.000000000    0.168111786
    0.995035112    0.000000000    0.336223543
    0.661701798    0.666666687    0.000000000
    0.495035112    0.666666687    0.168111786
    0.328368455    0.666666687    0.336223543
    0.661701798    0.333333343    0.000000000
    0.495035112    0.333333343    0.168111786
    0.328368455    0.333333343    0.336223543
    0.661701798    0.000000000    0.000000000
    0.495035112    0.000000000    0.168111786
    0.328368455    0.000000000    0.336223543
    0.078368433    0.916666746    0.084055893
    0.911701798    0.916666746    0.252167612
    0.745035052    0.916666746    0.420279443
    0.078368433    0.583333433    0.084055893
    0.911701798    0.583333433    0.252167612
    0.745035052    0.583333433    0.420279443
    0.078368433    0.250000000    0.084055893
    0.911701798    0.250000000    0.252167612
    0.745035052    0.250000000    0.420279443
    0.411701769    0.916666746    0.084055893
    0.245035097    0.916666746    0.252167612
    0.078368381    0.916666746    0.420279443
    0.411701769    0.583333433    0.084055893
    0.245035097    0.583333433    0.252167612
    0.078368381    0.583333433    0.420279443
    0.411701769    0.250000000    0.084055893
    0.245035097    0.250000000    0.252167612
    0.078368381    0.250000000    0.420279443
    0.745035172    0.916666746    0.084055893
    0.578368545    0.916666746    0.252167612
    0.411701798    0.916666746    0.420279443
    0.745035172    0.583333433    0.084055893
    0.578368545    0.583333433    0.252167612
    0.411701798    0.583333433    0.420279443
    0.745035172    0.250000000    0.084055893
    0.578368545    0.250000000    0.252167612
    0.411701798    0.250000000    0.420279443
    0.161701769    0.833333313    0.000000000
    0.995035052    0.833333313    0.168111786
    0.828368425    0.833333313    0.336223543
    0.161701769    0.500000000    0.000000000
    0.995035052    0.500000000    0.168111786
    0.828368425    0.500000000    0.336223543
    0.161701769    0.166666672    0.000000000
    0.995035052    0.166666672    0.168111786
    0.828368425    0.166666672    0.336223543
    0.495035112    0.833333313    0.000000000
    0.328368425    0.833333313    0.168111786
    0.161701754    0.833333313    0.336223543
    0.495035112    0.500000000    0.000000000
    0.328368425    0.500000000    0.168111786
    0.161701754    0.500000000    0.336223543
    0.495035112    0.166666672    0.000000000
    0.328368425    0.166666672    0.168111786
    0.161701754    0.166666672    0.336223543
    0.828368545    0.833333313    0.000000000
    0.661701858    0.833333313    0.168111786
    0.495035201    0.833333313    0.336223543
    0.828368545    0.500000000    0.000000000
    0.661701858    0.500000000    0.168111786
    0.495035201    0.500000000    0.336223543
    0.828368545    0.166666672    0.000000000
    0.661701858    0.166666672    0.168111786
    0.495035201    0.166666672    0.336223543
    0.245035097    0.750000060    0.084055893
    0.078368433    0.750000060    0.252167612
    0.911701739    0.750000060    0.420279443
    0.245035097    0.416666716    0.084055893
    0.078368433    0.416666716    0.252167612
    0.911701739    0.416666716    0.420279443
    0.245035097    0.083333343    0.084055893
    0.078368433    0.083333343    0.252167612
    0.911701739    0.083333343    0.420279443
    0.578368485    0.750000060    0.084055893
    0.411701858    0.750000060    0.252167612
    0.245035127    0.750000060    0.420279443
    0.578368485    0.416666716    0.084055893
    0.411701858    0.416666716    0.252167612
    0.245035127    0.416666716    0.420279443
    0.578368485    0.083333343    0.084055893
    0.411701858    0.083333343    0.252167612
    0.245035127    0.083333343    0.420279443
    0.911701739    0.750000060    0.084055893
    0.745035052    0.750000060    0.252167612
    0.578368366    0.750000060    0.420279443
    0.911701739    0.416666716    0.084055893
    0.745035052    0.416666716    0.252167612
    0.578368366    0.416666716    0.420279443
    0.911701739    0.083333343    0.084055893
    0.745035052    0.083333343    0.252167612
    0.578368366    0.083333343    0.420279443
    0.939192057    0.043653727    0.534267545
    0.823807359    0.966730595    0.674965203
    0.708422661    0.889807463    0.815662920
    0.016115069    0.428269207    0.534267545
    0.900730371    0.351346046    0.674965203
    0.785345793    0.274422914    0.815662920
    0.169961214    0.197499931    0.534267545
    0.054576635    0.120576799    0.674965203
    0.939191937    0.043653727    0.815662920
    0.093038201    0.812884569    0.534267545
    0.977653503    0.735961437    0.674965203
    0.862268925    0.659038305    0.815662920
    0.246884346    0.582115293    0.534267545
    0.131499767    0.505192161    0.674965203
    0.016115069    0.428269058    0.815662920
    0.400730610    0.351346105    0.534267545
    0.285345793    0.274422944    0.674965203
    0.169961214    0.197499827    0.815662920
    0.554576635    0.120576859    0.534267545
    0.439192057    0.043653727    0.674965203
    0.323807359    0.966730535    0.815662920
    0.323807478    0.966730773    0.534267545
    0.208422899    0.889807642    0.674965203
    0.093038201    0.812884450    0.815662920
    0.477653623    0.735961437    0.534267545
    0.362268925    0.659038305    0.674965203
    0.246884227    0.582115173    0.815662920
    0.631499767    0.505192220    0.534267545
    0.516115069    0.428269118    0.674965203
    0.400730371    0.351345986    0.815662920
    0.785345912    0.274422944    0.534267545
    0.669961214    0.197499797    0.674965203
    0.554576635    0.120576665    0.815662920
    0.708422899    0.889807582    0.534267545
    0.593038321    0.812884450    0.674965203
    0.477653503    0.735961318    0.815662920
    0.862269044    0.659038365    0.534267545
    0.746884346    0.582115233    0.674965203
    0.631499767    0.505192101    0.815662920
    0.958422840    0.639807582    0.604616404
    0.843038201    0.562884450    0.745314062
    0.727653503    0.485961378    0.886011779
    0.112268925    0.409038424    0.604616404
    0.996884286    0.332115293    0.745314062
    0.881499529    0.255192131    0.886011779
    0.266115189    0.178269163    0.604616404
    0.150730491    0.101346016    0.745314062
    0.035345793    0.024422884    0.886011779
    0.035345912    0.024423003    0.604616404
    0.919961214    0.947499871    0.745314062
    0.804576516    0.870576739    0.886011779
    0.189192057    0.793653786    0.604616404
    0.073807359    0.716730654    0.745314062
    0.958422720    0.639807522    0.886011779
    0.343038321    0.562884569    0.604616404
    0.227653623    0.485961437    0.745314062
    0.112268925    0.409038305    0.886011779
    0.496884346    0.332115293    0.604616404
    0.381499767    0.255192131    0.745314062
    0.266115069    0.178269014    0.886011779
    0.650730610    0.101346053    0.604616404
    0.535345793    0.024422884    0.745314062
    0.419961214    0.947499752    0.886011779
    0.419961452    0.947499931    0.604616404
    0.304576635    0.870576799    0.745314062
    0.189192057    0.793653667    0.886011779
    0.573807478    0.716730714    0.604616404
    0.458422899    0.639807522    0.745314062
    0.343038082    0.562884390    0.886011779
    0.727653742    0.485961467    0.604616404
    0.612268925    0.409038305    0.745314062
    0.496884346    0.332115173    0.886011779
    0.881499767    0.255192250    0.604616404
    0.766115189    0.178269103    0.745314062
    0.650730371    0.101345956    0.886011779
    0.804576874    0.870576859    0.604616404
    0.689192176    0.793653727    0.745314062
    0.573807478    0.716730535    0.886011779
    0.977653563    0.235961497    0.534267545
    0.862268925    0.159038350    0.674965203
    0.746884227    0.082115218    0.815662920
    0.054576635    0.620576799    0.534267545
    0.939192057    0.543653727    0.674965203
    0.823807240    0.466730595    0.815662920
    0.208422899    0.389807671    0.534267545
    0.093038201    0.312884539    0.674965203
    0.977653503    0.235961407    0.815662920
    0.362268925    0.159038350    0.534267545
    0.246884346    0.082115225    0.674965203
    0.131499648    0.005192041    0.815662920
    0.131499767    0.005192161    0.534267545
    0.016115069    0.928269029    0.674965203
    0.900730371    0.851345956    0.815662920
    0.285345912    0.774423003    0.534267545
    0.169961214    0.697499871    0.674965203
    0.054576516    0.620576739    0.815662920
    0.439192057    0.543653727    0.534267545
    0.323807478    0.466730624    0.674965203
    0.208422661    0.389807492    0.815662920
    0.593038321    0.312884539    0.534267545
    0.477653623    0.235961407    0.674965203
    0.362268925    0.159038275    0.815662920
    0.746884346    0.082115322    0.534267545
    0.631499767    0.005192161    0.674965203
    0.516115069    0.928269029    0.815662920
    0.516115189    0.928269088    0.534267545
    0.400730371    0.851346016    0.674965203
    0.285345793    0.774422824    0.815662920
    0.669961333    0.697499871    0.534267545
    0.554576635    0.620576739    0.674965203
    0.439191937    0.543653607    0.815662920
    0.823807478    0.466730744    0.534267545
    0.708422899    0.389807612    0.674965203
    0.593038082    0.312884480    0.815662920
    0.900730610    0.851346016    0.534267545
    0.785345912    0.774422884    0.674965203
    0.669961214    0.697499752    0.815662920
    0.073807478    0.216730714    0.604616404
    0.958422780    0.139807582    0.745314062
    0.843038082    0.062884443    0.886011779
    0.996884346    0.832115352    0.604616404
    0.881499767    0.755192161    0.745314062
    0.766114950    0.678269029    0.886011779
    0.150730491    0.601346135    0.604616404
    0.035345912    0.524423003    0.745314062
    0.919961214    0.447499841    0.886011779
    0.304576635    0.370576888    0.604616404
    0.189192057    0.293653756    0.745314062
    0.073807359    0.216730610    0.886011779
    0.458422899    0.139807597    0.604616404
    0.343038201    0.062884480    0.745314062
    0.227653503    0.985961258    0.886011779
    0.227653623    0.985961556    0.604616404
    0.112268925    0.909038365    0.745314062
    0.996884286    0.832115233    0.886011779
    0.381499767    0.755192339    0.604616404
    0.266115069    0.678269148    0.745314062
    0.150730371    0.601346016    0.886011779
    0.535346031    0.524423003    0.604616404
    0.419961214    0.447499901    0.745314062
    0.304576635    0.370576769    0.886011779
    0.689192057    0.293653756    0.604616404
    0.573807478    0.216730624    0.745314062
    0.458422780    0.139807478    0.886011779
    0.843038321    0.062884539    0.604616404
    0.727653503    0.985961378    0.745314062
    0.612268925    0.909038246    0.886011779
    0.612269163    0.909038484    0.604616404
    0.496884346    0.832115352    0.745314062
    0.381499767    0.755192220    0.886011779
    0.766115189    0.678269148    0.604616404
    0.650730610    0.601346016    0.745314062
    0.535345793    0.524422884    0.886011779
    0.919961214    0.447499990    0.604616404
    0.804576635    0.370576829    0.745314062
    0.689191818    0.293653667    0.886011779
