Sn+Ge
    1.000000000
   14.510292053    0.000000000    0.000000000
    0.000000000   19.467601776    0.000000000
    0.000000000    0.000000000   17.404436111
Sn  Ge 
36     144
Direct
    0.982905626    0.652421296    0.000000007
    0.782905579    0.485754609    0.083371289
    0.582905412    0.319087893    0.166742548
    0.982905626    0.319088012    0.000000007
    0.782905579    0.152421325    0.083371289
    0.582905412    0.985754609    0.166742548
    0.982905626    0.985754728    0.000000007
    0.782905579    0.819088042    0.083371289
    0.582905412    0.652421296    0.166742548
    0.632905602    0.902421415    0.041685570
    0.432905525    0.735754728    0.125056848
    0.232905433    0.569088042    0.208428085
    0.632905602    0.569087982    0.041685570
    0.432905525    0.402421296    0.125056848
    0.232905433    0.235754609    0.208428085
    0.632905602    0.235754758    0.041685570
    0.432905525    0.069088064    0.125056848
    0.232905433    0.902421355    0.208428085
    0.482905596    0.819087923    0.000000000
    0.282905459    0.652421236    0.083371274
    0.082905352    0.485754579    0.166742578
    0.482905596    0.485754669    0.000000000
    0.282905459    0.319087982    0.083371274
    0.082905352    0.152421281    0.166742578
    0.482905596    0.152421355    0.000000000
    0.282905459    0.985754669    0.083371274
    0.082905352    0.819087982    0.166742578
    0.132905647    0.735754669    0.041685563
    0.932905555    0.569087982    0.125056818
    0.732905507    0.402421296    0.208428085
    0.132905647    0.402421385    0.041685563
    0.932905555    0.235754713    0.125056818
    0.732905507    0.069088012    0.208428085
    0.132905647    0.069088012    0.041685563
    0.932905555    0.902421355    0.125056818
    0.732905507    0.735754609    0.208428085
    0.486322880    0.628865957    0.316882908
    0.236322761    0.628865898    0.431815356
    0.986322641    0.628865838    0.546747804
    0.736322641    0.628865778    0.661680281
    0.486322641    0.628865719    0.776612699
    0.236322403    0.628865659    0.891545236
    0.819656193    0.795532644    0.316882879
    0.569656074    0.795532584    0.431815356
    0.319656014    0.795532525    0.546747804
    0.069655895    0.795532465    0.661680222
    0.819655895    0.795532405    0.776612639
    0.569655776    0.795532346    0.891545236
    0.152989388    0.962199271    0.316882879
    0.902989388    0.962199211    0.431815356
    0.652989268    0.962199152    0.546747804
    0.402989268    0.962199152    0.661680222
    0.152989149    0.962199032    0.776612639
    0.902989089    0.962198973    0.891545236
    0.486322880    0.128865972    0.316882908
    0.236322761    0.128865957    0.431815326
    0.986322701    0.128865838    0.546747804
    0.736322701    0.128865838    0.661680222
    0.486322641    0.128865719    0.776612639
    0.236322522    0.128865719    0.891545236
    0.819656193    0.295532644    0.316882908
    0.569656134    0.295532584    0.431815326
    0.319656014    0.295532525    0.546747744
    0.069655895    0.295532465    0.661680222
    0.819655895    0.295532405    0.776612699
    0.569655776    0.295532346    0.891545236
    0.152989626    0.462199330    0.316882908
    0.902989388    0.462199271    0.431815356
    0.652989328    0.462199211    0.546747744
    0.402989268    0.462199092    0.661680222
    0.152989268    0.462199092    0.776612699
    0.902989149    0.462199032    0.891545236
    0.652989507    0.962199330    0.316882879
    0.402989388    0.962199271    0.431815326
    0.152989268    0.962199211    0.546747804
    0.902989209    0.962199152    0.661680281
    0.652989268    0.962199092    0.776612759
    0.402989149    0.962198973    0.891545177
    0.652989507    0.462199271    0.316882908
    0.402989388    0.462199271    0.431815356
    0.152989388    0.462199211    0.546747804
    0.902989328    0.462199092    0.661680281
    0.652989268    0.462199032    0.776612639
    0.402989149    0.462198973    0.891545177
    0.986322880    0.628865957    0.316882908
    0.736322761    0.628865898    0.431815356
    0.486322641    0.628865838    0.546747804
    0.236322641    0.628865778    0.661680281
    0.986322582    0.628865719    0.776612639
    0.736322463    0.628865659    0.891545177
    0.319656134    0.795532644    0.316882908
    0.069656134    0.795532584    0.431815356
    0.819655955    0.795532465    0.546747744
    0.569655895    0.795532465    0.661680281
    0.319655895    0.795532405    0.776612699
    0.069655776    0.795532286    0.891545177
    0.986322880    0.128865972    0.316882908
    0.736322761    0.128865957    0.431815356
    0.486322641    0.128865838    0.546747744
    0.236322641    0.128865838    0.661680281
    0.986322582    0.128865719    0.776612699
    0.736322463    0.128865719    0.891545236
    0.319656134    0.295532644    0.316882908
    0.069656134    0.295532584    0.431815356
    0.819656074    0.295532525    0.546747744
    0.569656014    0.295532465    0.661680281
    0.319656014    0.295532405    0.776612639
    0.069655895    0.295532376    0.891545236
    0.652989566    0.837199330    0.316882879
    0.402989388    0.837199271    0.431815356
    0.152989388    0.837199211    0.546747804
    0.902989268    0.837199152    0.661680281
    0.652989268    0.837199092    0.776612639
    0.402989149    0.837199032    0.891545177
    0.986322880    0.003866076    0.316882879
    0.736322820    0.003865957    0.431815356
    0.486322641    0.003865957    0.546747804
    0.236322641    0.003865838    0.661680281
    0.986322641    0.003865719    0.776612639
    0.736322522    0.003865719    0.891545177
    0.652989507    0.337199301    0.316882908
    0.402989388    0.337199241    0.431815326
    0.152989388    0.337199181    0.546747744
    0.902989268    0.337199122    0.661680281
    0.652989268    0.337199092    0.776612699
    0.402989149    0.337199032    0.891545177
    0.986322880    0.503865957    0.316882908
    0.736322761    0.503865898    0.431815356
    0.486322641    0.503865838    0.546747804
    0.236322641    0.503865778    0.661680281
    0.986322641    0.503865719    0.776612699
    0.736322463    0.503865659    0.891545177
    0.319656134    0.670532644    0.316882908
    0.069656134    0.670532584    0.431815356
    0.819656014    0.670532525    0.546747804
    0.569656014    0.670532465    0.661680281
    0.319655895    0.670532405    0.776612699
    0.069655895    0.670532346    0.891545177
    0.319656253    0.170532629    0.316882879
    0.069656134    0.170532554    0.431815356
    0.819656014    0.170532495    0.546747804
    0.569656014    0.170532465    0.661680281
    0.319655895    0.170532390    0.776612699
    0.069655895    0.170532316    0.891545236
    0.486322880    0.003866076    0.316882879
    0.236322761    0.003865957    0.431815326
    0.986322701    0.003865838    0.546747804
    0.736322641    0.003865838    0.661680281
    0.486322641    0.003865719    0.776612759
    0.236322522    0.003865719    0.891545177
    0.486322880    0.503865957    0.316882879
    0.236322761    0.503865898    0.431815356
    0.986322701    0.503865838    0.546747804
    0.736322641    0.503865778    0.661680222
    0.486322641    0.503865719    0.776612639
    0.236322522    0.503865659    0.891545177
    0.819656253    0.670532644    0.316882879
    0.569656134    0.670532584    0.431815356
    0.319656014    0.670532525    0.546747804
    0.069655895    0.670532465    0.661680281
    0.819655955    0.670532405    0.776612699
    0.569655836    0.670532346    0.891545236
    0.152989507    0.837199271    0.316882879
    0.902989388    0.837199211    0.431815356
    0.652989328    0.837199152    0.546747804
    0.402989268    0.837199092    0.661680222
    0.152989268    0.837199032    0.776612639
    0.902989149    0.837198973    0.891545177
    0.819656134    0.170532614    0.316882908
    0.569656134    0.170532569    0.431815326
    0.319656014    0.170532510    0.546747744
    0.069655895    0.170532450    0.661680281
    0.819655955    0.170532405    0.776612699
    0.569655836    0.170532346    0.891545177
    0.152989626    0.337199330    0.316882908
    0.902989507    0.337199271    0.431815326
    0.652989388    0.337199181    0.546747744
    0.402989388    0.337199152    0.661680281
    0.152989268    0.337199092    0.776612699
    0.902989149    0.337199032    0.891545177
