Ge+Si
    1.000000000
   16.002676010    0.000000000    0.000000000
    0.000000000   16.973402023    0.000000000
    0.000000000    0.000000000   10.600553513
Ge  Si 
48     72
Direct
    0.913237751    0.910024285    0.000000024
    0.538237751    0.521135390    0.062900461
    0.163237810    0.132246494    0.125800863
    0.788237810    0.743357420    0.188701361
    0.413237810    0.354468584    0.251601785
    0.038237691    0.965579510    0.314502209
    0.413237691    0.910024285    0.000000027
    0.038237717    0.521135330    0.062900461
    0.663237751    0.132246435    0.125800863
    0.288237691    0.743357420    0.188701302
    0.913237810    0.354468465    0.251601785
    0.538237810    0.965579748    0.314502329
    0.038237728    0.660024226    0.000000024
    0.663237751    0.271135300    0.062900439
    0.288237810    0.882246375    0.125800878
    0.913237810    0.493357420    0.188701302
    0.538237691    0.104468405    0.251601756
    0.163237691    0.715579629    0.314502209
    0.538237691    0.660024226    0.000000024
    0.163237706    0.271135300    0.062900439
    0.788237751    0.882246375    0.125800878
    0.413237691    0.493357480    0.188701302
    0.038237751    0.104468465    0.251601815
    0.663237691    0.715579629    0.314502239
    0.288237751    0.660024226    0.000000024
    0.913237751    0.271135300    0.062900439
    0.538237810    0.882246375    0.125800878
    0.163237810    0.493357420    0.188701302
    0.788237810    0.104468465    0.251601756
    0.413237810    0.715579510    0.314502209
    0.788237691    0.660024166    0.000000000
    0.413237721    0.271135300    0.062900439
    0.038237784    0.882246375    0.125800878
    0.663237751    0.493357420    0.188701287
    0.288237691    0.104468465    0.251601756
    0.913237810    0.715579629    0.314502239
    0.163237721    0.910024285    0.000000024
    0.788237691    0.521135330    0.062900461
    0.413237810    0.132246494    0.125800908
    0.038237751    0.743357420    0.188701361
    0.663237810    0.354468584    0.251601726
    0.288237691    0.965579510    0.314502209
    0.663237691    0.910024285    0.000000034
    0.288237751    0.521135330    0.062900439
    0.913237751    0.132246494    0.125800908
    0.538237810    0.743357420    0.188701361
    0.163237691    0.354468465    0.251601726
    0.788237810    0.965579748    0.314502209
    0.293900907    0.867624760    0.859768391
    0.127234459    0.117624030    0.454733998
    0.960567713    0.467624128    0.535740912
    0.793901086    0.817624271    0.616747677
    0.627234280    0.167624608    0.697754622
    0.460567534    0.517624736    0.778761506
    0.627234280    0.867624760    0.859768391
    0.460567832    0.117624030    0.454733998
    0.293901086    0.467624128    0.535740912
    0.127234459    0.817624271    0.616747677
    0.960567594    0.167624608    0.697754622
    0.793900847    0.517624736    0.778761506
    0.960567594    0.867624760    0.859768391
    0.793901145    0.117624030    0.454733998
    0.627234459    0.467624128    0.535740912
    0.460567772    0.817624271    0.616747677
    0.293900996    0.167624608    0.697754622
    0.127234221    0.517624736    0.778761506
    0.377234221    0.617624879    0.859768271
    0.210567787    0.867624104    0.454733878
    0.043901086    0.217624322    0.535740852
    0.877234340    0.567624569    0.616747618
    0.710567594    0.917624712    0.697754562
    0.543900967    0.267624736    0.778761387
    0.710567594    0.617624879    0.859768271
    0.543901086    0.867624104    0.454733878
    0.377234399    0.217624322    0.535740852
    0.210567713    0.567624569    0.616747618
    0.043900967    0.917624712    0.697754562
    0.877234340    0.267624736    0.778761387
    0.043900967    0.617624879    0.859768271
    0.877234399    0.867624104    0.454733878
    0.710567713    0.217624322    0.535740852
    0.543901026    0.567624569    0.616747618
    0.377234250    0.917624712    0.697754562
    0.210567594    0.267624736    0.778761387
    0.293900907    0.367624879    0.859768391
    0.127234459    0.617624104    0.454733938
    0.960567713    0.967624247    0.535740852
    0.793901026    0.317624331    0.616747618
    0.627234280    0.667624593    0.697754622
    0.460567653    0.017624736    0.778761387
    0.627234280    0.367624879    0.859768391
    0.460567772    0.617624104    0.454733938
    0.293901086    0.967624247    0.535740852
    0.127234459    0.317624331    0.616747618
    0.960567594    0.667624593    0.697754622
    0.793900967    0.017624736    0.778761387
    0.960567594    0.367624879    0.859768391
    0.793901145    0.617624104    0.454733938
    0.627234399    0.967624247    0.535740852
    0.460567772    0.317624331    0.616747618
    0.293900996    0.667624593    0.697754622
    0.127234340    0.017624736    0.778761387
    0.377234221    0.117624894    0.859768271
    0.210567787    0.367624044    0.454733998
    0.043901086    0.717624128    0.535740852
    0.877234399    0.067624345    0.616747677
    0.710567594    0.417624593    0.697754562
    0.543900847    0.767624855    0.778761387
    0.710567594    0.117624894    0.859768271
    0.543901145    0.367624044    0.454733998
    0.377234429    0.717624128    0.535740852
    0.210567743    0.067624345    0.616747677
    0.043900967    0.417624593    0.697754562
    0.877234221    0.767624855    0.778761387
    0.043900967    0.117624894    0.859768271
    0.877234459    0.367624044    0.454733998
    0.710567772    0.717624128    0.535740852
    0.543901086    0.067624345    0.616747677
    0.377234310    0.417624593    0.697754562
    0.210567564    0.767624855    0.778761387
