fcc Si+fcc Ge                           
   1.00000000000000     
    13.4232037900000005    0.0000000000000000    0.0000000000000000
    -6.7116018950000003   15.0075980760000007    0.0000000000000000
     0.0000000000000000    0.0000000000000000   10.7914855050000007
   Si   Ge
    36    66
Direct
  0.0000000000000000  0.6666666670000012  0.0000000000000000
  0.2999999999999972  0.4333333330000002  0.1135492650000032
  0.6000000000000014  0.2000000000000028  0.2270985310000029
  0.0000000000000000  0.3333333329999988  0.0000000000000000
  0.2999999999999972  0.1000000000000014  0.1135492650000032
  0.6000000000000014  0.8666666669999969  0.2270985310000029
  0.0000000000000000  0.0000000000000000  0.0000000000000000
  0.2999999999999972  0.7666666670000026  0.1135492650000032
  0.6000000000000014  0.5333333330000016  0.2270985310000029
  0.5000000000000000  0.6666666670000012  0.0000000000000000
  0.7999999999999972  0.4333333330000002  0.1135492650000032
  0.1000000000000014  0.2000000000000028  0.2270985310000029
  0.5000000000000000  0.3333333329999988  0.0000000000000000
  0.7999999999999972  0.1000000000000014  0.1135492650000032
  0.1000000000000014  0.8666666669999969  0.2270985310000029
  0.5000000000000000  0.0000000000000000  0.0000000000000000
  0.7999999999999972  0.7666666670000026  0.1135492650000032
  0.1000000000000014  0.5333333330000016  0.2270985310000029
  0.1499999999999986  0.7999999999999972  0.0567746330000034
  0.4500000000000028  0.5666666669999998  0.1703238979999995
  0.7500000000000000  0.3333333329999988  0.2838731630000026
  0.1499999999999986  0.4666666669999984  0.0567746330000034
  0.4500000000000028  0.2333333329999974  0.1703238979999995
  0.7500000000000000  0.0000000000000000  0.2838731630000026
  0.1499999999999986  0.1333333330000031  0.0567746330000034
  0.4500000000000028  0.8999999999999986  0.1703238979999995
  0.7500000000000000  0.6666666670000012  0.2838731630000026
  0.6499999999999986  0.7999999999999972  0.0567746330000034
  0.9500000000000028  0.5666666669999998  0.1703238979999995
  0.2500000000000000  0.3333333329999988  0.2838731630000026
  0.6499999999999986  0.4666666669999984  0.0567746330000034
  0.9500000000000028  0.2333333329999974  0.1703238979999995
  0.2500000000000000  0.0000000000000000  0.2838731630000026
  0.6499999999999986  0.1333333330000031  0.0567746330000034
  0.9500000000000028  0.8999999999999986  0.1703238979999995
  0.2500000000000000  0.6666666670000012  0.2838731630000026
  0.0000000000000000  0.1656441720000004  0.3487391170000009
  0.7999999999999972  0.2656441720000018  0.4660181030000032
  0.6000000000000014  0.3656441720000032  0.5832970889999984
  0.3999999999999986  0.4656441719999975  0.7005760750000007
  0.2000000000000028  0.5656441719999989  0.8178550599999994
  0.0000000000000000  0.6656441720000004  0.9351340460000017
  0.3333333329999988  0.4989775049999992  0.3487391170000009
  0.1333333330000031  0.5989775050000006  0.4660181030000032
  0.9333333330000002  0.6989775050000020  0.5832970889999984
  0.7333333329999974  0.7989775050000034  0.7005760750000007
  0.5333333330000016  0.8989775049999977  0.8178550599999994
  0.3333333329999988  0.9989775049999992  0.9351340460000017
  0.6666666670000012  0.8323108379999979  0.3487391170000009
  0.4666666669999984  0.9323108379999994  0.4660181030000032
  0.2666666670000026  0.0323108380000008  0.5832970889999984
  0.0666666669999998  0.1323108380000022  0.7005760750000007
  0.8666666669999969  0.2323108379999965  0.8178550599999994
  0.6666666670000012  0.3323108379999979  0.9351340460000017
  0.1666666670000012  0.8323108379999979  0.3487391170000009
  0.9666666669999984  0.9323108379999994  0.4660181030000032
  0.7666666670000026  0.0323108380000008  0.5832970889999984
  0.5666666669999998  0.1323108380000022  0.7005760750000007
  0.3666666669999969  0.2323108379999965  0.8178550599999994
  0.1666666670000012  0.3323108379999979  0.9351340460000017
  0.5000000000000000  0.1656441720000004  0.3487391170000009
  0.2999999999999972  0.2656441720000018  0.4660181030000032
  0.1000000000000014  0.3656441720000032  0.5832970889999984
  0.8999999999999986  0.4656441719999975  0.7005760750000007
  0.7000000000000028  0.5656441719999989  0.8178550599999994
  0.5000000000000000  0.6656441720000004  0.9351340460000017
  0.8333333329999988  0.4989775049999992  0.3487391170000009
  0.6333333330000031  0.5989775050000006  0.4660181030000032
  0.4333333330000002  0.6989775050000020  0.5832970889999984
  0.2333333329999974  0.7989775050000034  0.7005760750000007
  0.0333333330000016  0.8989775049999977  0.8178550599999994
  0.8333333329999988  0.9989775049999992  0.9351340460000017
  0.1499999999999986  0.4656441719999975  0.4073786100000021
  0.9500000000000028  0.5656441719999989  0.5246575959999973
  0.7500000000000000  0.6656441720000004  0.6419365819999996
  0.5499999999999972  0.7656441720000018  0.7592155680000019
  0.3500000000000014  0.8656441720000032  0.8764945530000006
  0.4833333329999974  0.7989775050000034  0.4073786100000021
  0.2833333330000016  0.8989775049999977  0.5246575959999973
  0.0833333329999988  0.9989775049999992  0.6419365819999996
  0.8833333330000031  0.0989775050000006  0.7592155680000019
  0.6833333330000002  0.1989775050000020  0.8764945530000006
  0.8166666669999998  0.1323108380000022  0.4073786100000021
  0.6166666669999969  0.2323108379999965  0.5246575959999973
  0.4166666670000012  0.3323108379999979  0.6419365819999996
  0.2166666669999984  0.4323108379999994  0.7592155680000019
  0.0166666670000026  0.5323108380000008  0.8764945530000006
  0.3166666669999998  0.1323108380000022  0.4073786100000021
  0.1166666669999969  0.2323108379999965  0.5246575959999973
  0.9166666670000012  0.3323108379999979  0.6419365819999996
  0.7166666669999984  0.4323108379999994  0.7592155680000019
  0.5166666670000026  0.5323108380000008  0.8764945530000006
  0.6499999999999986  0.4656441719999975  0.4073786100000021
  0.4500000000000028  0.5656441719999989  0.5246575959999973
  0.2500000000000000  0.6656441720000004  0.6419365819999996
  0.0499999999999972  0.7656441720000018  0.7592155680000019
  0.8500000000000014  0.8656441720000032  0.8764945530000006
  0.9833333329999974  0.7989775050000034  0.4073786100000021
  0.7833333330000016  0.8989775049999977  0.5246575959999973
  0.5833333329999988  0.9989775049999992  0.6419365819999996
  0.3833333330000031  0.0989775050000006  0.7592155680000019
  0.1833333330000002  0.1989775050000020  0.8764945530000006
 
  0.00000000E+00  0.00000000E+00  0.00000000E+00
  0.00000000E+00  0.00000000E+00  0.00000000E+00
  0.00000000E+00  0.00000000E+00  0.00000000E+00
  0.00000000E+00  0.00000000E+00  0.00000000E+00
  0.00000000E+00  0.00000000E+00  0.00000000E+00
  0.00000000E+00  0.00000000E+00  0.00000000E+00
  0.00000000E+00  0.00000000E+00  0.00000000E+00
  0.00000000E+00  0.00000000E+00  0.00000000E+00
  0.00000000E+00  0.00000000E+00  0.00000000E+00
  0.00000000E+00  0.00000000E+00  0.00000000E+00
  0.00000000E+00  0.00000000E+00  0.00000000E+00
  0.00000000E+00  0.00000000E+00  0.00000000E+00
  0.00000000E+00  0.00000000E+00  0.00000000E+00
  0.00000000E+00  0.00000000E+00  0.00000000E+00
  0.00000000E+00  0.00000000E+00  0.00000000E+00
  0.00000000E+00  0.00000000E+00  0.00000000E+00
  0.00000000E+00  0.00000000E+00  0.00000000E+00
  0.00000000E+00  0.00000000E+00  0.00000000E+00
  0.00000000E+00  0.00000000E+00  0.00000000E+00
  0.00000000E+00  0.00000000E+00  0.00000000E+00
  0.00000000E+00  0.00000000E+00  0.00000000E+00
  0.00000000E+00  0.00000000E+00  0.00000000E+00
  0.00000000E+00  0.00000000E+00  0.00000000E+00
  0.00000000E+00  0.00000000E+00  0.00000000E+00
  0.00000000E+00  0.00000000E+00  0.00000000E+00
  0.00000000E+00  0.00000000E+00  0.00000000E+00
  0.00000000E+00  0.00000000E+00  0.00000000E+00
  0.00000000E+00  0.00000000E+00  0.00000000E+00
  0.00000000E+00  0.00000000E+00  0.00000000E+00
  0.00000000E+00  0.00000000E+00  0.00000000E+00
  0.00000000E+00  0.00000000E+00  0.00000000E+00
  0.00000000E+00  0.00000000E+00  0.00000000E+00
  0.00000000E+00  0.00000000E+00  0.00000000E+00
  0.00000000E+00  0.00000000E+00  0.00000000E+00
  0.00000000E+00  0.00000000E+00  0.00000000E+00
  0.00000000E+00  0.00000000E+00  0.00000000E+00
  0.00000000E+00  0.00000000E+00  0.00000000E+00
  0.00000000E+00  0.00000000E+00  0.00000000E+00
  0.00000000E+00  0.00000000E+00  0.00000000E+00
  0.00000000E+00  0.00000000E+00  0.00000000E+00
  0.00000000E+00  0.00000000E+00  0.00000000E+00
  0.00000000E+00  0.00000000E+00  0.00000000E+00
  0.00000000E+00  0.00000000E+00  0.00000000E+00
  0.00000000E+00  0.00000000E+00  0.00000000E+00
  0.00000000E+00  0.00000000E+00  0.00000000E+00
  0.00000000E+00  0.00000000E+00  0.00000000E+00
  0.00000000E+00  0.00000000E+00  0.00000000E+00
  0.00000000E+00  0.00000000E+00  0.00000000E+00
  0.00000000E+00  0.00000000E+00  0.00000000E+00
  0.00000000E+00  0.00000000E+00  0.00000000E+00
  0.00000000E+00  0.00000000E+00  0.00000000E+00
  0.00000000E+00  0.00000000E+00  0.00000000E+00
  0.00000000E+00  0.00000000E+00  0.00000000E+00
  0.00000000E+00  0.00000000E+00  0.00000000E+00
  0.00000000E+00  0.00000000E+00  0.00000000E+00
  0.00000000E+00  0.00000000E+00  0.00000000E+00
  0.00000000E+00  0.00000000E+00  0.00000000E+00
  0.00000000E+00  0.00000000E+00  0.00000000E+00
  0.00000000E+00  0.00000000E+00  0.00000000E+00
  0.00000000E+00  0.00000000E+00  0.00000000E+00
  0.00000000E+00  0.00000000E+00  0.00000000E+00
  0.00000000E+00  0.00000000E+00  0.00000000E+00
  0.00000000E+00  0.00000000E+00  0.00000000E+00
  0.00000000E+00  0.00000000E+00  0.00000000E+00
  0.00000000E+00  0.00000000E+00  0.00000000E+00
  0.00000000E+00  0.00000000E+00  0.00000000E+00
  0.00000000E+00  0.00000000E+00  0.00000000E+00
  0.00000000E+00  0.00000000E+00  0.00000000E+00
  0.00000000E+00  0.00000000E+00  0.00000000E+00
  0.00000000E+00  0.00000000E+00  0.00000000E+00
  0.00000000E+00  0.00000000E+00  0.00000000E+00
  0.00000000E+00  0.00000000E+00  0.00000000E+00
  0.00000000E+00  0.00000000E+00  0.00000000E+00
  0.00000000E+00  0.00000000E+00  0.00000000E+00
  0.00000000E+00  0.00000000E+00  0.00000000E+00
  0.00000000E+00  0.00000000E+00  0.00000000E+00
  0.00000000E+00  0.00000000E+00  0.00000000E+00
  0.00000000E+00  0.00000000E+00  0.00000000E+00
  0.00000000E+00  0.00000000E+00  0.00000000E+00
  0.00000000E+00  0.00000000E+00  0.00000000E+00
  0.00000000E+00  0.00000000E+00  0.00000000E+00
  0.00000000E+00  0.00000000E+00  0.00000000E+00
  0.00000000E+00  0.00000000E+00  0.00000000E+00
  0.00000000E+00  0.00000000E+00  0.00000000E+00
  0.00000000E+00  0.00000000E+00  0.00000000E+00
  0.00000000E+00  0.00000000E+00  0.00000000E+00
  0.00000000E+00  0.00000000E+00  0.00000000E+00
  0.00000000E+00  0.00000000E+00  0.00000000E+00
  0.00000000E+00  0.00000000E+00  0.00000000E+00
  0.00000000E+00  0.00000000E+00  0.00000000E+00
  0.00000000E+00  0.00000000E+00  0.00000000E+00
  0.00000000E+00  0.00000000E+00  0.00000000E+00
  0.00000000E+00  0.00000000E+00  0.00000000E+00
  0.00000000E+00  0.00000000E+00  0.00000000E+00
  0.00000000E+00  0.00000000E+00  0.00000000E+00
  0.00000000E+00  0.00000000E+00  0.00000000E+00
  0.00000000E+00  0.00000000E+00  0.00000000E+00
  0.00000000E+00  0.00000000E+00  0.00000000E+00
  0.00000000E+00  0.00000000E+00  0.00000000E+00
  0.00000000E+00  0.00000000E+00  0.00000000E+00
  0.00000000E+00  0.00000000E+00  0.00000000E+00
  0.00000000E+00  0.00000000E+00  0.00000000E+00
