fcc Si+fcc Ge
    1.000000000
   13.423203790    0.000000000    0.000000000
   -6.711601895   15.007598076    0.000000000
    0.000000000    0.000000000   10.791485505
Si    Ge   
36     66
Direct
    0.000000000    0.666666667    0.000000000
    0.300000000    0.433333333    0.113549265
    0.600000000    0.200000000    0.227098531
    0.000000000    0.333333333    0.000000000
    0.300000000    0.100000000    0.113549265
    0.600000000    0.866666667    0.227098531
    0.000000000    0.000000000    0.000000000
    0.300000000    0.766666667    0.113549265
    0.600000000    0.533333333    0.227098531
    0.500000000    0.666666667    0.000000000
    0.800000000    0.433333333    0.113549265
    0.100000000    0.200000000    0.227098531
    0.500000000    0.333333333    0.000000000
    0.800000000    0.100000000    0.113549265
    0.100000000    0.866666667    0.227098531
    0.500000000    0.000000000    0.000000000
    0.800000000    0.766666667    0.113549265
    0.100000000    0.533333333    0.227098531
    0.150000000    0.800000000    0.056774633
    0.450000000    0.566666667    0.170323898
    0.750000000    0.333333333    0.283873163
    0.150000000    0.466666667    0.056774633
    0.450000000    0.233333333    0.170323898
    0.750000000    0.000000000    0.283873163
    0.150000000    0.133333333    0.056774633
    0.450000000    0.900000000    0.170323898
    0.750000000    0.666666667    0.283873163
    0.650000000    0.800000000    0.056774633
    0.950000000    0.566666667    0.170323898
    0.250000000    0.333333333    0.283873163
    0.650000000    0.466666667    0.056774633
    0.950000000    0.233333333    0.170323898
    0.250000000    0.000000000    0.283873163
    0.650000000    0.133333333    0.056774633
    0.950000000    0.900000000    0.170323898
    0.250000000    0.666666667    0.283873163
    0.000000000    0.165644172    0.348739117
    0.800000000    0.265644172    0.466018103
    0.600000000    0.365644172    0.583297089
    0.400000000    0.465644172    0.700576075
    0.200000000    0.565644172    0.817855060
    0.000000000    0.665644172    0.935134046
    0.333333333    0.498977505    0.348739117
    0.133333333    0.598977505    0.466018103
    0.933333333    0.698977505    0.583297089
    0.733333333    0.798977505    0.700576075
    0.533333333    0.898977505    0.817855060
    0.333333333    0.998977505    0.935134046
    0.666666667    0.832310838    0.348739117
    0.466666667    0.932310838    0.466018103
    0.266666667    0.032310838    0.583297089
    0.066666667    0.132310838    0.700576075
    0.866666667    0.232310838    0.817855060
    0.666666667    0.332310838    0.935134046
    0.166666667    0.832310838    0.348739117
    0.966666667    0.932310838    0.466018103
    0.766666667    0.032310838    0.583297089
    0.566666667    0.132310838    0.700576075
    0.366666667    0.232310838    0.817855060
    0.166666667    0.332310838    0.935134046
    0.500000000    0.165644172    0.348739117
    0.300000000    0.265644172    0.466018103
    0.100000000    0.365644172    0.583297089
    0.900000000    0.465644172    0.700576075
    0.700000000    0.565644172    0.817855060
    0.500000000    0.665644172    0.935134046
    0.833333333    0.498977505    0.348739117
    0.633333333    0.598977505    0.466018103
    0.433333333    0.698977505    0.583297089
    0.233333333    0.798977505    0.700576075
    0.033333333    0.898977505    0.817855060
    0.833333333    0.998977505    0.935134046
    0.150000000    0.465644172    0.407378610
    0.950000000    0.565644172    0.524657596
    0.750000000    0.665644172    0.641936582
    0.550000000    0.765644172    0.759215568
    0.350000000    0.865644172    0.876494553
    0.483333333    0.798977505    0.407378610
    0.283333333    0.898977505    0.524657596
    0.083333333    0.998977505    0.641936582
    0.883333333    0.098977505    0.759215568
    0.683333333    0.198977505    0.876494553
    0.816666667    0.132310838    0.407378610
    0.616666667    0.232310838    0.524657596
    0.416666667    0.332310838    0.641936582
    0.216666667    0.432310838    0.759215568
    0.016666667    0.532310838    0.876494553
    0.316666667    0.132310838    0.407378610
    0.116666667    0.232310838    0.524657596
    0.916666667    0.332310838    0.641936582
    0.716666667    0.432310838    0.759215568
    0.516666667    0.532310838    0.876494553
    0.650000000    0.465644172    0.407378610
    0.450000000    0.565644172    0.524657596
    0.250000000    0.665644172    0.641936582
    0.050000000    0.765644172    0.759215568
    0.850000000    0.865644172    0.876494553
    0.983333333    0.798977505    0.407378610
    0.783333333    0.898977505    0.524657596
    0.583333333    0.998977505    0.641936582
    0.383333333    0.098977505    0.759215568
    0.183333333    0.198977505    0.876494553
