Si+Sn
    1.000000000
   10.862000465    0.000000000    0.000000000
    0.000000000   16.293001175    0.000000000
    0.000000000    0.000000000   22.860147476
Si  Sn 
72     72
Direct
    0.000000000    0.994067729    0.000000000
    0.000000000    0.827401042    0.118787512
    0.000000000    0.660734296    0.237575039
    0.500000000    0.994067729    0.000000000
    0.500000000    0.827401042    0.118787512
    0.500000000    0.660734296    0.237575039
    0.000000000    0.327401072    0.000000000
    0.000000000    0.160734385    0.118787512
    0.000000000    0.994067669    0.237575039
    0.500000000    0.327401072    0.000000000
    0.500000000    0.160734385    0.118787512
    0.500000000    0.994067669    0.237575039
    0.000000000    0.660734475    0.000000000
    0.000000000    0.494067729    0.118787512
    0.000000000    0.327401042    0.237575039
    0.500000000    0.660734475    0.000000000
    0.500000000    0.494067729    0.118787512
    0.500000000    0.327401042    0.237575039
    0.125000000    0.077401057    0.059393760
    0.125000000    0.910734355    0.178181291
    0.125000000    0.744067669    0.296968818
    0.625000000    0.077401057    0.059393760
    0.625000000    0.910734355    0.178181291
    0.625000000    0.744067669    0.296968818
    0.125000000    0.410734385    0.059393760
    0.125000000    0.244067669    0.178181291
    0.125000000    0.077400953    0.296968818
    0.625000000    0.410734385    0.059393760
    0.625000000    0.244067669    0.178181291
    0.625000000    0.077400953    0.296968818
    0.125000000    0.744067788    0.059393760
    0.125000000    0.577401042    0.178181291
    0.125000000    0.410734326    0.296968818
    0.625000000    0.744067788    0.059393760
    0.625000000    0.577401042    0.178181291
    0.625000000    0.410734326    0.296968818
    0.250000000    0.160734385    0.000000000
    0.250000000    0.994067669    0.118787512
    0.250000000    0.827400982    0.237575039
    0.750000060    0.160734385    0.000000000
    0.750000060    0.994067669    0.118787512
    0.750000060    0.827400982    0.237575039
    0.250000000    0.494067729    0.000000000
    0.250000000    0.327401042    0.118787512
    0.250000000    0.160734326    0.237575039
    0.750000060    0.494067729    0.000000000
    0.750000060    0.327401042    0.118787512
    0.750000060    0.160734326    0.237575039
    0.250000000    0.827401102    0.000000000
    0.250000000    0.660734415    0.118787512
    0.250000000    0.494067729    0.237575039
    0.750000060    0.827401102    0.000000000
    0.750000060    0.660734415    0.118787512
    0.750000060    0.494067729    0.237575039
    0.375000030    0.244067729    0.059393760
    0.375000030    0.077401020    0.178181291
    0.375000030    0.910734296    0.296968818
    0.875000060    0.244067729    0.059393760
    0.875000060    0.077401020    0.178181291
    0.875000060    0.910734296    0.296968818
    0.375000030    0.577401161    0.059393760
    0.375000030    0.410734475    0.178181291
    0.375000030    0.244067714    0.296968818
    0.875000060    0.577401161    0.059393760
    0.875000060    0.410734475    0.178181291
    0.875000060    0.244067714    0.296968818
    0.375000030    0.910734355    0.059393760
    0.375000030    0.744067669    0.178181291
    0.375000030    0.577400923    0.296968818
    0.875000060    0.910734355    0.059393760
    0.875000060    0.744067669    0.178181291
    0.875000060    0.577400923    0.296968818
    0.129629627    0.332794309    0.397580564
    0.129629612    0.582794428    0.497942090
    0.129629493    0.832794547    0.598303616
    0.129629493    0.082794666    0.698665202
    0.129629493    0.332794785    0.799026668
    0.129629374    0.582794905    0.899388194
    0.462962985    0.666127682    0.397580564
    0.462962925    0.916127682    0.497942090
    0.462962925    0.166127920    0.598303616
    0.462962866    0.416128039    0.698665202
    0.462962866    0.666128159    0.799026668
    0.462962806    0.916128278    0.899388194
    0.796296358    0.999461055    0.397580564
    0.796296299    0.249461055    0.497942090
    0.796296418    0.499461293    0.598303616
    0.796296120    0.749461293    0.698665202
    0.796296179    0.999461412    0.799026668
    0.796296179    0.249461651    0.899388194
    0.129629657    0.832794368    0.397580564
    0.129629612    0.082794428    0.497942090
    0.129629493    0.332794547    0.598303616
    0.129629493    0.582794666    0.698665142
    0.129629493    0.832794785    0.799026668
    0.129629374    0.082794905    0.899388194
    0.462962985    0.166127682    0.397580564
    0.462962985    0.416127801    0.497942090
    0.462962985    0.666128039    0.598303616
    0.462962866    0.916128039    0.698665142
    0.462962925    0.166128159    0.799026668
    0.462962747    0.416128397    0.899388194
    0.796296418    0.499460995    0.397580564
    0.796296239    0.749461055    0.497942090
    0.796296299    0.999461234    0.598303616
    0.796296239    0.249461293    0.698665142
    0.796296120    0.499461412    0.799026668
    0.796296179    0.749461532    0.899388134
    0.212962955    0.666127682    0.397580564
    0.212962866    0.916127682    0.497942090
    0.212962925    0.166127920    0.598303616
    0.212962747    0.416127920    0.698665202
    0.212962747    0.666128039    0.799026668
    0.212962762    0.916128159    0.899388134
    0.546296358    0.999460995    0.397580564
    0.546296239    0.249461055    0.497942090
    0.546296299    0.499461293    0.598303616
    0.546296239    0.749461412    0.698665142
    0.546296000    0.999461412    0.799026668
    0.546296120    0.249461532    0.899388134
    0.879629612    0.332794368    0.397580564
    0.879629612    0.582794428    0.497942090
    0.879629552    0.832794547    0.598303616
    0.879629433    0.082794666    0.698665142
    0.879629433    0.332794785    0.799026668
    0.879629433    0.582794905    0.899388134
    0.212962955    0.166127682    0.397580564
    0.212962896    0.416127801    0.497942120
    0.212962851    0.666127920    0.598303616
    0.212962866    0.916128278    0.698665202
    0.212962762    0.166128159    0.799026728
    0.212962702    0.416128397    0.899388134
    0.546296358    0.499460995    0.397580564
    0.546296299    0.749461055    0.497942090
    0.546296179    0.999461234    0.598303616
    0.546296179    0.249461412    0.698665202
    0.546296179    0.499461412    0.799026668
    0.546296060    0.749461532    0.899388134
    0.879629612    0.832794309    0.397580564
    0.879629552    0.082794428    0.497942090
    0.879629612    0.332794547    0.598303616
    0.879629493    0.582794666    0.698665202
    0.879629433    0.832794666    0.799026668
    0.879629374    0.082794905    0.899388134
