Sn+Ge
    1.000000000
   12.978400230    0.000000000    0.000000000
    0.000000000   12.978400230    0.000000000
    0.000000000    0.000000000   15.183753014
Sn  Ge 
48     60
Direct
    0.992552638    0.499999970    0.000000000
    0.742552638    0.499999970    0.213688970
    0.492552757    0.499999970    0.427377820
    0.992552638    0.000000000    0.000000000
    0.742552638    0.000000000    0.213688970
    0.492552757    0.000000000    0.427377820
    0.492552608    0.499999970    0.000000000
    0.242552638    0.499999970    0.213688970
    0.992552698    0.499999970    0.427377820
    0.492552608    0.000000000    0.000000000
    0.242552638    0.000000000    0.213688970
    0.992552698    0.000000000    0.427377820
    0.117552646    0.874999940    0.106844470
    0.867552757    0.874999940    0.320533395
    0.617552698    0.874999940    0.534222364
    0.117552646    0.374999970    0.106844470
    0.867552757    0.374999970    0.320533395
    0.617552698    0.374999970    0.534222364
    0.617552578    0.874999940    0.106844470
    0.367552698    0.874999940    0.320533395
    0.117552668    0.874999940    0.534222364
    0.617552578    0.374999970    0.106844470
    0.367552698    0.374999970    0.320533395
    0.117552668    0.374999970    0.534222364
    0.242552638    0.749999940    0.000000000
    0.992552638    0.749999940    0.213688970
    0.742552757    0.749999940    0.427377820
    0.242552638    0.249999985    0.000000000
    0.992552638    0.249999985    0.213688970
    0.742552757    0.249999985    0.427377820
    0.742552578    0.749999940    0.000000000
    0.492552608    0.749999940    0.213688970
    0.242552698    0.749999940    0.427377820
    0.742552578    0.249999985    0.000000000
    0.492552608    0.249999985    0.213688970
    0.242552698    0.249999985    0.427377820
    0.367552638    0.624999940    0.106844470
    0.117552713    0.624999940    0.320533395
    0.867552698    0.624999940    0.534222364
    0.367552638    0.124999993    0.106844470
    0.117552713    0.124999993    0.320533395
    0.867552698    0.124999993    0.534222364
    0.867552638    0.624999940    0.106844470
    0.617552757    0.624999940    0.320533395
    0.367552698    0.624999940    0.534222364
    0.867552638    0.124999993    0.106844470
    0.617552757    0.124999993    0.320533395
    0.367552698    0.124999993    0.534222364
    0.593166649    0.203416690    0.534222364
    0.393166602    0.303416699    0.720533311
    0.193166539    0.403416723    0.906844378
    0.793166578    0.603416681    0.534222364
    0.593166530    0.703416646    0.720533311
    0.393166482    0.803416729    0.906844378
    0.993166625    0.003416693    0.534222364
    0.793166578    0.103416704    0.720533311
    0.593166530    0.203416735    0.906844378
    0.193166599    0.403416663    0.534222364
    0.993166566    0.503416657    0.720533311
    0.793166518    0.603416681    0.906844378
    0.393166602    0.803416669    0.534222364
    0.193166569    0.903416634    0.720533311
    0.993166506    0.003416657    0.906844378
    0.943166554    0.153416693    0.627377868
    0.743166506    0.253416717    0.813688874
    0.543166399    0.353416741    0.999999881
    0.543166637    0.353416681    0.627377868
    0.343166560    0.453416735    0.813688874
    0.143166497    0.553416729    0.999999881
    0.743166625    0.753416657    0.627377868
    0.543166578    0.853416681    0.813688874
    0.343166530    0.953416705    0.999999881
    0.143166602    0.553416669    0.627377868
    0.943166554    0.653416753    0.813688874
    0.743166447    0.753416777    0.999999881
    0.343166590    0.953416705    0.627377868
    0.143166527    0.053416729    0.813688874
    0.943166494    0.153416753    0.999999881
    0.893166482    0.303416640    0.534222364
    0.693166494    0.403416634    0.720533311
    0.493166417    0.503416657    0.906844378
    0.293166608    0.103416696    0.534222364
    0.093166590    0.203416705    0.720533311
    0.893166542    0.303416729    0.906844378
    0.493166596    0.503416717    0.534222364
    0.293166578    0.603416741    0.720533311
    0.093166530    0.703416765    0.906844378
    0.693166554    0.903416693    0.534222364
    0.493166536    0.003416777    0.720533311
    0.293166488    0.103416800    0.906844378
    0.093166620    0.703416705    0.534222364
    0.893166602    0.803416729    0.720533311
    0.693166554    0.903416753    0.906844378
    0.643166602    0.053416714    0.627377868
    0.443166554    0.153416738    0.813688874
    0.243166491    0.253416777    0.999999881
    0.843166709    0.453416705    0.627377868
    0.643166661    0.553416729    0.813688874
    0.443166584    0.653416753    0.999999881
    0.243166625    0.253416687    0.627377868
    0.043166570    0.353416741    0.813688874
    0.843166530    0.453416765    0.999999881
    0.443166614    0.653416693    0.627377868
    0.243166566    0.753416717    0.813688874
    0.043166503    0.853416741    0.999999881
    0.043166604    0.853416681    0.627377868
    0.843166530    0.953416705    0.813688874
    0.643166482    0.053416729    0.999999881
