Sn+Ge
    1.000000000
   15.895228386    0.000000000    0.000000000
  -15.895230293   11.239624977    0.000000000
    0.000000000    0.000000000   25.604219437
Sn  Ge 
72     96
Direct
    0.658140540    0.367438078    0.000000015
    0.574807107    0.700771451    0.089605503
    0.491473675    0.034104943    0.179211050
    0.408140212    0.367438316    0.268816531
    0.324806869    0.700771928    0.358422071
    0.241473302    0.034105301    0.448027581
    0.991473794    0.034104731    0.000000015
    0.908140361    0.367438138    0.089605518
    0.824806929    0.700771630    0.179211050
    0.741473556    0.034104943    0.268816531
    0.658140063    0.367438555    0.358422071
    0.574806690    0.700771928    0.448027581
    0.324807167    0.700771391    0.000000000
    0.241473734    0.034104824    0.089605488
    0.158140317    0.367438316    0.179210991
    0.074806847    0.700771689    0.268816531
    0.991473436    0.034105062    0.358422011
    0.908140063    0.367438555    0.448027551
    0.491473824    0.034104735    0.000000009
    0.408140391    0.367438108    0.089605518
    0.324806958    0.700771630    0.179211020
    0.241473511    0.034104943    0.268816531
    0.158140123    0.367438555    0.358422071
    0.074806623    0.700771928    0.448027581
    0.824807167    0.700771391    0.000000012
    0.741473794    0.034104824    0.089605473
    0.658140302    0.367438197    0.179211020
    0.574806929    0.700771689    0.268816531
    0.491473496    0.034105062    0.358422011
    0.408139914    0.367438555    0.448027551
    0.158140481    0.367438048    0.000000013
    0.074807063    0.700771451    0.089605510
    0.991473556    0.034104824    0.179211020
    0.908140182    0.367438316    0.268816531
    0.824806750    0.700771809    0.358422071
    0.741473317    0.034105301    0.448027551
    0.741473794    0.284104705    0.000000016
    0.658140481    0.617438078    0.089605503
    0.574806988    0.950771570    0.179211020
    0.491473585    0.284105062    0.268816561
    0.408140123    0.617438436    0.358422071
    0.324806690    0.950771928    0.448027521
    0.408140510    0.617438078    0.000000000
    0.324807078    0.950771511    0.089605518
    0.241473645    0.284104943    0.179211050
    0.158140302    0.617438436    0.268816561
    0.074806817    0.950771928    0.358421981
    0.991473317    0.284105301    0.448027611
    0.074807145    0.950771451    0.000000019
    0.991473675    0.284104824    0.089605488
    0.908140302    0.617438316    0.179211050
    0.824806929    0.950771809    0.268816531
    0.741473556    0.284105301    0.358422011
    0.658140182    0.617438793    0.448027641
    0.908140481    0.617438078    0.000000018
    0.824807048    0.950771511    0.089605503
    0.741473615    0.284104943    0.179211020
    0.658140182    0.617438316    0.268816531
    0.574806750    0.950771928    0.358422041
    0.491473258    0.284105301    0.448027521
    0.241473839    0.284104735    0.000000011
    0.158140436    0.617438138    0.089605525
    0.074807018    0.950771630    0.179211050
    0.991473615    0.284105062    0.268816561
    0.908140123    0.617438436    0.358422071
    0.824806690    0.950771928    0.448027551
    0.574807107    0.950771511    0.000000034
    0.491473675    0.284104824    0.089605518
    0.408140212    0.617438316    0.179211020
    0.324806809    0.950771689    0.268816531
    0.241473436    0.284105301    0.358422041
    0.158139959    0.617438793    0.448027581
    0.665270209    0.556698084    0.528700829
    0.290270209    0.306698054    0.606826007
    0.915270150    0.056697965    0.684951246
    0.540270209    0.806698024    0.763076484
    0.165270329    0.556698084    0.841201603
    0.790270209    0.306698054    0.919326842
    0.665270209    0.056698084    0.528700829
    0.290270209    0.806698024    0.606826007
    0.915270150    0.556697965    0.684951186
    0.540270209    0.306698054    0.763076484
    0.165270329    0.056698203    0.841201603
    0.790270209    0.806698024    0.919326842
    0.165270209    0.556698084    0.528700829
    0.790270209    0.306698054    0.606826007
    0.415270090    0.056697965    0.684951186
    0.040270329    0.806698024    0.763076484
    0.665270329    0.556698084    0.841201603
    0.290270209    0.306698054    0.919326842
    0.165270209    0.056698084    0.528700829
    0.790270209    0.806698024    0.606826007
    0.415270090    0.556697965    0.684951186
    0.040270209    0.306698054    0.763076484
    0.665270329    0.056698203    0.841201603
    0.290270209    0.806698024    0.919326782
    0.915270209    0.556698084    0.528700829
    0.540270209    0.306698054    0.606826007
    0.165270090    0.056697965    0.684951186
    0.790270209    0.806698024    0.763076484
    0.415270329    0.556698084    0.841201603
    0.040270209    0.306698054    0.919326782
    0.915270209    0.056698084    0.528700829
    0.540270209    0.806698024    0.606826007
    0.165270090    0.556697965    0.684951186
    0.790270209    0.306698054    0.763076484
    0.415270329    0.056698203    0.841201603
    0.040270209    0.806698024    0.919326842
    0.415270209    0.556698084    0.528700829
    0.040270209    0.306698054    0.606826007
    0.665270090    0.056697965    0.684951186
    0.290270209    0.806698024    0.763076484
    0.915270269    0.556698084    0.841201603
    0.540270209    0.306698054    0.919326782
    0.415270090    0.056698084    0.528700829
    0.040270209    0.806698024    0.606826007
    0.665270090    0.556697965    0.684951186
    0.290270209    0.306698054    0.763076484
    0.915270388    0.056698203    0.841201603
    0.540270209    0.806698024    0.919326842
    0.915270269    0.931698084    0.528700829
    0.540270209    0.681698024    0.606826007
    0.165270209    0.431698054    0.684951186
    0.790270269    0.181698084    0.763076484
    0.415270329    0.931698084    0.841201603
    0.040270209    0.681698084    0.919326842
    0.915270209    0.431698054    0.528700829
    0.540270209    0.181698054    0.606826007
    0.165270090    0.931697965    0.684951186
    0.790270150    0.681698024    0.763076484
    0.415270209    0.431698054    0.841201603
    0.040270090    0.181697994    0.919326782
    0.415270329    0.931698084    0.528700829
    0.040270209    0.681698024    0.606826007
    0.665270090    0.431698054    0.684951186
    0.290270209    0.181698084    0.763076484
    0.915270329    0.931698084    0.841201603
    0.540270209    0.681698084    0.919326782
    0.415270209    0.431698054    0.528700829
    0.040270209    0.181698054    0.606826007
    0.665270090    0.931697965    0.684951246
    0.290270209    0.681698024    0.763076484
    0.915270269    0.431698054    0.841201603
    0.540270090    0.181697994    0.919326842
    0.665270209    0.931698084    0.528700829
    0.290270090    0.681698024    0.606826007
    0.915270150    0.431698054    0.684951186
    0.540270090    0.181698084    0.763076484
    0.165270329    0.931698084    0.841201603
    0.790270209    0.681698084    0.919326842
    0.665270209    0.431698054    0.528700829
    0.290270209    0.181698054    0.606826007
    0.915270150    0.931697965    0.684951186
    0.540270209    0.681698024    0.763076484
    0.165270209    0.431698054    0.841201603
    0.790270209    0.181697994    0.919326782
    0.165270329    0.931698084    0.528700829
    0.790270209    0.681698024    0.606826007
    0.415270209    0.431698054    0.684951186
    0.040270329    0.181698084    0.763076484
    0.665270329    0.931698084    0.841201603
    0.290270329    0.681698084    0.919326782
    0.165270209    0.431698054    0.528700829
    0.790270209    0.181698054    0.606826007
    0.415270090    0.931697965    0.684951186
    0.040270209    0.681698024    0.763076484
    0.665270209    0.431698054    0.841201603
    0.290270209    0.181697994    0.919326782
