Sn+Si                                   
   1.00000000000000     
     9.1771144870000008    0.0000000000000000    0.0000000000000000
    -9.1771154399999997   12.9784011840000009    0.0000000000000000
     0.0000000000000000    0.0000000000000000   21.0721416469999987
   Sn   Si
    48    72
Direct
  0.5000000000000000  0.4820204970000006  0.0000000140000012
  0.4999999699999975  0.2320204820000029  0.1088773310000022
  0.5000000000000000  0.9820204379999993  0.2177547069999974
  0.4999999400000021  0.7320203780000014  0.3266320230000019
  0.4999999699999975  0.4820203780000014  0.4355093839999995
  0.5000000000000000  0.2320203190000001  0.5443867440000005
  0.0000000000000000  0.9820204970000006  0.0000000140000012
  0.0000000000000000  0.7320204970000006  0.1088773310000022
  0.0000000169999979  0.4820204379999993  0.2177547069999974
  0.0000000249999985  0.2320204379999993  0.3266320230000019
  0.0000000000000000  0.9820203780000014  0.4355093839999995
  0.0000000539999974  0.7320203780000014  0.5443867440000005
  0.4999999699999975  0.9820204970000006  0.0000000160000013
  0.5000000000000000  0.7320204970000006  0.1088773459999999
  0.5000000000000000  0.4820204379999993  0.2177547069999974
  0.5000000599999979  0.2320204379999993  0.3266320230000019
  0.4999999110000033  0.9820203780000014  0.4355093839999995
  0.5000000599999979  0.7320203780000014  0.5443867440000005
  0.0000000320000026  0.4820204970000006  0.0000000129999975
  0.0000000000000000  0.2320204820000029  0.1088773310000022
  0.0000000000000000  0.9820204379999993  0.2177546919999997
  0.0000000000000000  0.7320203780000014  0.3266320230000019
  0.9999999400000021  0.4820203780000014  0.4355093839999995
  0.0000000470000003  0.2320203190000001  0.5443867440000005
  0.8749999400000021  0.6070204379999993  0.0000000149999977
  0.8749999400000021  0.3570204379999993  0.1088773459999999
  0.8749999400000021  0.1070203860000021  0.2177547069999974
  0.8749998810000008  0.8570203190000001  0.3266320230000019
  0.8749999400000021  0.6070203780000014  0.4355094129999983
  0.8749998810000008  0.3570202590000022  0.5443867440000005
  0.3749999699999975  0.1070204820000029  0.0000000149999977
  0.3749999699999975  0.8570204970000006  0.1088773459999999
  0.3750000300000025  0.6070204379999993  0.2177547069999974
  0.3749999110000033  0.3570203190000001  0.3266320230000019
  0.3750000300000025  0.1070204379999993  0.4355094129999983
  0.3749999699999975  0.8570203780000014  0.5443867440000005
  0.8749999400000021  0.1070204820000029  0.0000000000000000
  0.8749999400000021  0.8570204970000006  0.1088773459999999
  0.8749999400000021  0.6070204379999993  0.2177546919999997
  0.8749998810000008  0.3570203190000001  0.3266320230000019
  0.8750000599999979  0.1070204379999993  0.4355094129999983
  0.8750000000000000  0.8570203780000014  0.5443867440000005
  0.3749999400000021  0.6070204379999993  0.0000000140000012
  0.3749999400000021  0.3570204379999993  0.1088773459999999
  0.3749999699999975  0.1070203860000021  0.2177547069999974
  0.3749999110000033  0.8570203190000001  0.3266320230000019
  0.3749999110000033  0.6070203780000014  0.4355093839999995
  0.3749999400000021  0.3570202590000022  0.5443867440000005
  0.9785172939999995  0.6451840399999966  0.5443867440000005
  0.7285172340000017  0.3951839509999999  0.6355093720000013
  0.4785171750000003  0.1451838759999973  0.7266319989999985
  0.2285171750000003  0.8951838019999983  0.8177546260000028
  0.9785170560000012  0.6451836820000025  0.9088771939999987
  0.7285170560000012  0.3951835630000033  0.9999998210000030
  0.9785172939999995  0.3118506369999992  0.5443867440000005
  0.7285172340000017  0.0618505659999968  0.6355093720000013
  0.4785171750000003  0.8118504879999975  0.7266319989999985
  0.2285171750000003  0.5618504290000033  0.8177546260000028
  0.9785170560000012  0.3118503090000004  0.9088771939999987
  0.7285170560000012  0.0618502499999991  0.9999998210000030
  0.9785172939999995  0.9785172939999995  0.5443867440000005
  0.7285172340000017  0.7285171750000003  0.6355093720000013
  0.4785171750000003  0.4785171150000025  0.7266319989999985
  0.2285171750000003  0.2285170560000012  0.8177546260000028
  0.9785170560000012  0.9785169359999983  0.9088771939999987
  0.7285170560000012  0.7285168169999992  0.9999998210000030
  0.4785172939999995  0.8118506670000016  0.5443867440000005
  0.2285172489999994  0.5618506069999967  0.6355093720000013
  0.9785172340000017  0.3118505480000024  0.7266319989999985
  0.7285171750000003  0.0618504919999978  0.8177546260000028
  0.4785171150000025  0.8118503689999983  0.9088771939999987
  0.2285169960000033  0.5618502499999991  0.9999998210000030
  0.4785172939999995  0.4785173240000020  0.5443867440000005
  0.2285172489999994  0.2285172340000017  0.6355093720000013
  0.9785172340000017  0.9785171750000003  0.7266319989999985
  0.7285171750000003  0.7285171150000025  0.8177546260000028
  0.4785171150000025  0.4785169960000033  0.9088771939999987
  0.2285169960000033  0.2285169359999983  0.9999998210000030
  0.4785172939999995  0.1451839659999976  0.5443867440000005
  0.2285172489999994  0.8951838609999996  0.6355093720000013
  0.9785172340000017  0.6451838019999983  0.7266319989999985
  0.7285171750000003  0.3951837420000004  0.8177546260000028
  0.4785171150000025  0.1451836230000012  0.9088771939999987
  0.2285169960000033  0.8951835630000033  0.9999998210000030
  0.7285173539999974  0.6451840399999966  0.5443867440000005
  0.4785172939999995  0.3951839509999999  0.6355093720000013
  0.2285172639999971  0.1451839059999998  0.7266319989999985
  0.9785172340000017  0.8951838609999996  0.8177546260000028
  0.7285171750000003  0.6451836820000025  0.9088771939999987
  0.4785171150000025  0.3951836230000012  0.9999998210000030
  0.7285173539999974  0.3118506369999992  0.5443867440000005
  0.4785172939999995  0.0618505630000001  0.6355093720000013
  0.2285172639999971  0.8118504879999975  0.7266319989999985
  0.9785172340000017  0.5618504290000033  0.8177546260000028
  0.7285171750000003  0.3118503090000004  0.9088771939999987
  0.4785171150000025  0.0618501900000012  0.9999998210000030
  0.7285173539999974  0.9785172939999995  0.5443867440000005
  0.4785172939999995  0.7285172340000017  0.6355093720000013
  0.2285172639999971  0.4785171150000025  0.7266319989999985
  0.9785172340000017  0.2285170560000012  0.8177546260000028
  0.7285171750000003  0.9785169359999983  0.9088771939999987
  0.4785171150000025  0.7285168169999992  0.9999998210000030
  0.2285172939999995  0.8118506069999967  0.5443867440000005
  0.9785172340000017  0.5618504879999975  0.6355093720000013
  0.7285171750000003  0.3118504290000033  0.7266319989999985
  0.4785172340000017  0.0618503800000028  0.8177546260000028
  0.2285171150000025  0.8118502499999991  0.9088771939999987
  0.9785170560000012  0.5618501309999999  0.9999998210000030
  0.2285172939999995  0.4785172939999995  0.5443867440000005
  0.9785172340000017  0.2285172340000017  0.6355093720000013
  0.7285171750000003  0.9785171750000003  0.7266319989999985
  0.4785172340000017  0.7285171150000025  0.8177546260000028
  0.2285171150000025  0.4785169960000033  0.9088771939999987
  0.9785170560000012  0.2285168769999970  0.9999998210000030
  0.2285172939999995  0.1451839509999999  0.5443867440000005
  0.9785172340000017  0.8951838609999996  0.6355093720000013
  0.7285171750000003  0.6451838019999983  0.7266319989999985
  0.4785172340000017  0.3951837420000004  0.8177546260000028
  0.2285171150000025  0.1451835630000033  0.9088771939999987
  0.9785170560000012  0.8951835630000033  0.9999998210000030
 
  0.00000000E+00  0.00000000E+00  0.00000000E+00
  0.00000000E+00  0.00000000E+00  0.00000000E+00
  0.00000000E+00  0.00000000E+00  0.00000000E+00
  0.00000000E+00  0.00000000E+00  0.00000000E+00
  0.00000000E+00  0.00000000E+00  0.00000000E+00
  0.00000000E+00  0.00000000E+00  0.00000000E+00
  0.00000000E+00  0.00000000E+00  0.00000000E+00
  0.00000000E+00  0.00000000E+00  0.00000000E+00
  0.00000000E+00  0.00000000E+00  0.00000000E+00
  0.00000000E+00  0.00000000E+00  0.00000000E+00
  0.00000000E+00  0.00000000E+00  0.00000000E+00
  0.00000000E+00  0.00000000E+00  0.00000000E+00
  0.00000000E+00  0.00000000E+00  0.00000000E+00
  0.00000000E+00  0.00000000E+00  0.00000000E+00
  0.00000000E+00  0.00000000E+00  0.00000000E+00
  0.00000000E+00  0.00000000E+00  0.00000000E+00
  0.00000000E+00  0.00000000E+00  0.00000000E+00
  0.00000000E+00  0.00000000E+00  0.00000000E+00
  0.00000000E+00  0.00000000E+00  0.00000000E+00
  0.00000000E+00  0.00000000E+00  0.00000000E+00
  0.00000000E+00  0.00000000E+00  0.00000000E+00
  0.00000000E+00  0.00000000E+00  0.00000000E+00
  0.00000000E+00  0.00000000E+00  0.00000000E+00
  0.00000000E+00  0.00000000E+00  0.00000000E+00
  0.00000000E+00  0.00000000E+00  0.00000000E+00
  0.00000000E+00  0.00000000E+00  0.00000000E+00
  0.00000000E+00  0.00000000E+00  0.00000000E+00
  0.00000000E+00  0.00000000E+00  0.00000000E+00
  0.00000000E+00  0.00000000E+00  0.00000000E+00
  0.00000000E+00  0.00000000E+00  0.00000000E+00
  0.00000000E+00  0.00000000E+00  0.00000000E+00
  0.00000000E+00  0.00000000E+00  0.00000000E+00
  0.00000000E+00  0.00000000E+00  0.00000000E+00
  0.00000000E+00  0.00000000E+00  0.00000000E+00
  0.00000000E+00  0.00000000E+00  0.00000000E+00
  0.00000000E+00  0.00000000E+00  0.00000000E+00
  0.00000000E+00  0.00000000E+00  0.00000000E+00
  0.00000000E+00  0.00000000E+00  0.00000000E+00
  0.00000000E+00  0.00000000E+00  0.00000000E+00
  0.00000000E+00  0.00000000E+00  0.00000000E+00
  0.00000000E+00  0.00000000E+00  0.00000000E+00
  0.00000000E+00  0.00000000E+00  0.00000000E+00
  0.00000000E+00  0.00000000E+00  0.00000000E+00
  0.00000000E+00  0.00000000E+00  0.00000000E+00
  0.00000000E+00  0.00000000E+00  0.00000000E+00
  0.00000000E+00  0.00000000E+00  0.00000000E+00
  0.00000000E+00  0.00000000E+00  0.00000000E+00
  0.00000000E+00  0.00000000E+00  0.00000000E+00
  0.00000000E+00  0.00000000E+00  0.00000000E+00
  0.00000000E+00  0.00000000E+00  0.00000000E+00
  0.00000000E+00  0.00000000E+00  0.00000000E+00
  0.00000000E+00  0.00000000E+00  0.00000000E+00
  0.00000000E+00  0.00000000E+00  0.00000000E+00
  0.00000000E+00  0.00000000E+00  0.00000000E+00
  0.00000000E+00  0.00000000E+00  0.00000000E+00
  0.00000000E+00  0.00000000E+00  0.00000000E+00
  0.00000000E+00  0.00000000E+00  0.00000000E+00
  0.00000000E+00  0.00000000E+00  0.00000000E+00
  0.00000000E+00  0.00000000E+00  0.00000000E+00
  0.00000000E+00  0.00000000E+00  0.00000000E+00
  0.00000000E+00  0.00000000E+00  0.00000000E+00
  0.00000000E+00  0.00000000E+00  0.00000000E+00
  0.00000000E+00  0.00000000E+00  0.00000000E+00
  0.00000000E+00  0.00000000E+00  0.00000000E+00
  0.00000000E+00  0.00000000E+00  0.00000000E+00
  0.00000000E+00  0.00000000E+00  0.00000000E+00
  0.00000000E+00  0.00000000E+00  0.00000000E+00
  0.00000000E+00  0.00000000E+00  0.00000000E+00
  0.00000000E+00  0.00000000E+00  0.00000000E+00
  0.00000000E+00  0.00000000E+00  0.00000000E+00
  0.00000000E+00  0.00000000E+00  0.00000000E+00
  0.00000000E+00  0.00000000E+00  0.00000000E+00
  0.00000000E+00  0.00000000E+00  0.00000000E+00
  0.00000000E+00  0.00000000E+00  0.00000000E+00
  0.00000000E+00  0.00000000E+00  0.00000000E+00
  0.00000000E+00  0.00000000E+00  0.00000000E+00
  0.00000000E+00  0.00000000E+00  0.00000000E+00
  0.00000000E+00  0.00000000E+00  0.00000000E+00
  0.00000000E+00  0.00000000E+00  0.00000000E+00
  0.00000000E+00  0.00000000E+00  0.00000000E+00
  0.00000000E+00  0.00000000E+00  0.00000000E+00
  0.00000000E+00  0.00000000E+00  0.00000000E+00
  0.00000000E+00  0.00000000E+00  0.00000000E+00
  0.00000000E+00  0.00000000E+00  0.00000000E+00
  0.00000000E+00  0.00000000E+00  0.00000000E+00
  0.00000000E+00  0.00000000E+00  0.00000000E+00
  0.00000000E+00  0.00000000E+00  0.00000000E+00
  0.00000000E+00  0.00000000E+00  0.00000000E+00
  0.00000000E+00  0.00000000E+00  0.00000000E+00
  0.00000000E+00  0.00000000E+00  0.00000000E+00
  0.00000000E+00  0.00000000E+00  0.00000000E+00
  0.00000000E+00  0.00000000E+00  0.00000000E+00
  0.00000000E+00  0.00000000E+00  0.00000000E+00
  0.00000000E+00  0.00000000E+00  0.00000000E+00
  0.00000000E+00  0.00000000E+00  0.00000000E+00
  0.00000000E+00  0.00000000E+00  0.00000000E+00
  0.00000000E+00  0.00000000E+00  0.00000000E+00
  0.00000000E+00  0.00000000E+00  0.00000000E+00
  0.00000000E+00  0.00000000E+00  0.00000000E+00
  0.00000000E+00  0.00000000E+00  0.00000000E+00
  0.00000000E+00  0.00000000E+00  0.00000000E+00
  0.00000000E+00  0.00000000E+00  0.00000000E+00
  0.00000000E+00  0.00000000E+00  0.00000000E+00
  0.00000000E+00  0.00000000E+00  0.00000000E+00
  0.00000000E+00  0.00000000E+00  0.00000000E+00
  0.00000000E+00  0.00000000E+00  0.00000000E+00
  0.00000000E+00  0.00000000E+00  0.00000000E+00
  0.00000000E+00  0.00000000E+00  0.00000000E+00
  0.00000000E+00  0.00000000E+00  0.00000000E+00
  0.00000000E+00  0.00000000E+00  0.00000000E+00
  0.00000000E+00  0.00000000E+00  0.00000000E+00
  0.00000000E+00  0.00000000E+00  0.00000000E+00
  0.00000000E+00  0.00000000E+00  0.00000000E+00
  0.00000000E+00  0.00000000E+00  0.00000000E+00
  0.00000000E+00  0.00000000E+00  0.00000000E+00
  0.00000000E+00  0.00000000E+00  0.00000000E+00
  0.00000000E+00  0.00000000E+00  0.00000000E+00
  0.00000000E+00  0.00000000E+00  0.00000000E+00
  0.00000000E+00  0.00000000E+00  0.00000000E+00
  0.00000000E+00  0.00000000E+00  0.00000000E+00
