Si+C
    1.000000000
   13.303179741    0.000000000    0.000000000
    6.651589394   14.873406410    0.000000000
    0.000000000    0.000000000    7.994750023
Si  C  
36     84
Direct
    0.283249497    0.641624749    0.000000047
    0.816582799    0.408291280    0.151900873
    0.349915981    0.174957767    0.303801745
    0.616582751    0.308291376    0.000000057
    0.149916053    0.074957930    0.151900873
    0.683249235    0.841624439    0.303801715
    0.949916124    0.974958062    0.000000040
    0.483249485    0.741624594    0.151900873
    0.016582668    0.508291125    0.303801715
    0.799916267    0.774958014    0.075950310
    0.333249509    0.541624546    0.227851167
    0.866582751    0.308291078    0.379752040
    0.133249685    0.441624761    0.075950325
    0.666582942    0.208291277    0.227851167
    0.199916244    0.974957764    0.379752040
    0.466582894    0.108291537    0.075950325
    0.999916136    0.874958038    0.227851167
    0.533249378    0.641624570    0.379752040
    0.783249557    0.641624749    0.000000000
    0.316582829    0.408291280    0.151900858
    0.849916041    0.174957782    0.303801745
    0.116582796    0.308291405    0.000000057
    0.649916053    0.074957952    0.151900902
    0.183249295    0.841624498    0.303801745
    0.449916124    0.974958062    0.000000057
    0.983249426    0.741624594    0.151900902
    0.516582668    0.508291125    0.303801745
    0.299916178    0.774958134    0.075950325
    0.833249450    0.541624665    0.227851197
    0.366582692    0.308291197    0.379752010
    0.633249402    0.441624731    0.075950347
    0.166582644    0.208291262    0.227851197
    0.699915946    0.974957824    0.379751980
    0.966582716    0.108291551    0.075950325
    0.499915957    0.874958038    0.227851197
    0.033249259    0.641624629    0.379752040
    0.012232184    0.145018101    0.565175354
    0.983660519    0.416446716    0.664936006
    0.955088973    0.687875330    0.764696538
    0.155089259    0.287875235    0.565175354
    0.126517713    0.559303880    0.664936006
    0.097946174    0.830732524    0.764696538
    0.297946393    0.430732399    0.565175354
    0.269374847    0.702161014    0.664936006
    0.240803316    0.973589718    0.764696598
    0.440803528    0.573589563    0.565175354
    0.412231982    0.845018208    0.664936006
    0.383660436    0.116446853    0.764696598
    0.583660662    0.716446698    0.565175354
    0.555089056    0.987875283    0.664936006
    0.526517510    0.259303927    0.764696598
    0.726517797    0.859303772    0.565175354
    0.697946250    0.130732417    0.664936006
    0.669374704    0.402161002    0.764696538
    0.869374990    0.002161026    0.565175354
    0.840803444    0.273589611    0.664936006
    0.812231779    0.545018196    0.764696598
    0.105089299    0.887875080    0.615055561
    0.076517761    0.159303665    0.714816213
    0.047946259    0.430732369    0.814576805
    0.247946396    0.030732393    0.615055561
    0.219374850    0.302160978    0.714816153
    0.190803289    0.573589683    0.814576805
    0.390803576    0.173589468    0.615055561
    0.362231970    0.445018172    0.714816153
    0.333660364    0.716446757    0.814576805
    0.533660650    0.316446543    0.615055561
    0.505089164    0.587875187    0.714816213
    0.476517498    0.859303713    0.814576805
    0.676517785    0.459303826    0.615055561
    0.647946239    0.730732441    0.714816213
    0.619374692    0.002161145    0.814576805
    0.819374919    0.602160931    0.615055561
    0.790803373    0.873589575    0.714816213
    0.762231886    0.145018220    0.814576805
    0.962232113    0.745018065    0.615055561
    0.933660626    0.016446710    0.714816213
    0.905088961    0.287875175    0.814576805
    0.083660655    0.716446638    0.565175354
    0.055089135    0.987875283    0.664936006
    0.026517551    0.259303927    0.764696538
    0.226517797    0.859303772    0.565175354
    0.197946265    0.130732417    0.664936006
    0.169374779    0.402161121    0.764696598
    0.369374990    0.002160907    0.565175354
    0.340803504    0.273589611    0.664936006
    0.312231839    0.545018196    0.764696538
    0.512232125    0.145018101    0.565175354
    0.483660519    0.416446716    0.664936006
    0.455089033    0.687875330    0.764696598
    0.655089259    0.287875175    0.565175354
    0.626517713    0.559303820    0.664936006
    0.597946167    0.830732465    0.764696598
    0.797946453    0.430732399    0.565175354
    0.769374847    0.702161014    0.664936006
    0.740803361    0.973589659    0.764696598
    0.940803587    0.573589504    0.565175354
    0.912231982    0.845018148    0.664936006
    0.883660436    0.116446733    0.764696598
    0.033660688    0.316446573    0.615055561
    0.005089164    0.587875187    0.714816153
    0.976517558    0.859303832    0.814576805
    0.176517844    0.459303617    0.615055561
    0.147946298    0.730732262    0.714816213
    0.119374759    0.002160907    0.814576805
    0.319374979    0.602160931    0.615055561
    0.290803432    0.873589516    0.714816213
    0.262231827    0.145018101    0.814576805
    0.462232113    0.745018005    0.615055561
    0.433660567    0.016446590    0.714816153
    0.405089021    0.287875175    0.814576805
    0.605089188    0.887875021    0.615055561
    0.576517701    0.159303665    0.714816153
    0.547946155    0.430732369    0.814576805
    0.747946322    0.030732274    0.615055561
    0.719374776    0.302160978    0.714816213
    0.690803230    0.573589444    0.814576805
    0.890803516    0.173589349    0.615055561
    0.862231910    0.445017934    0.714816153
    0.833660305    0.716446519    0.814576805
