Sn+Si
    1.000000000
    9.177114487    0.000000000    0.000000000
    0.000000000   12.978401184    0.000000000
    0.000000000    0.000000000   21.072139740
Sn  Si 
48     72
Direct
    0.982020497    0.982020497    0.000000001
    0.732020497    0.732020497    0.108877338
    0.482020438    0.482020438    0.217754737
    0.232020438    0.232020438    0.326632053
    0.982020378    0.982020378    0.435509384
    0.732020378    0.732020378    0.544386804
    0.982020497    0.482020497    0.000000001
    0.732020497    0.232020482    0.108877338
    0.482020438    0.982020438    0.217754737
    0.232020438    0.732020378    0.326632053
    0.982020378    0.482020378    0.435509384
    0.732020378    0.232020319    0.544386804
    0.482020468    0.982020497    0.000000001
    0.232020468    0.732020497    0.108877338
    0.982020438    0.482020438    0.217754722
    0.732020378    0.232020438    0.326632053
    0.482020378    0.982020378    0.435509384
    0.232020319    0.732020378    0.544386804
    0.482020468    0.482020497    0.000000001
    0.232020468    0.232020482    0.108877338
    0.982020438    0.982020438    0.217754722
    0.732020378    0.732020378    0.326632053
    0.482020378    0.482020378    0.435509384
    0.232020319    0.232020319    0.544386804
    0.732020438    0.357020497    0.000000000
    0.482020438    0.107020468    0.108877346
    0.232020378    0.857020378    0.217754737
    0.982020319    0.607020378    0.326632082
    0.732020319    0.357020319    0.435509443
    0.482020319    0.107020319    0.544386804
    0.732020438    0.857020438    0.000000000
    0.482020438    0.607020438    0.108877346
    0.232020378    0.357020378    0.217754737
    0.982020319    0.107020333    0.326632082
    0.732020319    0.857020378    0.435509443
    0.482020319    0.607020259    0.544386804
    0.232020482    0.357020497    0.000000001
    0.982020497    0.107020468    0.108877346
    0.732020378    0.857020378    0.217754737
    0.482020319    0.607020378    0.326632082
    0.232020378    0.357020319    0.435509384
    0.982020378    0.107020319    0.544386804
    0.232020482    0.857020438    0.000000001
    0.982020497    0.607020438    0.108877346
    0.732020378    0.357020378    0.217754737
    0.482020319    0.107020333    0.326632082
    0.232020378    0.857020378    0.435509384
    0.982020378    0.607020259    0.544386804
    0.000000000    0.978517294    0.544386804
    0.999999940    0.728517175    0.635509431
    0.999999940    0.478517175    0.726631999
    0.999999881    0.228517056    0.817754626
    0.999999881    0.978516936    0.908877254
    0.999999881    0.728516936    0.999999881
    0.333333343    0.645183921    0.544386804
    0.333333313    0.395183891    0.635509431
    0.333333284    0.145183846    0.726631999
    0.333333284    0.895183742    0.817754626
    0.333333254    0.645183563    0.908877254
    0.333333164    0.395183504    0.999999881
    0.666666687    0.311850607    0.544386804
    0.666666687    0.061850529    0.635509431
    0.666666687    0.811850488    0.726631999
    0.666666567    0.561850429    0.817754626
    0.666666567    0.311850250    0.908877254
    0.666666508    0.061850250    0.999999881
    0.000000022    0.478517294    0.544386804
    0.999999940    0.228517219    0.635509431
    0.999999940    0.978517175    0.726631999
    0.999999940    0.728517056    0.817754626
    0.999999940    0.478516936    0.908877254
    0.999999821    0.228516877    1.000000000
    0.333333343    0.145183951    0.544386804
    0.333333313    0.895183861    0.635509431
    0.333333254    0.645183802    0.726631999
    0.333333224    0.395183742    0.817754626
    0.333333224    0.145183563    0.908877254
    0.333333194    0.895183563    1.000000000
    0.666666687    0.811850667    0.544386804
    0.666666627    0.561850548    0.635509431
    0.666666627    0.311850548    0.726631999
    0.666666567    0.061850455    0.817754626
    0.666666567    0.811850309    0.908877254
    0.666666448    0.561850309    0.999999762
    0.083333306    0.645184040    0.544386804
    0.083333269    0.395183951    0.635509431
    0.083333246    0.145183891    0.726631999
    0.083333217    0.895183802    0.817754626
    0.083333194    0.645183682    0.908877254
    0.083333105    0.395183623    1.000000000
    0.416666687    0.311850637    0.544386804
    0.416666657    0.061850540    0.635509431
    0.416666597    0.811850548    0.726631999
    0.416666567    0.561850429    0.817754626
    0.416666567    0.311850250    0.908877254
    0.416666538    0.061850190    1.000000000
    0.750000060    0.978517294    0.544386804
    0.750000060    0.728517175    0.635509431
    0.750000000    0.478517115    0.726631999
    0.749999881    0.228517056    0.817754626
    0.750000000    0.978516817    0.908877254
    0.749999881    0.728516817    1.000000000
    0.083333328    0.145183936    0.544386804
    0.083333299    0.895183861    0.635509431
    0.083333276    0.645183802    0.726631999
    0.083333254    0.395183682    0.817754626
    0.083333224    0.145183623    0.908877254
    0.083333194    0.895183444    0.999999881
    0.416666657    0.811850548    0.544386804
    0.416666627    0.561850429    0.635509431
    0.416666597    0.311850429    0.726631999
    0.416666567    0.061850309    0.817754626
    0.416666567    0.811850190    0.908877254
    0.416666508    0.561850131    0.999999881
    0.750000060    0.478517294    0.544386804
    0.750000060    0.228517219    0.635509431
    0.750000000    0.978517175    0.726631999
    0.750000000    0.728517056    0.817754626
    0.749999940    0.478516936    0.908877254
    0.749999881    0.228516877    0.999999881
