Ge+Si
    1.000000000
    8.001338005    0.000000000    0.000000000
    0.000000000   16.002676010    0.000000000
    0.000000000    0.000000000   20.872991562
Ge  Si 
48     72
Direct
    0.991458297    0.995729148    0.000000000
    0.741458297    0.870729148    0.135529175
    0.491458297    0.745729148    0.271058381
    0.877251148    0.704231441    0.899391532
    0.741458297    0.370729119    0.135529175
    0.491458297    0.245729119    0.271058381
    0.127251267    0.120898247    0.899391532
    0.241458267    0.120729133    0.135529175
    0.991458297    0.995729148    0.271058381
    0.491458237    0.745729089    0.000000000
    0.241458282    0.620729089    0.135529175
    0.991458237    0.495729089    0.271058381
    0.627251387    0.120898247    0.899391532
    0.991458297    0.870729148    0.203293800
    0.377251387    0.620898366    0.439431459
    0.241458237    0.495729089    0.067764588
    0.991458237    0.370729089    0.203293800
    0.741458237    0.245729089    0.338823020
    0.741458297    0.245729148    0.067764588
    0.491458297    0.120729148    0.203293800
    0.127251387    0.204231739    0.439431459
    0.741458297    0.745729089    0.067764588
    0.491458267    0.620729089    0.203293800
    0.241458267    0.495729119    0.338823020
    0.877251148    0.037564874    0.899391532
    0.127251267    0.454231501    0.899391532
    0.491458297    0.995729148    0.271058381
    0.491458267    0.995729148    0.000000000
    0.241458267    0.870729148    0.135529175
    0.991458297    0.745729148    0.271058381
    0.991458237    0.745729148    0.000000000
    0.741458297    0.620729148    0.135529175
    0.877251387    0.620898366    0.439431459
    0.491458267    0.495729119    0.000000000
    0.377251387    0.037564874    0.899391532
    0.991458297    0.245729148    0.271058381
    0.241458282    0.245729119    0.067764588
    0.991458297    0.120729133    0.203293800
    0.741458297    0.995729148    0.338823020
    0.741458237    0.995729148    0.067764588
    0.627251506    0.537564993    0.439431459
    0.127251387    0.537564993    0.439431459
    0.241458282    0.745729089    0.067764588
    0.377251387    0.954231739    0.439431459
    0.741458297    0.495729089    0.338823020
    0.741458237    0.495729089    0.067764588
    0.491458267    0.370729119    0.203293800
    0.241458252    0.245729089    0.338823020
    0.877251387    0.287564993    0.439431459
    0.627251387    0.120898247    0.531423509
    0.377251387    0.954231560    0.623415530
    0.127251387    0.787564933    0.715407610
    0.877251387    0.620898187    0.807399571
    0.627251387    0.454231501    0.899391532
    0.491458297    0.495729148    0.271058381
    0.627251387    0.454231650    0.531423509
    0.377251387    0.287564993    0.623415530
    0.127251387    0.120898247    0.715407610
    0.877251387    0.954231560    0.807399571
    0.627251387    0.787564874    0.899391532
    0.877251387    0.954231739    0.439431459
    0.627251387    0.787564993    0.531423509
    0.377251387    0.620898306    0.623415530
    0.127251387    0.454231679    0.715407610
    0.877251387    0.287564993    0.807399571
    0.241458282    0.995729148    0.067764588
    0.377251387    0.287564993    0.439431459
    0.127251387    0.120898247    0.531423509
    0.877251387    0.954231560    0.623415530
    0.627251387    0.787564933    0.715407550
    0.377251387    0.620898187    0.807399571
    0.741458297    0.120729133    0.135529175
    0.741458297    0.745729148    0.338823020
    0.127251387    0.454231650    0.531423509
    0.877251387    0.287564993    0.623415530
    0.627251387    0.120898247    0.715407550
    0.377251387    0.954231560    0.807399571
    0.127251267    0.787564874    0.899391532
    0.991458297    0.620729089    0.203293800
    0.127251387    0.787564993    0.531423509
    0.877251387    0.620898306    0.623415530
    0.627251387    0.454231679    0.715407550
    0.377251387    0.287564993    0.807399571
    0.491458237    0.245729119    0.000000000
    0.491458267    0.870729148    0.203293800
    0.377251387    0.370898277    0.531423509
    0.127251387    0.204231501    0.623415530
    0.877251387    0.037564993    0.715407610
    0.627251387    0.870898247    0.807399571
    0.377251387    0.704231441    0.899391532
    0.627251506    0.870898426    0.439431459
    0.377251387    0.704231679    0.531423509
    0.127251387    0.537564993    0.623415530
    0.877251387    0.370898336    0.715407610
    0.627251387    0.204231620    0.807399571
    0.241458312    0.370729148    0.135529175
    0.627251506    0.204231739    0.439431459
    0.377251387    0.037564993    0.531423509
    0.127251387    0.870898306    0.623415530
    0.877251387    0.704231620    0.715407610
    0.627251387    0.537564933    0.807399571
    0.377251387    0.370898187    0.899391532
    0.241458252    0.745729089    0.338823020
    0.877251387    0.370898277    0.531423509
    0.627251387    0.204231501    0.623415530
    0.377251387    0.037564993    0.715407550
    0.127251387    0.870898247    0.807399571
    0.991458237    0.495729089    0.000000000
    0.127251387    0.870898426    0.439431459
    0.877251387    0.704231679    0.531423509
    0.627251387    0.537564993    0.623415530
    0.377251387    0.370898336    0.715407550
    0.127251387    0.204231620    0.807399571
    0.991458297    0.245729133    0.000000000
    0.241458282    0.995729148    0.338823020
    0.877251387    0.037564993    0.531423509
    0.627251387    0.870898306    0.623415530
    0.377251387    0.704231620    0.715407550
    0.127251387    0.537564933    0.807399571
    0.877251148    0.370898187    0.899391532
