Automatic KPOINTS generated
0
Gamma
2 4 5
0 0 0
