C+Si
    1.000000000
   16.345130920    0.000000000    0.000000000
  -10.896755219   12.182942390    0.000000000
    0.000000000    0.000000000    5.029922485
C   Si 
84     36
Direct
    0.932124734    0.728499413    0.317126423
    0.132124841    0.528499424    0.000000087
    0.032124788    0.128499418    0.158563271
    0.217839032    0.871356606    0.317126423
    0.417839170    0.671356618    0.000000087
    0.317839086    0.271356583    0.158563271
    0.503553271    0.014213708    0.317126423
    0.703553379    0.814213693    0.000000087
    0.603553355    0.414213717    0.158563271
    0.789267600    0.157070875    0.317126453
    0.989267707    0.957070947    0.000000050
    0.889267683    0.557070911    0.158563271
    0.074981861    0.299928010    0.317126453
    0.274982005    0.099928088    0.000000049
    0.174981922    0.699928045    0.158563271
    0.360696107    0.442785144    0.317126453
    0.560696304    0.242785230    0.000000046
    0.460696161    0.842785180    0.158563212
    0.646410465    0.585642338    0.317126453
    0.846410632    0.385642380    0.000000047
    0.746410549    0.985642374    0.158563226
    0.810696185    0.992785454    0.396407902
    0.010696329    0.792785466    0.079281494
    0.910696268    0.392785370    0.237844720
    0.096410438    0.135642469    0.396407992
    0.296410590    0.935642540    0.079281494
    0.196410522    0.535642505    0.237844720
    0.953553319    0.564213872    0.396407902
    0.153553441    0.364213914    0.079281487
    0.053553376    0.964213848    0.237844720
    0.239267647    0.707070947    0.396407902
    0.439267784    0.507071018    0.079281494
    0.339267671    0.107070953    0.237844720
    0.524981856    0.849928260    0.396407932
    0.724981964    0.649928331    0.079281487
    0.624981940    0.249928296    0.237844720
    0.382124871    0.278499603    0.396407932
    0.582124949    0.078499563    0.079281516
    0.482124895    0.678499579    0.237844765
    0.667839110    0.421356916    0.396407902
    0.867839217    0.221356913    0.079281509
    0.767839253    0.821356893    0.237844676
    0.860696137    0.942785084    0.317126453
    0.060696274    0.742785156    0.000000000
    0.960696220    0.342785150    0.158563226
    0.146410406    0.085642211    0.317126453
    0.346410543    0.885642290    0.000000000
    0.246410474    0.485642284    0.158563226
    0.003553307    0.514213741    0.317126423
    0.203553438    0.314213783    0.000000038
    0.103553377    0.914213717    0.158563271
    0.289267570    0.657070875    0.317126423
    0.489267707    0.457070917    0.000000038
    0.389267623    0.057070859    0.158563271
    0.574981868    0.799928069    0.317126393
    0.774981976    0.599928081    0.000000037
    0.674981892    0.199928030    0.158563271
    0.432124794    0.228499472    0.317126423
    0.632124960    0.028499557    0.000000058
    0.532124817    0.628499508    0.158563271
    0.717839122    0.371356666    0.317126423
    0.917839289    0.171356723    0.000000037
    0.817839146    0.771356642    0.158563316
    0.882124782    0.778499484    0.396407932
    0.082124889    0.578499496    0.079281561
    0.982124805    0.178499445    0.237844706
    0.167839050    0.921356797    0.396407932
    0.367839187    0.721356809    0.079281539
    0.267839104    0.321356773    0.237844706
    0.453553379    0.064213991    0.396407902
    0.653553486    0.864214003    0.079281494
    0.553553462    0.464213967    0.237844780
    0.024981899    0.349928319    0.396407902
    0.224982023    0.149928346    0.079281494
    0.124981947    0.749928236    0.237844706
    0.310696125    0.492785335    0.396407902
    0.510696232    0.292785406    0.079281494
    0.410696179    0.892785311    0.237844720
    0.596410513    0.635642409    0.396407992
    0.796410620    0.435642451    0.079281494
    0.696410596    0.035642430    0.237844720
    0.739267707    0.207071006    0.396407902
    0.939267874    0.007071043    0.079281494
    0.839267790    0.607070982    0.237844765
    0.017094349    0.663817585    0.396407962
    0.217094451    0.630484104    0.637844861
    0.417094558    0.597150683    0.879281819
    0.017094349    0.330484241    0.396407962
    0.217094451    0.297150820    0.637844861
    0.417094558    0.263817370    0.879281819
    0.017094349    0.997150958    0.396407962
    0.217094451    0.963817477    0.637844861
    0.417094558    0.930484056    0.879281819
    0.367094278    0.813817561    0.517126203
    0.567094386    0.780484200    0.758563101
    0.767094493    0.747150779    1.000000000
    0.367094278    0.480484188    0.517126203
    0.567094386    0.447150767    0.758563101
    0.767094493    0.413817376    1.000000000
    0.367094278    0.147150904    0.517126203
    0.567094386    0.113817483    0.758563101
    0.767094493    0.080484070    1.000000000
    0.517094374    0.830484211    0.396407962
    0.717094421    0.797150731    0.637844861
    0.917094529    0.763817370    0.879281819
    0.517094374    0.497150898    0.396407962
    0.717094421    0.463817447    0.637844861
    0.917094529    0.430484027    0.879281819
    0.517094374    0.163817599    0.396407962
    0.717094421    0.130484134    0.637844861
    0.917094529    0.097150691    0.879281819
    0.867094278    0.980484366    0.517126203
    0.067094445    0.947150886    0.758563221
    0.267094374    0.913817465    0.999999940
    0.867094278    0.647150874    0.517126203
    0.067094445    0.613817453    0.758563221
    0.267094374    0.580483973    0.999999940
    0.867094278    0.313817590    0.517126203
    0.067094445    0.280484170    0.758563221
    0.267094374    0.247150734    0.999999940
