Sn+Ge
    1.000000000
   11.239624023    0.000000000    0.000000000
    0.000000000   18.354230881    0.000000000
    0.000000000    0.000000000   13.669418335
Sn  Ge 
48     48
Direct
    0.940928936    0.477848351    0.000000001
    0.607595503    0.352848351    0.096902698
    0.274262190    0.227848351    0.193805337
    0.940928817    0.102848344    0.290708035
    0.607595325    0.977848291    0.387610763
    0.274261832    0.852848232    0.484513432
    0.940928936    0.977848351    0.000000006
    0.607595503    0.852848291    0.096902713
    0.274262190    0.727848291    0.193805337
    0.940928817    0.602848291    0.290708005
    0.607595325    0.477848291    0.387610763
    0.274261832    0.352848172    0.484513432
    0.190928906    0.727848351    0.000000006
    0.857595563    0.602848351    0.096902713
    0.524262190    0.477848351    0.193805382
    0.190928817    0.352848351    0.290708035
    0.857595444    0.227848321    0.387610763
    0.524261832    0.102848224    0.484513521
    0.190928906    0.227848351    0.000000000
    0.857595503    0.102848329    0.096902698
    0.524262190    0.977848351    0.193805352
    0.190928817    0.852848351    0.290708005
    0.857595444    0.727848291    0.387610704
    0.524261832    0.602848232    0.484513521
    0.940928876    0.727848351    0.000000000
    0.607595503    0.602848351    0.096902721
    0.274262190    0.477848351    0.193805337
    0.940928817    0.352848351    0.290708005
    0.607595325    0.227848306    0.387610763
    0.274261951    0.102848209    0.484513432
    0.940928936    0.227848351    0.000000004
    0.607595503    0.102848329    0.096902698
    0.274262190    0.977848351    0.193805337
    0.940928817    0.852848351    0.290708005
    0.607595444    0.727848291    0.387610763
    0.274261832    0.602848172    0.484513432
    0.190928966    0.477848381    0.000000020
    0.857595563    0.352848381    0.096902713
    0.524262190    0.227848381    0.193805352
    0.190928817    0.102848351    0.290708035
    0.857595444    0.977848351    0.387610763
    0.524261951    0.852848291    0.484513462
    0.190928951    0.977848351    0.000000008
    0.857595563    0.852848291    0.096902698
    0.524262190    0.727848291    0.193805352
    0.190928817    0.602848291    0.290708035
    0.857595444    0.477848291    0.387610763
    0.524261951    0.352848232    0.484513462
    0.278902054    0.737406015    0.578647316
    0.028902054    0.087406158    0.644091070
    0.778902054    0.437406182    0.709534824
    0.528901935    0.787406325    0.774978697
    0.278902054    0.137406349    0.840422332
    0.028902054    0.487406492    0.905866086
    0.778902054    0.737406015    0.578647316
    0.528902054    0.087406158    0.644091070
    0.278902054    0.437406182    0.709534824
    0.028902054    0.787406325    0.774978697
    0.778902054    0.137406349    0.840422332
    0.528901935    0.487406492    0.905866086
    0.403902054    0.487406135    0.578647316
    0.153902054    0.837406278    0.644091070
    0.903902054    0.187406301    0.709534824
    0.653901935    0.537406325    0.774978697
    0.403901964    0.887406349    0.840422392
    0.153901935    0.237406492    0.905866146
    0.903902054    0.487406135    0.578647316
    0.653902054    0.837406278    0.644091070
    0.403902054    0.187406301    0.709534824
    0.153902054    0.537406325    0.774978697
    0.903902054    0.887406349    0.840422392
    0.653901935    0.237406492    0.905866146
    0.278902054    0.237406015    0.578647316
    0.028902054    0.587406158    0.644091010
    0.778902054    0.937406182    0.709534883
    0.528901935    0.287406325    0.774978638
    0.278902054    0.637406349    0.840422332
    0.028902054    0.987406492    0.905866146
    0.778902054    0.237406015    0.578647316
    0.528902054    0.587406158    0.644091010
    0.278902054    0.937406182    0.709534883
    0.028902054    0.287406325    0.774978638
    0.778902054    0.637406349    0.840422332
    0.528901935    0.987406492    0.905866146
    0.403902054    0.987406015    0.578647316
    0.153902054    0.337406158    0.644091070
    0.903902054    0.687406182    0.709534824
    0.653901935    0.037406325    0.774978638
    0.403901964    0.387406349    0.840422332
    0.153901935    0.737406492    0.905866086
    0.903902054    0.987406015    0.578647316
    0.653902054    0.337406158    0.644091070
    0.403902054    0.687406182    0.709534824
    0.153902054    0.037406325    0.774978638
    0.903902054    0.387406349    0.840422332
    0.653901935    0.737406492    0.905866086
