Automatic KPOINTS generated
0
Gamma
3 4 3
0 0 0
