Automatic KPOINTS generated
0
Gamma
6 4 1
0 0 0
