Ge
 1.0000000000000000
     5.6577999999999999    0.0000000000000000    0.0000000000000000
     0.0000000000000000    8.0013374931944963    0.0000000000000000
     0.0000000000000000    0.0000000000000000   62.0036781062848661
 Ge 
  48
Direct
  0.0000000000000000  0.0000000000000000  0.3225615094271761
  0.2500000000000000  0.0000000000000000  0.3548230531676895
  0.0000000000000000  0.5000000000000000  0.3225615094271761
  0.2500000000000000  0.5000000000000000  0.3548230531676895
  0.5000000000000000  0.7500000000000000  0.3548230531676895
  0.7499999999999999  0.2500000000000001  0.3225615094271761
  0.5000000000000000  0.2500000000000000  0.3548230531676895
  0.7499999999999999  0.7500000000000002  0.3225615094271761
  0.0000000000000000  0.5000000000000000  0.3870845969082030
  0.2500000000000000  0.5000000000000000  0.4193461406487164
  0.0000000000000000  0.0000000000000000  0.3870845969082030
  0.2500000000000000  0.0000000000000000  0.4193461406487164
  0.5000000000000000  0.2500000000000000  0.4193461406487164
  0.7499999999999999  0.7500000000000000  0.3870845969082030
  0.5000000000000000  0.7500000000000000  0.4193461406487164
  0.7499999999999999  0.2500000000000000  0.3870845969082030
  0.0000000000000000  0.0000000000000000  0.4516076843892298
  0.2500000000000000  0.0000000000000000  0.4838692281297433
  0.0000000000000000  0.5000000000000001  0.4516076843892298
  0.2500000000000000  0.5000000000000000  0.4838692281297432
  0.5000000000000000  0.7500000000000000  0.4838692281297433
  0.7499999999999999  0.2500000000000000  0.4516076843892298
  0.5000000000000000  0.2499999999999999  0.4838692281297433
  0.7499999999999999  0.7500000000000000  0.4516076843892298
  0.0000000000000000  0.5000000000000000  0.5161307718702567
  0.2500000000000000  0.5000000000000002  0.5483923156107701
  0.0000000000000000  0.0000000000000002  0.5161307718702567
  0.2500000000000000  0.0000000000000002  0.5483923156107701
  0.5000000000000000  0.2500000000000000  0.5483923156107701
  0.7499999999999999  0.7500000000000003  0.5161307718702567
  0.5000000000000000  0.7500000000000003  0.5483923156107701
  0.7499999999999999  0.2500000000000000  0.5161307718702567
  0.0000000000000000  0.0000000000000000  0.5806538593512836
  0.2500000000000000  0.0000000000000000  0.6129154030917969
  0.0000000000000000  0.5000000000000000  0.5806538593512836
  0.2500000000000000  0.5000000000000000  0.6129154030917969
  0.5000000000000000  0.7500000000000000  0.6129154030917970
  0.7499999999999999  0.2500000000000002  0.5806538593512836
  0.5000000000000000  0.2500000000000000  0.6129154030917970
  0.7499999999999999  0.7500000000000000  0.5806538593512836
  0.0000000000000000  0.5000000000000000  0.6451769468323104
  0.2500000000000000  0.5000000000000000  0.6774384905728238
  0.0000000000000000  0.0000000000000000  0.6451769468323104
  0.2500000000000000  0.0000000000000000  0.6774384905728238
  0.5000000000000000  0.2500000000000000  0.6774384905728238
  0.7499999999999999  0.7500000000000000  0.6451769468323104
  0.5000000000000000  0.7500000000000000  0.6774384905728238
  0.7499999999999999  0.2499999999999998  0.6451769468323104
