Si+C                                    
   1.00000000000000     
    13.3031797409999992    0.0000000000000000    0.0000000000000000
     6.6515893940000002   14.8734064099999994    0.0000000000000000
     0.0000000000000000    0.0000000000000000    8.1924057010000002
   Si   C 
    36    84
Direct
  0.9829056259999973  0.6581194999999980  0.0000000049999969
  0.7829055790000012  0.5581192969999975  0.1482359620000011
  0.5829054120000023  0.4581190939999971  0.2964719240000022
  0.9829056259999973  0.3247861270000030  0.0000000049999969
  0.7829055790000012  0.2247859690000027  0.1482359620000011
  0.5829054120000023  0.1247858030000017  0.2964719240000022
  0.9829056259999973  0.9914528130000022  0.0000000049999969
  0.7829055790000012  0.8914526699999996  0.1482359620000011
  0.5829054120000023  0.7914525269999970  0.2964719240000022
  0.6329056619999989  0.6914526819999978  0.0741178239999982
  0.4329055850000003  0.5914524789999973  0.2223538009999970
  0.2329055220000029  0.4914524260000022  0.3705897330000028
  0.6329056619999989  0.3581194280000020  0.0741178239999982
  0.4329055850000003  0.2581192849999994  0.2223538009999970
  0.2329055220000029  0.1581191419999968  0.3705897330000028
  0.6329056619999989  0.0247861369999995  0.0741178239999982
  0.4329055850000003  0.9247859720000022  0.2223538009999970
  0.2329055220000029  0.8247858289999996  0.3705897330000028
  0.4829056259999973  0.6581194999999980  0.0000000000000000
  0.2829055489999988  0.5581192969999975  0.1482359620000011
  0.0829054419999977  0.4581190939999971  0.2964719240000022
  0.4829056259999973  0.3247861270000030  0.0000000000000000
  0.2829055489999988  0.2247859539999979  0.1482359620000011
  0.0829054419999977  0.1247858110000024  0.2964719240000022
  0.4829056259999973  0.9914528130000022  0.0000000000000000
  0.2829055489999988  0.8914526699999996  0.1482359620000011
  0.0829054419999977  0.7914525269999970  0.2964719240000022
  0.1329056769999966  0.6914527420000027  0.0741178390000030
  0.9329055549999978  0.5914524789999973  0.2223538009999970
  0.7329055069999981  0.4914523959999997  0.3705897330000028
  0.1329056769999966  0.3581194879999998  0.0741178390000030
  0.9329055549999978  0.2581192849999994  0.2223538009999970
  0.7329055069999981  0.1581191269999991  0.3705897330000028
  0.1329056769999966  0.0247861369999995  0.0741178390000030
  0.9329055549999978  0.9247859720000022  0.2223538009999970
  0.7329055069999981  0.8247858289999996  0.3705897330000028
  0.7264301780000011  0.9567410949999982  0.7583102580000016
  0.0692871810000000  0.9853127599999993  0.5636027460000008
  0.3978586200000009  0.9710269569999994  0.6609564419999998
  0.0121443270000015  0.8138840200000033  0.7583102580000016
  0.3550014500000032  0.8424556260000031  0.5636027460000008
  0.6835730080000033  0.8281698230000032  0.6609564419999998
  0.2978585959999975  0.6710268859999999  0.7583102580000016
  0.6407157180000027  0.6995984910000033  0.5636027460000008
  0.9692871569999966  0.6853126880000033  0.6609564419999998
  0.5835729839999999  0.5281697510000001  0.7583101990000003
  0.9264301059999980  0.5567413569999999  0.5636026860000030
  0.2550015449999989  0.5424555540000000  0.6609564419999998
  0.8692872519999995  0.3853126169999967  0.7583101990000003
  0.2121443750000012  0.4138842229999966  0.5636026860000030
  0.5407156939999993  0.3995984199999967  0.6609564419999998
  0.1550015210000026  0.2424554819999969  0.7583101990000003
  0.4978585240000015  0.2710270879999968  0.5636026860000030
  0.8264300820000017  0.2567413149999993  0.6609564419999998
  0.4407159089999979  0.0995984079999985  0.7583102580000016
  0.7835729119999968  0.1281698940000027  0.5636026860000030
  0.1121444699999969  0.1138842109999985  0.6609565019999977
  0.1764299869999988  0.0567411179999979  0.8069870469999998
  0.5192871089999969  0.0853127239999978  0.6122795340000025
  0.8478585479999978  0.0710269209999979  0.7096332910000029
  0.4621442560000020  0.9138839840000017  0.8069870469999998
  0.8050013780000000  0.9424555900000016  0.6122795340000025
  0.1335728170000010  0.9281697269999967  0.7096332910000029
  0.7478585240000015  0.7710268499999984  0.8069871069999976
  0.0907156470000032  0.7995984550000017  0.6122794750000011
  0.4192872050000034  0.7853126529999983  0.7096332309999980
  0.0335729119999968  0.6281697750000035  0.8069869879999985
  0.3764300349999985  0.6567413209999984  0.6122794750000011
  0.7050013539999966  0.6424555780000034  0.7096332309999980
  0.3192872999999992  0.4853127000000015  0.8069871069999976
  0.6621444230000009  0.5138842460000035  0.6122794750000011
  0.9907157419999990  0.4995985030000014  0.7096331719999966
  0.6050014500000032  0.3424555060000003  0.8069871069999976
  0.9478586319999991  0.3710270819999977  0.6122795340000025
  0.2764301300000014  0.3567412789999977  0.7096332309999980
  0.8907158370000019  0.1995983420000016  0.8069869879999985
  0.2335729599999965  0.2281699480000015  0.6122795340000025
  0.5621442790000017  0.2138841599999992  0.7096332309999980
  0.2264300579999983  0.9567411539999995  0.7583101990000003
  0.5692871810000000  0.9853126410000002  0.5636026860000030
  0.8978584999999981  0.9710269569999994  0.6609565019999977
  0.5121445660000035  0.8138840200000033  0.7583102580000016
  0.8550015690000023  0.8424556260000031  0.5636026860000030
  0.1835730080000033  0.8281698230000032  0.6609564419999998
  0.7978588340000030  0.6710268859999999  0.7583102580000016
  0.1407158370000019  0.6995984910000033  0.5636026860000030
  0.4692872760000029  0.6853126880000033  0.6609564419999998
  0.0835729839999999  0.5281698109999979  0.7583102580000016
  0.4264299869999988  0.5567413569999999  0.5636026860000030
  0.7550014259999998  0.5424556139999979  0.6609564419999998
  0.3692871330000003  0.3853127360000030  0.7583102580000016
  0.7121443750000012  0.4138842229999966  0.5636026860000030
  0.0407158140000021  0.3995984199999967  0.6609564419999998
  0.6550016400000018  0.2424555119999994  0.7583102580000016
  0.9978586439999972  0.2710270580000014  0.5636027460000008
  0.3264300820000017  0.2567412849999968  0.6609565019999977
  0.9407157899999987  0.0995984079999985  0.7583102580000016
  0.2835729119999968  0.1281700130000019  0.5636027460000008
  0.6121443509999978  0.1138842109999985  0.6609565019999977
  0.6764299869999988  0.0567412380000007  0.8069870469999998
  0.0192871089999969  0.0853128429999970  0.6122795340000025
  0.3478585479999978  0.0710269209999979  0.7096332309999980
  0.9621443750000012  0.9138840439999996  0.8069870469999998
  0.3050014969999992  0.9424556490000029  0.6122795340000025
  0.6335728170000010  0.9281697870000016  0.7096332309999980
  0.2478586439999972  0.7710268499999984  0.8069870469999998
  0.5907158850000016  0.7995984550000017  0.6122795340000025
  0.9192873240000026  0.7853125930000004  0.7096332309999980
  0.5335727929999976  0.6281697750000035  0.8069869879999985
  0.8764300349999985  0.6567412610000005  0.6122794750000011
  0.2050014730000029  0.6424555179999984  0.7096332309999980
  0.8192872999999992  0.4853126410000002  0.8069869879999985
  0.1621444230000009  0.5138841870000022  0.6122794750000011
  0.4907158609999982  0.4995984440000001  0.7096332309999980
  0.1050013300000003  0.3424554469999990  0.8069870469999998
  0.4478585720000012  0.3710270520000023  0.6122794750000011
  0.7764298920000030  0.3567412789999977  0.7096332309999980
  0.3907157180000027  0.1995984320000019  0.8069869879999985
  0.7335729600000036  0.2281699179999990  0.6122795340000025
  0.0621442790000017  0.2138841450000015  0.7096332309999980
 
  0.00000000E+00  0.00000000E+00  0.00000000E+00
  0.00000000E+00  0.00000000E+00  0.00000000E+00
  0.00000000E+00  0.00000000E+00  0.00000000E+00
  0.00000000E+00  0.00000000E+00  0.00000000E+00
  0.00000000E+00  0.00000000E+00  0.00000000E+00
  0.00000000E+00  0.00000000E+00  0.00000000E+00
  0.00000000E+00  0.00000000E+00  0.00000000E+00
  0.00000000E+00  0.00000000E+00  0.00000000E+00
  0.00000000E+00  0.00000000E+00  0.00000000E+00
  0.00000000E+00  0.00000000E+00  0.00000000E+00
  0.00000000E+00  0.00000000E+00  0.00000000E+00
  0.00000000E+00  0.00000000E+00  0.00000000E+00
  0.00000000E+00  0.00000000E+00  0.00000000E+00
  0.00000000E+00  0.00000000E+00  0.00000000E+00
  0.00000000E+00  0.00000000E+00  0.00000000E+00
  0.00000000E+00  0.00000000E+00  0.00000000E+00
  0.00000000E+00  0.00000000E+00  0.00000000E+00
  0.00000000E+00  0.00000000E+00  0.00000000E+00
  0.00000000E+00  0.00000000E+00  0.00000000E+00
  0.00000000E+00  0.00000000E+00  0.00000000E+00
  0.00000000E+00  0.00000000E+00  0.00000000E+00
  0.00000000E+00  0.00000000E+00  0.00000000E+00
  0.00000000E+00  0.00000000E+00  0.00000000E+00
  0.00000000E+00  0.00000000E+00  0.00000000E+00
  0.00000000E+00  0.00000000E+00  0.00000000E+00
  0.00000000E+00  0.00000000E+00  0.00000000E+00
  0.00000000E+00  0.00000000E+00  0.00000000E+00
  0.00000000E+00  0.00000000E+00  0.00000000E+00
  0.00000000E+00  0.00000000E+00  0.00000000E+00
  0.00000000E+00  0.00000000E+00  0.00000000E+00
  0.00000000E+00  0.00000000E+00  0.00000000E+00
  0.00000000E+00  0.00000000E+00  0.00000000E+00
  0.00000000E+00  0.00000000E+00  0.00000000E+00
  0.00000000E+00  0.00000000E+00  0.00000000E+00
  0.00000000E+00  0.00000000E+00  0.00000000E+00
  0.00000000E+00  0.00000000E+00  0.00000000E+00
  0.00000000E+00  0.00000000E+00  0.00000000E+00
  0.00000000E+00  0.00000000E+00  0.00000000E+00
  0.00000000E+00  0.00000000E+00  0.00000000E+00
  0.00000000E+00  0.00000000E+00  0.00000000E+00
  0.00000000E+00  0.00000000E+00  0.00000000E+00
  0.00000000E+00  0.00000000E+00  0.00000000E+00
  0.00000000E+00  0.00000000E+00  0.00000000E+00
  0.00000000E+00  0.00000000E+00  0.00000000E+00
  0.00000000E+00  0.00000000E+00  0.00000000E+00
  0.00000000E+00  0.00000000E+00  0.00000000E+00
  0.00000000E+00  0.00000000E+00  0.00000000E+00
  0.00000000E+00  0.00000000E+00  0.00000000E+00
  0.00000000E+00  0.00000000E+00  0.00000000E+00
  0.00000000E+00  0.00000000E+00  0.00000000E+00
  0.00000000E+00  0.00000000E+00  0.00000000E+00
  0.00000000E+00  0.00000000E+00  0.00000000E+00
  0.00000000E+00  0.00000000E+00  0.00000000E+00
  0.00000000E+00  0.00000000E+00  0.00000000E+00
  0.00000000E+00  0.00000000E+00  0.00000000E+00
  0.00000000E+00  0.00000000E+00  0.00000000E+00
  0.00000000E+00  0.00000000E+00  0.00000000E+00
  0.00000000E+00  0.00000000E+00  0.00000000E+00
  0.00000000E+00  0.00000000E+00  0.00000000E+00
  0.00000000E+00  0.00000000E+00  0.00000000E+00
  0.00000000E+00  0.00000000E+00  0.00000000E+00
  0.00000000E+00  0.00000000E+00  0.00000000E+00
  0.00000000E+00  0.00000000E+00  0.00000000E+00
  0.00000000E+00  0.00000000E+00  0.00000000E+00
  0.00000000E+00  0.00000000E+00  0.00000000E+00
  0.00000000E+00  0.00000000E+00  0.00000000E+00
  0.00000000E+00  0.00000000E+00  0.00000000E+00
  0.00000000E+00  0.00000000E+00  0.00000000E+00
  0.00000000E+00  0.00000000E+00  0.00000000E+00
  0.00000000E+00  0.00000000E+00  0.00000000E+00
  0.00000000E+00  0.00000000E+00  0.00000000E+00
  0.00000000E+00  0.00000000E+00  0.00000000E+00
  0.00000000E+00  0.00000000E+00  0.00000000E+00
  0.00000000E+00  0.00000000E+00  0.00000000E+00
  0.00000000E+00  0.00000000E+00  0.00000000E+00
  0.00000000E+00  0.00000000E+00  0.00000000E+00
  0.00000000E+00  0.00000000E+00  0.00000000E+00
  0.00000000E+00  0.00000000E+00  0.00000000E+00
  0.00000000E+00  0.00000000E+00  0.00000000E+00
  0.00000000E+00  0.00000000E+00  0.00000000E+00
  0.00000000E+00  0.00000000E+00  0.00000000E+00
  0.00000000E+00  0.00000000E+00  0.00000000E+00
  0.00000000E+00  0.00000000E+00  0.00000000E+00
  0.00000000E+00  0.00000000E+00  0.00000000E+00
  0.00000000E+00  0.00000000E+00  0.00000000E+00
  0.00000000E+00  0.00000000E+00  0.00000000E+00
  0.00000000E+00  0.00000000E+00  0.00000000E+00
  0.00000000E+00  0.00000000E+00  0.00000000E+00
  0.00000000E+00  0.00000000E+00  0.00000000E+00
  0.00000000E+00  0.00000000E+00  0.00000000E+00
  0.00000000E+00  0.00000000E+00  0.00000000E+00
  0.00000000E+00  0.00000000E+00  0.00000000E+00
  0.00000000E+00  0.00000000E+00  0.00000000E+00
  0.00000000E+00  0.00000000E+00  0.00000000E+00
  0.00000000E+00  0.00000000E+00  0.00000000E+00
  0.00000000E+00  0.00000000E+00  0.00000000E+00
  0.00000000E+00  0.00000000E+00  0.00000000E+00
  0.00000000E+00  0.00000000E+00  0.00000000E+00
  0.00000000E+00  0.00000000E+00  0.00000000E+00
  0.00000000E+00  0.00000000E+00  0.00000000E+00
  0.00000000E+00  0.00000000E+00  0.00000000E+00
  0.00000000E+00  0.00000000E+00  0.00000000E+00
  0.00000000E+00  0.00000000E+00  0.00000000E+00
  0.00000000E+00  0.00000000E+00  0.00000000E+00
  0.00000000E+00  0.00000000E+00  0.00000000E+00
  0.00000000E+00  0.00000000E+00  0.00000000E+00
  0.00000000E+00  0.00000000E+00  0.00000000E+00
  0.00000000E+00  0.00000000E+00  0.00000000E+00
  0.00000000E+00  0.00000000E+00  0.00000000E+00
  0.00000000E+00  0.00000000E+00  0.00000000E+00
  0.00000000E+00  0.00000000E+00  0.00000000E+00
  0.00000000E+00  0.00000000E+00  0.00000000E+00
  0.00000000E+00  0.00000000E+00  0.00000000E+00
  0.00000000E+00  0.00000000E+00  0.00000000E+00
  0.00000000E+00  0.00000000E+00  0.00000000E+00
  0.00000000E+00  0.00000000E+00  0.00000000E+00
  0.00000000E+00  0.00000000E+00  0.00000000E+00
  0.00000000E+00  0.00000000E+00  0.00000000E+00
  0.00000000E+00  0.00000000E+00  0.00000000E+00
  0.00000000E+00  0.00000000E+00  0.00000000E+00
