Si+Sn                                   
   1.00000000000000     
    10.8620004649999995    0.0000000000000000    0.0000000000000000
     0.0000000000000000   16.2930011750000006    0.0000000000000000
     0.0000000000000000    0.0000000000000000   18.2601470950000007
   Si   Sn
    72    72
Direct
  0.0000000000000000  0.9940677290000011  0.0000000000000000
  0.0000000000000000  0.8274010419999982  0.1487118450000011
  0.0000000000000000  0.6607342960000011  0.2974236909999988
  0.5000000000000000  0.9940677290000011  0.0000000000000000
  0.5000000000000000  0.8274010419999982  0.1487118450000011
  0.5000000000000000  0.6607342960000011  0.2974236909999988
  0.0000000000000000  0.3274010720000007  0.0000000000000000
  0.0000000000000000  0.1607343849999978  0.1487118450000011
  0.0000000000000000  0.9940676690000032  0.2974236909999988
  0.5000000000000000  0.3274010720000007  0.0000000000000000
  0.5000000000000000  0.1607343849999978  0.1487118450000011
  0.5000000000000000  0.9940676690000032  0.2974236909999988
  0.0000000000000000  0.6607344749999982  0.0000000000000000
  0.0000000000000000  0.4940677290000011  0.1487118450000011
  0.0000000000000000  0.3274010419999982  0.2974236909999988
  0.5000000000000000  0.6607344749999982  0.0000000000000000
  0.5000000000000000  0.4940677290000011  0.1487118450000011
  0.5000000000000000  0.3274010419999982  0.2974236909999988
  0.1250000000000000  0.0774010570000030  0.0743559229999988
  0.1250000000000000  0.9107343550000024  0.2230677749999970
  0.1250000000000000  0.7440676690000032  0.3717796210000017
  0.6250000000000000  0.0774010570000030  0.0743559229999988
  0.6250000000000000  0.9107343550000024  0.2230677749999970
  0.6250000000000000  0.7440676690000032  0.3717796210000017
  0.1250000000000000  0.4107343849999978  0.0743559229999988
  0.1250000000000000  0.2440676690000032  0.2230677749999970
  0.1250000000000000  0.0774009530000015  0.3717796210000017
  0.6250000000000000  0.4107343849999978  0.0743559229999988
  0.6250000000000000  0.2440676690000032  0.2230677749999970
  0.6250000000000000  0.0774009530000015  0.3717796210000017
  0.1250000000000000  0.7440677880000024  0.0743559229999988
  0.1250000000000000  0.5774010419999982  0.2230677749999970
  0.1250000000000000  0.4107343259999965  0.3717796210000017
  0.6250000000000000  0.7440677880000024  0.0743559229999988
  0.6250000000000000  0.5774010419999982  0.2230677749999970
  0.6250000000000000  0.4107343259999965  0.3717796210000017
  0.2500000000000000  0.1607343849999978  0.0000000000000000
  0.2500000000000000  0.9940676690000032  0.1487118450000011
  0.2500000000000000  0.8274009820000003  0.2974236909999988
  0.7500000599999979  0.1607343849999978  0.0000000000000000
  0.7500000599999979  0.9940676690000032  0.1487118450000011
  0.7500000599999979  0.8274009820000003  0.2974236909999988
  0.2500000000000000  0.4940677290000011  0.0000000000000000
  0.2500000000000000  0.3274010419999982  0.1487118450000011
  0.2500000000000000  0.1607343259999965  0.2974236909999988
  0.7500000599999979  0.4940677290000011  0.0000000000000000
  0.7500000599999979  0.3274010419999982  0.1487118450000011
  0.7500000599999979  0.1607343259999965  0.2974236909999988
  0.2500000000000000  0.8274011020000032  0.0000000000000000
  0.2500000000000000  0.6607344150000003  0.1487118450000011
  0.2500000000000000  0.4940677290000011  0.2974236909999988
  0.7500000599999979  0.8274011020000032  0.0000000000000000
  0.7500000599999979  0.6607344150000003  0.1487118450000011
  0.7500000599999979  0.4940677290000011  0.2974236909999988
  0.3750000300000025  0.2440677290000011  0.0743559229999988
  0.3750000300000025  0.0774010200000035  0.2230677749999970
  0.3750000300000025  0.9107342960000011  0.3717796210000017
  0.8750000599999979  0.2440677290000011  0.0743559229999988
  0.8750000599999979  0.0774010200000035  0.2230677749999970
  0.8750000599999979  0.9107342960000011  0.3717796210000017
  0.3750000300000025  0.5774011609999974  0.0743559229999988
  0.3750000300000025  0.4107344749999982  0.2230677749999970
  0.3750000300000025  0.2440677140000034  0.3717796210000017
  0.8750000599999979  0.5774011609999974  0.0743559229999988
  0.8750000599999979  0.4107344749999982  0.2230677749999970
  0.8750000599999979  0.2440677140000034  0.3717796210000017
  0.3750000300000025  0.9107343550000024  0.0743559229999988
  0.3750000300000025  0.7440676690000032  0.2230677749999970
  0.3750000300000025  0.5774009229999990  0.3717796210000017
  0.8750000599999979  0.9107343550000024  0.0743559229999988
  0.8750000599999979  0.7440676690000032  0.2230677749999970
  0.8750000599999979  0.5774009229999990  0.3717796210000017
  0.0000000000000000  0.9820204970000006  0.3717796210000017
  0.9999999400000021  0.7320203780000014  0.4974237079999995
  0.9999998810000008  0.4820202590000022  0.6230677960000008
  0.9999998210000030  0.2320200799999981  0.7487118239999973
  0.9999998210000030  0.9820200200000002  0.8743558529999973
  0.9999997620000016  0.7320199010000010  0.0000000000000000
  0.3333334029999975  0.6486871840000035  0.3717796210000017
  0.3333333730000021  0.3986871540000010  0.4974237079999995
  0.3333332839999983  0.1486870049999993  0.6230677369999995
  0.3333332240000004  0.8986868860000001  0.7487117650000030
  0.3333331640000026  0.6486868260000023  0.8743558529999973
  0.3333332240000004  0.3986867070000031  0.9999999400000021
  0.6666667459999971  0.3153538409999967  0.3717796210000017
  0.6666666870000029  0.0653537880000030  0.4974237079999995
  0.6666666269999979  0.8153536319999972  0.6230677369999995
  0.6666666269999979  0.5653535129999980  0.7487117650000030
  0.6666665670000000  0.3153534530000002  0.8743558529999973
  0.6666666269999979  0.0653533340000010  0.9999999400000021
  0.0000000000000000  0.4820204970000006  0.3717796210000017
  0.9999999400000021  0.2320204379999993  0.4974237079999995
  0.9999998810000008  0.9820203190000001  0.6230677960000008
  0.9999998210000030  0.7320201400000030  0.7487118239999973
  0.9999997620000016  0.4820201400000030  0.8743558529999973
  0.9999997620000016  0.2320199609999989  0.9999999400000021
  0.3333333730000021  0.1486871689999987  0.3717796210000017
  0.3333333129999971  0.8986871239999985  0.4974237079999995
  0.3333332540000029  0.6486870049999993  0.6230677960000008
  0.3333332540000029  0.3986867670000009  0.7487117650000030
  0.3333332240000004  0.1486867070000031  0.8743558529999973
  0.3333331640000026  0.8986866469999981  0.9999999400000021
  0.6666668060000021  0.8153539300000006  0.3717796210000017
  0.6666667459999971  0.5653538110000014  0.4974237079999995
  0.6666666870000029  0.3153536920000022  0.6230677960000008
  0.6666666269999979  0.0653535650000023  0.7487118239999973
  0.6666665079999987  0.8153535129999980  0.8743558529999973
  0.6666665079999987  0.5653533939999988  0.9999999400000021
  0.0833332759999976  0.6486872429999977  0.3717796800000031
  0.0833332540000029  0.3986872429999977  0.4974237079999995
  0.0833331870000009  0.1486870800000020  0.6230677960000008
  0.0833331569999984  0.8986869450000015  0.7487117650000030
  0.0833330680000017  0.6486868860000001  0.8743558529999973
  0.0833330820000029  0.3986867670000009  0.9999999400000021
  0.4166666570000004  0.3153538409999967  0.3717796800000031
  0.4166666269999979  0.0653537660000012  0.4974237079999995
  0.4166665670000000  0.8153536319999972  0.6230677960000008
  0.4166665079999987  0.5653535129999980  0.7487117650000030
  0.4166664480000009  0.3153534530000002  0.8743558529999973
  0.4166664780000033  0.0653533340000010  0.9999999400000021
  0.7500000000000000  0.9820204379999993  0.3717796800000031
  0.7500000000000000  0.7320203780000014  0.4974237079999995
  0.7499999400000021  0.4820202590000022  0.6230677960000008
  0.7499998210000030  0.2320201400000030  0.7487117650000030
  0.7499998210000030  0.9820200200000002  0.8743558529999973
  0.7499998210000030  0.7320199010000010  0.9999999400000021
  0.0833333280000019  0.1486871540000010  0.3717796210000017
  0.0833332910000024  0.8986870649999972  0.4974237079999995
  0.0833332690000006  0.6486869450000015  0.6230677960000008
  0.0833331870000009  0.3986868260000023  0.7487118239999973
  0.0833331270000031  0.1486867670000009  0.8743558529999973
  0.0833330899999964  0.8986866469999981  0.9999999400000021
  0.4166667160000017  0.8153538110000014  0.3717796210000017
  0.4166666570000004  0.5653536920000022  0.4974237079999995
  0.4166666269999979  0.3153536020000018  0.6230677960000008
  0.4166665970000025  0.0653534309999984  0.7487118239999973
  0.4166665079999987  0.8153533939999988  0.8743558529999973
  0.4166665380000012  0.5653532740000031  0.9999999400000021
  0.7500000000000000  0.4820204970000006  0.3717796210000017
  0.7499999400000021  0.2320204230000016  0.4974237079999995
  0.7499999400000021  0.9820203190000001  0.6230677960000008
  0.7499998210000030  0.7320201400000030  0.7487118239999973
  0.7499997620000016  0.4820200799999981  0.8743558529999973
  0.7499997620000016  0.2320199609999989  0.9999999400000021
 
  0.00000000E+00  0.00000000E+00  0.00000000E+00
  0.00000000E+00  0.00000000E+00  0.00000000E+00
  0.00000000E+00  0.00000000E+00  0.00000000E+00
  0.00000000E+00  0.00000000E+00  0.00000000E+00
  0.00000000E+00  0.00000000E+00  0.00000000E+00
  0.00000000E+00  0.00000000E+00  0.00000000E+00
  0.00000000E+00  0.00000000E+00  0.00000000E+00
  0.00000000E+00  0.00000000E+00  0.00000000E+00
  0.00000000E+00  0.00000000E+00  0.00000000E+00
  0.00000000E+00  0.00000000E+00  0.00000000E+00
  0.00000000E+00  0.00000000E+00  0.00000000E+00
  0.00000000E+00  0.00000000E+00  0.00000000E+00
  0.00000000E+00  0.00000000E+00  0.00000000E+00
  0.00000000E+00  0.00000000E+00  0.00000000E+00
  0.00000000E+00  0.00000000E+00  0.00000000E+00
  0.00000000E+00  0.00000000E+00  0.00000000E+00
  0.00000000E+00  0.00000000E+00  0.00000000E+00
  0.00000000E+00  0.00000000E+00  0.00000000E+00
  0.00000000E+00  0.00000000E+00  0.00000000E+00
  0.00000000E+00  0.00000000E+00  0.00000000E+00
  0.00000000E+00  0.00000000E+00  0.00000000E+00
  0.00000000E+00  0.00000000E+00  0.00000000E+00
  0.00000000E+00  0.00000000E+00  0.00000000E+00
  0.00000000E+00  0.00000000E+00  0.00000000E+00
  0.00000000E+00  0.00000000E+00  0.00000000E+00
  0.00000000E+00  0.00000000E+00  0.00000000E+00
  0.00000000E+00  0.00000000E+00  0.00000000E+00
  0.00000000E+00  0.00000000E+00  0.00000000E+00
  0.00000000E+00  0.00000000E+00  0.00000000E+00
  0.00000000E+00  0.00000000E+00  0.00000000E+00
  0.00000000E+00  0.00000000E+00  0.00000000E+00
  0.00000000E+00  0.00000000E+00  0.00000000E+00
  0.00000000E+00  0.00000000E+00  0.00000000E+00
  0.00000000E+00  0.00000000E+00  0.00000000E+00
  0.00000000E+00  0.00000000E+00  0.00000000E+00
  0.00000000E+00  0.00000000E+00  0.00000000E+00
  0.00000000E+00  0.00000000E+00  0.00000000E+00
  0.00000000E+00  0.00000000E+00  0.00000000E+00
  0.00000000E+00  0.00000000E+00  0.00000000E+00
  0.00000000E+00  0.00000000E+00  0.00000000E+00
  0.00000000E+00  0.00000000E+00  0.00000000E+00
  0.00000000E+00  0.00000000E+00  0.00000000E+00
  0.00000000E+00  0.00000000E+00  0.00000000E+00
  0.00000000E+00  0.00000000E+00  0.00000000E+00
  0.00000000E+00  0.00000000E+00  0.00000000E+00
  0.00000000E+00  0.00000000E+00  0.00000000E+00
  0.00000000E+00  0.00000000E+00  0.00000000E+00
  0.00000000E+00  0.00000000E+00  0.00000000E+00
  0.00000000E+00  0.00000000E+00  0.00000000E+00
  0.00000000E+00  0.00000000E+00  0.00000000E+00
  0.00000000E+00  0.00000000E+00  0.00000000E+00
  0.00000000E+00  0.00000000E+00  0.00000000E+00
  0.00000000E+00  0.00000000E+00  0.00000000E+00
  0.00000000E+00  0.00000000E+00  0.00000000E+00
  0.00000000E+00  0.00000000E+00  0.00000000E+00
  0.00000000E+00  0.00000000E+00  0.00000000E+00
  0.00000000E+00  0.00000000E+00  0.00000000E+00
  0.00000000E+00  0.00000000E+00  0.00000000E+00
  0.00000000E+00  0.00000000E+00  0.00000000E+00
  0.00000000E+00  0.00000000E+00  0.00000000E+00
  0.00000000E+00  0.00000000E+00  0.00000000E+00
  0.00000000E+00  0.00000000E+00  0.00000000E+00
  0.00000000E+00  0.00000000E+00  0.00000000E+00
  0.00000000E+00  0.00000000E+00  0.00000000E+00
  0.00000000E+00  0.00000000E+00  0.00000000E+00
  0.00000000E+00  0.00000000E+00  0.00000000E+00
  0.00000000E+00  0.00000000E+00  0.00000000E+00
  0.00000000E+00  0.00000000E+00  0.00000000E+00
  0.00000000E+00  0.00000000E+00  0.00000000E+00
  0.00000000E+00  0.00000000E+00  0.00000000E+00
  0.00000000E+00  0.00000000E+00  0.00000000E+00
  0.00000000E+00  0.00000000E+00  0.00000000E+00
  0.00000000E+00  0.00000000E+00  0.00000000E+00
  0.00000000E+00  0.00000000E+00  0.00000000E+00
  0.00000000E+00  0.00000000E+00  0.00000000E+00
  0.00000000E+00  0.00000000E+00  0.00000000E+00
  0.00000000E+00  0.00000000E+00  0.00000000E+00
  0.00000000E+00  0.00000000E+00  0.00000000E+00
  0.00000000E+00  0.00000000E+00  0.00000000E+00
  0.00000000E+00  0.00000000E+00  0.00000000E+00
  0.00000000E+00  0.00000000E+00  0.00000000E+00
  0.00000000E+00  0.00000000E+00  0.00000000E+00
  0.00000000E+00  0.00000000E+00  0.00000000E+00
  0.00000000E+00  0.00000000E+00  0.00000000E+00
  0.00000000E+00  0.00000000E+00  0.00000000E+00
  0.00000000E+00  0.00000000E+00  0.00000000E+00
  0.00000000E+00  0.00000000E+00  0.00000000E+00
  0.00000000E+00  0.00000000E+00  0.00000000E+00
  0.00000000E+00  0.00000000E+00  0.00000000E+00
  0.00000000E+00  0.00000000E+00  0.00000000E+00
  0.00000000E+00  0.00000000E+00  0.00000000E+00
  0.00000000E+00  0.00000000E+00  0.00000000E+00
  0.00000000E+00  0.00000000E+00  0.00000000E+00
  0.00000000E+00  0.00000000E+00  0.00000000E+00
  0.00000000E+00  0.00000000E+00  0.00000000E+00
  0.00000000E+00  0.00000000E+00  0.00000000E+00
  0.00000000E+00  0.00000000E+00  0.00000000E+00
  0.00000000E+00  0.00000000E+00  0.00000000E+00
  0.00000000E+00  0.00000000E+00  0.00000000E+00
  0.00000000E+00  0.00000000E+00  0.00000000E+00
  0.00000000E+00  0.00000000E+00  0.00000000E+00
  0.00000000E+00  0.00000000E+00  0.00000000E+00
  0.00000000E+00  0.00000000E+00  0.00000000E+00
  0.00000000E+00  0.00000000E+00  0.00000000E+00
  0.00000000E+00  0.00000000E+00  0.00000000E+00
  0.00000000E+00  0.00000000E+00  0.00000000E+00
  0.00000000E+00  0.00000000E+00  0.00000000E+00
  0.00000000E+00  0.00000000E+00  0.00000000E+00
  0.00000000E+00  0.00000000E+00  0.00000000E+00
  0.00000000E+00  0.00000000E+00  0.00000000E+00
  0.00000000E+00  0.00000000E+00  0.00000000E+00
  0.00000000E+00  0.00000000E+00  0.00000000E+00
  0.00000000E+00  0.00000000E+00  0.00000000E+00
  0.00000000E+00  0.00000000E+00  0.00000000E+00
  0.00000000E+00  0.00000000E+00  0.00000000E+00
  0.00000000E+00  0.00000000E+00  0.00000000E+00
  0.00000000E+00  0.00000000E+00  0.00000000E+00
  0.00000000E+00  0.00000000E+00  0.00000000E+00
  0.00000000E+00  0.00000000E+00  0.00000000E+00
  0.00000000E+00  0.00000000E+00  0.00000000E+00
  0.00000000E+00  0.00000000E+00  0.00000000E+00
  0.00000000E+00  0.00000000E+00  0.00000000E+00
  0.00000000E+00  0.00000000E+00  0.00000000E+00
  0.00000000E+00  0.00000000E+00  0.00000000E+00
  0.00000000E+00  0.00000000E+00  0.00000000E+00
  0.00000000E+00  0.00000000E+00  0.00000000E+00
  0.00000000E+00  0.00000000E+00  0.00000000E+00
  0.00000000E+00  0.00000000E+00  0.00000000E+00
  0.00000000E+00  0.00000000E+00  0.00000000E+00
  0.00000000E+00  0.00000000E+00  0.00000000E+00
  0.00000000E+00  0.00000000E+00  0.00000000E+00
  0.00000000E+00  0.00000000E+00  0.00000000E+00
  0.00000000E+00  0.00000000E+00  0.00000000E+00
  0.00000000E+00  0.00000000E+00  0.00000000E+00
  0.00000000E+00  0.00000000E+00  0.00000000E+00
  0.00000000E+00  0.00000000E+00  0.00000000E+00
  0.00000000E+00  0.00000000E+00  0.00000000E+00
  0.00000000E+00  0.00000000E+00  0.00000000E+00
  0.00000000E+00  0.00000000E+00  0.00000000E+00
  0.00000000E+00  0.00000000E+00  0.00000000E+00
  0.00000000E+00  0.00000000E+00  0.00000000E+00
  0.00000000E+00  0.00000000E+00  0.00000000E+00
  0.00000000E+00  0.00000000E+00  0.00000000E+00
  0.00000000E+00  0.00000000E+00  0.00000000E+00
