Sn+Ge
    1.000000000
   12.978400230    0.000000000    0.000000000
  -12.978400230   14.510293007    0.000000000
    0.000000000    0.000000000    9.190412521
Sn  Ge 
24     24
Direct
    0.474358499    0.974358499    0.000000000
    0.174358353    0.674358428    0.157885119
    0.874358296    0.374358356    0.315770268
    0.974358499    0.974358499    0.000000000
    0.674358368    0.674358428    0.157885119
    0.374358296    0.374358356    0.315770268
    0.699358463    0.324358493    0.078942411
    0.399358362    0.024358446    0.236827537
    0.099358320    0.724358439    0.394712657
    0.199358478    0.324358493    0.078942411
    0.899358392    0.024358446    0.236827537
    0.599358320    0.724358439    0.394712657
    0.724358439    0.474358499    0.000000016
    0.424358338    0.174358398    0.157885134
    0.124358192    0.874358296    0.315770268
    0.224358469    0.474358499    0.000000016
    0.924358368    0.174358398    0.157885134
    0.624358237    0.874358296    0.315770268
    0.949358582    0.824358582    0.078942418
    0.649358511    0.524358571    0.236827508
    0.349358380    0.224358499    0.394712657
    0.449358791    0.824358582    0.078942418
    0.149358645    0.524358571    0.236827508
    0.849358559    0.224358499    0.394712657
    0.337348342    0.352051020    0.556860566
    0.220681667    0.935384333    0.613058805
    0.104014874    0.518717587    0.669257104
    0.987348020    0.102050781    0.725455582
    0.870681345    0.685384214    0.781653762
    0.754014492    0.268717289    0.837852120
    0.837348342    0.602051020    0.556860566
    0.720681548    0.185384274    0.613058805
    0.604014814    0.768717587    0.669257224
    0.487348020    0.352050781    0.725455403
    0.370681286    0.935384095    0.781653702
    0.254014611    0.518717229    0.837851942
    0.837348342    0.852051020    0.556860626
    0.720681548    0.435384274    0.613058805
    0.604014754    0.018717527    0.669257224
    0.487348050    0.602050781    0.725455523
    0.370681345    0.185384035    0.781653702
    0.254014492    0.768717110    0.837852001
    0.337348223    0.102051020    0.556860626
    0.220681548    0.685384274    0.613058925
    0.104014874    0.268717527    0.669257224
    0.987348020    0.852050781    0.725455523
    0.870681286    0.435384035    0.781653762
    0.754014492    0.018717051    0.837852120
