Ge+Sn                                   
   1.00000000000000     
    16.0026760099999983    0.0000000000000000    0.0000000000000000
     8.0013380049999991   13.8587245939999999    0.0000000000000000
     0.0000000000000000    0.0000000000000000   15.7794208529999995
   Ge   Sn
    96    72
Direct
  0.3108832240000012  0.3108831640000034  0.4140244720000013
  0.9775500300000033  0.9775500300000033  0.0000000329999992
  0.6442165369999984  0.6442165970000033  0.2070122809999972
  0.8108831640000034  0.3108831640000034  0.4140244720000013
  0.4775500000000008  0.9775500300000033  0.0000000430000000
  0.1442165819999985  0.6442165970000033  0.2070122809999972
  0.3108831640000034  0.8108831640000034  0.4140244720000013
  0.9775500300000033  0.4775500000000008  0.0000000400000033
  0.6442165970000033  0.1442165819999985  0.2070122809999972
  0.8108831640000034  0.8108831640000034  0.4140244720000013
  0.4775500000000008  0.4775500000000008  0.0000000000000000
  0.1442165670000009  0.1442165670000009  0.2070122359999971
  0.4775497910000013  0.4775497319999999  0.4657776060000032
  0.1442166860000000  0.1442166120000010  0.0517531070000032
  0.8108832839999991  0.8108832240000012  0.2587653100000011
  0.9775497910000013  0.4775496720000021  0.4657776060000032
  0.6442166570000012  0.1442166269999987  0.0517531070000032
  0.3108832839999991  0.8108832240000012  0.2587653100000011
  0.4775496720000021  0.9775497910000013  0.4657776060000032
  0.1442166269999987  0.6442166570000012  0.0517531070000032
  0.8108832240000012  0.3108832839999991  0.2587653100000011
  0.9775496720000021  0.9775497910000013  0.4657775760000007
  0.6442165970000033  0.6442166570000012  0.0517531070000032
  0.3108831640000034  0.3108832539999966  0.2587652799999987
  0.5608831640000034  0.5608831640000034  0.4140245019999966
  0.2275500149999985  0.2275500149999985  0.0000000450000002
  0.8942165970000033  0.8942165970000033  0.2070122359999971
  0.0608832129999968  0.5608831640000034  0.4140245620000016
  0.7275500300000033  0.2275500450000010  0.0000000450000002
  0.3942165970000033  0.8942165970000033  0.2070122809999972
  0.5608831640000034  0.0608831759999973  0.4140244720000013
  0.2275500149999985  0.7275499699999983  0.0000000149999977
  0.8942165369999984  0.3942165970000033  0.2070122359999971
  0.0608831899999984  0.0608831050000020  0.4140244720000013
  0.7275500300000033  0.7275499109999970  0.0000000289999988
  0.3942166269999987  0.3942165670000009  0.2070122809999972
  0.7275497910000013  0.7275497910000013  0.4657775160000028
  0.3942166269999987  0.3942166269999987  0.0517530260000001
  0.0608831939999988  0.0608831899999984  0.2587652799999987
  0.2275497910000013  0.7275497910000013  0.4657775160000028
  0.8942165970000033  0.3942166269999987  0.0517530520000022
  0.5608831640000034  0.0608831899999984  0.2587652799999987
  0.7275497910000013  0.2275498509999991  0.4657775160000028
  0.3942166269999987  0.8942166570000012  0.0517530520000022
  0.0608832019999994  0.5608832839999991  0.2587652799999987
  0.2275498509999991  0.2275498509999991  0.4657775160000028
  0.8942167160000025  0.8942166570000012  0.0517530369999974
  0.5608832839999991  0.5608832839999991  0.2587652799999987
  0.3108831640000034  0.5608831640000034  0.4140244720000013
  0.9775500300000033  0.2275500149999985  0.0000000249999985
  0.6442165369999984  0.8942165970000033  0.2070122809999972
  0.8108831640000034  0.5608831640000034  0.4140245019999966
  0.4775500300000033  0.2275500149999985  0.0000000349999993
  0.1442165970000033  0.8942165970000033  0.2070122809999972
  0.3108831640000034  0.0608831759999973  0.4140244720000013
  0.9775500300000033  0.7275499699999983  0.0000000349999993
  0.6442165970000033  0.3942165970000033  0.2070122809999972
  0.8108831640000034  0.0608830899999973  0.4140244720000013
  0.4775500000000008  0.7275499109999970  0.0000000289999988
  0.1442166120000010  0.3942165369999984  0.2070122359999971
  0.4775497910000013  0.7275497910000013  0.4657775160000028
  0.1442166120000010  0.3942165970000033  0.0517530520000022
  0.8108831640000034  0.0608831899999984  0.2587652799999987
  0.9775497319999999  0.7275497910000013  0.4657775160000028
  0.6442165970000033  0.3942166269999987  0.0517530520000022
  0.3108831640000034  0.0608831899999984  0.2587652799999987
  0.4775497319999999  0.2275498509999991  0.4657774570000015
  0.1442166269999987  0.8942166570000012  0.0517530369999974
  0.8108831640000034  0.5608832839999991  0.2587652799999987
  0.9775497910000013  0.2275498509999991  0.4657774570000015
  0.6442166570000012  0.8942166570000012  0.0517530260000001
  0.3108832240000012  0.5608832839999991  0.2587652799999987
  0.5608831050000020  0.3108831640000034  0.4140244720000013
  0.2275500149999985  0.9775500300000033  0.0000000280000023
  0.8942165970000033  0.6442165970000033  0.2070122809999972
  0.0608831830000014  0.3108831640000034  0.4140245019999966
  0.7275499699999983  0.9775500300000033  0.0000000380000031
  0.3942166269999987  0.6442165970000033  0.2070122809999972
  0.5608831640000034  0.8108831640000034  0.4140245019999966
  0.2275500000000008  0.4775500000000008  0.0000000400000033
  0.8942165970000033  0.1442165819999985  0.2070122809999972
  0.0608831790000011  0.8108831050000020  0.4140244720000013
  0.7275499699999983  0.4775499400000029  0.0000000180000015
  0.3942165970000033  0.1442165369999984  0.2070122359999971
  0.7275497910000013  0.4775498509999991  0.4657776060000032
  0.3942166860000000  0.1442167160000025  0.0517530890000018
  0.0608832839999991  0.8108833430000004  0.2587653100000011
  0.2275496720000021  0.4775498509999991  0.4657776060000032
  0.8942166570000012  0.1442167310000002  0.0517530959999988
  0.5608832839999991  0.8108833430000004  0.2587652799999987
  0.7275497910000013  0.9775498509999991  0.4657775760000007
  0.3942166860000000  0.6442167160000025  0.0517531070000032
  0.0608832759999984  0.3108833730000029  0.2587653100000011
  0.2275497319999999  0.9775497910000013  0.4657776060000032
  0.8942166570000012  0.6442166570000012  0.0517530890000018
  0.5608832839999991  0.3108832839999991  0.2587652799999987
  0.0000000000000000  0.3209241030000030  0.9406419990000003
  0.0000000000000000  0.9875907899999987  0.4657776649999974
  0.0000000000000000  0.6542574169999966  0.7032098769999990
  0.3333333429999996  0.6542574759999980  0.9406418800000012
  0.3333333429999996  0.3209241329999983  0.4657776649999974
  0.3333333429999996  0.9875907899999987  0.7032098769999990
  0.6666666870000029  0.9875907899999987  0.9406419990000003
  0.6666666870000029  0.6542574759999980  0.4657776649999974
  0.6666666870000029  0.3209241329999983  0.7032098769999990
  0.3333333429999996  0.3209241630000008  0.0000000000000000
  0.3333333429999996  0.9875907899999987  0.5251357559999974
  0.3333333429999996  0.6542574169999966  0.7625678779999987
  0.0000000000000000  0.9875907899999987  0.0000000000000000
  0.0000000000000000  0.6542574169999966  0.5251357559999974
  0.0000000000000000  0.3209240730000005  0.7625678779999987
  0.6666667459999971  0.6542574169999966  0.0000000000000000
  0.6666667459999971  0.3209240730000005  0.5251357559999974
  0.6666667459999971  0.9875907300000009  0.7625678779999987
  0.4999999699999975  0.3209241030000030  0.9406418800000012
  0.4999999699999975  0.9875907899999987  0.4657776649999974
  0.4999999699999975  0.6542574169999966  0.7032098769999990
  0.1666666719999981  0.9875907899999987  0.9406418800000012
  0.1666666870000029  0.6542574759999980  0.4657776649999974
  0.1666666870000029  0.3209241329999983  0.7032098769999990
  0.8333333730000021  0.6542574759999980  0.9406419990000003
  0.8333333730000021  0.3209241630000008  0.4657776649999974
  0.8333333730000021  0.9875907899999987  0.7032098769999990
  0.1666666570000004  0.6542575360000029  0.0000000000000000
  0.1666666719999981  0.3209241329999983  0.5251357559999974
  0.1666666719999981  0.9875907899999987  0.7625678779999987
  0.8333333730000021  0.3209241630000008  0.9999998810000008
  0.8333333730000021  0.9875907899999987  0.5251356360000017
  0.8333333730000021  0.6542574169999966  0.7625677589999995
  0.5000000000000000  0.9875907899999987  0.0000000000000000
  0.5000000000000000  0.6542574169999966  0.5251356360000017
  0.5000000000000000  0.3209241030000030  0.7625677589999995
  0.1666666719999981  0.4875907899999987  0.9406419990000003
  0.1666666719999981  0.1542574759999980  0.4657776649999974
  0.1666666719999981  0.8209241030000030  0.7032098769999990
  0.4999999699999975  0.8209241030000030  0.9406419990000003
  0.4999999699999975  0.4875907899999987  0.4657776649999974
  0.4999999699999975  0.1542574169999966  0.7032098769999990
  0.8333332540000029  0.1542575060000004  0.9406418800000012
  0.8333332540000029  0.8209242220000021  0.4657776060000032
  0.8333332540000029  0.4875909089999979  0.7032097579999999
  0.4999999699999975  0.4875908490000000  0.0000000000000000
  0.4999999699999975  0.1542574469999991  0.5251357559999974
  0.4999999699999975  0.8209241030000030  0.7625678779999987
  0.1666666420000027  0.1542575060000004  0.9999998810000008
  0.1666666420000027  0.8209241630000008  0.5251356360000017
  0.1666666420000027  0.4875908200000012  0.7625677589999995
  0.8333333730000021  0.8209241030000030  0.0000000000000000
  0.8333333730000021  0.4875907600000033  0.5251357559999974
  0.8333333730000021  0.1542574019999989  0.7625678779999987
  0.0000000000000000  0.8209241030000030  0.9406419990000003
  0.0000000000000000  0.4875907600000033  0.4657776649999974
  0.0000000000000000  0.1542574169999966  0.7032098769999990
  0.6666666870000029  0.4875907899999987  0.9406418800000012
  0.6666666870000029  0.1542574610000003  0.4657776649999974
  0.6666666870000029  0.8209241030000030  0.7032098769999990
  0.3333333429999996  0.1542573420000011  0.9406419990000003
  0.3333333429999996  0.8209240440000016  0.4657776649999974
  0.3333333429999996  0.4875907300000009  0.7032097579999999
  0.0000000000000000  0.4875908490000000  0.0000000000000000
  0.0000000000000000  0.1542575060000004  0.5251357559999974
  0.0000000000000000  0.8209241630000008  0.7625678779999987
  0.3333333429999996  0.8209241630000008  0.0000000000000000
  0.3333333429999996  0.4875908200000012  0.5251357559999974
  0.3333333429999996  0.1542574910000027  0.7625678779999987
  0.6666666870000029  0.1542575510000006  0.0000000000000000
  0.6666666870000029  0.8209241630000008  0.5251357559999974
  0.6666666870000029  0.4875908490000000  0.7625678779999987
 
  0.00000000E+00  0.00000000E+00  0.00000000E+00
  0.00000000E+00  0.00000000E+00  0.00000000E+00
  0.00000000E+00  0.00000000E+00  0.00000000E+00
  0.00000000E+00  0.00000000E+00  0.00000000E+00
  0.00000000E+00  0.00000000E+00  0.00000000E+00
  0.00000000E+00  0.00000000E+00  0.00000000E+00
  0.00000000E+00  0.00000000E+00  0.00000000E+00
  0.00000000E+00  0.00000000E+00  0.00000000E+00
  0.00000000E+00  0.00000000E+00  0.00000000E+00
  0.00000000E+00  0.00000000E+00  0.00000000E+00
  0.00000000E+00  0.00000000E+00  0.00000000E+00
  0.00000000E+00  0.00000000E+00  0.00000000E+00
  0.00000000E+00  0.00000000E+00  0.00000000E+00
  0.00000000E+00  0.00000000E+00  0.00000000E+00
  0.00000000E+00  0.00000000E+00  0.00000000E+00
  0.00000000E+00  0.00000000E+00  0.00000000E+00
  0.00000000E+00  0.00000000E+00  0.00000000E+00
  0.00000000E+00  0.00000000E+00  0.00000000E+00
  0.00000000E+00  0.00000000E+00  0.00000000E+00
  0.00000000E+00  0.00000000E+00  0.00000000E+00
  0.00000000E+00  0.00000000E+00  0.00000000E+00
  0.00000000E+00  0.00000000E+00  0.00000000E+00
  0.00000000E+00  0.00000000E+00  0.00000000E+00
  0.00000000E+00  0.00000000E+00  0.00000000E+00
  0.00000000E+00  0.00000000E+00  0.00000000E+00
  0.00000000E+00  0.00000000E+00  0.00000000E+00
  0.00000000E+00  0.00000000E+00  0.00000000E+00
  0.00000000E+00  0.00000000E+00  0.00000000E+00
  0.00000000E+00  0.00000000E+00  0.00000000E+00
  0.00000000E+00  0.00000000E+00  0.00000000E+00
  0.00000000E+00  0.00000000E+00  0.00000000E+00
  0.00000000E+00  0.00000000E+00  0.00000000E+00
  0.00000000E+00  0.00000000E+00  0.00000000E+00
  0.00000000E+00  0.00000000E+00  0.00000000E+00
  0.00000000E+00  0.00000000E+00  0.00000000E+00
  0.00000000E+00  0.00000000E+00  0.00000000E+00
  0.00000000E+00  0.00000000E+00  0.00000000E+00
  0.00000000E+00  0.00000000E+00  0.00000000E+00
  0.00000000E+00  0.00000000E+00  0.00000000E+00
  0.00000000E+00  0.00000000E+00  0.00000000E+00
  0.00000000E+00  0.00000000E+00  0.00000000E+00
  0.00000000E+00  0.00000000E+00  0.00000000E+00
  0.00000000E+00  0.00000000E+00  0.00000000E+00
  0.00000000E+00  0.00000000E+00  0.00000000E+00
  0.00000000E+00  0.00000000E+00  0.00000000E+00
  0.00000000E+00  0.00000000E+00  0.00000000E+00
  0.00000000E+00  0.00000000E+00  0.00000000E+00
  0.00000000E+00  0.00000000E+00  0.00000000E+00
  0.00000000E+00  0.00000000E+00  0.00000000E+00
  0.00000000E+00  0.00000000E+00  0.00000000E+00
  0.00000000E+00  0.00000000E+00  0.00000000E+00
  0.00000000E+00  0.00000000E+00  0.00000000E+00
  0.00000000E+00  0.00000000E+00  0.00000000E+00
  0.00000000E+00  0.00000000E+00  0.00000000E+00
  0.00000000E+00  0.00000000E+00  0.00000000E+00
  0.00000000E+00  0.00000000E+00  0.00000000E+00
  0.00000000E+00  0.00000000E+00  0.00000000E+00
  0.00000000E+00  0.00000000E+00  0.00000000E+00
  0.00000000E+00  0.00000000E+00  0.00000000E+00
  0.00000000E+00  0.00000000E+00  0.00000000E+00
  0.00000000E+00  0.00000000E+00  0.00000000E+00
  0.00000000E+00  0.00000000E+00  0.00000000E+00
  0.00000000E+00  0.00000000E+00  0.00000000E+00
  0.00000000E+00  0.00000000E+00  0.00000000E+00
  0.00000000E+00  0.00000000E+00  0.00000000E+00
  0.00000000E+00  0.00000000E+00  0.00000000E+00
  0.00000000E+00  0.00000000E+00  0.00000000E+00
  0.00000000E+00  0.00000000E+00  0.00000000E+00
  0.00000000E+00  0.00000000E+00  0.00000000E+00
  0.00000000E+00  0.00000000E+00  0.00000000E+00
  0.00000000E+00  0.00000000E+00  0.00000000E+00
  0.00000000E+00  0.00000000E+00  0.00000000E+00
  0.00000000E+00  0.00000000E+00  0.00000000E+00
  0.00000000E+00  0.00000000E+00  0.00000000E+00
  0.00000000E+00  0.00000000E+00  0.00000000E+00
  0.00000000E+00  0.00000000E+00  0.00000000E+00
  0.00000000E+00  0.00000000E+00  0.00000000E+00
  0.00000000E+00  0.00000000E+00  0.00000000E+00
  0.00000000E+00  0.00000000E+00  0.00000000E+00
  0.00000000E+00  0.00000000E+00  0.00000000E+00
  0.00000000E+00  0.00000000E+00  0.00000000E+00
  0.00000000E+00  0.00000000E+00  0.00000000E+00
  0.00000000E+00  0.00000000E+00  0.00000000E+00
  0.00000000E+00  0.00000000E+00  0.00000000E+00
  0.00000000E+00  0.00000000E+00  0.00000000E+00
  0.00000000E+00  0.00000000E+00  0.00000000E+00
  0.00000000E+00  0.00000000E+00  0.00000000E+00
  0.00000000E+00  0.00000000E+00  0.00000000E+00
  0.00000000E+00  0.00000000E+00  0.00000000E+00
  0.00000000E+00  0.00000000E+00  0.00000000E+00
  0.00000000E+00  0.00000000E+00  0.00000000E+00
  0.00000000E+00  0.00000000E+00  0.00000000E+00
  0.00000000E+00  0.00000000E+00  0.00000000E+00
  0.00000000E+00  0.00000000E+00  0.00000000E+00
  0.00000000E+00  0.00000000E+00  0.00000000E+00
  0.00000000E+00  0.00000000E+00  0.00000000E+00
  0.00000000E+00  0.00000000E+00  0.00000000E+00
  0.00000000E+00  0.00000000E+00  0.00000000E+00
  0.00000000E+00  0.00000000E+00  0.00000000E+00
  0.00000000E+00  0.00000000E+00  0.00000000E+00
  0.00000000E+00  0.00000000E+00  0.00000000E+00
  0.00000000E+00  0.00000000E+00  0.00000000E+00
  0.00000000E+00  0.00000000E+00  0.00000000E+00
  0.00000000E+00  0.00000000E+00  0.00000000E+00
  0.00000000E+00  0.00000000E+00  0.00000000E+00
  0.00000000E+00  0.00000000E+00  0.00000000E+00
  0.00000000E+00  0.00000000E+00  0.00000000E+00
  0.00000000E+00  0.00000000E+00  0.00000000E+00
  0.00000000E+00  0.00000000E+00  0.00000000E+00
  0.00000000E+00  0.00000000E+00  0.00000000E+00
  0.00000000E+00  0.00000000E+00  0.00000000E+00
  0.00000000E+00  0.00000000E+00  0.00000000E+00
  0.00000000E+00  0.00000000E+00  0.00000000E+00
  0.00000000E+00  0.00000000E+00  0.00000000E+00
  0.00000000E+00  0.00000000E+00  0.00000000E+00
  0.00000000E+00  0.00000000E+00  0.00000000E+00
  0.00000000E+00  0.00000000E+00  0.00000000E+00
  0.00000000E+00  0.00000000E+00  0.00000000E+00
  0.00000000E+00  0.00000000E+00  0.00000000E+00
  0.00000000E+00  0.00000000E+00  0.00000000E+00
  0.00000000E+00  0.00000000E+00  0.00000000E+00
  0.00000000E+00  0.00000000E+00  0.00000000E+00
  0.00000000E+00  0.00000000E+00  0.00000000E+00
  0.00000000E+00  0.00000000E+00  0.00000000E+00
  0.00000000E+00  0.00000000E+00  0.00000000E+00
  0.00000000E+00  0.00000000E+00  0.00000000E+00
  0.00000000E+00  0.00000000E+00  0.00000000E+00
  0.00000000E+00  0.00000000E+00  0.00000000E+00
  0.00000000E+00  0.00000000E+00  0.00000000E+00
  0.00000000E+00  0.00000000E+00  0.00000000E+00
  0.00000000E+00  0.00000000E+00  0.00000000E+00
  0.00000000E+00  0.00000000E+00  0.00000000E+00
  0.00000000E+00  0.00000000E+00  0.00000000E+00
  0.00000000E+00  0.00000000E+00  0.00000000E+00
  0.00000000E+00  0.00000000E+00  0.00000000E+00
  0.00000000E+00  0.00000000E+00  0.00000000E+00
  0.00000000E+00  0.00000000E+00  0.00000000E+00
  0.00000000E+00  0.00000000E+00  0.00000000E+00
  0.00000000E+00  0.00000000E+00  0.00000000E+00
  0.00000000E+00  0.00000000E+00  0.00000000E+00
  0.00000000E+00  0.00000000E+00  0.00000000E+00
  0.00000000E+00  0.00000000E+00  0.00000000E+00
  0.00000000E+00  0.00000000E+00  0.00000000E+00
  0.00000000E+00  0.00000000E+00  0.00000000E+00
  0.00000000E+00  0.00000000E+00  0.00000000E+00
  0.00000000E+00  0.00000000E+00  0.00000000E+00
  0.00000000E+00  0.00000000E+00  0.00000000E+00
  0.00000000E+00  0.00000000E+00  0.00000000E+00
  0.00000000E+00  0.00000000E+00  0.00000000E+00
  0.00000000E+00  0.00000000E+00  0.00000000E+00
  0.00000000E+00  0.00000000E+00  0.00000000E+00
  0.00000000E+00  0.00000000E+00  0.00000000E+00
  0.00000000E+00  0.00000000E+00  0.00000000E+00
  0.00000000E+00  0.00000000E+00  0.00000000E+00
  0.00000000E+00  0.00000000E+00  0.00000000E+00
  0.00000000E+00  0.00000000E+00  0.00000000E+00
  0.00000000E+00  0.00000000E+00  0.00000000E+00
  0.00000000E+00  0.00000000E+00  0.00000000E+00
  0.00000000E+00  0.00000000E+00  0.00000000E+00
  0.00000000E+00  0.00000000E+00  0.00000000E+00
  0.00000000E+00  0.00000000E+00  0.00000000E+00
  0.00000000E+00  0.00000000E+00  0.00000000E+00
  0.00000000E+00  0.00000000E+00  0.00000000E+00
  0.00000000E+00  0.00000000E+00  0.00000000E+00
  0.00000000E+00  0.00000000E+00  0.00000000E+00
  0.00000000E+00  0.00000000E+00  0.00000000E+00
  0.00000000E+00  0.00000000E+00  0.00000000E+00
  0.00000000E+00  0.00000000E+00  0.00000000E+00
