Ge+Sn
    1.000000000
   16.002676010    0.000000000    0.000000000
    8.001338005   13.858724594    0.000000000
    0.000000000    0.000000000   15.779420853
Ge  Sn 
96     72
Direct
    0.310883224    0.310883164    0.414024472
    0.977550030    0.977550030    0.000000033
    0.644216537    0.644216597    0.207012281
    0.810883164    0.310883164    0.414024472
    0.477550000    0.977550030    0.000000043
    0.144216582    0.644216597    0.207012281
    0.310883164    0.810883164    0.414024472
    0.977550030    0.477550000    0.000000040
    0.644216597    0.144216582    0.207012281
    0.810883164    0.810883164    0.414024472
    0.477550000    0.477550000    0.000000000
    0.144216567    0.144216567    0.207012236
    0.477549791    0.477549732    0.465777606
    0.144216686    0.144216612    0.051753107
    0.810883284    0.810883224    0.258765310
    0.977549791    0.477549672    0.465777606
    0.644216657    0.144216627    0.051753107
    0.310883284    0.810883224    0.258765310
    0.477549672    0.977549791    0.465777606
    0.144216627    0.644216657    0.051753107
    0.810883224    0.310883284    0.258765310
    0.977549672    0.977549791    0.465777576
    0.644216597    0.644216657    0.051753107
    0.310883164    0.310883254    0.258765280
    0.560883164    0.560883164    0.414024502
    0.227550015    0.227550015    0.000000045
    0.894216597    0.894216597    0.207012236
    0.060883213    0.560883164    0.414024562
    0.727550030    0.227550045    0.000000045
    0.394216597    0.894216597    0.207012281
    0.560883164    0.060883176    0.414024472
    0.227550015    0.727549970    0.000000015
    0.894216537    0.394216597    0.207012236
    0.060883190    0.060883105    0.414024472
    0.727550030    0.727549911    0.000000029
    0.394216627    0.394216567    0.207012281
    0.727549791    0.727549791    0.465777516
    0.394216627    0.394216627    0.051753026
    0.060883194    0.060883190    0.258765280
    0.227549791    0.727549791    0.465777516
    0.894216597    0.394216627    0.051753052
    0.560883164    0.060883190    0.258765280
    0.727549791    0.227549851    0.465777516
    0.394216627    0.894216657    0.051753052
    0.060883202    0.560883284    0.258765280
    0.227549851    0.227549851    0.465777516
    0.894216716    0.894216657    0.051753037
    0.560883284    0.560883284    0.258765280
    0.310883164    0.560883164    0.414024472
    0.977550030    0.227550015    0.000000025
    0.644216537    0.894216597    0.207012281
    0.810883164    0.560883164    0.414024502
    0.477550030    0.227550015    0.000000035
    0.144216597    0.894216597    0.207012281
    0.310883164    0.060883176    0.414024472
    0.977550030    0.727549970    0.000000035
    0.644216597    0.394216597    0.207012281
    0.810883164    0.060883090    0.414024472
    0.477550000    0.727549911    0.000000029
    0.144216612    0.394216537    0.207012236
    0.477549791    0.727549791    0.465777516
    0.144216612    0.394216597    0.051753052
    0.810883164    0.060883190    0.258765280
    0.977549732    0.727549791    0.465777516
    0.644216597    0.394216627    0.051753052
    0.310883164    0.060883190    0.258765280
    0.477549732    0.227549851    0.465777457
    0.144216627    0.894216657    0.051753037
    0.810883164    0.560883284    0.258765280
    0.977549791    0.227549851    0.465777457
    0.644216657    0.894216657    0.051753026
    0.310883224    0.560883284    0.258765280
    0.560883105    0.310883164    0.414024472
    0.227550015    0.977550030    0.000000028
    0.894216597    0.644216597    0.207012281
    0.060883183    0.310883164    0.414024502
    0.727549970    0.977550030    0.000000038
    0.394216627    0.644216597    0.207012281
    0.560883164    0.810883164    0.414024502
    0.227550000    0.477550000    0.000000040
    0.894216597    0.144216582    0.207012281
    0.060883179    0.810883105    0.414024472
    0.727549970    0.477549940    0.000000018
    0.394216597    0.144216537    0.207012236
    0.727549791    0.477549851    0.465777606
    0.394216686    0.144216716    0.051753089
    0.060883284    0.810883343    0.258765310
    0.227549672    0.477549851    0.465777606
    0.894216657    0.144216731    0.051753096
    0.560883284    0.810883343    0.258765280
    0.727549791    0.977549851    0.465777576
    0.394216686    0.644216716    0.051753107
    0.060883276    0.310883373    0.258765310
    0.227549732    0.977549791    0.465777606
    0.894216657    0.644216657    0.051753089
    0.560883284    0.310883284    0.258765280
    0.000000000    0.320924103    0.940641999
    0.000000000    0.987590790    0.465777665
    0.000000000    0.654257417    0.703209877
    0.333333343    0.654257476    0.940641880
    0.333333343    0.320924133    0.465777665
    0.333333343    0.987590790    0.703209877
    0.666666687    0.987590790    0.940641999
    0.666666687    0.654257476    0.465777665
    0.666666687    0.320924133    0.703209877
    0.333333343    0.320924163    1.000000000
    0.333333343    0.987590790    0.525135756
    0.333333343    0.654257417    0.762567878
    0.000000000    0.987590790    1.000000000
    0.000000000    0.654257417    0.525135756
    0.000000000    0.320924073    0.762567878
    0.666666746    0.654257417    1.000000000
    0.666666746    0.320924073    0.525135756
    0.666666746    0.987590730    0.762567878
    0.499999970    0.320924103    0.940641880
    0.499999970    0.987590790    0.465777665
    0.499999970    0.654257417    0.703209877
    0.166666672    0.987590790    0.940641880
    0.166666687    0.654257476    0.465777665
    0.166666687    0.320924133    0.703209877
    0.833333373    0.654257476    0.940641999
    0.833333373    0.320924163    0.465777665
    0.833333373    0.987590790    0.703209877
    0.166666657    0.654257536    1.000000000
    0.166666672    0.320924133    0.525135756
    0.166666672    0.987590790    0.762567878
    0.833333373    0.320924163    0.999999881
    0.833333373    0.987590790    0.525135636
    0.833333373    0.654257417    0.762567759
    0.500000000    0.987590790    1.000000000
    0.500000000    0.654257417    0.525135636
    0.500000000    0.320924103    0.762567759
    0.166666672    0.487590790    0.940641999
    0.166666672    0.154257476    0.465777665
    0.166666672    0.820924103    0.703209877
    0.499999970    0.820924103    0.940641999
    0.499999970    0.487590790    0.465777665
    0.499999970    0.154257417    0.703209877
    0.833333254    0.154257506    0.940641880
    0.833333254    0.820924222    0.465777606
    0.833333254    0.487590909    0.703209758
    0.499999970    0.487590849    1.000000000
    0.499999970    0.154257447    0.525135756
    0.499999970    0.820924103    0.762567878
    0.166666642    0.154257506    0.999999881
    0.166666642    0.820924163    0.525135636
    0.166666642    0.487590820    0.762567759
    0.833333373    0.820924103    1.000000000
    0.833333373    0.487590760    0.525135756
    0.833333373    0.154257402    0.762567878
    0.000000000    0.820924103    0.940641999
    0.000000000    0.487590760    0.465777665
    0.000000000    0.154257417    0.703209877
    0.666666687    0.487590790    0.940641880
    0.666666687    0.154257461    0.465777665
    0.666666687    0.820924103    0.703209877
    0.333333343    0.154257342    0.940641999
    0.333333343    0.820924044    0.465777665
    0.333333343    0.487590730    0.703209758
    0.000000000    0.487590849    1.000000000
    0.000000000    0.154257506    0.525135756
    0.000000000    0.820924163    0.762567878
    0.333333343    0.820924163    1.000000000
    0.333333343    0.487590820    0.525135756
    0.333333343    0.154257491    0.762567878
    0.666666687    0.154257551    1.000000000
    0.666666687    0.820924163    0.525135756
    0.666666687    0.487590849    0.762567878
