Si+C
    1.000000000
   13.303179741    0.000000000    0.000000000
    6.651589394   11.520891190    0.000000000
    0.000000000    0.000000000   17.351545334
Si  C  
72     308
Direct
    0.681493759    0.666666687    0.000000033
    0.014827132    0.666666687    0.180709556
    0.348160505    0.666666687    0.361419111
    0.348160356    0.333333343    0.000000014
    0.681493759    0.333333343    0.180709526
    0.014827251    0.333333343    0.361419111
    0.014827028    0.000000000    0.000000015
    0.348160386    0.000000000    0.180709526
    0.681493878    0.000000000    0.361419111
    0.014827013    0.666666687    0.045177415
    0.348160505    0.666666687    0.225886926
    0.681493878    0.666666687    0.406596452
    0.681493700    0.333333343    0.045177400
    0.014827132    0.333333343    0.225886911
    0.348160625    0.333333343    0.406596452
    0.348160416    0.000000000    0.045177408
    0.681493759    0.000000000    0.225886926
    0.014827251    0.000000000    0.406596482
    0.348160416    0.833333313    0.000000037
    0.681493759    0.833333313    0.180709526
    0.014827251    0.833333313    0.361419111
    0.014827028    0.500000000    0.000000018
    0.348160416    0.500000000    0.180709556
    0.681493819    0.500000000    0.361419111
    0.681493759    0.166666657    0.000000034
    0.014827013    0.166666657    0.180709526
    0.348160505    0.166666657    0.361419111
    0.681493759    0.833333313    0.045177404
    0.014827013    0.833333313    0.225886911
    0.348160505    0.833333313    0.406596452
    0.348160416    0.500000000    0.045177378
    0.681493878    0.500000000    0.225886926
    0.014827251    0.500000000    0.406596452
    0.014827013    0.166666642    0.045177355
    0.348160386    0.166666642    0.225886881
    0.681493878    0.166666642    0.406596452
    0.181493685    0.666666687    0.000000000
    0.514827073    0.666666687    0.180709526
    0.848160565    0.666666687    0.361419111
    0.848160446    0.333333343    0.000000015
    0.181493759    0.333333343    0.180709526
    0.514827132    0.333333343    0.361419052
    0.514827013    0.000000000    0.000000015
    0.848160446    0.000000000    0.180709526
    0.181493878    0.000000000    0.361419111
    0.514827013    0.666666746    0.045177329
    0.848160505    0.666666746    0.225886911
    0.181493878    0.666666746    0.406596422
    0.181493655    0.333333313    0.045177355
    0.514827073    0.333333313    0.225886896
    0.848160446    0.333333313    0.406596422
    0.848160386    1.000000000    0.045177333
    0.181493878    1.000000000    0.225886911
    0.514827251    1.000000000    0.406596422
    0.848160446    0.833333373    0.000000046
    0.181493759    0.833333373    0.180709526
    0.514827251    0.833333373    0.361419052
    0.514827073    0.500000000    0.000000023
    0.848160386    0.500000000    0.180709526
    0.181493878    0.500000000    0.361419111
    0.181493700    0.166666672    0.000000012
    0.514827073    0.166666672    0.180709526
    0.848160505    0.166666672    0.361419111
    0.181493655    0.833333433    0.045177400
    0.514827013    0.833333433    0.225886911
    0.848160446    0.833333433    0.406596482
    0.848160386    0.500000060    0.045177400
    0.181493759    0.500000060    0.225886896
    0.514827251    0.500000060    0.406596452
    0.514827013    0.166666657    0.045177400
    0.848160386    0.166666657    0.225886911
    0.181493878    0.166666657    0.406596482
    0.281747103    0.543650031    0.970329762
    0.376984388    0.924603045    0.495607018
    0.853175044    0.829364777    0.614287674
    0.329365730    0.734126627    0.732968450
    0.805556297    0.638888359    0.851649046
    0.567461252    0.686507106    0.970329762
    0.662698686    0.067460164    0.495606959
    0.138889313    0.972221911    0.614287674
    0.615079999    0.876983643    0.732968390
    0.091270685    0.781745493    0.851649046
    0.853175640    0.829364240    0.970329642
    0.948412955    0.210317329    0.495607018
    0.424603701    0.115079127    0.614287674
    0.900794387    0.019840794    0.732968390
    0.376984835    0.924602568    0.851648986
    0.138889790    0.972221434    0.970329762
    0.234127045    0.353174478    0.495606959
    0.710317850    0.257936269    0.614287734
    0.186508417    0.162697941    0.732968330
    0.662699223    0.067459814    0.851649046
    0.424604177    0.115078673    0.970329642
    0.519841552    0.496031612    0.495607018
    0.996032119    0.400793374    0.614287734
    0.472222924    0.305555046    0.732968450
    0.948413491    0.210316792    0.851649046
    0.710318565    0.257935792    0.970329642
    0.805555701    0.638888717    0.495607018
    0.281746507    0.543650508    0.614287734
    0.757936954    0.448412240    0.732968330
    0.234127760    0.353174090    0.851649046
    0.996032715    0.400792807    0.970329642
    0.091270089    0.781745851    0.495607078
    0.567460775    0.686507583    0.614287674
    0.043651342    0.591269433    0.732968390
    0.519842148    0.496031165    0.851649046
    0.043651581    0.591269016    0.999999881
    0.662698686    0.067460321    0.406596541
    0.138889194    0.972222090    0.525277197
    0.615079999    0.876983762    0.643957853
    0.091270685    0.781745553    0.762638569
    0.567461252    0.686507225    0.881319225
    0.329365969    0.734126329    0.999999881
    0.948412836    0.210317478    0.406596541
    0.424603343    0.115079254    0.525277197
    0.900794268    0.019841015    0.643957913
    0.376984835    0.924602747    0.762638569
    0.853175640    0.829364479    0.881319404
    0.615080118    0.876983464    0.999999881
    0.234127119    0.353174597    0.406596541
    0.710317671    0.257936358    0.525277197
    0.186508417    0.162698105    0.643957853
    0.662699103    0.067459874    0.762638569
    0.138889790    0.972221553    0.881319225
    0.900794506    0.019840600    0.999999881
    0.519841433    0.496031731    0.406596541
    0.996031940    0.400793463    0.525277197
    0.472222686    0.305555254    0.643957853
    0.948413372    0.210316941    0.762638509
    0.424604177    0.115078710    0.881319225
    0.186508894    0.162697792    0.999999881
    0.805555642    0.638888896    0.406596541
    0.281746268    0.543650627    0.525277197
    0.757936835    0.448412329    0.643957853
    0.234127760    0.353174210    0.762638509
    0.710318327    0.257935971    0.881319165
    0.472223043    0.305554897    0.999999881
    0.091270059    0.781746030    0.406596541
    0.567460656    0.686507761    0.525277197
    0.043651342    0.591269553    0.643957913
    0.519842148    0.496031165    0.762638509
    0.996032834    0.400792986    0.881319404
    0.757937431    0.448412091    0.999999881
    0.376984209    0.924603224    0.406596482
    0.853174865    0.829364955    0.525277197
    0.329365492    0.734126747    0.643957853
    0.805556178    0.638888478    0.762638509
    0.281746864    0.543650329    0.881319225
    0.781746864    0.543650031    0.970329762
    0.876984358    0.924603045    0.495607018
    0.353175044    0.829364836    0.614287674
    0.829365730    0.734126508    0.732968450
    0.305556297    0.638888359    0.851649165
    0.067461014    0.686507165    0.970329762
    0.162698507    0.067460246    0.495607018
    0.638889313    0.972221971    0.614287734
    0.115079880    0.876983702    0.732968390
    0.591270447    0.781745493    0.851649046
    0.353175640    0.829364300    0.970329642
    0.448412925    0.210317299    0.495607018
    0.924603641    0.115079105    0.614287674
    0.400794387    0.019840803    0.732968390
    0.876984954    0.924602628    0.851649046
    0.638889790    0.972221434    0.970329762
    0.734127223    0.353174508    0.495607018
    0.210317850    0.257936209    0.614287734
    0.686508536    0.162697941    0.732968450
    0.162698984    0.067459702    0.851649046
    0.924604177    0.115078658    0.970329642
    0.019841433    0.496031612    0.495606959
    0.496032238    0.400793344    0.614287674
    0.972222567    0.305555075    0.732968330
    0.448413372    0.210316956    0.851649046
    0.210318327    0.257935733    0.970329762
    0.305555820    0.638888776    0.495607078
    0.781746387    0.543650389    0.614287734
    0.257937193    0.448412269    0.732968330
    0.734127760    0.353174031    0.851649046
    0.496032715    0.400793016    0.970329642
    0.591270030    0.781745911    0.495606959
    0.067460895    0.686507642    0.614287674
    0.543651223    0.591269314    0.732968271
    0.019841909    0.496031135    0.851649046
    0.543651581    0.591269076    0.999999881
    0.162698478    0.067460313    0.406596482
    0.638889134    0.972222090    0.525277197
    0.115079761    0.876983821    0.643957853
    0.591270447    0.781745553    0.762638509
    0.067461252    0.686507344    0.881319225
    0.829365969    0.734126329    1.000000000
    0.448412865    0.210317463    0.406596541
    0.924603522    0.115079202    0.525277197
    0.400794148    0.019840969    0.643957853
    0.876984835    0.924602747    0.762638450
    0.353175640    0.829364479    0.881319225
    0.115080118    0.876983345    0.999999881
    0.734126985    0.353174597    0.406596541
    0.210317612    0.257936329    0.525277197
    0.686508298    0.162698194    0.643957913
    0.162698984    0.067459747    0.762638569
    0.638889551    0.972221613    0.881319225
    0.400794506    0.019840486    0.999999881
    0.019841401    0.496031731    0.406596541
    0.496032059    0.400793493    0.525277197
    0.972222686    0.305555195    0.643957853
    0.448413372    0.210316986    0.762638569
    0.924603939    0.115078785    0.881319225
    0.686508894    0.162697673    0.999999881
    0.305555701    0.638888896    0.406596541
    0.781746387    0.543650627    0.525277197
    0.257936954    0.448412448    0.643957913
    0.734127641    0.353174120    0.762638509
    0.210318327    0.257935911    0.881319225
    0.972223043    0.305554926    0.999999881
    0.591269970    0.781746030    0.406596541
    0.067460537    0.686507821    0.525277197
    0.543651104    0.591269612    0.643957913
    0.019841909    0.496031284    0.762638509
    0.496032715    0.400793105    0.881319225
    0.257937431    0.448412061    0.999999881
    0.876984417    0.924603224    0.406596482
    0.353174925    0.829364896    0.525277078
    0.829365611    0.734126806    0.643957913
    0.305556297    0.638888478    0.762638509
    0.781746864    0.543650329    0.881319225
    0.924603939    0.615078568    0.970329642
    0.019841433    0.996031582    0.495607018
    0.496032119    0.900793374    0.614287674
    0.972222924    0.805555165    0.732968390
    0.448413372    0.710316777    0.851649046
    0.210318565    0.757935762    0.970329642
    0.305555820    0.138888732    0.495606959
    0.781746626    0.043650482    0.614287674
    0.257936954    0.948412299    0.732968330
    0.734127760    0.853174090    0.851649046
    0.496032715    0.900792837    0.970329642
    0.591270149    0.281745851    0.495606959
    0.067460775    0.186507583    0.614287674
    0.543651462    0.091269396    0.732968450
    0.019841909    0.996031106    0.851649046
    0.781747103    0.043650120    0.970329762
    0.876984239    0.424603075    0.495606959
    0.353175163    0.329364806    0.614287674
    0.829365492    0.234126672    0.732968330
    0.305556297    0.138888240    0.851648986
    0.067461252    0.186507255    0.970329642
    0.162698627    0.567460179    0.495607018
    0.638889313    0.472221911    0.614287674
    0.115079880    0.376983732    0.732968450
    0.591270685    0.281745493    0.851649165
    0.353175640    0.329364300    0.970329762
    0.448412925    0.710317254    0.495606959
    0.924603701    0.615079045    0.614287674
    0.400794029    0.519840896    0.732968330
    0.876984835    0.424602538    0.851649046
    0.638889790    0.472221553    0.970329642
    0.734127223    0.853174448    0.495606959
    0.210317969    0.757936180    0.614287674
    0.686508656    0.662697971    0.732968390
    0.162699223    0.567459822    0.851649046
    0.686508894    0.662697613    0.999999881
    0.305555671    0.138888866    0.406596482
    0.781746387    0.043650623    0.525277197
    0.257936954    0.948412478    0.643957853
    0.734127641    0.853174150    0.762638509
    0.210318327    0.757935822    0.881319225
    0.972223043    0.805554807    0.999999881
    0.591269910    0.281745970    0.406596541
    0.067460656    0.186507791    0.525277197
    0.543651104    0.091269508    0.643957853
    0.019841909    0.996031225    0.762638450
    0.496032715    0.900793016    0.881319165
    0.257937193    0.948412120    0.999999881
    0.876984060    0.424603254    0.406596541
    0.353174686    0.329365045    0.525277197
    0.829365373    0.234126702    0.643957853
    0.305556059    0.138888463    0.762638569
    0.781746626    0.043650284    0.881319225
    0.543651581    0.091269091    0.999999881
    0.162698463    0.567460299    0.406596541
    0.638889194    0.472222120    0.525277197
    0.115079761    0.376983821    0.643957853
    0.591270447    0.281745553    0.762638450
    0.067461252    0.186507314    0.881319225
    0.829365730    0.234126210    0.999999881
    0.448412776    0.710317373    0.406596482
    0.924603403    0.615079165    0.525277197
    0.400794029    0.519840956    0.643957853
    0.876984596    0.424602598    0.762638569
    0.353175402    0.329364449    0.881319225
    0.115080118    0.376983464    0.999999881
    0.734127045    0.853174627    0.406596541
    0.210317612    0.757936299    0.525277197
    0.686508298    0.662698150    0.643957853
    0.162698984    0.567459822    0.762638450
    0.638889790    0.472221762    0.881319225
    0.400794506    0.519840658    0.999999881
    0.019841388    0.996031821    0.406596482
    0.496032059    0.900793552    0.525277197
    0.972222686    0.805555344    0.643957853
    0.448413372    0.710317016    0.762638569
    0.924604058    0.615078926    0.881319225
    0.424604177    0.615078568    0.970329642
    0.519841552    0.996031642    0.495607018
    0.996032238    0.900793374    0.614287734
    0.472222924    0.805555105    0.732968390
    0.948413372    0.710316956    0.851649046
    0.710318327    0.757935703    0.970329642
    0.805555761    0.138888791    0.495607018
    0.281746507    0.043650556    0.614287674
    0.757937193    0.948412299    0.732968450
    0.234127760    0.853174031    0.851649046
    0.996032715    0.900792897    0.970329762
    0.091269970    0.281745911    0.495606959
    0.567460895    0.186507687    0.614287674
    0.043651342    0.091269456    0.732968330
    0.519842148    0.996031284    0.851649046
    0.281746864    0.043650012    0.970329642
    0.376984388    0.424602985    0.495606959
    0.853174984    0.329364717    0.614287674
    0.329365730    0.234126568    0.732968390
    0.805556417    0.138888255    0.851649046
    0.567461252    0.186507270    0.970329762
    0.662698567    0.567460179    0.495606959
    0.138889432    0.472221881    0.614287674
    0.615079880    0.376983732    0.732968330
    0.091270447    0.281745434    0.851649046
    0.853175640    0.329364389    0.970329642
    0.948412955    0.710317254    0.495606959
    0.424603701    0.615078986    0.614287674
    0.900794268    0.519840717    0.732968330
    0.376984835    0.424602509    0.851649046
    0.138889790    0.472221583    0.970329762
    0.234127283    0.853174329    0.495606959
    0.710317969    0.757936180    0.614287734
    0.186508656    0.662698030    0.732968450
    0.662699461    0.567459643    0.851649165
    0.186508656    0.662697673    0.999999881
    0.805555701    0.138888881    0.406596482
    0.281746268    0.043650687    0.525277197
    0.757937074    0.948412359    0.643957853
    0.234127760    0.853174210    0.762638569
    0.710318327    0.757935941    0.881319165
    0.472223043    0.805554867    0.999999881
    0.091269925    0.281746030    0.406596541
    0.567460477    0.186507806    0.525277197
    0.043651223    0.091269575    0.643957853
    0.519841909    0.996031344    0.762638569
    0.996032596    0.900793076    0.881319225
    0.757937193    0.948412061    0.999999881
    0.376984209    0.424603134    0.406596541
    0.853174746    0.329364926    0.525277197
    0.329365492    0.234126747    0.643957853
    0.805556178    0.138888463    0.762638569
    0.281746864    0.043650169    0.881319225
    0.043651581    0.091269255    0.999999881
    0.662698627    0.567460299    0.406596541
    0.138889074    0.472222090    0.525277197
    0.615079999    0.376983821    0.643957913
    0.091270447    0.281745493    0.762638509
    0.567461252    0.186507300    0.881319404
    0.329365969    0.234126210    0.999999881
    0.948412716    0.710317373    0.406596482
    0.424603224    0.615079165    0.525277197
    0.900794029    0.519840837    0.643957853
    0.376984835    0.424602747    0.762638509
    0.853175402    0.329364449    0.881319225
    0.615080118    0.376983613    0.999999881
    0.234127104    0.853174567    0.406596541
    0.710317671    0.757936418    0.525277197
    0.186508417    0.662698150    0.643957913
    0.662699223    0.567459822    0.762638450
    0.138889790    0.472221702    0.881319225
    0.900794268    0.519840479    0.999999762
    0.519841313    0.996031702    0.406596541
    0.996031821    0.900793552    0.525277197
    0.472222567    0.805555284    0.643957853
    0.948413372    0.710317016    0.762638569
    0.424603939    0.615078747    0.881319225
