Si+C                                    
   1.00000000000000     
    13.3031797409999992    0.0000000000000000    0.0000000000000000
    -6.6515893940000002   14.8734064099999994    0.0000000000000000
     0.0000000000000000    0.0000000000000000    8.3900594710000007
   Si   C 
    36    84
Direct
  0.9971509579999989  0.9800565840000033  0.0000000000000000
  0.9638175369999971  0.7467231749999996  0.1447438300000030
  0.9304841160000024  0.5133898260000009  0.2894876599999989
  0.3304842109999981  0.3133898680000016  0.0000000000000000
  0.2971507910000000  0.0800564740000027  0.1447438300000030
  0.2638173699999982  0.8467230799999967  0.2894876599999989
  0.6638174650000011  0.6467231510000033  0.0000000000000000
  0.6304840450000029  0.4133897130000008  0.1447438300000030
  0.5971506240000011  0.1800563339999997  0.2894876599999989
  0.3138175309999980  0.9467233419999985  0.0723717589999993
  0.2804841100000033  0.7133899929999998  0.2171155810000016
  0.2471506890000015  0.4800565840000033  0.3618593509999997
  0.6471508150000034  0.2800565659999990  0.0723717589999993
  0.6138173940000016  0.0467231940000019  0.2171155509999991
  0.5804839729999998  0.8133897780000012  0.3618593810000021
  0.9804844259999967  0.6133898499999972  0.0723717879999981
  0.9471510050000020  0.3800564710000032  0.2171155509999991
  0.9138175849999968  0.1467230920000020  0.3618593509999997
  0.1638175699999991  0.6467230920000020  0.0000000020000002
  0.1304841640000021  0.4133897130000008  0.1447438300000030
  0.0971507499999973  0.1800563190000020  0.2894876599999989
  0.4971508980000010  0.9800566429999975  0.0000000049999969
  0.4638174179999979  0.7467231749999996  0.1447437699999981
  0.4304840559999974  0.5133898260000009  0.2894876000000011
  0.8304841519999968  0.3133898680000016  0.0000000049999969
  0.7971507310000021  0.0800565259999999  0.1447437699999981
  0.7638173100000003  0.8467230799999967  0.2894876000000011
  0.1471509040000001  0.2800565659999990  0.0723717730000004
  0.1138174829999983  0.0467231650000031  0.2171155810000016
  0.0804840699999971  0.8133897780000012  0.3618593810000021
  0.4804842169999972  0.6133899089999986  0.0723717730000004
  0.4471508259999979  0.3800565299999974  0.2171155509999991
  0.4138174059999997  0.1467231660000010  0.3618593810000021
  0.8138175010000026  0.9467232820000007  0.0723717589999993
  0.7804841399999987  0.7133898740000006  0.2171155509999991
  0.7471507189999969  0.4800564649999970  0.3618593810000021
  0.6187410349999993  0.0441699029999967  0.7522248630000021
  0.4187409279999983  0.6441699860000014  0.5621044040000029
  0.5187410119999996  0.3441699449999973  0.6571646929999986
  0.9044553640000004  0.1870270370000000  0.7522248630000021
  0.7044551369999965  0.7870271210000013  0.5621044040000029
  0.8044552799999991  0.4870270790000006  0.6571646929999986
  0.1901695729999986  0.3298841120000020  0.7522248630000021
  0.9901694659999976  0.9298841949999996  0.5621044040000029
  0.0901695490000023  0.6298841830000015  0.6571646929999986
  0.4758839309999985  0.4727413649999974  0.7522248630000021
  0.2758837639999996  0.0727415080000000  0.5621044040000029
  0.3758838469999972  0.7727414370000005  0.6571646929999986
  0.7615982290000005  0.6155984999999973  0.7522248630000021
  0.5615980629999981  0.2155986129999974  0.5621044040000029
  0.6615980859999979  0.9155985709999968  0.6571646929999986
  0.0473124979999966  0.7584556340000006  0.7522248630000021
  0.8473122720000035  0.3584557470000007  0.5621044040000029
  0.9473123550000011  0.0584557059999966  0.6571646929999986
  0.3330266480000006  0.9013127090000026  0.7522248630000021
  0.1330266000000009  0.5013128519999981  0.5621044040000029
  0.2330266239999972  0.2013128250000022  0.6571646929999986
  0.5973125100000019  0.3584557180000019  0.7997548580000000
  0.3973123430000030  0.9584558609999974  0.6096344589999987
  0.4973124269999971  0.6584558489999992  0.7046946290000022
  0.7401695849999967  0.9298842549999975  0.7997548580000000
  0.5401694769999992  0.5298843380000022  0.6096344589999987
  0.6401695010000026  0.2298842820000004  0.7046946290000022
  0.0258839130000013  0.0727415080000000  0.7997548580000000
  0.8258836270000032  0.6727416519999991  0.6096344589999987
  0.9258837100000008  0.3727415800000031  0.7046946880000036
  0.3115981819999973  0.2155986579999976  0.7997547980000022
  0.1115980149999984  0.8155987259999975  0.6096344589999987
  0.2115981580000010  0.5155986549999980  0.7046946880000036
  0.8830267789999979  0.5013127920000002  0.7997548580000000
  0.6830266710000004  0.1013128760000015  0.6096344589999987
  0.7830266949999967  0.8013128039999984  0.7046946290000022
  0.1687409880000033  0.6441701050000006  0.7997548580000000
  0.9687408209999973  0.2441701890000019  0.6096344589999987
  0.0687408450000007  0.9441701169999988  0.7046946290000022
  0.4544551369999965  0.7870271210000013  0.7997548580000000
  0.2544550900000004  0.3870272639999968  0.6096344589999987
  0.3544551130000002  0.0870271920000008  0.7046946290000022
  0.6901696919999978  0.3298840819999995  0.7522248630000021
  0.4901694360000022  0.9298842549999975  0.5621044040000029
  0.5901695490000023  0.6298841830000015  0.6571646929999986
  0.5473124979999966  0.7584556340000006  0.7522248630000021
  0.3473123309999977  0.3584557180000019  0.5621044040000029
  0.4473124149999990  0.0584557059999966  0.6571646929999986
  0.8330267070000019  0.9013127090000026  0.7522248630000021
  0.6330266000000009  0.5013128519999981  0.5621044040000029
  0.7330266239999972  0.2013127949999998  0.6571646929999986
  0.1187410349999993  0.0441699029999967  0.7522248630000021
  0.9187408089999991  0.6441699270000001  0.5621044040000029
  0.0187410119999996  0.3441699150000019  0.6571646929999986
  0.4044553040000025  0.1870269630000010  0.7522248630000021
  0.2044551369999965  0.7870271210000013  0.5621044040000029
  0.3044551609999999  0.4870270190000028  0.6571646929999986
  0.9758838420000018  0.4727413649999974  0.7522248630000021
  0.7758836750000029  0.0727415080000000  0.5621044040000029
  0.8758838179999984  0.7727413770000027  0.6571646929999986
  0.2615981100000013  0.6155984399999994  0.7522248630000021
  0.0615979430000024  0.2155985679999972  0.5621044040000029
  0.1615980859999979  0.9155985120000025  0.6571646929999986
  0.5258839130000013  0.0727415080000000  0.7997548580000000
  0.3258837159999999  0.6727416519999991  0.6096344589999987
  0.4258837699999987  0.3727415800000031  0.7046946880000036
  0.8115981819999973  0.2155986429999999  0.7997548580000000
  0.6115980149999984  0.8155987259999975  0.6096344589999987
  0.7115981580000010  0.5155986549999980  0.7046946880000036
  0.0973124499999969  0.3584557770000032  0.7997548580000000
  0.8973122840000016  0.9584558609999974  0.6096344589999987
  0.9973123669999993  0.6584557290000035  0.7046946880000036
  0.6687410469999975  0.6441701649999985  0.7997548580000000
  0.4687409100000011  0.2441702340000020  0.6096344589999987
  0.5687409639999998  0.9441701769999966  0.7046946290000022
  0.9544553160000007  0.7870272400000005  0.7997547980000022
  0.7544551490000018  0.3870273229999981  0.6096344589999987
  0.8544551729999981  0.0870271920000008  0.7046946880000036
  0.2401695249999989  0.9298841949999996  0.7997547980000022
  0.0401692390000008  0.5298842790000009  0.6096344589999987
  0.1401693820000034  0.2298842670000028  0.7046946290000022
  0.3830267190000001  0.5013127920000002  0.7997549179999979
  0.1830265520000012  0.1013128760000015  0.6096344589999987
  0.2830265759999975  0.8013128039999984  0.7046946880000036
 
  0.00000000E+00  0.00000000E+00  0.00000000E+00
  0.00000000E+00  0.00000000E+00  0.00000000E+00
  0.00000000E+00  0.00000000E+00  0.00000000E+00
  0.00000000E+00  0.00000000E+00  0.00000000E+00
  0.00000000E+00  0.00000000E+00  0.00000000E+00
  0.00000000E+00  0.00000000E+00  0.00000000E+00
  0.00000000E+00  0.00000000E+00  0.00000000E+00
  0.00000000E+00  0.00000000E+00  0.00000000E+00
  0.00000000E+00  0.00000000E+00  0.00000000E+00
  0.00000000E+00  0.00000000E+00  0.00000000E+00
  0.00000000E+00  0.00000000E+00  0.00000000E+00
  0.00000000E+00  0.00000000E+00  0.00000000E+00
  0.00000000E+00  0.00000000E+00  0.00000000E+00
  0.00000000E+00  0.00000000E+00  0.00000000E+00
  0.00000000E+00  0.00000000E+00  0.00000000E+00
  0.00000000E+00  0.00000000E+00  0.00000000E+00
  0.00000000E+00  0.00000000E+00  0.00000000E+00
  0.00000000E+00  0.00000000E+00  0.00000000E+00
  0.00000000E+00  0.00000000E+00  0.00000000E+00
  0.00000000E+00  0.00000000E+00  0.00000000E+00
  0.00000000E+00  0.00000000E+00  0.00000000E+00
  0.00000000E+00  0.00000000E+00  0.00000000E+00
  0.00000000E+00  0.00000000E+00  0.00000000E+00
  0.00000000E+00  0.00000000E+00  0.00000000E+00
  0.00000000E+00  0.00000000E+00  0.00000000E+00
  0.00000000E+00  0.00000000E+00  0.00000000E+00
  0.00000000E+00  0.00000000E+00  0.00000000E+00
  0.00000000E+00  0.00000000E+00  0.00000000E+00
  0.00000000E+00  0.00000000E+00  0.00000000E+00
  0.00000000E+00  0.00000000E+00  0.00000000E+00
  0.00000000E+00  0.00000000E+00  0.00000000E+00
  0.00000000E+00  0.00000000E+00  0.00000000E+00
  0.00000000E+00  0.00000000E+00  0.00000000E+00
  0.00000000E+00  0.00000000E+00  0.00000000E+00
  0.00000000E+00  0.00000000E+00  0.00000000E+00
  0.00000000E+00  0.00000000E+00  0.00000000E+00
  0.00000000E+00  0.00000000E+00  0.00000000E+00
  0.00000000E+00  0.00000000E+00  0.00000000E+00
  0.00000000E+00  0.00000000E+00  0.00000000E+00
  0.00000000E+00  0.00000000E+00  0.00000000E+00
  0.00000000E+00  0.00000000E+00  0.00000000E+00
  0.00000000E+00  0.00000000E+00  0.00000000E+00
  0.00000000E+00  0.00000000E+00  0.00000000E+00
  0.00000000E+00  0.00000000E+00  0.00000000E+00
  0.00000000E+00  0.00000000E+00  0.00000000E+00
  0.00000000E+00  0.00000000E+00  0.00000000E+00
  0.00000000E+00  0.00000000E+00  0.00000000E+00
  0.00000000E+00  0.00000000E+00  0.00000000E+00
  0.00000000E+00  0.00000000E+00  0.00000000E+00
  0.00000000E+00  0.00000000E+00  0.00000000E+00
  0.00000000E+00  0.00000000E+00  0.00000000E+00
  0.00000000E+00  0.00000000E+00  0.00000000E+00
  0.00000000E+00  0.00000000E+00  0.00000000E+00
  0.00000000E+00  0.00000000E+00  0.00000000E+00
  0.00000000E+00  0.00000000E+00  0.00000000E+00
  0.00000000E+00  0.00000000E+00  0.00000000E+00
  0.00000000E+00  0.00000000E+00  0.00000000E+00
  0.00000000E+00  0.00000000E+00  0.00000000E+00
  0.00000000E+00  0.00000000E+00  0.00000000E+00
  0.00000000E+00  0.00000000E+00  0.00000000E+00
  0.00000000E+00  0.00000000E+00  0.00000000E+00
  0.00000000E+00  0.00000000E+00  0.00000000E+00
  0.00000000E+00  0.00000000E+00  0.00000000E+00
  0.00000000E+00  0.00000000E+00  0.00000000E+00
  0.00000000E+00  0.00000000E+00  0.00000000E+00
  0.00000000E+00  0.00000000E+00  0.00000000E+00
  0.00000000E+00  0.00000000E+00  0.00000000E+00
  0.00000000E+00  0.00000000E+00  0.00000000E+00
  0.00000000E+00  0.00000000E+00  0.00000000E+00
  0.00000000E+00  0.00000000E+00  0.00000000E+00
  0.00000000E+00  0.00000000E+00  0.00000000E+00
  0.00000000E+00  0.00000000E+00  0.00000000E+00
  0.00000000E+00  0.00000000E+00  0.00000000E+00
  0.00000000E+00  0.00000000E+00  0.00000000E+00
  0.00000000E+00  0.00000000E+00  0.00000000E+00
  0.00000000E+00  0.00000000E+00  0.00000000E+00
  0.00000000E+00  0.00000000E+00  0.00000000E+00
  0.00000000E+00  0.00000000E+00  0.00000000E+00
  0.00000000E+00  0.00000000E+00  0.00000000E+00
  0.00000000E+00  0.00000000E+00  0.00000000E+00
  0.00000000E+00  0.00000000E+00  0.00000000E+00
  0.00000000E+00  0.00000000E+00  0.00000000E+00
  0.00000000E+00  0.00000000E+00  0.00000000E+00
  0.00000000E+00  0.00000000E+00  0.00000000E+00
  0.00000000E+00  0.00000000E+00  0.00000000E+00
  0.00000000E+00  0.00000000E+00  0.00000000E+00
  0.00000000E+00  0.00000000E+00  0.00000000E+00
  0.00000000E+00  0.00000000E+00  0.00000000E+00
  0.00000000E+00  0.00000000E+00  0.00000000E+00
  0.00000000E+00  0.00000000E+00  0.00000000E+00
  0.00000000E+00  0.00000000E+00  0.00000000E+00
  0.00000000E+00  0.00000000E+00  0.00000000E+00
  0.00000000E+00  0.00000000E+00  0.00000000E+00
  0.00000000E+00  0.00000000E+00  0.00000000E+00
  0.00000000E+00  0.00000000E+00  0.00000000E+00
  0.00000000E+00  0.00000000E+00  0.00000000E+00
  0.00000000E+00  0.00000000E+00  0.00000000E+00
  0.00000000E+00  0.00000000E+00  0.00000000E+00
  0.00000000E+00  0.00000000E+00  0.00000000E+00
  0.00000000E+00  0.00000000E+00  0.00000000E+00
  0.00000000E+00  0.00000000E+00  0.00000000E+00
  0.00000000E+00  0.00000000E+00  0.00000000E+00
  0.00000000E+00  0.00000000E+00  0.00000000E+00
  0.00000000E+00  0.00000000E+00  0.00000000E+00
  0.00000000E+00  0.00000000E+00  0.00000000E+00
  0.00000000E+00  0.00000000E+00  0.00000000E+00
  0.00000000E+00  0.00000000E+00  0.00000000E+00
  0.00000000E+00  0.00000000E+00  0.00000000E+00
  0.00000000E+00  0.00000000E+00  0.00000000E+00
  0.00000000E+00  0.00000000E+00  0.00000000E+00
  0.00000000E+00  0.00000000E+00  0.00000000E+00
  0.00000000E+00  0.00000000E+00  0.00000000E+00
  0.00000000E+00  0.00000000E+00  0.00000000E+00
  0.00000000E+00  0.00000000E+00  0.00000000E+00
  0.00000000E+00  0.00000000E+00  0.00000000E+00
  0.00000000E+00  0.00000000E+00  0.00000000E+00
  0.00000000E+00  0.00000000E+00  0.00000000E+00
  0.00000000E+00  0.00000000E+00  0.00000000E+00
  0.00000000E+00  0.00000000E+00  0.00000000E+00
  0.00000000E+00  0.00000000E+00  0.00000000E+00
