Si+C
    1.000000000
   13.303179741    0.000000000    0.000000000
   -6.651589394   14.873406410    0.000000000
    0.000000000    0.000000000    8.390059471
Si  C  
36     84
Direct
    0.997150958    0.980056584    0.000000000
    0.963817537    0.746723175    0.144743830
    0.930484116    0.513389826    0.289487660
    0.330484211    0.313389868    0.000000000
    0.297150791    0.080056474    0.144743830
    0.263817370    0.846723080    0.289487660
    0.663817465    0.646723151    0.000000000
    0.630484045    0.413389713    0.144743830
    0.597150624    0.180056334    0.289487660
    0.313817531    0.946723342    0.072371759
    0.280484110    0.713389993    0.217115581
    0.247150689    0.480056584    0.361859351
    0.647150815    0.280056566    0.072371759
    0.613817394    0.046723194    0.217115551
    0.580483973    0.813389778    0.361859381
    0.980484426    0.613389850    0.072371788
    0.947151005    0.380056471    0.217115551
    0.913817585    0.146723092    0.361859351
    0.163817570    0.646723092    0.000000002
    0.130484164    0.413389713    0.144743830
    0.097150750    0.180056319    0.289487660
    0.497150898    0.980056643    0.000000005
    0.463817418    0.746723175    0.144743770
    0.430484056    0.513389826    0.289487600
    0.830484152    0.313389868    0.000000005
    0.797150731    0.080056526    0.144743770
    0.763817310    0.846723080    0.289487600
    0.147150904    0.280056566    0.072371773
    0.113817483    0.046723165    0.217115581
    0.080484070    0.813389778    0.361859381
    0.480484217    0.613389909    0.072371773
    0.447150826    0.380056530    0.217115551
    0.413817406    0.146723166    0.361859381
    0.813817501    0.946723282    0.072371759
    0.780484140    0.713389874    0.217115551
    0.747150719    0.480056465    0.361859381
    0.618741035    0.044169903    0.752224863
    0.418740928    0.644169986    0.562104404
    0.518741012    0.344169945    0.657164693
    0.904455364    0.187027037    0.752224863
    0.704455137    0.787027121    0.562104404
    0.804455280    0.487027079    0.657164693
    0.190169573    0.329884112    0.752224863
    0.990169466    0.929884195    0.562104404
    0.090169549    0.629884183    0.657164693
    0.475883931    0.472741365    0.752224863
    0.275883764    0.072741508    0.562104404
    0.375883847    0.772741437    0.657164693
    0.761598229    0.615598500    0.752224863
    0.561598063    0.215598613    0.562104404
    0.661598086    0.915598571    0.657164693
    0.047312498    0.758455634    0.752224863
    0.847312272    0.358455747    0.562104404
    0.947312355    0.058455706    0.657164693
    0.333026648    0.901312709    0.752224863
    0.133026600    0.501312852    0.562104404
    0.233026624    0.201312825    0.657164693
    0.597312510    0.358455718    0.799754858
    0.397312343    0.958455861    0.609634459
    0.497312427    0.658455849    0.704694629
    0.740169585    0.929884255    0.799754858
    0.540169477    0.529884338    0.609634459
    0.640169501    0.229884282    0.704694629
    0.025883913    0.072741508    0.799754858
    0.825883627    0.672741652    0.609634459
    0.925883710    0.372741580    0.704694688
    0.311598182    0.215598658    0.799754798
    0.111598015    0.815598726    0.609634459
    0.211598158    0.515598655    0.704694688
    0.883026779    0.501312792    0.799754858
    0.683026671    0.101312876    0.609634459
    0.783026695    0.801312804    0.704694629
    0.168740988    0.644170105    0.799754858
    0.968740821    0.244170189    0.609634459
    0.068740845    0.944170117    0.704694629
    0.454455137    0.787027121    0.799754858
    0.254455090    0.387027264    0.609634459
    0.354455113    0.087027192    0.704694629
    0.690169692    0.329884082    0.752224863
    0.490169436    0.929884255    0.562104404
    0.590169549    0.629884183    0.657164693
    0.547312498    0.758455634    0.752224863
    0.347312331    0.358455718    0.562104404
    0.447312415    0.058455706    0.657164693
    0.833026707    0.901312709    0.752224863
    0.633026600    0.501312852    0.562104404
    0.733026624    0.201312795    0.657164693
    0.118741035    0.044169903    0.752224863
    0.918740809    0.644169927    0.562104404
    0.018741012    0.344169915    0.657164693
    0.404455304    0.187026963    0.752224863
    0.204455137    0.787027121    0.562104404
    0.304455161    0.487027019    0.657164693
    0.975883842    0.472741365    0.752224863
    0.775883675    0.072741508    0.562104404
    0.875883818    0.772741377    0.657164693
    0.261598110    0.615598440    0.752224863
    0.061597943    0.215598568    0.562104404
    0.161598086    0.915598512    0.657164693
    0.525883913    0.072741508    0.799754858
    0.325883716    0.672741652    0.609634459
    0.425883770    0.372741580    0.704694688
    0.811598182    0.215598643    0.799754858
    0.611598015    0.815598726    0.609634459
    0.711598158    0.515598655    0.704694688
    0.097312450    0.358455777    0.799754858
    0.897312284    0.958455861    0.609634459
    0.997312367    0.658455729    0.704694688
    0.668741047    0.644170165    0.799754858
    0.468740910    0.244170234    0.609634459
    0.568740964    0.944170177    0.704694629
    0.954455316    0.787027240    0.799754798
    0.754455149    0.387027323    0.609634459
    0.854455173    0.087027192    0.704694688
    0.240169525    0.929884195    0.799754798
    0.040169239    0.529884279    0.609634459
    0.140169382    0.229884267    0.704694629
    0.383026719    0.501312792    0.799754918
    0.183026552    0.101312876    0.609634459
    0.283026576    0.801312804    0.704694688
