Si+C
    1.000000000
   13.303179741    0.000000000    0.000000000
    6.651589394   11.520891190    0.000000000
    0.000000000    0.000000000   21.679414749
Si  C  
72     308
Direct
    0.000000000    0.681493819    0.289268851
    0.000000000    0.014827055    0.000000008
    0.000000000    0.348160446    0.144634441
    0.333333343    0.014827132    0.289268851
    0.333333343    0.348160386    0.000000009
    0.333333343    0.681493819    0.144634441
    0.666666687    0.348160386    0.289268821
    0.666666687    0.681493759    0.000000006
    0.666666687    0.014827132    0.144634441
    0.000000000    0.014827251    0.325427473
    0.000000000    0.348160416    0.036158621
    0.000000000    0.681493819    0.180793047
    0.333333343    0.348160505    0.325427443
    0.333333343    0.681493819    0.036158621
    0.333333343    0.014827132    0.180793032
    0.666666746    0.681493998    0.325427473
    0.666666746    0.014827132    0.036158621
    0.666666746    0.348160505    0.180793062
    0.166666672    0.848160446    0.289268821
    0.166666672    0.181493714    0.000000004
    0.166666672    0.514827132    0.144634441
    0.500000060    0.181493759    0.289268821
    0.500000000    0.514827073    0.000000001
    0.500000000    0.848160505    0.144634441
    0.833333373    0.514827251    0.289268851
    0.833333373    0.848160446    0.000000000
    0.833333373    0.181493759    0.144634411
    0.166666687    0.181493759    0.325427383
    0.166666687    0.514827073    0.036158580
    0.166666687    0.848160505    0.180793002
    0.500000000    0.514827132    0.325427383
    0.500000000    0.848160326    0.036158577
    0.500000000    0.181493759    0.180793017
    0.833333313    0.848160446    0.325427383
    0.833333313    0.181493714    0.036158577
    0.833333313    0.514827132    0.180793047
    0.000000000    0.181493759    0.289268821
    0.000000000    0.514827073    0.000000011
    0.000000000    0.848160446    0.144634441
    0.333333343    0.514827251    0.289268851
    0.333333343    0.848160505    0.000000016
    0.333333343    0.181493878    0.144634470
    0.666666687    0.848160446    0.289268821
    0.666666687    0.181493714    0.000000001
    0.666666687    0.514827132    0.144634441
    0.000000014    0.514827251    0.325427443
    0.000000014    0.848160446    0.036158580
    0.000000014    0.181493878    0.180793032
    0.333333373    0.848160446    0.325427443
    0.333333373    0.181493714    0.036158580
    0.333333373    0.514827073    0.180793002
    0.666666746    0.181493878    0.325427443
    0.666666746    0.514827073    0.036158580
    0.666666746    0.848160505    0.180793017
    0.166666672    0.348160386    0.289268821
    0.166666672    0.681493759    0.000000009
    0.166666672    0.014827132    0.144634470
    0.500000000    0.681493759    0.289268851
    0.500000000    0.014827051    0.000000009
    0.500000000    0.348160475    0.144634441
    0.833333313    0.014827132    0.289268821
    0.833333313    0.348160416    0.000000006
    0.833333313    0.681493759    0.144634426
    0.166666687    0.681493878    0.325427473
    0.166666687    0.014827132    0.036158640
    0.166666687    0.348160386    0.180793032
    0.500000000    0.014827251    0.325427473
    0.500000000    0.348160416    0.036158610
    0.500000000    0.681493759    0.180793032
    0.833333373    0.348160505    0.325427443
    0.833333373    0.681493700    0.036158621
    0.833333373    0.014827013    0.180793032
    0.072890311    0.987919211    0.900184870
    0.025271416    0.226014853    0.425242722
    0.834795237    0.178395748    0.520231128
    0.644318938    0.130776525    0.615219593
    0.453842729    0.083157420    0.710208058
    0.263366550    0.035538316    0.805196404
    0.215747446    0.273633450    0.900184870
    0.168128610    0.511729121    0.425242722
    0.977652311    0.464109987    0.520231187
    0.787176132    0.416490853    0.615219593
    0.596699834    0.368871719    0.710208058
    0.406223685    0.321252584    0.805196464
    0.358604580    0.559347749    0.900184870
    0.310985744    0.797443449    0.425242752
    0.120509490    0.749824286    0.520231187
    0.930033326    0.702205122    0.615219593
    0.739556909    0.654586017    0.710208058
    0.549080849    0.606966853    0.805196404
    0.644318819    0.130776286    0.900184870
    0.596699953    0.368871987    0.425242752
    0.406223774    0.321252853    0.520231128
    0.215747565    0.273633718    0.615219593
    0.025271297    0.226014495    0.710208058
    0.834795117    0.178395391    0.805196404
    0.501461625    0.845061958    0.900184870
    0.453842849    0.083157659    0.425242722
    0.263366640    0.035538554    0.520231128
    0.072890401    0.987919331    0.615219593
    0.882414222    0.940300226    0.710207939
    0.691937923    0.892681122    0.805196464
    0.787176013    0.416490555    0.900184870
    0.739557147    0.654586256    0.425242752
    0.549080968    0.606967092    0.520231128
    0.358604699    0.559347987    0.615219593
    0.168128520    0.511728823    0.710207999
    0.977652192    0.464109689    0.805196464
    0.930033088    0.702204823    0.900184870
    0.882414222    0.940300524    0.425242722
    0.691938043    0.892681420    0.520231128
    0.501461744    0.845062256    0.615219593
    0.310985476    0.797443151    0.710208058
    0.120509297    0.749824047    0.805196404
    0.120509550    0.749824345    0.448989779
    0.930033326    0.702205241    0.543978274
    0.739557028    0.654586077    0.638966739
    0.549080849    0.606966972    0.733955085
    0.358604461    0.559347749    0.828943610
    0.406223804    0.321252942    0.448989779
    0.215747580    0.273633808    0.543978274
    0.025271416    0.226014614    0.638966739
    0.834795117    0.178395510    0.733955085
    0.644318700    0.130776405    0.828943610
    0.263366669    0.035538673    0.448989809
    0.072890446    0.987919509    0.543978274
    0.882414222    0.940300345    0.638966739
    0.691937923    0.892681241    0.733955085
    0.501461625    0.845062077    0.828943610
    0.549080968    0.606967211    0.448989779
    0.358604729    0.559348106    0.543978274
    0.168128505    0.511728942    0.638966739
    0.977652192    0.464109808    0.733955085
    0.787175894    0.416490614    0.828943610
    0.691938043    0.892681479    0.448989809
    0.501461864    0.845062315    0.543978333
    0.310985625    0.797443211    0.638966739
    0.120509356    0.749824107    0.733955085
    0.930033088    0.702204943    0.828943610
    0.977652431    0.464110017    0.448989809
    0.787176132    0.416490912    0.543978274
    0.596699953    0.368871778    0.638966739
    0.406223685    0.321252644    0.733955085
    0.215747386    0.273633480    0.828943610
    0.834795237    0.178395748    0.448989809
    0.644318938    0.130776525    0.543978274
    0.453842700    0.083157420    0.638966739
    0.263366491    0.035538316    0.733955085
    0.072890252    0.987919211    0.828943551
    0.144318849    0.130776286    0.900184929
    0.096700028    0.368871987    0.425242752
    0.906223774    0.321252823    0.520231128
    0.715747595    0.273633718    0.615219593
    0.525271297    0.226014495    0.710208058
    0.334795088    0.178395391    0.805196464
    0.287175983    0.416490614    0.900184870
    0.239557162    0.654586256    0.425242752
    0.049080923    0.606967151    0.520231187
    0.858604670    0.559347987    0.615219593
    0.668128371    0.511728883    0.710208058
    0.477652222    0.464109778    0.805196404
    0.572890282    0.987919211    0.900184870
    0.525271416    0.226014853    0.425242752
    0.334795177    0.178395748    0.520231128
    0.144318968    0.130776525    0.615219593
    0.953842640    0.083157420    0.710208058
    0.763366461    0.035538316    0.805196404
    0.430033058    0.702204823    0.900184929
    0.382414252    0.940300524    0.425242752
    0.191938043    0.892681420    0.520231187
    0.001461744    0.845062315    0.615219593
    0.810985565    0.797443151    0.710207999
    0.620509267    0.749823987    0.805196464
    0.715747356    0.273633420    0.900184870
    0.668128610    0.511729121    0.425242722
    0.477652401    0.464109957    0.520231128
    0.287176132    0.416490853    0.615219593
    0.096699983    0.368871719    0.710207939
    0.906223655    0.321252555    0.805196404
    0.858604550    0.559347749    0.900184810
    0.810985804    0.797443449    0.425242692
    0.620509505    0.749824286    0.520231128
    0.430033296    0.702205122    0.615219593
    0.239557013    0.654585958    0.710208058
    0.049080834    0.606966853    0.805196404
    0.001461744    0.845061958    0.900184870
    0.953842878    0.083157659    0.425242722
    0.763366699    0.035538435    0.520231128
    0.572890520    0.987919390    0.615219593
    0.382414162    0.940300286    0.710208058
    0.191937983    0.892681181    0.805196404
    0.049080983    0.606967151    0.448989779
    0.858604670    0.559348047    0.543978274
    0.668128490    0.511728883    0.638966739
    0.477652282    0.464109778    0.733955085
    0.287176043    0.416490614    0.828943491
    0.191938132    0.892681479    0.448989779
    0.001461864    0.845062315    0.543978274
    0.810985684    0.797443211    0.638966739
    0.620509386    0.749824047    0.733955026
    0.430033177    0.702204943    0.828943491
    0.477652371    0.464110017    0.448989779
    0.287176132    0.416490912    0.543978274
    0.096699901    0.368871808    0.638966739
    0.906223655    0.321252674    0.733955085
    0.715747476    0.273633510    0.828943491
    0.334795237    0.178395748    0.448989809
    0.144318998    0.130776644    0.543978274
    0.953842759    0.083157539    0.638966739
    0.763366580    0.035538316    0.733955085
    0.572890282    0.987919271    0.828943551
    0.620509505    0.749824405    0.448989809
    0.430033267    0.702205241    0.543978274
    0.239557043    0.654586136    0.638966739
    0.049080800    0.606966972    0.733955085
    0.858604550    0.559347868    0.828943551
    0.906223893    0.321252942    0.448989779
    0.715747595    0.273633838    0.543978274
    0.525271416    0.226014614    0.638966739
    0.334795177    0.178395510    0.733955026
    0.144318908    0.130776405    0.828943491
    0.763366699    0.035538554    0.448989779
    0.572890401    0.987919450    0.543978274
    0.382414162    0.940300345    0.638966739
    0.191937938    0.892681181    0.733955026
    0.001461744    0.845062077    0.828943551
    0.144318849    0.630776286    0.900184870
    0.096700028    0.868871987    0.425242752
    0.906223774    0.821252823    0.520231128
    0.715747595    0.773633718    0.615219593
    0.525271297    0.726014555    0.710208058
    0.334795147    0.678395450    0.805196404
    0.430033118    0.202204823    0.900184870
    0.382414281    0.440300524    0.425242752
    0.191938058    0.392681420    0.520231128
    0.001461864    0.345062256    0.615219593
    0.810985565    0.297443122    0.710208058
    0.620509386    0.249823987    0.805196404
    0.287175983    0.916490555    0.900184870
    0.239557192    0.154586196    0.425242722
    0.049080975    0.106967092    0.520231128
    0.858604670    0.059347987    0.615219593
    0.668128490    0.011728764    0.710207939
    0.477652222    0.964109659    0.805196404
    0.572890162    0.487919092    0.900184870
    0.525271416    0.726014793    0.425242722
    0.334795177    0.678395629    0.520231128
    0.144318938    0.630776525    0.615219593
    0.953842759    0.583157420    0.710207939
    0.763366461    0.535538197    0.805196464
    0.858604431    0.059347749    0.900184870
    0.810985684    0.297443390    0.425242722
    0.620509505    0.249824256    0.520231128
    0.430033237    0.202205062    0.615219593
    0.239557043    0.154585958    0.710207939
    0.049080729    0.106966853    0.805196464
    0.715747476    0.773633480    0.900184810
    0.668128610    0.011729121    0.425242722
    0.477652371    0.964110017    0.520231128
    0.287176162    0.916490912    0.615219593
    0.096699864    0.868871748    0.710208058
    0.906223655    0.821252644    0.805196404
    0.001461744    0.345062017    0.900184870
    0.953842878    0.583157718    0.425242752
    0.763366580    0.535538554    0.520231187
    0.572890401    0.487919390    0.615219653
    0.382414103    0.440300286    0.710208058
    0.191937938    0.392681152    0.805196464
    0.191938102    0.392681479    0.448989779
    0.001461864    0.345062375    0.543978274
    0.810985684    0.297443211    0.638966739
    0.620509386    0.249824107    0.733955026
    0.430033177    0.202204943    0.828943491
    0.049080975    0.106967211    0.448989779
    0.858604670    0.059347987    0.543978274
    0.668128490    0.011728883    0.638966739
    0.477652282    0.964109778    0.733955085
    0.287176043    0.916490674    0.828943491
    0.334795266    0.678395748    0.448989779
    0.144318998    0.630776644    0.543978274
    0.953842759    0.583157539    0.638966739
    0.763366580    0.535538375    0.733955085
    0.572890282    0.487919271    0.828943491
    0.620509505    0.249824375    0.448989779
    0.430033237    0.202205181    0.543978274
    0.239557073    0.154586077    0.638966739
    0.049080811    0.106966972    0.733955085
    0.858604550    0.059347868    0.828943491
    0.477652371    0.964110076    0.448989779
    0.287176132    0.916490972    0.543978274
    0.096699908    0.868871808    0.638966739
    0.906223655    0.821252644    0.733955026
    0.715747356    0.773633540    0.828943551
    0.763366699    0.535538614    0.448989779
    0.572890401    0.487919509    0.543978274
    0.382414222    0.440300405    0.638966739
    0.191937953    0.392681271    0.733955026
    0.001461744    0.345062137    0.828943551
    0.906223655    0.821252942    0.448989809
    0.715747476    0.773633838    0.543978274
    0.525271237    0.726014674    0.638966739
    0.334794998    0.678395510    0.733955085
    0.144318759    0.630776405    0.828943491
    0.072890311    0.487919152    0.900184929
    0.025271416    0.726014793    0.425242722
    0.834795237    0.678395629    0.520231128
    0.644319057    0.630776525    0.615219593
    0.453842729    0.583157361    0.710208058
    0.263366550    0.535538256    0.805196404
    0.358604580    0.059347749    0.900184870
    0.310985744    0.297443420    0.425242722
    0.120509498    0.249824286    0.520231128
    0.930033326    0.202205181    0.615219593
    0.739557028    0.154585958    0.710208058
    0.549080729    0.106966853    0.805196404
    0.215747386    0.773633361    0.900184870
    0.168128580    0.011729002    0.425242722
    0.977652311    0.964109957    0.520231128
    0.787176132    0.916490793    0.615219593
    0.596699953    0.868871629    0.710207999
    0.406223625    0.821252525    0.805196464
    0.501461625    0.345061958    0.900184870
    0.453842878    0.583157659    0.425242722
    0.263366640    0.535538554    0.520231128
    0.072890416    0.487919390    0.615219593
    0.882414222    0.440300286    0.710207939
    0.691937923    0.392681092    0.805196404
    0.644318819    0.630776286    0.900184810
    0.596700072    0.868871987    0.425242722
    0.406223774    0.821252882    0.520231128
    0.215747580    0.773633718    0.615219593
    0.025271297    0.726014555    0.710208058
    0.834795117    0.678395450    0.805196404
    0.930033088    0.202204823    0.900184870
    0.882414222    0.440300524    0.425242722
    0.691938043    0.392681420    0.520231128
    0.501461864    0.345062286    0.615219593
    0.310985476    0.297443122    0.710208058
    0.120509319    0.249824017    0.805196464
    0.787175894    0.916490555    0.900184929
    0.739557147    0.154586196    0.425242752
    0.549080849    0.106967092    0.520231128
    0.358604640    0.059347868    0.615219653
    0.168128356    0.011728764    0.710208058
    0.977652192    0.964109719    0.805196404
    0.120509557    0.249824375    0.448989809
    0.930033326    0.202205181    0.543978274
    0.739557147    0.154586077    0.638966739
    0.549080849    0.106966972    0.733955085
    0.358604521    0.059347749    0.828943610
    0.263366699    0.535538614    0.448989779
    0.072890475    0.487919509    0.543978333
    0.882414222    0.440300375    0.638966739
    0.691937923    0.392681241    0.733955085
    0.501461625    0.345062077    0.828943610
    0.406223804    0.821252942    0.448989809
    0.215747565    0.773633838    0.543978274
    0.025271297    0.726014674    0.638966739
    0.834795117    0.678395510    0.733955085
    0.644318700    0.630776405    0.828943610
    0.691938043    0.392681479    0.448989779
    0.501461864    0.345062375    0.543978274
    0.310985655    0.297443211    0.638966739
    0.120509379    0.249824092    0.733955085
    0.930033088    0.202204943    0.828943610
    0.549080968    0.106967211    0.448989809
    0.358604699    0.059347987    0.543978333
    0.168128476    0.011728883    0.638966739
    0.977652192    0.964109838    0.733955085
    0.787175894    0.916490674    0.828943610
    0.834795237    0.678395748    0.448989809
    0.644318938    0.630776644    0.543978274
    0.453842759    0.583157480    0.638966739
    0.263366461    0.535538316    0.733955085
    0.072890162    0.487919211    0.828943610
    0.977652550    0.964110076    0.448989809
    0.787176251    0.916490972    0.543978274
    0.596700072    0.868871808    0.638966739
    0.406223744    0.821252644    0.733955085
    0.215747505    0.773633480    0.828943610
