Ge+Si
    1.000000000
   16.973400116    0.000000000    0.000000000
    0.000000000   16.973400116    0.000000000
    0.000000000    0.000000000   17.861000061
Ge  Si 
108     120
Direct
    0.994305491    0.666666567    0.000000000
    0.827638865    0.666666567    0.158384174
    0.660972118    0.666666567    0.316768378
    0.994305491    0.333333284    0.000000000
    0.827638865    0.333333284    0.158384174
    0.660972118    0.333333284    0.316768378
    0.994305491    0.000000000    0.000000000
    0.827638865    0.000000000    0.158384174
    0.660972118    0.000000000    0.316768378
    0.327638805    0.666666567    0.000000000
    0.160972148    0.666666567    0.158384174
    0.994305432    0.666666567    0.316768378
    0.327638805    0.333333284    0.000000000
    0.160972148    0.333333284    0.158384174
    0.994305432    0.333333284    0.316768378
    0.327638805    0.000000000    0.000000000
    0.160972148    0.000000000    0.158384174
    0.994305432    0.000000000    0.316768378
    0.660972118    0.666666567    0.000000000
    0.494305432    0.666666567    0.158384174
    0.327638745    0.666666567    0.316768378
    0.660972118    0.333333284    0.000000000
    0.494305432    0.333333284    0.158384174
    0.327638745    0.333333284    0.316768378
    0.660972118    0.000000000    0.000000000
    0.494305432    0.000000000    0.158384174
    0.327638745    0.000000000    0.316768378
    0.077638842    0.916666567    0.079192095
    0.910972118    0.916666567    0.237576291
    0.744305491    0.916666567    0.395960480
    0.077638842    0.583333313    0.079192095
    0.910972118    0.583333313    0.237576291
    0.744305491    0.583333313    0.395960480
    0.077638842    0.249999955    0.079192095
    0.910972118    0.249999955    0.237576291
    0.744305491    0.249999955    0.395960480
    0.410972089    0.916666567    0.079192095
    0.244305417    0.916666567    0.237576291
    0.077638723    0.916666567    0.395960480
    0.410972089    0.583333313    0.079192095
    0.244305417    0.583333313    0.237576291
    0.077638723    0.583333313    0.395960480
    0.410972089    0.249999955    0.079192095
    0.244305417    0.249999955    0.237576291
    0.077638723    0.249999955    0.395960480
    0.744305491    0.916666567    0.079192095
    0.577638745    0.916666567    0.237576291
    0.410972059    0.916666567    0.395960480
    0.744305491    0.583333313    0.079192095
    0.577638745    0.583333313    0.237576291
    0.410972059    0.583333313    0.395960480
    0.744305491    0.249999955    0.079192095
    0.577638745    0.249999955    0.237576291
    0.410972059    0.249999955    0.395960480
    0.160972163    0.833333194    0.000000000
    0.994305491    0.833333194    0.158384174
    0.827638805    0.833333194    0.316768378
    0.160972163    0.499999911    0.000000000
    0.994305491    0.499999911    0.158384174
    0.827638805    0.499999911    0.316768378
    0.160972163    0.166666642    0.000000000
    0.994305491    0.166666642    0.158384174
    0.827638805    0.166666642    0.316768378
    0.494305432    0.833333194    0.000000000
    0.327638745    0.833333194    0.158384174
    0.160972074    0.833333194    0.316768378
    0.494305432    0.499999911    0.000000000
    0.327638745    0.499999911    0.158384174
    0.160972074    0.499999911    0.316768378
    0.494305432    0.166666642    0.000000000
    0.327638745    0.166666642    0.158384174
    0.160972074    0.166666642    0.316768378
    0.827638805    0.833333194    0.000000000
    0.660972118    0.833333194    0.158384174
    0.494305432    0.833333194    0.316768378
    0.827638805    0.499999911    0.000000000
    0.660972118    0.499999911    0.158384174
    0.494305432    0.499999911    0.316768378
    0.827638805    0.166666642    0.000000000
    0.660972118    0.166666642    0.158384174
    0.494305432    0.166666642    0.316768378
    0.244305462    0.749999881    0.079192095
    0.077638783    0.749999881    0.237576291
    0.910972118    0.749999881    0.395960480
    0.244305462    0.416666627    0.079192095
    0.077638783    0.416666627    0.237576291
    0.910972118    0.416666627    0.395960480
    0.244305462    0.083333328    0.079192095
    0.077638783    0.083333328    0.237576291
    0.910972118    0.083333328    0.395960480
    0.577638865    0.749999881    0.079192095
    0.410972148    0.749999881    0.237576291
    0.244305447    0.749999881    0.395960480
    0.577638865    0.416666627    0.079192095
    0.410972148    0.416666627    0.237576291
    0.244305447    0.416666627    0.395960480
    0.577638865    0.083333328    0.079192095
    0.410972148    0.083333328    0.237576291
    0.244305447    0.083333328    0.395960480
    0.910972178    0.749999881    0.079192095
    0.744305491    0.749999881    0.237576291
    0.577638745    0.749999881    0.395960480
    0.910972178    0.416666627    0.079192095
    0.744305491    0.416666627    0.237576291
    0.577638745    0.416666627    0.395960480
    0.910972178    0.083333328    0.079192095
    0.744305491    0.083333328    0.237576291
    0.577638745    0.083333328    0.395960480
    0.440223217    0.184619963    0.507936299
    0.290223122    0.234620020    0.659971476
    0.140223026    0.284620047    0.812006652
    0.540223122    0.484620005    0.507936299
    0.390223026    0.534620106    0.659971476
    0.240222931    0.584620118    0.812006652
    0.640223026    0.784619927    0.507936299
    0.490222931    0.834619999    0.659971476
    0.340223074    0.884620070    0.812006652
    0.140223026    0.284619987    0.507936299
    0.990223050    0.334620029    0.659971476
    0.840222955    0.384620070    0.812006652
    0.240223050    0.584619999    0.507936299
    0.090223074    0.634620070    0.659971476
    0.940222979    0.684620142    0.812006652
    0.340223074    0.884619951    0.507936299
    0.190222979    0.934620023    0.659971476
    0.040222883    0.984620094    0.812006652
    0.740223050    0.084619924    0.507936299
    0.590223074    0.134619996    0.659971476
    0.440222979    0.184620053    0.812006652
    0.840223074    0.384619951    0.507936299
    0.690222979    0.434620023    0.659971476
    0.540222883    0.484620064    0.812006652
    0.940223098    0.684620023    0.507936299
    0.790223002    0.734620094    0.659971476
    0.640223026    0.784620166    0.812006652
    0.040223122    0.984619975    0.507936299
    0.890222967    0.034619927    0.659971476
    0.740222931    0.084620148    0.812006652
    0.690222979    0.184619933    0.583953917
    0.540222883    0.234620005    0.735989094
    0.390222788    0.284620106    0.888024211
    0.390223145    0.284619987    0.583953917
    0.240223169    0.334620029    0.735989094
    0.090222955    0.384620100    0.888024211
    0.490223169    0.584619999    0.583953917
    0.340223074    0.634620070    0.735989094
    0.190222979    0.684620142    0.888024211
    0.590223074    0.884619951    0.583953917
    0.440222979    0.934620142    0.735989094
    0.290222883    0.984620094    0.888024211
    0.990223050    0.084619910    0.583953917
    0.840223014    0.134620100    0.735989094
    0.690222979    0.184620172    0.888024211
    0.090223074    0.384619951    0.583953917
    0.940222979    0.434620053    0.735989094
    0.790222883    0.484620064    0.888024211
    0.190223098    0.684619904    0.583953917
    0.040223002    0.734619975    0.735989094
    0.890222907    0.784620166    0.888024211
    0.290223122    0.984619975    0.583953917
    0.140223026    0.034620047    0.735989094
    0.990222931    0.084620148    0.888024211
    0.790223062    0.484619945    0.583953917
    0.640223026    0.534620047    0.735989094
    0.490222931    0.584620118    0.888024211
    0.890223086    0.784620047    0.583953917
    0.740222931    0.834620118    0.735989094
    0.590222836    0.884620070    0.888024211
    0.640223026    0.284619927    0.507936299
    0.490223050    0.334620029    0.659971476
    0.340222955    0.384620130    0.812006652
    0.240223050    0.084619932    0.507936299
    0.090223074    0.134619996    0.659971476
    0.940222919    0.184620082    0.812006652
    0.340223074    0.384619951    0.507936299
    0.190222979    0.434620023    0.659971476
    0.040222883    0.484620124    0.812006652
    0.440223098    0.684620023    0.507936299
    0.290223122    0.734620094    0.659971476
    0.140222907    0.784620166    0.812006652
    0.540223122    0.984620094    0.507936299
    0.390223026    0.034620166    0.659971476
    0.240222931    0.084620148    0.812006652
    0.940223098    0.184619948    0.507936299
    0.790223002    0.234620020    0.659971476
    0.640222907    0.284620106    0.812006652
    0.040223122    0.484620005    0.507936299
    0.890223026    0.534620047    0.659971476
    0.740222931    0.584620118    0.812006652
    0.140223026    0.784619927    0.507936299
    0.990222991    0.834619999    0.659971476
    0.840222895    0.884620070    0.812006652
    0.740223050    0.584619880    0.507936299
    0.590223074    0.634620070    0.659971476
    0.440222979    0.684620142    0.812006652
    0.840223074    0.884619951    0.507936299
    0.690222979    0.934620023    0.659971476
    0.540222883    0.984620094    0.812006652
    0.490223050    0.084619910    0.583953917
    0.340223074    0.134620100    0.735989094
    0.190222979    0.184620053    0.888024211
    0.590223074    0.384619951    0.583953917
    0.440222979    0.434620053    0.735989094
    0.290222883    0.484620064    0.888024211
    0.690223098    0.684619904    0.583953917
    0.540223122    0.734619975    0.735989094
    0.390223026    0.784620047    0.888024211
    0.190223098    0.184619933    0.583953917
    0.040223002    0.234620020    0.735989094
    0.890222907    0.284620047    0.888024211
    0.290223122    0.484620005    0.583953917
    0.140223026    0.534620047    0.735989094
    0.990222991    0.584620118    0.888024211
    0.390223026    0.784619927    0.583953917
    0.240223050    0.834619999    0.735989094
    0.090222955    0.884620190    0.888024211
    0.890223086    0.284619957    0.583953917
    0.740223050    0.334620029    0.735989094
    0.590222836    0.384620100    0.888024211
    0.990223050    0.584619999    0.583953917
    0.840223014    0.634620070    0.735989094
    0.690222979    0.684620023    0.888024211
    0.090223074    0.884619951    0.583953917
    0.940222979    0.934620023    0.735989094
    0.790222883    0.984620094    0.888024211
    0.790223062    0.984619975    0.583953917
    0.640223026    0.034620047    0.735989094
    0.490222931    0.084620148    0.888024211
