C+Si
    1.000000000
   13.345743179    0.000000000    0.000000000
   -6.672873020   14.920996666    0.000000000
    0.000000000    0.000000000    8.192405701
C   Si 
84     36
Direct
    0.803541958    0.827111602    0.194707409
    0.174970403    0.855683148    0.000000031
    0.489256203    0.841397464    0.097353734
    0.946399033    0.684254408    0.194707468
    0.317827493    0.712826014    0.000000005
    0.632113278    0.698540211    0.097353734
    0.089256167    0.541397333    0.194707409
    0.460684687    0.569968879    0.000000031
    0.774970472    0.555683136    0.097353734
    0.232113361    0.398540169    0.194707409
    0.603541851    0.427111745    0.000000031
    0.917827666    0.412825942    0.097353734
    0.374970436    0.255683035    0.194707409
    0.746398985    0.284254611    0.000000031
    0.060684800    0.269968837    0.097353734
    0.517827630    0.112825885    0.194707409
    0.889256120    0.141397476    0.000000031
    0.203541875    0.127111688    0.097353734
    0.660684824    0.969968736    0.194707423
    0.032113254    0.998540282    0.000000019
    0.346399039    0.984254539    0.097353734
    0.353541851    0.927111626    0.243384123
    0.724970222    0.955683172    0.048676774
    0.039256096    0.941397429    0.146030501
    0.496398926    0.784254432    0.243384168
    0.867827296    0.812825978    0.048676778
    0.182113051    0.798540175    0.146030456
    0.639256239    0.641397357    0.243384168
    0.010684609    0.669968843    0.048676770
    0.324970484    0.655683160    0.146030456
    0.782113314    0.498540282    0.243384168
    0.153541684    0.527111769    0.048676770
    0.467827559    0.512826025    0.146030456
    0.924970269    0.355683059    0.243384197
    0.296398789    0.384254605    0.048676793
    0.610684574    0.369968861    0.146030471
    0.067827582    0.212825894    0.243384197
    0.439256072    0.241397485    0.048676785
    0.753541827    0.227111697    0.146030471
    0.210684776    0.069968797    0.243384197
    0.582113147    0.098540336    0.048676789
    0.896398902    0.084254570    0.146030501
    0.303542018    0.827111602    0.194707468
    0.674970448    0.855683267    0.000000000
    0.989256203    0.841397405    0.097353734
    0.446399212    0.684254408    0.194707468
    0.817827702    0.712826073    0.000000000
    0.132113338    0.698540211    0.097353734
    0.589256406    0.541397274    0.194707468
    0.960684776    0.569968939    0.000000000
    0.274970531    0.555683136    0.097353734
    0.732113421    0.398540229    0.194707468
    0.103541844    0.427111775    0.000000013
    0.417827666    0.412825972    0.097353727
    0.874970555    0.255683005    0.194707409
    0.246398970    0.284254581    0.000000015
    0.560684800    0.269968808    0.097353727
    0.017827630    0.112825878    0.194707409
    0.389256120    0.141397446    0.000000015
    0.703541934    0.127111673    0.097353727
    0.160684824    0.969968736    0.194707409
    0.532113254    0.998540342    0.000000015
    0.846399069    0.984254539    0.097353727
    0.853541791    0.927111626    0.243384168
    0.224970296    0.955683172    0.048676793
    0.539256036    0.941397369    0.146030501
    0.996398866    0.784254551    0.243384168
    0.367827386    0.812826097    0.048676793
    0.682113111    0.798540294    0.146030501
    0.139256120    0.641397357    0.243384123
    0.510684609    0.669968843    0.048676793
    0.824970424    0.655683100    0.146030501
    0.282113314    0.498540163    0.243384168
    0.653541744    0.527111709    0.048676793
    0.967827499    0.512825906    0.146030501
    0.424970388    0.355683088    0.243384168
    0.796398759    0.384254575    0.048676804
    0.110684633    0.369968832    0.146030501
    0.567827702    0.212825909    0.243384242
    0.939256072    0.241397485    0.048676789
    0.253541827    0.227111712    0.146030501
    0.710684776    0.069968820    0.243384123
    0.082113147    0.098540328    0.048676793
    0.396399021    0.084254608    0.146030501
    0.057757020    0.115859032    0.436397195
    0.024423599    0.882525623    0.584633172
    0.991090178    0.649192274    0.732869148
    0.391090274    0.449192345    0.436397195
    0.357756853    0.215858936    0.584633172
    0.324423432    0.982525527    0.732869148
    0.724423528    0.782525599    0.436397195
    0.691090107    0.549192190    0.584633172
    0.657756686    0.315858781    0.732869148
    0.374423593    0.082525849    0.510515034
    0.341090173    0.849192441    0.658751011
    0.307756752    0.615859032    0.806986928
    0.707756877    0.415859044    0.510515034
    0.674423456    0.182525665    0.658750951
    0.641090035    0.949192226    0.806986988
    0.041090488    0.749192297    0.510515034
    0.007757068    0.515858948    0.658750951
    0.974423647    0.282525539    0.806986928
    0.224423632    0.782525539    0.436397195
    0.191090226    0.549192190    0.584633172
    0.157756805    0.315858781    0.732869148
    0.557756960    0.115859151    0.436397195
    0.524423480    0.882525623    0.584633112
    0.491090119    0.649192274    0.732869089
    0.891090214    0.449192345    0.436397195
    0.857756793    0.215858996    0.584633112
    0.824423373    0.982525527    0.732869089
    0.207756966    0.415859044    0.510515034
    0.174423546    0.182525635    0.658751011
    0.141090125    0.949192226    0.806986988
    0.541090250    0.749192357    0.510515034
    0.507756889    0.515859008    0.658750951
    0.474423468    0.282525629    0.806986988
    0.874423563    0.082525730    0.510515034
    0.841090202    0.849192321    0.658750951
    0.807756782    0.615858912    0.806986988
