Si+C                                    
   1.00000000000000     
    16.2930011750000006    0.0000000000000000    0.0000000000000000
   -10.8620004649999995   12.1440858840000008    0.0000000000000000
     0.0000000000000000    0.0000000000000000    7.9947485919999997
   Si   C 
    36    84
Direct
  0.9743584989999974  0.9829056259999973  0.0000000020000002
  0.6743584279999979  0.7829055790000012  0.1519008280000023
  0.3743584159999997  0.5829055310000015  0.3038016559999974
  0.3076917830000028  0.9829056259999973  0.0000000020000002
  0.0076917259999973  0.7829055790000012  0.1519008280000023
  0.7076916689999990  0.5829055310000015  0.3038016559999974
  0.6410250659999974  0.9829056259999973  0.0000000020000002
  0.3410250250000004  0.7829055790000012  0.1519008280000023
  0.0410249870000001  0.5829055310000015  0.3038016559999974
  0.1576919700000019  0.6329056020000010  0.0759502650000030
  0.8576919440000026  0.4329055250000025  0.2278510929999982
  0.5576919319999973  0.2329055069999981  0.3797519210000004
  0.4910252090000000  0.6329056020000010  0.0759502650000030
  0.1910251529999982  0.4329055250000025  0.2278510929999982
  0.8910251860000002  0.2329055069999981  0.3797519210000004
  0.8243584630000029  0.6329056020000010  0.0759502650000030
  0.5243583920000034  0.4329055250000025  0.2278510929999982
  0.2243584989999974  0.2329055069999981  0.3797519210000004
  0.1410251559999978  0.4829055960000019  0.0000000000000000
  0.8410251139999971  0.2829054890000009  0.1519008280000023
  0.5410251019999990  0.0829054339999971  0.3038016559999974
  0.4743584389999995  0.4829055960000019  0.0000000000000000
  0.1743583829999977  0.2829054890000009  0.1519008280000023
  0.8743583560000019  0.0829054339999971  0.3038016559999974
  0.8076916930000024  0.4829055960000019  0.0000000000000000
  0.5076916809999972  0.2829054890000009  0.1519008280000023
  0.2076916250000025  0.0829054339999971  0.3038016559999974
  0.9910252090000000  0.1329056619999989  0.0759502720000000
  0.6910251380000005  0.9329056139999992  0.2278510929999982
  0.3910251860000002  0.7329055670000031  0.3797519210000004
  0.3243584630000029  0.1329056619999989  0.0759502720000000
  0.0243584139999982  0.9329056139999992  0.2278510929999982
  0.7243584389999995  0.7329055670000031  0.3797519210000004
  0.6576916579999974  0.1329056619999989  0.0759502720000000
  0.3576916159999968  0.9329056139999992  0.2278510929999982
  0.0576916520000026  0.7329055670000031  0.3797519210000004
  0.7451682089999991  0.3281873460000000  0.7646963600000021
  0.9737396239999967  0.3853299620000001  0.5651752349999981
  0.8594539170000033  0.8567587140000015  0.6649358270000008
  0.6023110149999980  0.0424730780000004  0.7646963600000021
  0.8308824900000005  0.0996156929999970  0.5651752349999981
  0.7165967230000021  0.5710444449999983  0.6649358270000008
  0.4594538810000017  0.7567588089999973  0.7646963600000021
  0.6880252959999993  0.8139014240000009  0.5651752349999981
  0.5737395290000009  0.2853301760000022  0.6649358270000008
  0.3165968059999997  0.4710445400000012  0.7646963600000021
  0.5451682209999973  0.5281870370000021  0.5651752349999981
  0.4308825139999968  0.9996159080000027  0.6649358270000008
  0.1737396720000035  0.1853302720000016  0.7646963600000021
  0.4023110870000011  0.2424728869999981  0.5651752349999981
  0.2880253789999969  0.7139016389999995  0.6649358270000008
  0.0308824780000023  0.8996160029999984  0.7646963600000021
  0.2594539520000012  0.9567585590000007  0.5651752349999981
  0.1451682000000005  0.4281873700000034  0.6649358270000008
  0.8880254030000003  0.6139016150000032  0.7646963600000021
  0.1165968179999979  0.6710442899999975  0.5651752349999981
  0.0023111100000008  0.1424729820000010  0.6649358270000008
  0.7951682810000023  0.7781873939999997  0.8145766259999974
  0.0237396959999998  0.8353298899999970  0.6150554419999992
  0.9094540480000006  0.3067587609999975  0.7148160340000018
  0.6523110870000011  0.4924731249999965  0.8145766259999974
  0.8808824420000008  0.5496157409999967  0.6150554419999992
  0.7665967350000003  0.0210443739999988  0.7148160340000018
  0.5094540119999991  0.2067583799999966  0.8145766259999974
  0.7380253669999988  0.2639011139999994  0.6150555010000005
  0.6237397189999996  0.7353298660000007  0.7148160340000018
  0.3665968480000004  0.9210443500000025  0.8145766259999974
  0.5951682330000025  0.9781869649999990  0.6150555010000005
  0.4808825249999984  0.4496157170000004  0.7148160340000018
  0.2237396539999992  0.6353300809999993  0.8145766259999974
  0.4523110989999992  0.6924728159999987  0.6150554419999992
  0.3380253309999972  0.1639014479999972  0.7148160340000018
  0.0808826680000010  0.3496160509999982  0.8145766259999974
  0.3094540539999997  0.4067586660000018  0.6150554419999992
  0.1951683460000027  0.8781872989999968  0.7148160340000018
  0.9380253550000006  0.0639013050000017  0.8145766259999974
  0.1665968450000008  0.1210440400000010  0.6150554419999992
  0.0523110629999977  0.5924727920000024  0.7148160340000018
  0.8165966870000005  0.9710445400000012  0.7646963600000021
  0.0451682810000023  0.0281871560000013  0.5651752349999981
  0.9308823940000011  0.4996159080000027  0.6649358270000008
  0.6737394929999994  0.6853302720000016  0.7646963600000021
  0.9023109669999982  0.7424728869999981  0.5651752950000031
  0.7880251999999999  0.2139015200000003  0.6649358270000008
  0.5308824179999974  0.3996158839999993  0.7646963600000021
  0.7594538929999999  0.4567584990000029  0.5651752349999981
  0.6451681850000028  0.9281873700000034  0.6649358270000008
  0.3880252840000011  0.1139016150000032  0.7646963600000021
  0.6165968179999979  0.1710443500000025  0.5651752349999981
  0.5023110509999995  0.6424729820000010  0.6649358270000008
  0.2451682390000016  0.8281874660000028  0.7646963600000021
  0.4737396840000017  0.8853299620000001  0.5651752349999981
  0.3594539170000033  0.3567587140000015  0.6649358270000008
  0.1023110149999980  0.5424729590000013  0.7646963600000021
  0.3308824900000005  0.5996155739999978  0.5651752950000031
  0.2165968269999965  0.0710444449999983  0.6649358270000008
  0.9594539400000031  0.2567586899999981  0.7646963600000021
  0.1880253699999983  0.3139014240000009  0.5651752950000031
  0.0737397669999993  0.7853302959999979  0.6649358270000008
  0.8665968179999979  0.4210443500000025  0.8145766259999974
  0.0951683520000017  0.4781870839999982  0.6150554419999992
  0.9808825249999984  0.9496155980000012  0.7148160340000018
  0.7237396840000017  0.1353303189999977  0.8145766259999974
  0.9523109790000035  0.1924726960000029  0.6150554419999992
  0.8380253309999972  0.6639015670000035  0.7148160340000018
  0.5808825490000018  0.8496155739999978  0.8145766259999974
  0.8094539049999980  0.9067581890000014  0.6150554419999992
  0.6951681970000010  0.3781869410000027  0.7148160340000018
  0.4380254149999985  0.5639014240000009  0.8145766259999974
  0.6665968300000031  0.6210440400000010  0.6150554419999992
  0.5523111819999968  0.0924727920000024  0.7148160340000018
  0.2951682509999998  0.2781872750000005  0.8145766259999974
  0.5237396959999998  0.3353298899999970  0.6150554419999992
  0.4094539880000028  0.8067585229999992  0.7148160340000018
  0.1523111019999988  0.9924731249999965  0.8145766259999974
  0.3808825610000000  0.0496157409999967  0.6150554419999992
  0.2665968539999994  0.5210444929999980  0.7148160340000018
  0.0094541309999983  0.7067586180000021  0.8145766259999974
  0.2380254859999980  0.7639011139999994  0.6150554419999992
  0.1237398390000024  0.2353299859999964  0.7148159739999969
 
  0.00000000E+00  0.00000000E+00  0.00000000E+00
  0.00000000E+00  0.00000000E+00  0.00000000E+00
  0.00000000E+00  0.00000000E+00  0.00000000E+00
  0.00000000E+00  0.00000000E+00  0.00000000E+00
  0.00000000E+00  0.00000000E+00  0.00000000E+00
  0.00000000E+00  0.00000000E+00  0.00000000E+00
  0.00000000E+00  0.00000000E+00  0.00000000E+00
  0.00000000E+00  0.00000000E+00  0.00000000E+00
  0.00000000E+00  0.00000000E+00  0.00000000E+00
  0.00000000E+00  0.00000000E+00  0.00000000E+00
  0.00000000E+00  0.00000000E+00  0.00000000E+00
  0.00000000E+00  0.00000000E+00  0.00000000E+00
  0.00000000E+00  0.00000000E+00  0.00000000E+00
  0.00000000E+00  0.00000000E+00  0.00000000E+00
  0.00000000E+00  0.00000000E+00  0.00000000E+00
  0.00000000E+00  0.00000000E+00  0.00000000E+00
  0.00000000E+00  0.00000000E+00  0.00000000E+00
  0.00000000E+00  0.00000000E+00  0.00000000E+00
  0.00000000E+00  0.00000000E+00  0.00000000E+00
  0.00000000E+00  0.00000000E+00  0.00000000E+00
  0.00000000E+00  0.00000000E+00  0.00000000E+00
  0.00000000E+00  0.00000000E+00  0.00000000E+00
  0.00000000E+00  0.00000000E+00  0.00000000E+00
  0.00000000E+00  0.00000000E+00  0.00000000E+00
  0.00000000E+00  0.00000000E+00  0.00000000E+00
  0.00000000E+00  0.00000000E+00  0.00000000E+00
  0.00000000E+00  0.00000000E+00  0.00000000E+00
  0.00000000E+00  0.00000000E+00  0.00000000E+00
  0.00000000E+00  0.00000000E+00  0.00000000E+00
  0.00000000E+00  0.00000000E+00  0.00000000E+00
  0.00000000E+00  0.00000000E+00  0.00000000E+00
  0.00000000E+00  0.00000000E+00  0.00000000E+00
  0.00000000E+00  0.00000000E+00  0.00000000E+00
  0.00000000E+00  0.00000000E+00  0.00000000E+00
  0.00000000E+00  0.00000000E+00  0.00000000E+00
  0.00000000E+00  0.00000000E+00  0.00000000E+00
  0.00000000E+00  0.00000000E+00  0.00000000E+00
  0.00000000E+00  0.00000000E+00  0.00000000E+00
  0.00000000E+00  0.00000000E+00  0.00000000E+00
  0.00000000E+00  0.00000000E+00  0.00000000E+00
  0.00000000E+00  0.00000000E+00  0.00000000E+00
  0.00000000E+00  0.00000000E+00  0.00000000E+00
  0.00000000E+00  0.00000000E+00  0.00000000E+00
  0.00000000E+00  0.00000000E+00  0.00000000E+00
  0.00000000E+00  0.00000000E+00  0.00000000E+00
  0.00000000E+00  0.00000000E+00  0.00000000E+00
  0.00000000E+00  0.00000000E+00  0.00000000E+00
  0.00000000E+00  0.00000000E+00  0.00000000E+00
  0.00000000E+00  0.00000000E+00  0.00000000E+00
  0.00000000E+00  0.00000000E+00  0.00000000E+00
  0.00000000E+00  0.00000000E+00  0.00000000E+00
  0.00000000E+00  0.00000000E+00  0.00000000E+00
  0.00000000E+00  0.00000000E+00  0.00000000E+00
  0.00000000E+00  0.00000000E+00  0.00000000E+00
  0.00000000E+00  0.00000000E+00  0.00000000E+00
  0.00000000E+00  0.00000000E+00  0.00000000E+00
  0.00000000E+00  0.00000000E+00  0.00000000E+00
  0.00000000E+00  0.00000000E+00  0.00000000E+00
  0.00000000E+00  0.00000000E+00  0.00000000E+00
  0.00000000E+00  0.00000000E+00  0.00000000E+00
  0.00000000E+00  0.00000000E+00  0.00000000E+00
  0.00000000E+00  0.00000000E+00  0.00000000E+00
  0.00000000E+00  0.00000000E+00  0.00000000E+00
  0.00000000E+00  0.00000000E+00  0.00000000E+00
  0.00000000E+00  0.00000000E+00  0.00000000E+00
  0.00000000E+00  0.00000000E+00  0.00000000E+00
  0.00000000E+00  0.00000000E+00  0.00000000E+00
  0.00000000E+00  0.00000000E+00  0.00000000E+00
  0.00000000E+00  0.00000000E+00  0.00000000E+00
  0.00000000E+00  0.00000000E+00  0.00000000E+00
  0.00000000E+00  0.00000000E+00  0.00000000E+00
  0.00000000E+00  0.00000000E+00  0.00000000E+00
  0.00000000E+00  0.00000000E+00  0.00000000E+00
  0.00000000E+00  0.00000000E+00  0.00000000E+00
  0.00000000E+00  0.00000000E+00  0.00000000E+00
  0.00000000E+00  0.00000000E+00  0.00000000E+00
  0.00000000E+00  0.00000000E+00  0.00000000E+00
  0.00000000E+00  0.00000000E+00  0.00000000E+00
  0.00000000E+00  0.00000000E+00  0.00000000E+00
  0.00000000E+00  0.00000000E+00  0.00000000E+00
  0.00000000E+00  0.00000000E+00  0.00000000E+00
  0.00000000E+00  0.00000000E+00  0.00000000E+00
  0.00000000E+00  0.00000000E+00  0.00000000E+00
  0.00000000E+00  0.00000000E+00  0.00000000E+00
  0.00000000E+00  0.00000000E+00  0.00000000E+00
  0.00000000E+00  0.00000000E+00  0.00000000E+00
  0.00000000E+00  0.00000000E+00  0.00000000E+00
  0.00000000E+00  0.00000000E+00  0.00000000E+00
  0.00000000E+00  0.00000000E+00  0.00000000E+00
  0.00000000E+00  0.00000000E+00  0.00000000E+00
  0.00000000E+00  0.00000000E+00  0.00000000E+00
  0.00000000E+00  0.00000000E+00  0.00000000E+00
  0.00000000E+00  0.00000000E+00  0.00000000E+00
  0.00000000E+00  0.00000000E+00  0.00000000E+00
  0.00000000E+00  0.00000000E+00  0.00000000E+00
  0.00000000E+00  0.00000000E+00  0.00000000E+00
  0.00000000E+00  0.00000000E+00  0.00000000E+00
  0.00000000E+00  0.00000000E+00  0.00000000E+00
  0.00000000E+00  0.00000000E+00  0.00000000E+00
  0.00000000E+00  0.00000000E+00  0.00000000E+00
  0.00000000E+00  0.00000000E+00  0.00000000E+00
  0.00000000E+00  0.00000000E+00  0.00000000E+00
  0.00000000E+00  0.00000000E+00  0.00000000E+00
  0.00000000E+00  0.00000000E+00  0.00000000E+00
  0.00000000E+00  0.00000000E+00  0.00000000E+00
  0.00000000E+00  0.00000000E+00  0.00000000E+00
  0.00000000E+00  0.00000000E+00  0.00000000E+00
  0.00000000E+00  0.00000000E+00  0.00000000E+00
  0.00000000E+00  0.00000000E+00  0.00000000E+00
  0.00000000E+00  0.00000000E+00  0.00000000E+00
  0.00000000E+00  0.00000000E+00  0.00000000E+00
  0.00000000E+00  0.00000000E+00  0.00000000E+00
  0.00000000E+00  0.00000000E+00  0.00000000E+00
  0.00000000E+00  0.00000000E+00  0.00000000E+00
  0.00000000E+00  0.00000000E+00  0.00000000E+00
  0.00000000E+00  0.00000000E+00  0.00000000E+00
  0.00000000E+00  0.00000000E+00  0.00000000E+00
  0.00000000E+00  0.00000000E+00  0.00000000E+00
  0.00000000E+00  0.00000000E+00  0.00000000E+00
  0.00000000E+00  0.00000000E+00  0.00000000E+00
