Si+C
    1.000000000
   16.293001175    0.000000000    0.000000000
  -10.862000465   12.144085884    0.000000000
    0.000000000    0.000000000    7.994748592
Si  C  
36     84
Direct
    0.974358499    0.982905626    0.000000002
    0.674358428    0.782905579    0.151900828
    0.374358416    0.582905531    0.303801656
    0.307691783    0.982905626    0.000000002
    0.007691726    0.782905579    0.151900828
    0.707691669    0.582905531    0.303801656
    0.641025066    0.982905626    0.000000002
    0.341025025    0.782905579    0.151900828
    0.041024987    0.582905531    0.303801656
    0.157691970    0.632905602    0.075950265
    0.857691944    0.432905525    0.227851093
    0.557691932    0.232905507    0.379751921
    0.491025209    0.632905602    0.075950265
    0.191025153    0.432905525    0.227851093
    0.891025186    0.232905507    0.379751921
    0.824358463    0.632905602    0.075950265
    0.524358392    0.432905525    0.227851093
    0.224358499    0.232905507    0.379751921
    0.141025156    0.482905596    0.000000000
    0.841025114    0.282905489    0.151900828
    0.541025102    0.082905434    0.303801656
    0.474358439    0.482905596    0.000000000
    0.174358383    0.282905489    0.151900828
    0.874358356    0.082905434    0.303801656
    0.807691693    0.482905596    0.000000000
    0.507691681    0.282905489    0.151900828
    0.207691625    0.082905434    0.303801656
    0.991025209    0.132905662    0.075950272
    0.691025138    0.932905614    0.227851093
    0.391025186    0.732905567    0.379751921
    0.324358463    0.132905662    0.075950272
    0.024358414    0.932905614    0.227851093
    0.724358439    0.732905567    0.379751921
    0.657691658    0.132905662    0.075950272
    0.357691616    0.932905614    0.227851093
    0.057691652    0.732905567    0.379751921
    0.745168209    0.328187346    0.764696360
    0.973739624    0.385329962    0.565175235
    0.859453917    0.856758714    0.664935827
    0.602311015    0.042473078    0.764696360
    0.830882490    0.099615693    0.565175235
    0.716596723    0.571044445    0.664935827
    0.459453881    0.756758809    0.764696360
    0.688025296    0.813901424    0.565175235
    0.573739529    0.285330176    0.664935827
    0.316596806    0.471044540    0.764696360
    0.545168221    0.528187037    0.565175235
    0.430882514    0.999615908    0.664935827
    0.173739672    0.185330272    0.764696360
    0.402311087    0.242472887    0.565175235
    0.288025379    0.713901639    0.664935827
    0.030882478    0.899616003    0.764696360
    0.259453952    0.956758559    0.565175235
    0.145168200    0.428187370    0.664935827
    0.888025403    0.613901615    0.764696360
    0.116596818    0.671044290    0.565175235
    0.002311110    0.142472982    0.664935827
    0.795168281    0.778187394    0.814576626
    0.023739696    0.835329890    0.615055442
    0.909454048    0.306758761    0.714816034
    0.652311087    0.492473125    0.814576626
    0.880882442    0.549615741    0.615055442
    0.766596735    0.021044374    0.714816034
    0.509454012    0.206758380    0.814576626
    0.738025367    0.263901114    0.615055501
    0.623739719    0.735329866    0.714816034
    0.366596848    0.921044350    0.814576626
    0.595168233    0.978186965    0.615055501
    0.480882525    0.449615717    0.714816034
    0.223739654    0.635330081    0.814576626
    0.452311099    0.692472816    0.615055442
    0.338025331    0.163901448    0.714816034
    0.080882668    0.349616051    0.814576626
    0.309454054    0.406758666    0.615055442
    0.195168346    0.878187299    0.714816034
    0.938025355    0.063901305    0.814576626
    0.166596845    0.121044040    0.615055442
    0.052311063    0.592472792    0.714816034
    0.816596687    0.971044540    0.764696360
    0.045168281    0.028187156    0.565175235
    0.930882394    0.499615908    0.664935827
    0.673739493    0.685330272    0.764696360
    0.902310967    0.742472887    0.565175295
    0.788025200    0.213901520    0.664935827
    0.530882418    0.399615884    0.764696360
    0.759453893    0.456758499    0.565175235
    0.645168185    0.928187370    0.664935827
    0.388025284    0.113901615    0.764696360
    0.616596818    0.171044350    0.565175235
    0.502311051    0.642472982    0.664935827
    0.245168239    0.828187466    0.764696360
    0.473739684    0.885329962    0.565175235
    0.359453917    0.356758714    0.664935827
    0.102311015    0.542472959    0.764696360
    0.330882490    0.599615574    0.565175295
    0.216596827    0.071044445    0.664935827
    0.959453940    0.256758690    0.764696360
    0.188025370    0.313901424    0.565175295
    0.073739767    0.785330296    0.664935827
    0.866596818    0.421044350    0.814576626
    0.095168352    0.478187084    0.615055442
    0.980882525    0.949615598    0.714816034
    0.723739684    0.135330319    0.814576626
    0.952310979    0.192472696    0.615055442
    0.838025331    0.663901567    0.714816034
    0.580882549    0.849615574    0.814576626
    0.809453905    0.906758189    0.615055442
    0.695168197    0.378186941    0.714816034
    0.438025415    0.563901424    0.814576626
    0.666596830    0.621044040    0.615055442
    0.552311182    0.092472792    0.714816034
    0.295168251    0.278187275    0.814576626
    0.523739696    0.335329890    0.615055442
    0.409453988    0.806758523    0.714816034
    0.152311102    0.992473125    0.814576626
    0.380882561    0.049615741    0.615055442
    0.266596854    0.521044493    0.714816034
    0.009454131    0.706758618    0.814576626
    0.238025486    0.763901114    0.615055442
    0.123739839    0.235329986    0.714815974
