Ge+Si                                   
   1.00000000000000     
     8.0013380049999991    0.0000000000000000    0.0000000000000000
     0.0000000000000000   16.0026760099999983    0.0000000000000000
     0.0000000000000000    0.0000000000000000   13.2643241879999998
   Ge   Si
    48    24
Direct
  0.9914582970000012  0.9957291480000023  0.0000000000000000
  0.7414582970000012  0.8707291480000023  0.2132713199999969
  0.4914582970000012  0.7457291480000023  0.4265426700000035
  0.9914582370000034  0.4957290890000010  0.0000000000000000
  0.7414582970000012  0.3707291190000035  0.2132713199999969
  0.4914582970000012  0.2457291190000035  0.4265426700000035
  0.4914582370000034  0.2457291190000035  0.0000000000000000
  0.2414582669999987  0.1207291329999975  0.2132713199999969
  0.9914582970000012  0.9957291480000023  0.4265426700000035
  0.4914582370000034  0.7457290890000010  0.0000000000000000
  0.2414582820000035  0.6207290890000010  0.2132713199999969
  0.9914582370000034  0.4957290890000010  0.4265426700000035
  0.2414582820000035  0.9957291480000023  0.1066356600000020
  0.9914582970000012  0.8707291480000023  0.3199070100000014
  0.7414582970000012  0.7457291480000023  0.5331783290000018
  0.2414582370000034  0.4957290890000010  0.1066356600000020
  0.9914582370000034  0.3707290890000010  0.3199070100000014
  0.7414582370000034  0.2457290890000010  0.5331783290000018
  0.7414582970000012  0.2457291480000023  0.1066356600000020
  0.4914582970000012  0.1207291480000023  0.3199070100000014
  0.2414582820000035  0.9957291480000023  0.5331783290000018
  0.7414582970000012  0.7457290890000010  0.1066356600000020
  0.4914582669999987  0.6207290890000010  0.3199070100000014
  0.2414582669999987  0.4957291190000035  0.5331783290000018
  0.9914582970000012  0.2457291329999975  0.0000000000000000
  0.7414582970000012  0.1207291329999975  0.2132713199999969
  0.4914582970000012  0.9957291480000023  0.4265426700000035
  0.4914582669999987  0.9957291480000023  0.0000000000000000
  0.2414582669999987  0.8707291480000023  0.2132713199999969
  0.9914582970000012  0.7457291480000023  0.4265426700000035
  0.9914582370000034  0.7457291480000023  0.0000000000000000
  0.7414582970000012  0.6207291480000023  0.2132713199999969
  0.4914582970000012  0.4957291480000023  0.4265426700000035
  0.4914582669999987  0.4957291190000035  0.0000000000000000
  0.2414583119999989  0.3707291480000023  0.2132713199999969
  0.9914582970000012  0.2457291480000023  0.4265426700000035
  0.2414582820000035  0.2457291190000035  0.1066356600000020
  0.9914582970000012  0.1207291329999975  0.3199070100000014
  0.7414582970000012  0.9957291480000023  0.5331783290000018
  0.7414582370000034  0.9957291480000023  0.1066356600000020
  0.4914582669999987  0.8707291480000023  0.3199070100000014
  0.2414582520000010  0.7457290890000010  0.5331783290000018
  0.2414582820000035  0.7457290890000010  0.1066356600000020
  0.9914582970000012  0.6207290890000010  0.3199070100000014
  0.7414582970000012  0.4957290890000010  0.5331783290000018
  0.7414582370000034  0.4957290890000010  0.1066356600000020
  0.4914582669999987  0.3707291190000035  0.3199070100000014
  0.2414582520000010  0.2457290890000010  0.5331783290000018
  0.3738937379999996  0.8555291890000021  0.6459553839999970
  0.1238937379999996  0.4666402340000033  0.6942088600000034
  0.8738937379999996  0.0777513979999966  0.7424623969999971
  0.6238936780000017  0.6888623239999987  0.7907158140000021
  0.3738936190000004  0.2999733689999999  0.8389693499999993
  0.1238934989999976  0.9110840560000000  0.8872227669999972
  0.6238938569999988  0.6055293080000013  0.6459553839999970
  0.3738937379999996  0.2166402340000033  0.6942088600000034
  0.1238937379999996  0.8277513979999966  0.7424623969999971
  0.8738936190000004  0.4388623239999987  0.7907158730000035
  0.6238935590000025  0.0499732489999971  0.8389692900000014
  0.3738934989999976  0.6610841749999992  0.8872228860000035
  0.1238939759999980  0.6055293080000013  0.6459553839999970
  0.8738937970000009  0.2166402340000033  0.6942088600000034
  0.6238937970000009  0.8277512789999975  0.7424623969999971
  0.3738937379999996  0.4388623239999987  0.7907158730000035
  0.1238936190000004  0.0499732489999971  0.8389692900000014
  0.8738935590000025  0.6610841749999992  0.8872228259999986
  0.8738938569999988  0.8555291890000021  0.6459553839999970
  0.6238937379999996  0.4666402340000033  0.6942088600000034
  0.3738937379999996  0.0777513979999966  0.7424623969999971
  0.1238937379999996  0.6888623239999987  0.7907158140000021
  0.8738936780000017  0.2999732489999971  0.8389693499999993
  0.6238934400000034  0.9110842939999984  0.8872228860000035
 
  0.00000000E+00  0.00000000E+00  0.00000000E+00
  0.00000000E+00  0.00000000E+00  0.00000000E+00
  0.00000000E+00  0.00000000E+00  0.00000000E+00
  0.00000000E+00  0.00000000E+00  0.00000000E+00
  0.00000000E+00  0.00000000E+00  0.00000000E+00
  0.00000000E+00  0.00000000E+00  0.00000000E+00
  0.00000000E+00  0.00000000E+00  0.00000000E+00
  0.00000000E+00  0.00000000E+00  0.00000000E+00
  0.00000000E+00  0.00000000E+00  0.00000000E+00
  0.00000000E+00  0.00000000E+00  0.00000000E+00
  0.00000000E+00  0.00000000E+00  0.00000000E+00
  0.00000000E+00  0.00000000E+00  0.00000000E+00
  0.00000000E+00  0.00000000E+00  0.00000000E+00
  0.00000000E+00  0.00000000E+00  0.00000000E+00
  0.00000000E+00  0.00000000E+00  0.00000000E+00
  0.00000000E+00  0.00000000E+00  0.00000000E+00
  0.00000000E+00  0.00000000E+00  0.00000000E+00
  0.00000000E+00  0.00000000E+00  0.00000000E+00
  0.00000000E+00  0.00000000E+00  0.00000000E+00
  0.00000000E+00  0.00000000E+00  0.00000000E+00
  0.00000000E+00  0.00000000E+00  0.00000000E+00
  0.00000000E+00  0.00000000E+00  0.00000000E+00
  0.00000000E+00  0.00000000E+00  0.00000000E+00
  0.00000000E+00  0.00000000E+00  0.00000000E+00
  0.00000000E+00  0.00000000E+00  0.00000000E+00
  0.00000000E+00  0.00000000E+00  0.00000000E+00
  0.00000000E+00  0.00000000E+00  0.00000000E+00
  0.00000000E+00  0.00000000E+00  0.00000000E+00
  0.00000000E+00  0.00000000E+00  0.00000000E+00
  0.00000000E+00  0.00000000E+00  0.00000000E+00
  0.00000000E+00  0.00000000E+00  0.00000000E+00
  0.00000000E+00  0.00000000E+00  0.00000000E+00
  0.00000000E+00  0.00000000E+00  0.00000000E+00
  0.00000000E+00  0.00000000E+00  0.00000000E+00
  0.00000000E+00  0.00000000E+00  0.00000000E+00
  0.00000000E+00  0.00000000E+00  0.00000000E+00
  0.00000000E+00  0.00000000E+00  0.00000000E+00
  0.00000000E+00  0.00000000E+00  0.00000000E+00
  0.00000000E+00  0.00000000E+00  0.00000000E+00
  0.00000000E+00  0.00000000E+00  0.00000000E+00
  0.00000000E+00  0.00000000E+00  0.00000000E+00
  0.00000000E+00  0.00000000E+00  0.00000000E+00
  0.00000000E+00  0.00000000E+00  0.00000000E+00
  0.00000000E+00  0.00000000E+00  0.00000000E+00
  0.00000000E+00  0.00000000E+00  0.00000000E+00
  0.00000000E+00  0.00000000E+00  0.00000000E+00
  0.00000000E+00  0.00000000E+00  0.00000000E+00
  0.00000000E+00  0.00000000E+00  0.00000000E+00
  0.00000000E+00  0.00000000E+00  0.00000000E+00
  0.00000000E+00  0.00000000E+00  0.00000000E+00
  0.00000000E+00  0.00000000E+00  0.00000000E+00
  0.00000000E+00  0.00000000E+00  0.00000000E+00
  0.00000000E+00  0.00000000E+00  0.00000000E+00
  0.00000000E+00  0.00000000E+00  0.00000000E+00
  0.00000000E+00  0.00000000E+00  0.00000000E+00
  0.00000000E+00  0.00000000E+00  0.00000000E+00
  0.00000000E+00  0.00000000E+00  0.00000000E+00
  0.00000000E+00  0.00000000E+00  0.00000000E+00
  0.00000000E+00  0.00000000E+00  0.00000000E+00
  0.00000000E+00  0.00000000E+00  0.00000000E+00
  0.00000000E+00  0.00000000E+00  0.00000000E+00
  0.00000000E+00  0.00000000E+00  0.00000000E+00
  0.00000000E+00  0.00000000E+00  0.00000000E+00
  0.00000000E+00  0.00000000E+00  0.00000000E+00
  0.00000000E+00  0.00000000E+00  0.00000000E+00
  0.00000000E+00  0.00000000E+00  0.00000000E+00
  0.00000000E+00  0.00000000E+00  0.00000000E+00
  0.00000000E+00  0.00000000E+00  0.00000000E+00
  0.00000000E+00  0.00000000E+00  0.00000000E+00
  0.00000000E+00  0.00000000E+00  0.00000000E+00
  0.00000000E+00  0.00000000E+00  0.00000000E+00
  0.00000000E+00  0.00000000E+00  0.00000000E+00
