Sn+Sn
    1.000000000
   19.467599869    0.000000000    0.000000000
   -6.489200115   18.354230881    0.000000000
    0.000000000    0.000000000   22.942794800
Sn 
288
Direct
    0.170929775    0.461632222    0.000000002
    0.212596521    0.086632162    0.100000009
    0.254263312    0.711632133    0.200000003
    0.295929968    0.336632192    0.299999982
    0.337596744    0.961632013    0.400000036
    0.379263520    0.586632133    0.499999940
    0.504263103    0.461632222    0.000000002
    0.545929849    0.086632162    0.100000009
    0.587596595    0.711632133    0.200000003
    0.629263401    0.336632192    0.299999982
    0.670930147    0.961632013    0.400000036
    0.712596834    0.586632133    0.499999940
    0.837596416    0.461632222    0.000000002
    0.879263163    0.086632162    0.100000009
    0.920929909    0.711632133    0.200000003
    0.962596714    0.336632192    0.299999982
    0.004263401    0.961632013    0.400000036
    0.045930266    0.586632133    0.499999940
    0.004263098    0.961632192    0.000000002
    0.045929834    0.586632133    0.100000009
    0.087596603    0.211632133    0.200000018
    0.129263297    0.836632133    0.299999982
    0.170930058    0.461632013    0.400000036
    0.212596893    0.086632013    0.500000000
    0.337596446    0.961632192    0.000000002
    0.379263252    0.586632133    0.100000009
    0.420929968    0.211632133    0.200000018
    0.462596655    0.836632133    0.299999982
    0.504263401    0.461632013    0.400000036
    0.545930207    0.086632013    0.500000000
    0.670929730    0.961632192    0.000000002
    0.712596655    0.586632133    0.100000009
    0.754263222    0.211632133    0.200000018
    0.795930088    0.836632133    0.299999982
    0.837596774    0.461632013    0.400000036
    0.879263520    0.086632013    0.500000000
    0.254263103    0.711632192    0.000000031
    0.295929849    0.336632162    0.100000009
    0.337596595    0.961632133    0.200000003
    0.379263312    0.586632133    0.299999982
    0.420930088    0.211632073    0.400000006
    0.462596893    0.836632013    0.500000000
    0.587596536    0.711632192    0.000000031
    0.629263282    0.336632162    0.100000009
    0.670929968    0.961632133    0.200000003
    0.712596655    0.586632133    0.299999982
    0.754263461    0.211632073    0.400000006
    0.795930207    0.836632013    0.500000000
    0.920929730    0.711632192    0.000000031
    0.962596655    0.336632162    0.100000009
    0.004263163    0.961632133    0.200000003
    0.045930147    0.586632133    0.299999982
    0.087596774    0.211632073    0.400000006
    0.129263520    0.836632013    0.500000000
    0.087596439    0.211632192    0.000000000
    0.129263178    0.836632133    0.100000009
    0.170929939    0.461632133    0.200000018
    0.212596625    0.086632133    0.299999982
    0.254263401    0.711632013    0.400000036
    0.295930207    0.336632133    0.499999940
    0.420929819    0.211632192    0.000000000
    0.462596565    0.836632133    0.100000009
    0.504263341    0.461632133    0.200000018
    0.545930028    0.086632133    0.299999982
    0.587596774    0.711632013    0.400000036
    0.629263520    0.336632133    0.499999940
    0.754263103    0.211632192    0.000000000
    0.795929968    0.836632133    0.100000009
    0.837596595    0.461632133    0.200000018
    0.879263461    0.086632133    0.299999982
    0.920930088    0.711632013    0.400000036
    0.962596893    0.336632133    0.499999940
    0.129263103    0.586632192    0.000000009
    0.170929849    0.211632147    0.100000009
    0.212596595    0.836632133    0.200000003
    0.254263341    0.461632133    0.299999982
    0.295930058    0.086631954    0.400000036
    0.337596834    0.711632013    0.500000000
    0.462596476    0.586632192    0.000000009
    0.504263222    0.211632147    0.100000009
    0.545929968    0.836632133    0.200000003
    0.587596714    0.461632133    0.299999982
    0.629263461    0.086631954    0.400000036
    0.670930207    0.711632013    0.500000000
    0.795929849    0.586632192    0.000000009
    0.837596655    0.211632147    0.100000009
    0.879263461    0.836632133    0.200000003
    0.920930088    0.461632133    0.299999982
    0.962596834    0.086631954    0.400000036
    0.004263639    0.711632013    0.500000000
    0.295929819    0.086632192    0.000000003
    0.337596536    0.711632133    0.100000009
    0.379263252    0.336632133    0.200000018
    0.420930058    0.961632133    0.299999923
    0.462596834    0.586632013    0.400000036
    0.504263461    0.211632013    0.500000000
    0.629263163    0.086632192    0.000000003
    0.670929849    0.711632133    0.100000009
    0.712596655    0.336632133    0.200000018
    0.754263461    0.961632133    0.299999923
    0.795930147    0.586632013    0.400000036
    0.837596834    0.211632013    0.500000000
    0.962596536    0.086632192    0.000000003
    0.004263282    0.711632133    0.100000009
    0.045930028    0.336632133    0.200000018
    0.087596774    0.961632133    0.299999923
    0.129263520    0.586632013    0.400000036
    0.170930147    0.211632013    0.500000000
    0.212596431    0.836632252    0.000000036
    0.254263163    0.461632162    0.100000009
    0.295929939    0.086632155    0.200000003
    0.337596655    0.711632133    0.299999982
    0.379263371    0.336632073    0.400000006
    0.420930177    0.961632013    0.499999940
    0.545929790    0.836632252    0.000000036
    0.587596476    0.461632162    0.100000009
    0.629263222    0.086632155    0.200000003
    0.670929968    0.711632133    0.299999982
    0.712596774    0.336632073    0.400000006
    0.754263461    0.961632013    0.499999940
    0.879263103    0.836632252    0.000000036
    0.920929849    0.461632162    0.100000009
    0.962596536    0.086632155    0.200000003
    0.004263401    0.711632133    0.299999982
    0.045930147    0.336632073    0.400000006
    0.087596774    0.961632013    0.499999940
    0.045929752    0.336632192    0.000000013
    0.087596498    0.961632133    0.100000009
    0.129263252    0.586632133    0.200000003
    0.170929983    0.211632133    0.299999982
    0.212596700    0.836632013    0.399999946
    0.254263461    0.461632013    0.500000000
    0.379263133    0.336632192    0.000000013
    0.420929879    0.961632133    0.100000009
    0.462596625    0.586632133    0.200000003
    0.504263341    0.211632133    0.299999982
    0.545930028    0.836632013    0.399999946
    0.587596834    0.461632013    0.500000000
    0.712596476    0.336632192    0.000000013
    0.754263282    0.961632133    0.100000009
    0.795929968    0.586632133    0.200000003
    0.837596714    0.211632133    0.299999982
    0.879263520    0.836632013    0.399999946
    0.920930147    0.461632013    0.500000000
    0.991010249    0.651683748    0.500000000
    0.866010189    0.443350226    0.600000024
    0.741010189    0.235016733    0.700000048
    0.616010189    0.026683195    0.799999952
    0.491010129    0.818349719    0.899999976
    0.366010129    0.610016227    1.000000000
    0.991010249    0.318350405    0.500000000
    0.866010189    0.110016905    0.600000024
    0.741010189    0.901683390    0.700000048
    0.616010189    0.693349838    0.799999952
    0.491010129    0.485016346    0.899999976
    0.366010129    0.276682913    1.000000000
    0.991010249    0.985017061    0.500000000
    0.866010189    0.776683569    0.600000024
    0.741010189    0.568350077    0.700000048
    0.616010189    0.360016465    0.799999952
    0.491010129    0.151682973    0.899999976
    0.366010129    0.943349481    1.000000000
    0.491010249    0.818350315    0.500000000
    0.366010219    0.610016823    0.600000024
    0.241010219    0.401683390    0.700000048
    0.116010167    0.193349823    0.799999952
    0.991010129    0.985016346    0.899999976
    0.866010129    0.776682854    1.000000000
    0.491010249    0.485017061    0.500000000
    0.366010219    0.276683539    0.600000024
    0.241010219    0.068350054    0.700000048
    0.116010167    0.860016465    0.799999952
    0.991010129    0.651682973    0.899999976
    0.866010129    0.443349540    1.000000000
    0.491010249    0.151683733    0.500000000
    0.366010219    0.943350255    0.600000024
    0.241010219    0.735016704    0.700000048
    0.116010167    0.526683152    0.799999952
    0.991010129    0.318349659    0.899999976
    0.866010129    0.110016167    1.000000000
    0.241010249    0.735017061    0.500000000
    0.116010226    0.526683569    0.600000024
    0.991010189    0.318350077    0.700000048
    0.866010189    0.110016532    0.799999952
    0.741010129    0.901683033    0.899999976
    0.616010129    0.693349540    1.000000000
    0.241010249    0.401683748    0.500000000
    0.116010226    0.193350241    0.600000024
    0.991010189    0.985016763    0.700000048
    0.866010189    0.776683211    0.799999952
    0.741010129    0.568349659    0.899999976
    0.616010129    0.360016227    1.000000000
    0.241010249    0.068350397    0.500000000
    0.116010226    0.860016882    0.600000024
    0.991010189    0.651683390    0.700000048
    0.866010189    0.443349779    0.799999952
    0.741010129    0.235016346    0.899999976
    0.616010129    0.026682854    1.000000000
    0.741010249    0.901683748    0.500000000
    0.616010249    0.693350255    0.600000024
    0.491010219    0.485016733    0.700000048
    0.366010159    0.276683182    0.799999952
    0.241010144    0.068349697    0.899999976
    0.116010129    0.860016227    1.000000000
    0.741010249    0.568350375    0.500000000
    0.616010249    0.360016882    0.600000024
    0.491010219    0.151683390    0.700000048
    0.366010159    0.943349838    0.799999952
    0.241010144    0.735016346    0.899999976
    0.116010129    0.526682854    1.000000000
    0.741010249    0.235017076    0.500000000
    0.616010249    0.026683567    0.600000024
    0.491010219    0.818350077    0.700000048
    0.366010159    0.610016465    0.799999952
    0.241010144    0.401682973    0.899999976
    0.116010129    0.193349540    1.000000000
    0.366010249    0.860017121    0.500000000
    0.241010219    0.651683569    0.600000024
    0.116010211    0.443350077    0.700000048
    0.991010129    0.235016540    0.799999952
    0.866010129    0.026683042    0.899999976
    0.741010129    0.818349540    1.000000000
    0.366010249    0.526683688    0.500000000
    0.241010219    0.318350196    0.600000024
    0.116010211    0.110016681    0.700000048
    0.991010129    0.901683092    0.799999952
    0.866010129    0.693349600    0.899999976
    0.741010129    0.485016108    1.000000000
    0.366010249    0.193350405    0.500000000
    0.241010219    0.985016882    0.600000024
    0.116010211    0.776683390    0.700000048
    0.991010129    0.568349838    0.799999952
    0.866010129    0.360016346    0.899999976
    0.741010129    0.151682854    1.000000000
    0.866010308    0.693350434    0.500000000
    0.741010249    0.485016972    0.599999905
    0.616010249    0.276683450    0.700000048
    0.491010189    0.068349883    0.799999952
    0.366010189    0.860016406    0.899999976
    0.241010174    0.651682854    1.000000000
    0.866010308    0.360017031    0.500000000
    0.741010249    0.151683524    0.599999905
    0.616010249    0.943350017    0.700000048
    0.491010189    0.735016465    0.799999952
    0.366010189    0.526682973    0.899999976
    0.241010174    0.318349421    1.000000000
    0.866010308    0.026683725    0.500000000
    0.741010249    0.818350196    0.599999905
    0.616010249    0.610016704    0.700000048
    0.491010189    0.401683152    0.799999952
    0.366010189    0.193349600    0.899999976
    0.241010174    0.985016108    1.000000000
    0.116010241    0.776683807    0.500000000
    0.991010249    0.568350255    0.600000024
    0.866010189    0.360016823    0.700000048
    0.741010129    0.151683241    0.799999952
    0.616010129    0.943349719    0.899999976
    0.491010129    0.735016227    1.000000000
    0.116010241    0.443350405    0.500000000
    0.991010249    0.235016897    0.600000024
    0.866010189    0.026683396    0.700000048
    0.741010129    0.818349838    0.799999952
    0.616010129    0.610016346    0.899999976
    0.491010129    0.401682854    1.000000000
    0.116010241    0.110017098    0.500000000
    0.991010249    0.901683569    0.600000024
    0.866010189    0.693350077    0.700000048
    0.741010129    0.485016525    0.799999952
    0.616010129    0.276683033    0.899999976
    0.491010129    0.068349481    1.000000000
    0.616010249    0.943350434    0.500000000
    0.491010219    0.735016942    0.600000024
    0.366010219    0.526683450    0.700000048
    0.241010159    0.318349868    0.799999952
    0.116010137    0.110016376    0.899999976
    0.991010129    0.901682854    1.000000000
    0.616010249    0.610017061    0.500000000
    0.491010219    0.401683539    0.600000024
    0.366010219    0.193350062    0.700000048
    0.241010159    0.985016465    0.799999952
    0.116010137    0.776682973    0.899999976
    0.991010129    0.568349481    1.000000000
    0.616010249    0.276683718    0.500000000
    0.491010219    0.068350226    0.600000024
    0.366010219    0.860016704    0.700000048
    0.241010159    0.651683092    0.799999952
    0.116010137    0.443349719    0.899999976
    0.991010129    0.235016167    1.000000000
