Ge+Ge
    1.000000000
    8.001338005    0.000000000    0.000000000
    4.000669003   12.002006531    0.000000000
    0.000000000    0.000000000   11.810113907
Ge 
48
Direct
    0.994305491    0.994305491    0.000000000
    0.827638865    0.827638865    0.239531949
    0.660972118    0.660972118    0.479063928
    0.327638805    0.327638805    0.000000000
    0.160972148    0.160972148    0.239531949
    0.994305432    0.994305432    0.479063928
    0.660972118    0.660972118    0.000000000
    0.494305432    0.494305432    0.239531949
    0.327638745    0.327638745    0.479063928
    0.244305477    0.994305491    0.119765975
    0.077638790    0.827638865    0.359297961
    0.910972118    0.660972118    0.598829985
    0.577638805    0.327638805    0.119765975
    0.410972118    0.160972133    0.359297961
    0.244305432    0.994305432    0.598829985
    0.910972178    0.660972118    0.119765975
    0.744305491    0.494305462    0.359297961
    0.577638805    0.327638775    0.598829985
    0.494305432    0.994305491    0.000000000
    0.327638775    0.827638865    0.239531949
    0.160972089    0.660972118    0.479063928
    0.160972178    0.660972118    0.000000000
    0.994305491    0.494305462    0.239531949
    0.827638805    0.327638775    0.479063928
    0.827638745    0.327638835    0.000000000
    0.660972118    0.160972163    0.239531949
    0.494305402    0.994305491    0.479063928
    0.077638827    0.327638835    0.119765975
    0.910972118    0.160972148    0.359297961
    0.744305491    0.994305491    0.598829985
    0.744305491    0.994305491    0.119765975
    0.577638805    0.827638805    0.359297961
    0.410972089    0.660972118    0.598829985
    0.410972148    0.660972118    0.119765975
    0.244305447    0.494305402    0.359297961
    0.077638745    0.327638716    0.598829985
    0.026137829    0.939236522    0.699609995
    0.637248814    0.217014313    0.779453993
    0.248359919    0.494792223    0.859297991
    0.526137769    0.939236522    0.699609995
    0.137248829    0.217014313    0.779453993
    0.748359859    0.494792223    0.859297991
    0.831693232    0.828125477    0.739531875
    0.442804396    0.105903149    0.819375992
    0.053915381    0.383681059    0.899219990
    0.331693232    0.828125477    0.739531875
    0.942804396    0.105903149    0.819375992
    0.553915381    0.383681059    0.899219990
