C 
 1.0000000000000000
     5.0442169342723560    0.0000000000000000    0.0000000000000000
     2.5221084671361775    4.3684200072795205    0.0000000000000000
     0.0000000000000000    0.0000000000000000   60.0781061664191824
 C  
  80
Direct
  0.0000000000000000  0.0000000000000000  0.3328999743200802
  0.0000000000000000  0.0000000000000001  0.3586076705785294
  0.0000000000000000  0.5000000000000000  0.3328999743200802
  0.0000000000000000  0.5000000000000001  0.3586076705785294
  0.5000000000000001  0.0000000000000000  0.3328999743200802
  0.5000000000000000  0.0000000000000001  0.3586076705785294
  0.5000000000000000  0.5000000000000000  0.3328999743200802
  0.5000000000000000  0.5000000000000000  0.3586076705785294
  0.6666666666666667  0.6666666666666667  0.3671769026646791
  0.6666666666666665  0.6666666666666667  0.3928845989231283
  0.6666666666666666  0.1666666666666667  0.3671769026646791
  0.6666666666666665  0.1666666666666668  0.3928845989231283
  0.1666666666666668  0.6666666666666667  0.3671769026646791
  0.1666666666666668  0.6666666666666667  0.3928845989231283
  0.1666666666666665  0.1666666666666667  0.3671769026646791
  0.1666666666666668  0.1666666666666667  0.3928845989231283
  0.3333333333333335  0.3333333333333334  0.4014538310092781
  0.3333333333333335  0.3333333333333334  0.4271615272677273
  0.3333333333333335  0.8333333333333334  0.4014538310092781
  0.3333333333333335  0.8333333333333334  0.4271615272677273
  0.8333333333333333  0.3333333333333334  0.4014538310092781
  0.8333333333333333  0.3333333333333334  0.4271615272677273
  0.8333333333333334  0.8333333333333335  0.4014538310092781
  0.8333333333333330  0.8333333333333334  0.4271615272677273
  0.0000000000000000  0.0000000000000002  0.4357307593538770
  0.9999999999999994  0.0000000000000004  0.4614384556123262
  0.0000000000000000  0.5000000000000002  0.4357307593538770
  0.9999999999999994  0.5000000000000003  0.4614384556123262
  0.5000000000000000  0.0000000000000002  0.4357307593538770
  0.5000000000000000  0.0000000000000002  0.4614384556123262
  0.5000000000000000  0.5000000000000003  0.4357307593538770
  0.5000000000000004  0.5000000000000001  0.4614384556123262
  0.6666666666666671  0.6666666666666667  0.4700076876984759
  0.6666666666666666  0.6666666666666669  0.4957153839569250
  0.6666666666666670  0.1666666666666666  0.4700076876984759
  0.6666666666666662  0.1666666666666669  0.4957153839569251
  0.1666666666666661  0.6666666666666669  0.4700076876984759
  0.1666666666666670  0.6666666666666669  0.4957153839569250
  0.1666666666666665  0.1666666666666670  0.4700076876984759
  0.1666666666666670  0.1666666666666667  0.4957153839569250
  0.3333333333333331  0.3333333333333337  0.5042846160430748
  0.3333333333333331  0.3333333333333339  0.5299923123015240
  0.3333333333333331  0.8333333333333336  0.5042846160430748
  0.3333333333333331  0.8333333333333336  0.5299923123015240
  0.8333333333333334  0.3333333333333334  0.5042846160430748
  0.8333333333333330  0.3333333333333339  0.5299923123015240
  0.8333333333333334  0.8333333333333334  0.5042846160430748
  0.8333333333333330  0.8333333333333338  0.5299923123015240
  0.0000000000000000  0.0000000000000004  0.5385615443876738
  0.0000000000000000  0.0000000000000004  0.5642692406461230
  0.0000000000000000  0.5000000000000003  0.5385615443876738
  0.0000000000000000  0.5000000000000007  0.5642692406461230
  0.5000000000000000  0.0000000000000004  0.5385615443876738
  0.5000000000000000  0.0000000000000004  0.5642692406461230
  0.5000000000000009  0.5000000000000002  0.5385615443876738
  0.5000000000000009  0.5000000000000002  0.5642692406461230
  0.6666666666666671  0.6666666666666674  0.5728384727322727
  0.6666666666666671  0.6666666666666674  0.5985461689907218
  0.6666666666666671  0.1666666666666674  0.5728384727322727
  0.6666666666666671  0.1666666666666674  0.5985461689907219
  0.1666666666666670  0.6666666666666674  0.5728384727322727
  0.1666666666666670  0.6666666666666674  0.5985461689907219
  0.1666666666666670  0.1666666666666670  0.5728384727322727
  0.1666666666666670  0.1666666666666670  0.5985461689907219
  0.3333333333333339  0.3333333333333334  0.6071154010768716
  0.3333333333333340  0.3333333333333339  0.6328230973353207
  0.3333333333333340  0.8333333333333334  0.6071154010768716
  0.3333333333333340  0.8333333333333338  0.6328230973353207
  0.8333333333333339  0.3333333333333339  0.6071154010768716
  0.8333333333333339  0.3333333333333339  0.6328230973353207
  0.8333333333333341  0.8333333333333334  0.6071154010768716
  0.8333333333333341  0.8333333333333334  0.6328230973353207
  0.9999999999999991  0.0000000000000009  0.6413923294214704
  0.0000000000000000  0.0000000000000009  0.6671000256799196
  0.9999999999999991  0.5000000000000009  0.6413923294214704
  0.0000000000000000  0.5000000000000009  0.6671000256799197
  0.5000000000000000  0.0000000000000009  0.6413923294214704
  0.5000000000000000  0.0000000000000013  0.6671000256799197
  0.5000000000000000  0.5000000000000003  0.6413923294214704
  0.5000000000000000  0.5000000000000009  0.6671000256799197
