fcc Si+fcc Ge
    1.000000000
   12.253652517    0.000000000    0.000000000
    2.450730503   18.009117691    0.000000000
    0.000000000    0.000000000   23.743001579
Si    Ge   
72     154
Direct
    0.666666667    0.666666667    0.000000000
    0.027777778    0.361111111    0.047112843
    0.388888889    0.055555556    0.094225687
    0.750000000    0.750000000    0.141338530
    0.111111111    0.444444444    0.188451374
    0.472222222    0.138888889    0.235564217
    0.333333333    0.333333333    0.000000000
    0.694444444    0.027777778    0.047112843
    0.055555556    0.722222222    0.094225687
    0.416666667    0.416666667    0.141338530
    0.777777778    0.111111111    0.188451374
    0.138888889    0.805555556    0.235564217
    0.000000000    0.000000000    0.000000000
    0.361111111    0.694444444    0.047112843
    0.722222222    0.388888889    0.094225687
    0.083333333    0.083333333    0.141338530
    0.444444444    0.777777778    0.188451374
    0.805555556    0.472222222    0.235564217
    0.833333333    0.833333333    0.000000000
    0.194444444    0.527777778    0.047112843
    0.555555556    0.222222222    0.094225687
    0.916666667    0.916666667    0.141338530
    0.277777778    0.611111111    0.188451374
    0.638888889    0.305555556    0.235564217
    0.500000000    0.500000000    0.000000000
    0.861111111    0.194444444    0.047112843
    0.222222222    0.888888889    0.094225687
    0.583333333    0.583333333    0.141338530
    0.944444444    0.277777778    0.188451374
    0.305555556    0.972222222    0.235564217
    0.166666667    0.166666667    0.000000000
    0.527777778    0.861111111    0.047112843
    0.888888889    0.555555556    0.094225687
    0.250000000    0.250000000    0.141338530
    0.611111111    0.944444444    0.188451374
    0.972222222    0.638888889    0.235564217
    0.000000000    0.750000000    0.000000000
    0.361111111    0.444444444    0.047112843
    0.722222222    0.138888889    0.094225687
    0.083333333    0.833333333    0.141338530
    0.444444444    0.527777778    0.188451374
    0.805555556    0.222222222    0.235564217
    0.666666667    0.416666667    0.000000000
    0.027777778    0.111111111    0.047112843
    0.388888889    0.805555556    0.094225687
    0.750000000    0.500000000    0.141338530
    0.111111111    0.194444444    0.188451374
    0.472222222    0.888888889    0.235564217
    0.333333333    0.083333333    0.000000000
    0.694444444    0.777777778    0.047112843
    0.055555556    0.472222222    0.094225687
    0.416666667    0.166666667    0.141338530
    0.777777778    0.861111111    0.188451374
    0.138888889    0.555555556    0.235564217
    0.166666667    0.916666667    0.000000000
    0.527777778    0.611111111    0.047112843
    0.888888889    0.305555556    0.094225687
    0.250000000    0.000000000    0.141338530
    0.611111111    0.694444444    0.188451374
    0.972222222    0.388888889    0.235564217
    0.833333333    0.583333333    0.000000000
    0.194444444    0.277777778    0.047112843
    0.555555556    0.972222222    0.094225687
    0.916666667    0.666666667    0.141338530
    0.277777778    0.361111111    0.188451374
    0.638888889    0.055555556    0.235564217
    0.500000000    0.250000000    0.000000000
    0.861111111    0.944444444    0.047112843
    0.222222222    0.638888889    0.094225687
    0.583333333    0.333333333    0.141338530
    0.944444444    0.027777778    0.188451374
    0.305555556    0.722222222    0.235564217
    0.677985948    0.247829519    0.319799565
    0.463700234    0.319258090    0.438992582
    0.249414520    0.390686661    0.558185600
    0.035128806    0.462115233    0.677378617
    0.820843091    0.533543804    0.796571635
    0.606557377    0.604972376    0.915764652
    0.820843091    0.533543804    0.319799565
    0.606557377    0.604972376    0.438992582
    0.392271663    0.676400947    0.558185600
    0.177985948    0.747829519    0.677378617
    0.963700234    0.819258090    0.796571635
    0.749414520    0.890686661    0.915764652
    0.963700234    0.819258090    0.319799565
    0.749414520    0.890686661    0.438992582
    0.535128806    0.962115233    0.558185600
    0.320843091    0.033543804    0.677378617
    0.106557377    0.104972376    0.796571635
    0.892271663    0.176400947    0.915764652
    0.106557377    0.104972376    0.319799565
    0.892271663    0.176400947    0.438992582
    0.677985948    0.247829519    0.558185600
    0.463700234    0.319258090    0.677378617
    0.249414520    0.390686661    0.796571635
    0.035128806    0.462115233    0.915764652
    0.249414520    0.390686661    0.319799565
    0.035128806    0.462115233    0.438992582
    0.820843091    0.533543804    0.558185600
    0.606557377    0.604972376    0.677378617
    0.392271663    0.676400947    0.796571635
    0.177985948    0.747829519    0.915764652
    0.392271663    0.676400947    0.319799565
    0.177985948    0.747829519    0.438992582
    0.963700234    0.819258090    0.558185600
    0.749414520    0.890686661    0.677378617
    0.535128806    0.962115233    0.796571635
    0.320843091    0.033543804    0.915764652
    0.535128806    0.962115233    0.319799565
    0.320843091    0.033543804    0.438992582
    0.106557377    0.104972376    0.558185600
    0.892271663    0.176400947    0.677378617
    0.677985948    0.247829519    0.796571635
    0.463700234    0.319258090    0.915764652
    0.963700234    0.319258090    0.319799565
    0.749414520    0.390686661    0.438992582
    0.535128806    0.462115233    0.558185600
    0.320843091    0.533543804    0.677378617
    0.106557377    0.604972376    0.796571635
    0.892271663    0.676400947    0.915764652
    0.392271663    0.176400947    0.319799565
    0.177985948    0.247829519    0.438992582
    0.963700234    0.319258090    0.558185600
    0.749414520    0.390686661    0.677378617
    0.535128806    0.462115233    0.796571635
    0.320843091    0.533543804    0.915764652
    0.535128806    0.462115233    0.319799565
    0.320843091    0.533543804    0.438992582
    0.106557377    0.604972376    0.558185600
    0.892271663    0.676400947    0.677378617
    0.677985948    0.747829519    0.796571635
    0.463700234    0.819258090    0.915764652
    0.677985948    0.747829519    0.319799565
    0.463700234    0.819258090    0.438992582
    0.249414520    0.890686661    0.558185600
    0.035128806    0.962115233    0.677378617
    0.820843091    0.033543804    0.796571635
    0.606557377    0.104972376    0.915764652
    0.820843091    0.033543804    0.319799565
    0.606557377    0.104972376    0.438992582
    0.392271663    0.176400947    0.558185600
    0.177985948    0.247829519    0.677378617
    0.963700234    0.319258090    0.796571635
    0.749414520    0.390686661    0.915764652
    0.106557377    0.604972376    0.319799565
    0.892271663    0.676400947    0.438992582
    0.677985948    0.747829519    0.558185600
    0.463700234    0.819258090    0.677378617
    0.249414520    0.890686661    0.796571635
    0.035128806    0.962115233    0.915764652
    0.249414520    0.890686661    0.319799565
    0.035128806    0.962115233    0.438992582
    0.820843091    0.033543804    0.558185600
    0.606557377    0.104972376    0.677378617
    0.392271663    0.176400947    0.796571635
    0.177985948    0.247829519    0.915764652
    0.035128806    0.212115233    0.379396074
    0.820843091    0.283543804    0.498589091
    0.606557377    0.354972376    0.617782109
    0.392271663    0.426400947    0.736975126
    0.177985948    0.497829519    0.856168143
    0.606557377    0.354972376    0.379396074
    0.392271663    0.426400947    0.498589091
    0.177985948    0.497829519    0.617782109
    0.963700234    0.569258090    0.736975126
    0.749414520    0.640686661    0.856168143
    0.749414520    0.640686661    0.379396074
    0.535128806    0.712115233    0.498589091
    0.320843091    0.783543804    0.617782109
    0.106557377    0.854972376    0.736975126
    0.892271663    0.926400947    0.856168143
    0.892271663    0.926400947    0.379396074
    0.677985948    0.997829519    0.498589091
    0.463700234    0.069258090    0.617782109
    0.249414520    0.140686661    0.736975126
    0.035128806    0.212115233    0.856168143
    0.177985948    0.497829519    0.379396074
    0.963700234    0.569258090    0.498589091
    0.749414520    0.640686661    0.617782109
    0.535128806    0.712115233    0.736975126
    0.320843091    0.783543804    0.856168143
    0.320843091    0.783543804    0.379396074
    0.106557377    0.854972376    0.498589091
    0.892271663    0.926400947    0.617782109
    0.677985948    0.997829519    0.736975126
    0.463700234    0.069258090    0.856168143
    0.463700234    0.069258090    0.379396074
    0.249414520    0.140686661    0.498589091
    0.035128806    0.212115233    0.617782109
    0.820843091    0.283543804    0.736975126
    0.606557377    0.354972376    0.856168143
    0.749414520    0.140686661    0.379396074
    0.535128806    0.212115233    0.498589091
    0.320843091    0.283543804    0.617782109
    0.106557377    0.354972376    0.736975126
    0.892271663    0.426400947    0.856168143
    0.892271663    0.426400947    0.379396074
    0.677985948    0.497829519    0.498589091
    0.463700234    0.569258090    0.617782109
    0.249414520    0.640686661    0.736975126
    0.035128806    0.712115233    0.856168143
    0.035128806    0.712115233    0.379396074
    0.820843091    0.783543804    0.498589091
    0.606557377    0.854972376    0.617782109
    0.392271663    0.926400947    0.736975126
    0.177985948    0.997829519    0.856168143
    0.320843091    0.283543804    0.379396074
    0.106557377    0.354972376    0.498589091
    0.892271663    0.426400947    0.617782109
    0.677985948    0.497829519    0.736975126
    0.463700234    0.569258090    0.856168143
    0.463700234    0.569258090    0.379396074
    0.249414520    0.640686661    0.498589091
    0.035128806    0.712115233    0.617782109
    0.820843091    0.783543804    0.736975126
    0.606557377    0.854972376    0.856168143
    0.606557377    0.854972376    0.379396074
    0.392271663    0.926400947    0.498589091
    0.177985948    0.997829519    0.617782109
    0.963700234    0.069258090    0.736975126
    0.749414520    0.140686661    0.856168143
    0.177985948    0.997829519    0.379396074
    0.963700234    0.069258090    0.498589091
    0.749414520    0.140686661    0.617782109
    0.535128806    0.212115233    0.736975126
    0.320843091    0.283543804    0.856168143
