Sn
 1.0000000000000000
     6.4900000000000002    0.0000000000000000    0.0000000000000000
     0.0000000000000000    6.4900000000000002    0.0000000000000000
     0.0000000000000000    0.0000000000000000    6.4900000000000002
 Sn 
   8
Direct
  0.0000000000000000  0.0000000000000000  0.0000000000000000
  0.2500000000000000  0.2500000000000000  0.2500000000000000
  0.0000000000000000  0.5000000000000000  0.5000000000000000
  0.2500000000000000  0.7499999999999999  0.7499999999999999
  0.5000000000000000  0.0000000000000000  0.5000000000000000
  0.7499999999999999  0.2500000000000000  0.7499999999999999
  0.5000000000000000  0.5000000000000000  0.0000000000000000
  0.7499999999999999  0.7499999999999999  0.2500000000000000
