C+Si
    1.000000000
   11.829737663    0.000000000    0.000000000
    0.000000000   16.729774475    0.000000000
    0.000000000    0.000000000   12.922087669
C   Si 
264     36
Direct
    0.181818232    0.682814956    0.000000026
    0.181818336    0.432814866    0.097589076
    0.181818470    0.182814822    0.195178106
    0.181818560    0.932814777    0.292767107
    0.181818664    0.682814717    0.390356153
    0.181818768    0.432814598    0.487945169
    0.454545498    0.773724020    0.000000028
    0.454545617    0.523724020    0.097589076
    0.454545766    0.273723960    0.195178106
    0.454545826    0.023723939    0.292767107
    0.454545975    0.773723841    0.390356183
    0.454546064    0.523723722    0.487945229
    0.727272689    0.864633083    0.000000023
    0.727272928    0.614633024    0.097589076
    0.727272987    0.364632964    0.195178106
    0.727273047    0.114632934    0.292767107
    0.727273166    0.864632845    0.390356183
    0.727273345    0.614632726    0.487945229
    0.090909123    0.319178551    0.000000013
    0.090909228    0.069178484    0.097589061
    0.090909339    0.819178462    0.195178077
    0.090909451    0.569178402    0.292767107
    0.090909563    0.319178343    0.390356183
    0.090909675    0.069178224    0.487945229
    0.363636434    0.410087645    0.000000012
    0.363636494    0.160087556    0.097589061
    0.363636643    0.910087526    0.195178106
    0.363636732    0.660087466    0.292767078
    0.363636822    0.410087466    0.390356153
    0.363636941    0.160087347    0.487945229
    0.636363626    0.500996709    0.000000003
    0.636363804    0.250996709    0.097589053
    0.636363864    0.000996639    0.195178106
    0.636363983    0.750996649    0.292767107
    0.636364102    0.500996590    0.390356183
    0.636364162    0.250996411    0.487945229
    0.909090877    0.591905832    0.000000013
    0.909091055    0.341905773    0.097589061
    0.909091175    0.091905728    0.195178077
    0.909091175    0.841905713    0.292767107
    0.909091353    0.591905594    0.390356183
    0.909091473    0.341905475    0.487945229
    0.000000020    0.955542207    0.000000012
    0.000000123    0.705542088    0.097589061
    0.000000238    0.455542028    0.195178106
    0.000000346    0.205542028    0.292767137
    0.000000475    0.955541968    0.390356213
    0.000000512    0.705541849    0.487945229
    0.272727311    0.046451278    0.000000010
    0.272727400    0.796451211    0.097589061
    0.272727519    0.546451151    0.195178106
    0.272727638    0.296451151    0.292767137
    0.272727758    0.046451092    0.390356213
    0.272727847    0.796450973    0.487945229
    0.545454621    0.137360379    0.000000012
    0.545454681    0.887360275    0.097589061
    0.545454800    0.637360215    0.195178106
    0.545454919    0.387360215    0.292767137
    0.545454979    0.137360215    0.390356213
    0.545455098    0.887359977    0.487945229
    0.818181813    0.228269443    0.000000012
    0.818182051    0.978269398    0.097589061
    0.818182051    0.728269339    0.195178106
    0.818182170    0.478269339    0.292767137
    0.818182290    0.228269279    0.390356213
    0.818182349    0.978269100    0.487945229
    0.090909109    0.819178581    0.000000018
    0.090909183    0.569178522    0.097589061
    0.090909295    0.319178492    0.195178106
    0.090909407    0.069178462    0.292767107
    0.090909511    0.819178402    0.390356183
    0.090909615    0.569178224    0.487945169
    0.363636464    0.910087645    0.000000018
    0.363636583    0.660087645    0.097589061
    0.363636672    0.410087615    0.195178106
    0.363636762    0.160087571    0.292767107
    0.363636851    0.910087526    0.390356183
    0.363636971    0.660087347    0.487945169
    0.000000000    0.455542207    0.000000013
    0.000000122    0.205542117    0.097589053
    0.000000233    0.955542088    0.195178106
    0.000000339    0.705542088    0.292767137
    0.000000483    0.455541968    0.390356183
    0.000000583    0.205541849    0.487945229
    0.272727311    0.546451330    0.000000016
    0.272727400    0.296451271    0.097589053
    0.272727519    0.046451218    0.195178106
    0.272727638    0.796451211    0.292767137
    0.272727728    0.546451092    0.390356183
    0.272727817    0.296450973    0.487945229
    0.545454621    0.637360394    0.000000016
    0.545454741    0.387360394    0.097589053
    0.545454860    0.137360334    0.195178106
    0.545454919    0.887360275    0.292767137
    0.545455039    0.637360215    0.390356183
    0.545455158    0.387360096    0.487945229
    0.818181813    0.728269458    0.000000010
    0.818181992    0.478269368    0.097589053
    0.818182111    0.228269309    0.195178106
    0.818182170    0.978269279    0.292767107
    0.818182290    0.728269219    0.390356153
    0.818182409    0.478269100    0.487945229
    0.181818217    0.182814926    0.000000007
    0.181818336    0.932814837    0.097589061
    0.181818441    0.682814837    0.195178106
    0.181818530    0.432814777    0.292767078
    0.181818664    0.182814717    0.390356213
    0.181818783    0.932814598    0.487945169
    0.454545528    0.273724020    0.000000006
    0.454545647    0.023723938    0.097589053
    0.454545736    0.773723900    0.195178121
    0.454545856    0.523723841    0.292767137
    0.454545975    0.273723781    0.390356183
    0.454546064    0.023723602    0.487945169
    0.727272809    0.364633113    0.000000007
    0.727272987    0.114633076    0.097589053
    0.727273047    0.864633024    0.195178106
    0.727273166    0.614633024    0.292767107
    0.727273226    0.364632964    0.390356183
    0.727273405    0.114632785    0.487945229
    0.636363685    0.000996743    0.000000012
    0.636363745    0.750996649    0.097589083
    0.636363864    0.500996590    0.195178106
    0.636363983    0.250996590    0.292767048
    0.636364102    0.000996470    0.390356183
    0.636364222    0.750996470    0.487945169
    0.909090996    0.091905817    0.000000010
    0.909091115    0.841905773    0.097589053
    0.909091294    0.591905713    0.195178077
    0.909091353    0.341905713    0.292767137
    0.909091473    0.091905594    0.390356183
    0.909091532    0.841905594    0.487945169
    0.068181850    0.728269577    0.000000025
    0.068181902    0.478269488    0.097589076
    0.068182029    0.228269428    0.195178106
    0.068182148    0.978269398    0.292767107
    0.068182237    0.728269339    0.390356183
    0.068182349    0.478269160    0.487945169
    0.340909123    0.819178522    0.000000019
    0.340909243    0.569178462    0.097589061
    0.340909362    0.319178432    0.195178106
    0.340909451    0.069178410    0.292767107
    0.340909570    0.819178343    0.390356183
    0.340909660    0.569178224    0.487945169
    0.613636374    0.910087705    0.000000025
    0.613636553    0.660087645    0.097589076
    0.613636613    0.410087615    0.195178106
    0.613636672    0.160087585    0.292767107
    0.613636792    0.910087526    0.390356183
    0.613636971    0.660087407    0.487945169
    0.250000060    0.455542177    0.000000018
    0.250000149    0.205542102    0.097589061
    0.250000298    0.955542088    0.195178106
    0.250000358    0.705542088    0.292767137
    0.250000477    0.455541968    0.390356183
    0.250000596    0.205541849    0.487945169
    0.522727251    0.546451330    0.000000000
    0.522727370    0.296451271    0.097589053
    0.522727549    0.046451230    0.195178106
    0.522727609    0.796451211    0.292767107
    0.522727728    0.546451092    0.390356183
    0.522727847    0.296451032    0.487945229
    0.795454562    0.637360454    0.000000000
    0.795454741    0.387360394    0.097589053
    0.795454860    0.137360349    0.195178106
    0.795454979    0.887360334    0.292767107
    0.795455039    0.637360215    0.390356183
    0.795455158    0.387360156    0.487945229
    0.159090921    0.091905825    0.000000012
    0.159091040    0.841905773    0.097589061
    0.159091145    0.591905713    0.195178121
    0.159091264    0.341905713    0.292767137
    0.159091368    0.091905594    0.390356183
    0.159091443    0.841905475    0.487945139
    0.431818247    0.182814941    0.000000012
    0.431818306    0.932814837    0.097589061
    0.431818455    0.682814837    0.195178121
    0.431818575    0.432814777    0.292767137
    0.431818664    0.182814717    0.390356183
    0.431818753    0.932814598    0.487945139
    0.704545498    0.273723990    0.000000010
    0.704545617    0.023723913    0.097589061
    0.704545677    0.773723900    0.195178106
    0.704545856    0.523723841    0.292767137
    0.704545975    0.273723781    0.390356183
    0.704546094    0.023723662    0.487945229
    0.977272749    0.364633113    0.000000010
    0.977272928    0.114633076    0.097589061
    0.977272987    0.864633024    0.195178077
    0.977273047    0.614633024    0.292767107
    0.977273166    0.364632905    0.390356213
    0.977273345    0.114632785    0.487945139
    0.886363685    0.000996756    0.000000006
    0.886363864    0.750996709    0.097589061
    0.886363924    0.500996649    0.195178106
    0.886363983    0.250996649    0.292767078
    0.886364102    0.000996590    0.390356153
    0.886364281    0.750996351    0.487945229
    0.159090981    0.591905832    0.000000031
    0.159091055    0.341905773    0.097589076
    0.159091190    0.091905706    0.195178106
    0.159091279    0.841905713    0.292767107
    0.159091398    0.591905594    0.390356183
    0.159091502    0.341905475    0.487945229
    0.431818217    0.682814956    0.000000009
    0.431818336    0.432814896    0.097589061
    0.431818426    0.182814837    0.195178106
    0.431818515    0.932814837    0.292767107
    0.431818664    0.682814717    0.390356183
    0.431818724    0.432814658    0.487945229
    0.704545557    0.773724079    0.000000009
    0.704545736    0.523724020    0.097589061
    0.704545796    0.273723960    0.195178106
    0.704545856    0.023723928    0.292767107
    0.704545975    0.773723841    0.390356183
    0.704546094    0.523723722    0.487945229
    0.977272749    0.864633083    0.000000028
    0.977272928    0.614633024    0.097589076
    0.977272987    0.364632964    0.195178106
    0.977273107    0.114632905    0.292767107
    0.977273345    0.864632845    0.390356153
    0.977273345    0.614632726    0.487945169
    0.068181835    0.228269473    0.000000007
    0.068181962    0.978269398    0.097589053
    0.068182074    0.728269339    0.195178106
    0.068182178    0.478269339    0.292767107
    0.068182260    0.228269279    0.390356183
    0.068182424    0.978269219    0.487945169
    0.340909153    0.319178581    0.000000007
    0.340909243    0.069178492    0.097589053
    0.340909362    0.819178462    0.195178106
    0.340909451    0.569178462    0.292767107
    0.340909570    0.319178343    0.390356183
    0.340909660    0.069178224    0.487945169
    0.613636374    0.410087645    0.000000006
    0.613636553    0.160087556    0.097589061
    0.613636672    0.910087526    0.195178106
    0.613636732    0.660087526    0.292767078
    0.613636851    0.410087407    0.390356213
    0.613636971    0.160087287    0.487945229
    0.886363685    0.500996768    0.000000007
    0.886363864    0.250996709    0.097589053
    0.886363983    0.000996661    0.195178106
    0.886364102    0.750996649    0.292767107
    0.886364162    0.500996590    0.390356183
    0.886364281    0.250996470    0.487945169
    0.250000030    0.955542207    0.000000004
    0.250000149    0.705542088    0.097589076
    0.250000268    0.455542028    0.195178106
    0.250000387    0.205542088    0.292767107
    0.250000477    0.955541968    0.390356153
    0.250000656    0.705541849    0.487945229
    0.522727370    0.046451289    0.000000004
    0.522727430    0.796451211    0.097589053
    0.522727549    0.546451211    0.195178106
    0.522727668    0.296451151    0.292767137
    0.522727728    0.046451092    0.390356183
    0.522727907    0.796450853    0.487945229
    0.795454621    0.137360379    0.000000006
    0.795454741    0.887360334    0.097589053
    0.795454800    0.637360215    0.195178106
    0.795454919    0.387360215    0.292767137
    0.795454979    0.137360156    0.390356183
    0.795455158    0.887360096    0.487945259
    0.709401369    0.676517725    0.626498461
    0.509401321    0.509851038    0.720477819
    0.309401155    0.343184352    0.814457119
    0.709401369    0.343184412    0.626498461
    0.509401321    0.176517725    0.720477819
    0.309401155    0.009851098    0.814457119
    0.709401369    0.009851098    0.626498461
    0.509401321    0.843184412    0.720477819
    0.309401155    0.676517725    0.814457119
    0.359401464    0.926517785    0.673488081
    0.159401298    0.759851098    0.767467380
    0.959401250    0.593184412    0.861446679
    0.359401464    0.593184412    0.673488081
    0.159401298    0.426517725    0.767467380
    0.959401250    0.259851068    0.861446679
    0.359401464    0.259851158    0.673488081
    0.159401298    0.093184464    0.767467380
    0.959401250    0.926517785    0.861446679
    0.209401369    0.843184292    0.626498461
    0.009401321    0.676517665    0.720477819
    0.809401155    0.509850919    0.814457119
    0.209401369    0.509851038    0.626498461
    0.009401321    0.343184352    0.720477819
    0.809401155    0.176517695    0.814457119
    0.209401369    0.176517755    0.626498461
    0.009401321    0.009851098    0.720477819
    0.809401155    0.843184352    0.814457119
    0.859401405    0.759851038    0.673488081
    0.659401298    0.593184292    0.767467380
    0.459401250    0.426517665    0.861446679
    0.859401405    0.426517785    0.673488081
    0.659401298    0.259851068    0.767467380
    0.459401250    0.093184404    0.861446679
    0.859401405    0.093184404    0.673488081
    0.659401298    0.926517665    0.767467380
    0.459401250    0.759851038    0.861446679
