Ge+Sn
    1.000000000
   11.315600395    0.000000000    0.000000000
    0.000000000   16.002676010    0.000000000
    0.000000000    0.000000000   25.604215622
Ge  Sn 
96     72
Direct
    0.970662773    0.455994159    0.000000018
    0.720662713    0.080994137    0.078125209
    0.470662773    0.705994129    0.156250417
    0.220662892    0.330994248    0.234375566
    0.970662713    0.955994129    0.312500775
    0.720662713    0.580994129    0.390626043
    0.470662773    0.455994159    0.000000018
    0.220662758    0.080994137    0.078125209
    0.970662773    0.705994129    0.156250417
    0.720662832    0.330994248    0.234375566
    0.470662832    0.955994129    0.312500775
    0.220662773    0.580994129    0.390626043
    0.970662773    0.955994129    0.000000016
    0.720662713    0.580994129    0.078125216
    0.470662773    0.205994129    0.156250402
    0.220662892    0.830994368    0.234375566
    0.970662713    0.455994129    0.312500805
    0.720662713    0.080994129    0.390626013
    0.470662773    0.955994129    0.000000016
    0.220662758    0.580994129    0.078125216
    0.970662773    0.205994129    0.156250402
    0.720662832    0.830994368    0.234375566
    0.470662832    0.455994129    0.312500805
    0.220662773    0.080994129    0.390626013
    0.970662773    0.705994129    0.000000021
    0.720662713    0.330994129    0.078125209
    0.470662773    0.955994129    0.156250402
    0.220662892    0.580994248    0.234375596
    0.970662713    0.205994189    0.312500805
    0.720662713    0.830994129    0.390626043
    0.470662773    0.705994129    0.000000021
    0.220662758    0.330994129    0.078125209
    0.970662773    0.955994129    0.156250402
    0.720662832    0.580994248    0.234375596
    0.470662832    0.205994189    0.312500805
    0.220662773    0.830994129    0.390626043
    0.970662773    0.205994144    0.000000017
    0.720662713    0.830994129    0.078125209
    0.470662773    0.455994129    0.156250402
    0.220662892    0.080994248    0.234375596
    0.970662713    0.705994248    0.312500775
    0.720662713    0.330994129    0.390626013
    0.470662773    0.205994144    0.000000017
    0.220662758    0.830994129    0.078125209
    0.970662773    0.455994129    0.156250402
    0.720662832    0.080994248    0.234375596
    0.470662832    0.705994248    0.312500775
    0.220662773    0.330994129    0.390626013
    0.345662743    0.580994189    0.000000026
    0.095662758    0.205994159    0.078125209
    0.845662773    0.830994129    0.156250402
    0.595662832    0.455994248    0.234375566
    0.345662773    0.080994189    0.312500805
    0.095662713    0.705994129    0.390626043
    0.845662832    0.580994189    0.000000026
    0.595662773    0.205994159    0.078125209
    0.345662802    0.830994129    0.156250402
    0.095662884    0.455994248    0.234375566
    0.845662832    0.080994189    0.312500805
    0.595662773    0.705994129    0.390626043
    0.345662743    0.080994137    0.000000013
    0.095662758    0.705994129    0.078125209
    0.845662773    0.330994129    0.156250402
    0.595662832    0.955994248    0.234375596
    0.345662773    0.580994248    0.312500775
    0.095662713    0.205994010    0.390626013
    0.845662832    0.080994137    0.000000013
    0.595662773    0.705994129    0.078125209
    0.345662802    0.330994129    0.156250402
    0.095662884    0.955994248    0.234375596
    0.845662832    0.580994248    0.312500775
    0.595662773    0.205994010    0.390626013
    0.345662743    0.830994189    0.000000000
    0.095662758    0.455994189    0.078125209
    0.845662773    0.080994174    0.156250402
    0.595662832    0.705994308    0.234375566
    0.345662773    0.330994248    0.312500775
    0.095662713    0.955994129    0.390625983
    0.845662832    0.830994189    0.000000000
    0.595662773    0.455994189    0.078125209
    0.345662802    0.080994174    0.156250402
    0.095662884    0.705994308    0.234375566
    0.845662832    0.330994248    0.312500775
    0.595662773    0.955994129    0.390625983
    0.345662743    0.330994129    0.000000018
    0.095662758    0.955994129    0.078125216
    0.845662773    0.580994129    0.156250402
    0.595662832    0.205994248    0.234375596
    0.345662773    0.830994129    0.312500775
    0.095662713    0.455994129    0.390626013
    0.845662832    0.330994129    0.000000018
    0.595662773    0.955994129    0.078125216
    0.345662802    0.580994129    0.156250402
    0.095662884    0.205994248    0.234375596
    0.845662832    0.830994129    0.312500775
    0.595662773    0.455994129    0.390626013
    0.125000000    0.609174490    0.471299231
    0.125000000    0.859174609    0.560904801
    0.124999881    0.109174728    0.650510371
    0.124999762    0.359174967    0.740115821
    0.124999762    0.609174967    0.829721332
    0.124999762    0.859175086    0.919326842
    0.458333373    0.942507863    0.471299231
    0.458333313    0.192507863    0.560904801
    0.458333313    0.442507982    0.650510371
    0.458333224    0.692508221    0.740115821
    0.458333224    0.942508340    0.829721332
    0.458333164    0.192508459    0.919326842
    0.791666746    0.275841236    0.471299231
    0.791666687    0.525841236    0.560904801
    0.791666806    0.775841475    0.650510371
    0.791666508    0.025841475    0.740115821
    0.791666567    0.275841594    0.829721332
    0.791666567    0.525841832    0.919326842
    0.125000030    0.109174490    0.471299231
    0.125000000    0.359174609    0.560904741
    0.124999881    0.609174728    0.650510371
    0.124999881    0.859174848    0.740115821
    0.124999762    0.109174967    0.829721332
    0.124999762    0.359175086    0.919326842
    0.458333373    0.442507863    0.471299231
    0.458333343    0.692507982    0.560904741
    0.458333373    0.942508221    0.650510371
    0.458333254    0.192508221    0.740115821
    0.458333284    0.442508340    0.829721332
    0.458333105    0.692508578    0.919326842
    0.791666806    0.775841177    0.471299231
    0.791666627    0.025841236    0.560904741
    0.791666687    0.275841475    0.650510371
    0.791666627    0.525841475    0.740115821
    0.791666508    0.775841594    0.829721332
    0.791666567    0.025841713    0.919326842
    0.208333313    0.942507863    0.471299231
    0.208333254    0.192507863    0.560904741
    0.208333284    0.442507982    0.650510371
    0.208333135    0.692508101    0.740115821
    0.208333135    0.942508221    0.829721332
    0.208333135    0.192508340    0.919326842
    0.541666746    0.275841236    0.471299231
    0.541666627    0.525841236    0.560904801
    0.541666627    0.775841475    0.650510371
    0.541666627    0.025841594    0.740115821
    0.541666389    0.275841594    0.829721332
    0.541666508    0.525841713    0.919326842
    0.875000000    0.609174550    0.471299231
    0.875000000    0.859174609    0.560904801
    0.874999940    0.109174728    0.650510371
    0.874999821    0.359174848    0.740115821
    0.874999821    0.609174967    0.829721332
    0.874999821    0.859175086    0.919326842
    0.208333343    0.442507982    0.471299231
    0.208333284    0.692507982    0.560904801
    0.208333224    0.942508101    0.650510311
    0.208333254    0.192508459    0.740115821
    0.208333135    0.442508340    0.829721391
    0.208333075    0.692508578    0.919326842
    0.541666746    0.775841177    0.471299231
    0.541666627    0.025841236    0.560904801
    0.541666567    0.275841475    0.650510371
    0.541666567    0.525841475    0.740115821
    0.541666567    0.775841594    0.829721332
    0.541666448    0.025841713    0.919326842
    0.875000000    0.109174490    0.471299231
    0.874999940    0.359174609    0.560904801
    0.875000000    0.609174728    0.650510371
    0.874999881    0.859174848    0.740115821
    0.874999821    0.109174848    0.829721332
    0.874999762    0.359175086    0.919326842
