Sn
 1.0000000000000000
     9.1771146489514894    0.0000000000000000    0.0000000000000000
   -18.3542292979029753   19.4675999999999974    0.0000000000000000
     0.0000000000000000   -0.0000000000000000   60.6485079601408472
 Sn 
 112
Direct
  0.0000000000000000  0.0000000000000000  0.3297690359199655
  0.2222222222222227  0.8611111111111110  0.3423787369629310
  0.9722222222222223  0.6111111111111110  0.3423787369629310
  0.2500000000000001  0.2500000000000000  0.3297690359199655
  0.4722222222222223  0.6111111111111110  0.3423787369629310
  0.7500000000000000  0.2500000000000000  0.3297690359199655
  0.4999999999999997  0.9999999999999999  0.3297690359199655
  0.7222222222222224  0.8611111111111110  0.3423787369629310
  0.9444444444444445  0.2222222222222222  0.3549884380058965
  0.1666666666666670  0.0833333333333333  0.3675981390488621
  0.9166666666666676  0.8333333333333335  0.3675981390488620
  0.1944444444444445  0.4722222222222222  0.3549884380058965
  0.4166666666666666  0.8333333333333333  0.3675981390488620
  0.6944444444444443  0.4722222222222222  0.3549884380058965
  0.4444444444444444  0.2222222222222222  0.3549884380058965
  0.6666666666666670  0.0833333333333333  0.3675981390488621
  0.8888888888888891  0.4444444444444445  0.3802078400918276
  0.1111111111111111  0.3055555555555554  0.3928175411347931
  0.8611111111111107  0.0555555555555554  0.3928175411347931
  0.1388888888888888  0.6944444444444443  0.3802078400918275
  0.3611111111111107  0.0555555555555554  0.3928175411347931
  0.6388888888888895  0.6944444444444446  0.3802078400918276
  0.3888888888888888  0.4444444444444443  0.3802078400918276
  0.6111111111111112  0.3055555555555554  0.3928175411347931
  0.8333333333333336  0.6666666666666666  0.4054272421777586
  0.0555555555555563  0.5277777777777777  0.4180369432207242
  0.8055555555555562  0.2777777777777777  0.4180369432207241
  0.0833333333333333  0.9166666666666665  0.4054272421777586
  0.3055555555555554  0.2777777777777777  0.4180369432207241
  0.5833333333333326  0.9166666666666665  0.4054272421777586
  0.3333333333333329  0.6666666666666665  0.4054272421777586
  0.5555555555555552  0.5277777777777777  0.4180369432207242
  0.7777777777777782  0.8888888888888890  0.4306466442636896
  0.0000000000000010  0.7500000000000000  0.4432563453066552
  0.7500000000000010  0.4999999999999998  0.4432563453066552
  0.0277777777777777  0.1388888888888888  0.4306466442636896
  0.2500000000000001  0.4999999999999998  0.4432563453066552
  0.5277777777777777  0.1388888888888888  0.4306466442636896
  0.2777777777777780  0.8888888888888890  0.4306466442636896
  0.5000000000000009  0.7500000000000000  0.4432563453066552
  0.7222222222222214  0.1111111111111109  0.4558660463496207
  0.9444444444444449  0.9722222222222221  0.4684757473925862
  0.6944444444444450  0.7222222222222222  0.4684757473925861
  0.9722222222222213  0.3611111111111109  0.4558660463496207
  0.1944444444444449  0.7222222222222222  0.4684757473925862
  0.4722222222222214  0.3611111111111109  0.4558660463496207
  0.2222222222222214  0.1111111111111109  0.4558660463496207
  0.4444444444444448  0.9722222222222221  0.4684757473925862
  0.6666666666666670  0.3333333333333333  0.4810854484355517
  0.8888888888888892  0.1944444444444447  0.4936951494785173
  0.6388888888888895  0.9444444444444443  0.4936951494785172
  0.9166666666666681  0.5833333333333335  0.4810854484355517
  0.1388888888888894  0.9444444444444443  0.4936951494785172
  0.4166666666666680  0.5833333333333335  0.4810854484355517
  0.1666666666666669  0.3333333333333333  0.4810854484355517
  0.3888888888888902  0.1944444444444447  0.4936951494785173
  0.6111111111111125  0.5555555555555556  0.5063048505214828
  0.8333333333333348  0.4166666666666670  0.5189145515644483
  0.5833333333333348  0.1666666666666665  0.5189145515644482
  0.8611111111111125  0.8055555555555558  0.5063048505214828
  0.0833333333333348  0.1666666666666665  0.5189145515644482
  0.3611111111111124  0.8055555555555558  0.5063048505214828
  0.1111111111111125  0.5555555555555558  0.5063048505214828
  0.3333333333333348  0.4166666666666670  0.5189145515644483
  0.5555555555555564  0.7777777777777779  0.5315242526074139
  0.7777777777777786  0.6388888888888888  0.5441339536503793
  0.5277777777777768  0.3888888888888884  0.5441339536503793
  0.8055555555555562  0.0277777777777781  0.5315242526074139
  0.0277777777777785  0.3888888888888888  0.5441339536503793
  0.3055555555555553  0.0277777777777781  0.5315242526074139
  0.0555555555555555  0.7777777777777779  0.5315242526074139
  0.2777777777777786  0.6388888888888888  0.5441339536503793
  0.5000000000000001  0.9999999999999999  0.5567436546933449
  0.7222222222222217  0.8611111111111108  0.5693533557363103
  0.4722222222222213  0.6111111111111107  0.5693533557363104
  0.7500000000000018  0.2500000000000000  0.5567436546933449
  0.9722222222222231  0.6111111111111107  0.5693533557363104
  0.2500000000000018  0.2500000000000000  0.5567436546933449
  0.0000000000000000  0.9999999999999999  0.5567436546933449
  0.2222222222222233  0.8611111111111112  0.5693533557363104
  0.4444444444444429  0.2222222222222219  0.5819630567792760
  0.6666666666666679  0.0833333333333331  0.5945727578222414
  0.4166666666666645  0.8333333333333327  0.5945727578222414
  0.6944444444444429  0.4722222222222219  0.5819630567792758
  0.9166666666666645  0.8333333333333327  0.5945727578222413
  0.1944444444444447  0.4722222222222223  0.5819630567792760
  0.9444444444444448  0.2222222222222223  0.5819630567792760
  0.1666666666666661  0.0833333333333331  0.5945727578222414
  0.3888888888888909  0.4444444444444446  0.6071824588652069
  0.6111111111111125  0.3055555555555558  0.6197921599081725
  0.3611111111111107  0.0555555555555554  0.6197921599081725
  0.6388888888888909  0.6944444444444446  0.6071824588652069
  0.8611111111111107  0.0555555555555554  0.6197921599081725
  0.1388888888888892  0.6944444444444446  0.6071824588652069
  0.8888888888888909  0.4444444444444446  0.6071824588652069
  0.1111111111111124  0.3055555555555558  0.6197921599081725
  0.3333333333333339  0.6666666666666665  0.6324018609511380
  0.5555555555555555  0.5277777777777772  0.6450115619941035
  0.3055555555555553  0.2777777777777772  0.6450115619941035
  0.5833333333333338  0.9166666666666665  0.6324018609511380
  0.8055555555555572  0.2777777777777777  0.6450115619941035
  0.0833333333333341  0.9166666666666670  0.6324018609511380
  0.8333333333333357  0.6666666666666670  0.6324018609511380
  0.0555555555555572  0.5277777777777781  0.6450115619941035
  0.2777777777777790  0.8888888888888890  0.6576212630370690
  0.4999999999999999  0.7500000000000000  0.6702309640800346
  0.2499999999999999  0.5000000000000000  0.6702309640800346
  0.5277777777777786  0.1388888888888888  0.6576212630370690
  0.7500000000000000  0.5000000000000000  0.6702309640800345
  0.0277777777777786  0.1388888888888888  0.6576212630370690
  0.7777777777777788  0.8888888888888890  0.6576212630370690
  0.9999999999999982  0.7499999999999996  0.6702309640800346
