Si+C
    1.000000000
   13.303179741    0.000000000    0.000000000
    6.651589394   11.520891190    0.000000000
    0.000000000    0.000000000   21.679416656
Si  C  
72     308
Direct
    0.000000000    0.318506181    0.289268821
    0.000000000    0.985172927    0.000000014
    0.000000000    0.651839554    0.144634426
    0.333333343    0.651839614    0.289268792
    0.333333343    0.318506300    0.000000009
    0.333333343    0.985172868    0.144634411
    0.666666687    0.985172927    0.289268792
    0.666666687    0.651839614    0.000000006
    0.666666687    0.318506241    0.144634411
    0.333333343    0.318506062    0.325427473
    0.333333343    0.985172868    0.036158625
    0.333333343    0.651839495    0.180793017
    1.000000000    0.985172808    0.325427473
    1.000000000    0.651839614    0.036158621
    1.000000000    0.318506271    0.180793017
    0.666666746    0.651839375    0.325427473
    0.666666746    0.318506211    0.036158632
    0.666666746    0.985172868    0.180793017
    0.500000000    0.318506241    0.289268792
    0.500000000    0.985172927    0.000000010
    0.500000000    0.651839554    0.144634411
    0.166666672    0.985172927    0.289268792
    0.166666672    0.651839674    0.000000001
    0.166666672    0.318506241    0.144634411
    0.833333373    0.651839614    0.289268792
    0.833333373    0.318506300    0.000000001
    0.833333373    0.985172927    0.144634411
    0.166666657    0.651839554    0.325427383
    0.166666657    0.318506300    0.036158580
    0.166666657    0.985172868    0.180792972
    0.833333433    0.318506181    0.325427413
    0.833333433    0.985172927    0.036158595
    0.833333433    0.651839495    0.180792987
    0.500000060    0.985172868    0.325427413
    0.500000060    0.651839614    0.036158599
    0.500000060    0.318506211    0.180793017
    0.166666672    0.485172927    0.289268792
    0.166666672    0.151839614    0.000000010
    0.166666672    0.818506241    0.144634411
    0.500000000    0.818506241    0.289268821
    0.500000000    0.485172987    0.000000016
    0.500000000    0.151839584    0.144634426
    0.833333373    0.151839629    0.289268792
    0.833333373    0.818506360    0.000000000
    0.833333373    0.485173017    0.144634381
    0.500000000    0.485172868    0.325427413
    0.500000000    0.151839614    0.036158595
    0.500000000    0.818506241    0.180792987
    0.166666672    0.151839569    0.325427383
    0.166666672    0.818506360    0.036158573
    0.166666672    0.485172927    0.180792972
    0.833333373    0.818506181    0.325427383
    0.833333373    0.485172927    0.036158573
    0.833333373    0.151839525    0.180792972
    0.000000000    0.818506241    0.289268792
    0.000000000    0.485172957    0.000000009
    0.000000000    0.151839554    0.144634411
    0.666666687    0.485172868    0.289268792
    0.666666687    0.151839599    0.000000009
    0.666666687    0.818506181    0.144634411
    0.333333313    0.151839495    0.289268792
    0.333333313    0.818506241    0.000000002
    0.333333313    0.485172868    0.144634381
    0.000000000    0.485172808    0.325427473
    0.000000000    0.151839659    0.036158618
    0.000000000    0.818506300    0.180793017
    0.333333343    0.818506122    0.325427473
    0.333333343    0.485172957    0.036158621
    0.333333343    0.151839599    0.180793017
    0.666666687    0.151839525    0.325427443
    0.666666687    0.818506300    0.036158618
    0.666666687    0.485172957    0.180792987
    0.522424102    0.416363835    0.876437724
    0.855757713    0.749697208    0.496484071
    0.522424459    0.416363895    0.591472447
    0.189090848    0.083030418    0.686460912
    0.855757594    0.749697089    0.781449258
    0.808138490    0.559220910    0.876437724
    0.141472057    0.892554283    0.496484071
    0.808138728    0.559221029    0.591472447
    0.474805176    0.225887552    0.686460912
    0.141471803    0.892554164    0.781449258
    0.665281296    0.987792253    0.876437783
    0.998614907    0.321125746    0.496484041
    0.665281534    0.987792432    0.591472447
    0.331947982    0.654458940    0.686460912
    0.998614669    0.321125567    0.781449258
    0.093852639    0.702077985    0.876437783
    0.427186310    0.035411447    0.496484071
    0.093852997    0.702078104    0.591472447
    0.760519505    0.368744671    0.686460912
    0.427186072    0.035411313    0.781449258
    0.950995445    0.130649403    0.876437724
    0.284329236    0.463982940    0.496484011
    0.950995803    0.130649582    0.591472447
    0.617662430    0.797316194    0.686460853
    0.284328878    0.463982761    0.781449258
    0.379566967    0.844935060    0.876437724
    0.712900639    0.178268626    0.496484011
    0.379567266    0.844935238    0.591472447
    0.046233892    0.511601925    0.686460793
    0.712900341    0.178268507    0.781449258
    0.236709833    0.273506582    0.876437724
    0.570043445    0.606839955    0.496484071
    0.236710131    0.273506701    0.591472447
    0.903376579    0.940173209    0.686460912
    0.570043206    0.606839836    0.781449258
    0.617662311    0.797316194    0.900184751
    0.284329236    0.463982880    0.425242722
    0.950995862    0.130649552    0.520231128
    0.617662370    0.797316134    0.615219593
    0.284328938    0.463982642    0.710207999
    0.950995564    0.130649343    0.805196404
    0.046233773    0.511601925    0.900184751
    0.712900639    0.178268641    0.425242722
    0.379567295    0.844935298    0.520231128
    0.046233892    0.511601925    0.615219533
    0.712900281    0.178268388    0.710207999
    0.379566967    0.844935060    0.805196404
    0.903376579    0.940173268    0.900184751
    0.570043445    0.606840014    0.425242722
    0.236710131    0.273506701    0.520231128
    0.903376698    0.940173268    0.615219533
    0.570043147    0.606839776    0.710207999
    0.236709774    0.273506463    0.805196404
    0.331947923    0.654459000    0.900184751
    0.998614907    0.321125746    0.425242722
    0.665281534    0.987792373    0.520231128
    0.331948102    0.654459000    0.615219533
    0.998614550    0.321125507    0.710207999
    0.665281177    0.987792253    0.805196404
    0.760519385    0.368744850    0.900184751
    0.427186370    0.035411477    0.425242722
    0.093852997    0.702078104    0.520231128
    0.760519505    0.368744731    0.615219593
    0.427186012    0.035411254    0.710207999
    0.093852639    0.702077866    0.805196404
    0.189090908    0.083030418    0.900184751
    0.855757833    0.749697149    0.425242752
    0.522424459    0.416363835    0.520231128
    0.189091027    0.083030410    0.615219593
    0.855757475    0.749696910    0.710207999
    0.522424161    0.416363597    0.805196404
    0.474804997    0.225887612    0.900184751
    0.141472131    0.892554283    0.425242692
    0.808138728    0.559220970    0.520231068
    0.474805415    0.225887686    0.615219533
    0.141471803    0.892554164    0.710207939
    0.808138371    0.559220791    0.805196404
    0.736709833    0.773506641    0.876437724
    0.070043445    0.106840014    0.496484041
    0.736710072    0.773506701    0.591472447
    0.403376579    0.440173209    0.686460912
    0.070043206    0.106839910    0.781449258
    0.165281296    0.487792253    0.876437724
    0.498614877    0.821125746    0.496484011
    0.165281549    0.487792432    0.591472447
    0.831948042    0.154458955    0.686460912
    0.498614669    0.821125627    0.781449258
    0.593852758    0.202077940    0.876437724
    0.927186370    0.535411417    0.496484011
    0.593852937    0.202078089    0.591472447
    0.260519564    0.868744731    0.686460853
    0.927186012    0.535411239    0.781449258
    0.022424102    0.916363716    0.876437724
    0.355757773    0.249697194    0.496484041
    0.022424340    0.916363835    0.591472447
    0.689090967    0.583030462    0.686460853
    0.355757415    0.249696985    0.781449258
    0.450995505    0.630649328    0.876437724
    0.784329236    0.963982940    0.496484011
    0.450995833    0.630649567    0.591472447
    0.117662430    0.297316253    0.686460793
    0.784328938    0.963982821    0.781449199
    0.879567027    0.344935119    0.876437724
    0.212900609    0.678268552    0.496484041
    0.879567266    0.344935298    0.591472447
    0.546233714    0.011601806    0.686460912
    0.212900400    0.678268433    0.781449258
    0.308138490    0.059220865    0.876437783
    0.641472042    0.392554283    0.496484071
    0.308138728    0.059221003    0.591472447
    0.974805176    0.725887537    0.686460912
    0.641471803    0.392554164    0.781449258
    0.689090729    0.583030343    0.900184751
    0.355757803    0.249697179    0.425242692
    0.022424459    0.916363835    0.520231068
    0.689091086    0.583030522    0.615219533
    0.355757475    0.249696985    0.710207939
    0.022424102    0.916363716    0.805196404
    0.546233654    0.011601806    0.900184751
    0.212900683    0.678268552    0.425242692
    0.879567266    0.344935238    0.520231068
    0.546233952    0.011601925    0.615219533
    0.212900341    0.678268433    0.710207939
    0.879567027    0.344935060    0.805196404
    0.974805117    0.725887418    0.900184751
    0.641472101    0.392554343    0.425242692
    0.308138669    0.059220959    0.520231068
    0.974805355    0.725887656    0.615219533
    0.641471744    0.392554104    0.710207939
    0.308138371    0.059220806    0.805196404
    0.403376460    0.440173149    0.900184751
    0.070043564    0.106840029    0.425242692
    0.736710072    0.773506641    0.520231068
    0.403376788    0.440173388    0.615219533
    0.070043206    0.106839851    0.710207939
    0.736709833    0.773506522    0.805196404
    0.831947923    0.154458955    0.900184751
    0.498614967    0.821125746    0.425242692
    0.165281534    0.487792373    0.520231068
    0.831948221    0.154459089    0.615219533
    0.498614609    0.821125567    0.710207939
    0.165281236    0.487792253    0.805196345
    0.260519385    0.868744612    0.900184751
    0.927186430    0.535411417    0.425242722
    0.593852997    0.202078074    0.520231128
    0.260519683    0.868744791    0.615219533
    0.927186131    0.535411239    0.710207939
    0.593852758    0.202077940    0.805196404
    0.117662191    0.297316015    0.900184751
    0.784329236    0.963982821    0.425242722
    0.450995803    0.630649447    0.520231128
    0.117662430    0.297316194    0.615219533
    0.784328938    0.963982642    0.710207999
    0.450995505    0.630649269    0.805196404
    0.665281296    0.487792253    0.876437783
    0.998614907    0.821125746    0.496484071
    0.665281534    0.487792432    0.591472447
    0.331947982    0.154458955    0.686460912
    0.998614669    0.821125627    0.781449258
    0.522424221    0.916363716    0.876437783
    0.855757773    0.249697164    0.496484071
    0.522424400    0.916363835    0.591472447
    0.189090848    0.583030343    0.686460912
    0.855757475    0.249697044    0.781449258
    0.950995564    0.630649447    0.876437783
    0.284329176    0.963982880    0.496484041
    0.950995862    0.630649567    0.591472447
    0.617662311    0.297316074    0.686460912
    0.284328938    0.963982701    0.781449258
    0.808138371    0.059220865    0.876437783
    0.141472057    0.392554402    0.496484011
    0.808138609    0.059221037    0.591472447
    0.474805295    0.725887656    0.686460793
    0.141471744    0.392554283    0.781449258
    0.236709774    0.773506522    0.876437724
    0.570043564    0.106840089    0.496484011
    0.236710131    0.773506701    0.591472447
    0.903376758    0.440173388    0.686460853
    0.570043266    0.106839970    0.781449258
    0.093852639    0.202078059    0.876437724
    0.427186310    0.535411417    0.496484071
    0.093852997    0.202078149    0.591472447
    0.760519445    0.868744671    0.686460912
    0.427186072    0.535411358    0.781449258
    0.379567027    0.344935119    0.876437783
    0.712900579    0.678268552    0.496484071
    0.379567266    0.344935298    0.591472447
    0.046233654    0.011601806    0.686460912
    0.712900400    0.678268433    0.781449258
    0.903376341    0.440173149    0.900184751
    0.570043445    0.106840029    0.425242722
    0.236710072    0.773506641    0.520231128
    0.903376758    0.440173388    0.615219533
    0.570043147    0.106839851    0.710207939
    0.236709774    0.773506403    0.805196404
    0.760519385    0.868744612    0.900184751
    0.427186400    0.535411417    0.425242692
    0.093852997    0.202078074    0.520231068
    0.760519683    0.868744791    0.615219533
    0.427186072    0.535411239    0.710207939
    0.093852758    0.202077881    0.805196404
    0.189090788    0.583030343    0.900184751
    0.855757833    0.249697179    0.425242722
    0.522424459    0.916363776    0.520231128
    0.189091086    0.583030522    0.615219533
    0.855757475    0.249696985    0.710207939
    0.522424102    0.916363597    0.805196404
    0.617662191    0.297316074    0.900184751
    0.284329236    0.963982940    0.425242722
    0.950995862    0.630649567    0.520231128
    0.617662489    0.297316253    0.615219533
    0.284328878    0.963982701    0.710207999
    0.950995564    0.630649447    0.805196404
    0.046233654    0.011601806    0.900184751
    0.712900639    0.678268611    0.425242662
    0.379567236    0.344935238    0.520231068
    0.046233892    0.011601925    0.615219533
    0.712900281    0.678268433    0.710207880
    0.379566908    0.344935119    0.805196345
    0.474805117    0.725887418    0.900184751
    0.141472191    0.392554343    0.425242692
    0.808138788    0.059220944    0.520231068
    0.474805474    0.725887656    0.615219533
    0.141471863    0.392554104    0.710207939
    0.808138490    0.059220806    0.805196404
    0.331947923    0.154458895    0.900184751
    0.998614967    0.821125746    0.425242722
    0.665281534    0.487792373    0.520231128
    0.331948221    0.154459089    0.615219533
    0.998614609    0.821125507    0.710207999
    0.665281296    0.487792194    0.805196404
    0.593852878    0.702078104    0.876437724
    0.927186310    0.035411455    0.496484041
    0.593852997    0.702078104    0.591472447
    0.260519385    0.368744671    0.686460912
    0.927186131    0.035411373    0.781449258
    0.022424102    0.416363716    0.876437724
    0.355757713    0.749697208    0.496484041
    0.022424459    0.416363835    0.591472447
    0.689090848    0.083030418    0.686460912
    0.355757475    0.749697089    0.781449258
    0.879566908    0.844935179    0.876437724
    0.212900639    0.178268671    0.496484011
    0.879567206    0.844935298    0.591472447
    0.546233833    0.511601925    0.686460853
    0.212900281    0.178268507    0.781449258
    0.308138311    0.559220910    0.876437724
    0.641471982    0.892554343    0.496484011
    0.308138609    0.559220910    0.591472447
    0.974805236    0.225887671    0.686460853
    0.641471744    0.892554164    0.781449258
    0.736709833    0.273506463    0.876437724
    0.070043564    0.606839895    0.496484041
    0.736710131    0.273506701    0.591472447
    0.403376579    0.940173149    0.686460912
    0.070043206    0.606839895    0.781449258
    0.165281236    0.987792373    0.876437724
    0.498614877    0.321125746    0.496484041
    0.165281579    0.987792432    0.591472447
    0.831948042    0.654458880    0.686460912
    0.498614669    0.321125627    0.781449258
    0.450995624    0.130649403    0.876437724
    0.784329176    0.463982821    0.496484071
    0.450995833    0.130649537    0.591472447
    0.117662311    0.797316074    0.686460912
    0.784328938    0.463982701    0.781449258
    0.546233892    0.511601925    0.900184751
    0.212900698    0.178268686    0.425242722
    0.879567325    0.844935358    0.520231128
    0.546233892    0.511601925    0.615219593
    0.212900341    0.178268507    0.710207939
    0.879566908    0.844935060    0.805196404
    0.831948042    0.654459000    0.900184751
    0.498614997    0.321125805    0.425242722
    0.165281594    0.987792492    0.520231128
    0.831948161    0.654459059    0.615219593
    0.498614609    0.321125567    0.710207999
    0.165281296    0.987792253    0.805196404
    0.689090967    0.083030537    0.900184751
    0.355757862    0.749697208    0.425242692
    0.022424459    0.416363895    0.520231068
    0.689091027    0.083030477    0.615219533
    0.355757475    0.749696970    0.710207999
    0.022424102    0.416363597    0.805196404
    0.117662311    0.797316194    0.900184751
    0.784329236    0.463982940    0.425242722
    0.450995833    0.130649611    0.520231068
    0.117662430    0.797316194    0.615219533
    0.784328878    0.463982701    0.710207999
    0.450995505    0.130649343    0.805196404
    0.974805117    0.225887612    0.900184751
    0.641472042    0.892554283    0.425242692
    0.308138669    0.559220970    0.520231068
    0.974805236    0.225887567    0.615219533
    0.641471684    0.892554104    0.710207999
    0.308138371    0.559220791    0.805196404
    0.403376460    0.940173268    0.900184751
    0.070043445    0.606839955    0.425242722
    0.736710131    0.273506641    0.520231128
    0.403376639    0.940173268    0.615219593
    0.070043087    0.606839776    0.710207999
    0.736709714    0.273506463    0.805196404
    0.260519445    0.368744850    0.900184751
    0.927186370    0.035411596    0.425242752
    0.593852997    0.702078223    0.520231128
    0.260519564    0.368744850    0.615219593
    0.927186012    0.035411313    0.710207999
    0.593852639    0.702077985    0.805196404
