Si+C
    1.000000000
   13.303179741    0.000000000    0.000000000
   -6.651589394   11.520891190    0.000000000
    0.000000000    0.000000000   21.679416656
Si  C  
72     308
Direct
    0.348160356    0.681493700    0.000000013
    0.681493759    0.014827132    0.144634396
    0.014827251    0.348160625    0.289268821
    0.014827028    0.014827028    0.000000014
    0.348160386    0.348160386    0.144634396
    0.681493878    0.681493878    0.289268821
    0.681493700    0.348160356    0.000000000
    0.014827132    0.681493759    0.144634396
    0.348160625    0.014827251    0.289268792
    0.014827013    0.681493759    0.036158606
    0.348160386    0.014827132    0.180793017
    0.681493878    0.348160625    0.325427473
    0.348160416    0.348160416    0.036158621
    0.681493759    0.681493819    0.180793032
    0.014827251    0.014827251    0.325427473
    0.681493759    0.014827013    0.036158606
    0.014827132    0.348160386    0.180793017
    0.348160625    0.681493878    0.325427443
    0.014827028    0.514827013    0.000000017
    0.348160416    0.848160446    0.144634411
    0.681493819    0.181493878    0.289268821
    0.681493759    0.848160386    0.000000038
    0.014827132    0.181493759    0.144634396
    0.348160625    0.514827251    0.289268821
    0.348160386    0.181493685    0.000000008
    0.681493759    0.514827073    0.144634396
    0.014827132    0.848160505    0.289268792
    0.348160416    0.848160267    0.036158569
    0.681493878    0.181493759    0.180793002
    0.014827132    0.514827013    0.325427413
    0.014827132    0.181493700    0.036158592
    0.348160505    0.514827132    0.180793002
    0.681493759    0.848160446    0.325427353
    0.681493819    0.514827073    0.036158577
    0.014827251    0.848160505    0.180793017
    0.348160625    0.181493878    0.325427413
    0.181493700    0.848160386    0.000000024
    0.514827073    0.181493759    0.144634396
    0.848160565    0.514827251    0.289268821
    0.514827013    0.514827013    0.000000014
    0.848160446    0.848160386    0.144634396
    0.181493878    0.181493878    0.289268821
    0.848160386    0.181493700    0.000000005
    0.181493759    0.514827073    0.144634381
    0.514827251    0.848160565    0.289268821
    0.181493685    0.514827013    0.036158577
    0.514827132    0.848160505    0.180793017
    0.848160446    0.181493759    0.325427413
    0.848160386    0.848160386    0.036158562
    0.181493878    0.181493878    0.180793017
    0.514827251    0.514827251    0.325427413
    0.514827073    0.181493670    0.036158577
    0.848160505    0.514827132    0.180793017
    0.181493759    0.848160446    0.325427413
    0.181493700    0.348160356    0.000000013
    0.514827073    0.681493759    0.144634396
    0.848160505    0.014827132    0.289268821
    0.848160386    0.681493759    0.000000027
    0.181493759    0.014827132    0.144634396
    0.514827251    0.348160625    0.289268821
    0.514827013    0.014827021    0.000000013
    0.848160386    0.348160416    0.144634396
    0.181493878    0.681493819    0.289268821
    0.514827013    0.681493640    0.036158621
    0.848160386    0.014827013    0.180793017
    0.181493878    0.348160505    0.325427473
    0.181493655    0.014827013    0.036158614
    0.514827013    0.348160386    0.180793017
    0.848160446    0.681493878    0.325427473
    0.848160446    0.348160386    0.036158606
    0.181493878    0.681493759    0.180793017
    0.514827251    0.014827251    0.325427443
    0.849946618    0.013190873    0.876437604
    0.611851513    0.965571880    0.496484011
    0.421375275    0.727476656    0.591472447
    0.230899006    0.489381313    0.686460853
    0.040422678    0.251286030    0.781449199
    0.992803752    0.441762328    0.876437724
    0.754708648    0.394143403    0.496484041
    0.564232409    0.156048149    0.591472447
    0.373756111    0.917952776    0.686460853
    0.183279842    0.679857492    0.781449258
    0.564232290    0.156048000    0.876437724
    0.326137185    0.108429082    0.496484011
    0.135660976    0.870333850    0.591472447
    0.945184708    0.632238507    0.686460853
    0.754708469    0.394143164    0.781449258
    0.707089484    0.584619403    0.876437604
    0.468994379    0.537000537    0.496484011
    0.278518140    0.298905283    0.591472447
    0.088041827    0.060809910    0.686460853
    0.897565603    0.822714567    0.781449258
    0.135660872    0.870333791    0.876437604
    0.897565782    0.822714746    0.496484011
    0.707089543    0.584619522    0.591472447
    0.516613245    0.346524179    0.686460853
    0.326137006    0.108428903    0.781449199
    0.278518021    0.298905134    0.876437604
    0.040422916    0.251286209    0.496484011
    0.849946678    0.013190970    0.591472447
    0.659470439    0.775095642    0.686460853
    0.468994141    0.537000299    0.781449199
    0.421375155    0.727476597    0.876437604
    0.183280051    0.679857671    0.496484011
    0.992803872    0.441762418    0.591472447
    0.802327573    0.203667045    0.686460853
    0.611851275    0.965571702    0.781449199
    0.088041767    0.060809858    0.900184691
    0.040422916    0.251286238    0.425242722
    0.849946678    0.013190938    0.520231128
    0.659470499    0.775095642    0.615219593
    0.468994200    0.537000299    0.710207939
    0.278517902    0.298905015    0.805196404
    0.802327454    0.203666985    0.900184691
    0.754708707    0.394143462    0.425242692
    0.564232469    0.156048149    0.520231068
    0.373756170    0.917952836    0.615219533
    0.183279887    0.679857492    0.710207939
    0.992803693    0.441762269    0.805196345
    0.945184708    0.632238507    0.900184751
    0.897565901    0.822714925    0.425242692
    0.707089663    0.584619582    0.520231128
    0.516613364    0.346524298    0.615219533
    0.326137066    0.108428948    0.710207939
    0.135660887    0.870333672    0.805196404
    0.373756051    0.917952776    0.900184691
    0.326137245    0.108429126    0.425242722
    0.135660976    0.870333791    0.520231128
    0.945184767    0.632238507    0.615219593
    0.754708469    0.394143164    0.710207939
    0.564232171    0.156047940    0.805196464
    0.516613185    0.346524179    0.900184691
    0.468994439    0.537000537    0.425242722
    0.278518140    0.298905283    0.520231128
    0.088041902    0.060809970    0.615219593
    0.897565603    0.822714567    0.710207939
    0.707089365    0.584619343    0.805196404
    0.659470379    0.775095582    0.900184751
    0.611851573    0.965572000    0.425242722
    0.421375334    0.727476716    0.520231128
    0.230899066    0.489381462    0.615219593
    0.040422797    0.251286089    0.710207939
    0.849946558    0.013190858    0.805196404
    0.230898902    0.489381313    0.900184751
    0.183280081    0.679857671    0.425242722
    0.992803812    0.441762388    0.520231128
    0.802327573    0.203667104    0.615219593
    0.611851275    0.965571761    0.710207939
    0.421375096    0.727476478    0.805196464
    0.064232387    0.156048000    0.876437604
    0.826137304    0.108429097    0.496484011
    0.635661125    0.870333850    0.591472447
    0.445184767    0.632238507    0.686460853
    0.254708529    0.394143224    0.781449199
    0.635660887    0.870333672    0.876437604
    0.397565782    0.822714806    0.496484011
    0.207089558    0.584619522    0.591472447
    0.016613245    0.346524179    0.686460853
    0.826137006    0.108428843    0.781449258
    0.778518021    0.298905194    0.876437604
    0.540422976    0.251286209    0.496484041
    0.349946737    0.013190981    0.591472447
    0.159470454    0.775095642    0.686460853
    0.968994200    0.537000299    0.781449258
    0.921375096    0.727476597    0.876437724
    0.683280051    0.679857671    0.496484041
    0.492803812    0.441762388    0.591472447
    0.302327514    0.203667045    0.686460853
    0.111851230    0.965571702    0.781449258
    0.349946558    0.013190813    0.876437604
    0.111851469    0.965571940    0.496484011
    0.921375275    0.727476716    0.591472447
    0.730898976    0.489381254    0.686460853
    0.540422738    0.251285970    0.781449258
    0.492803693    0.441762269    0.876437604
    0.254708588    0.394143343    0.496484041
    0.064232409    0.156048149    0.591472447
    0.873756111    0.917952776    0.686460853
    0.683279872    0.679857433    0.781449258
    0.207089409    0.584619403    0.876437604
    0.968994319    0.537000477    0.496484011
    0.778518140    0.298905253    0.591472447
    0.588041842    0.060809914    0.686460853
    0.397565544    0.822714567    0.781449199
    0.873756111    0.917952657    0.900184751
    0.826137304    0.108429134    0.425242722
    0.635661125    0.870333850    0.520231128
    0.445184886    0.632238507    0.615219593
    0.254708499    0.394143164    0.710207939
    0.064232290    0.156047940    0.805196404
    0.016613245    0.346524119    0.900184751
    0.968994498    0.537000537    0.425242722
    0.778518260    0.298905253    0.520231128
    0.588042021    0.060809959    0.615219593
    0.397565663    0.822714567    0.710207939
    0.207089454    0.584619343    0.805196404
    0.588041842    0.060809858    0.900184691
    0.540422976    0.251286268    0.425242692
    0.349946737    0.013190961    0.520231068
    0.159470528    0.775095761    0.615219474
    0.968994200    0.537000358    0.710207939
    0.778518021    0.298905134    0.805196345
    0.730898976    0.489381313    0.900184691
    0.683280170    0.679857731    0.425242662
    0.492803872    0.441762418    0.520231068
    0.302327693    0.203667223    0.615219474
    0.111851372    0.965571821    0.710207939
    0.921375155    0.727476537    0.805196345
    0.302327514    0.203666985    0.900184691
    0.254708648    0.394143403    0.425242692
    0.064232409    0.156048119    0.520231068
    0.873756230    0.917952895    0.615219474
    0.683279932    0.679857492    0.710207939
    0.492803752    0.441762328    0.805196345
    0.445184708    0.632238507    0.900184691
    0.397565842    0.822714925    0.425242692
    0.207089573    0.584619582    0.520231068
    0.016613364    0.346524328    0.615219474
    0.826137066    0.108428955    0.710207939
    0.635660827    0.870333672    0.805196345
    0.159470305    0.775095642    0.900184691
    0.111851513    0.965572059    0.425242692
    0.921375275    0.727476716    0.520231068
    0.730899036    0.489381522    0.615219474
    0.540422738    0.251286089    0.710207939
    0.349946499    0.013190858    0.805196345
    0.992803812    0.941762328    0.876437724
    0.754708707    0.894143343    0.496484041
    0.564232528    0.656048119    0.591472447
    0.373756170    0.417952776    0.686460853
    0.183279917    0.179857492    0.781449258
    0.707089484    0.084619470    0.876437724
    0.468994379    0.037000529    0.496484041
    0.278518170    0.798905253    0.591472447
    0.088041887    0.560809970    0.686460853
    0.897565663    0.322714627    0.781449258
    0.849946618    0.513190866    0.876437604
    0.611851513    0.465571910    0.496484011
    0.421375275    0.227476686    0.591472447
    0.230898991    0.989381313    0.686460853
    0.040422678    0.751286030    0.781449199
    0.421375155    0.227476537    0.876437604
    0.183280051    0.179857641    0.496484011
    0.992803872    0.941762388    0.591472447
    0.802327573    0.703667045    0.686460853
    0.611851335    0.465571702    0.781449199
    0.564232290    0.656047940    0.876437604
    0.326137245    0.608429074    0.496484011
    0.135661006    0.370333821    0.591472447
    0.945184708    0.132238463    0.686460853
    0.754708469    0.894143105    0.781449199
    0.135660812    0.370333672    0.876437604
    0.897565782    0.322714776    0.496484011
    0.707089543    0.084619552    0.591472447
    0.516613245    0.846524179    0.686460853
    0.326136947    0.608428836    0.781449199
    0.278517962    0.798905134    0.876437724
    0.040422916    0.751286268    0.496483982
    0.849946678    0.513190985    0.591472447
    0.659470499    0.275095791    0.686460793
    0.468994081    0.037000306    0.781449258
    0.945184648    0.132238328    0.900184751
    0.897565901    0.322714776    0.425242722
    0.707089663    0.084619500    0.520231128
    0.516613364    0.846524179    0.615219593
    0.326137066    0.608428836    0.710207939
    0.135660857    0.370333612    0.805196404
    0.088041827    0.560809851    0.900184691
    0.040423036    0.751286268    0.425242722
    0.849946737    0.513190985    0.520231128
    0.659470499    0.275095671    0.615219593
    0.468994200    0.037000313    0.710207939
    0.278517962    0.798905015    0.805196404
    0.659470379    0.275095582    0.900184751
    0.611851573    0.465572029    0.425242692
    0.421375334    0.227476716    0.520231128
    0.230899125    0.989381492    0.615219533
    0.040422797    0.751286089    0.710207939
    0.849946558    0.513190866    0.805196404
    0.802327573    0.703667045    0.900184691
    0.754708707    0.894143403    0.425242692
    0.564232469    0.656048119    0.520231068
    0.373756289    0.417952895    0.615219474
    0.183279961    0.179857492    0.710207939
    0.992803752    0.941762209    0.805196345
    0.230898961    0.989381194    0.900184691
    0.183280110    0.179857671    0.425242692
    0.992803872    0.941762328    0.520231068
    0.802327693    0.703667104    0.615219474
    0.611851394    0.465571761    0.710207939
    0.421375155    0.227476537    0.805196345
    0.373756111    0.417952776    0.900184691
    0.326137245    0.608429193    0.425242692
    0.135661006    0.370333850    0.520231068
    0.945184827    0.132238626    0.615219474
    0.754708469    0.894143224    0.710207939
    0.564232290    0.656047940    0.805196345
    0.516613245    0.846524119    0.900184691
    0.468994379    0.037000529    0.425242692
    0.278518140    0.798905194    0.520231068
    0.088041946    0.560809970    0.615219474
    0.897565663    0.322714627    0.710207939
    0.707089424    0.084619410    0.805196345
    0.921375275    0.227476597    0.876437724
    0.683280170    0.179857641    0.496484041
    0.492803931    0.941762388    0.591472447
    0.302327633    0.703667045    0.686460853
    0.111851335    0.465571702    0.781449318
    0.064232349    0.656048000    0.876437604
    0.826137304    0.608429074    0.496483982
    0.635661066    0.370333850    0.591472447
    0.445184767    0.132238507    0.686460853
    0.254708469    0.894143164    0.781449199
    0.492803752    0.941762209    0.876437604
    0.254708618    0.894143343    0.496484011
    0.064232416    0.656048059    0.591472447
    0.873756111    0.417952716    0.686460853
    0.683279812    0.179857433    0.781449258
    0.635660946    0.370333731    0.876437604
    0.397565722    0.322714776    0.496484011
    0.207089558    0.084619552    0.591472447
    0.016613245    0.846524239    0.686460853
    0.826137006    0.608428836    0.781449258
    0.778518081    0.798905194    0.876437604
    0.540422976    0.751286268    0.496483982
    0.349946737    0.513191044    0.591472447
    0.159470454    0.275095671    0.686460853
    0.968994200    0.037000343    0.781449258
    0.207089409    0.084619470    0.876437604
    0.968994319    0.037000500    0.496484011
    0.778518140    0.798905253    0.591472447
    0.588041842    0.560809851    0.686460853
    0.397565544    0.322714567    0.781449258
    0.349946618    0.513190866    0.876437604
    0.111851469    0.465572000    0.496484011
    0.921375275    0.227476776    0.591472447
    0.730898976    0.989381433    0.686460853
    0.540422738    0.751286149    0.781449199
    0.730898917    0.989381313    0.900184751
    0.683280170    0.179857731    0.425242722
    0.492803931    0.941762447    0.520231128
    0.302327693    0.703667164    0.615219593
    0.111851387    0.465571821    0.710207939
    0.921375215    0.227476478    0.805196404
    0.873756230    0.417952716    0.900184691
    0.826137364    0.608429193    0.425242692
    0.635661125    0.370333850    0.520231068
    0.445184827    0.132238552    0.615219533
    0.254708558    0.894143224    0.710207939
    0.064232342    0.656047940    0.805196345
    0.016613245    0.846524119    0.900184691
    0.968994439    0.037000559    0.425242692
    0.778518200    0.798905253    0.520231068
    0.588042021    0.560809970    0.615219593
    0.397565603    0.322714567    0.710207939
    0.207089439    0.084619291    0.805196404
    0.445184648    0.132238388    0.900184751
    0.397565842    0.322714835    0.425242722
    0.207089603    0.084619559    0.520231128
    0.016613364    0.846524239    0.615219593
    0.826137066    0.608428955    0.710207939
    0.635660887    0.370333672    0.805196404
    0.588041723    0.560809851    0.900184691
    0.540422976    0.751286268    0.425242692
    0.349946737    0.513190985    0.520231068
    0.159470469    0.275095671    0.615219533
    0.968994200    0.037000328    0.710207939
    0.778518021    0.798905075    0.805196404
    0.159470364    0.275095642    0.900184691
    0.111851543    0.465572000    0.425242722
    0.921375334    0.227476746    0.520231128
    0.730899036    0.989381433    0.615219593
    0.540422738    0.751286030    0.710207939
    0.349946499    0.513190806    0.805196404
    0.302327514    0.703667045    0.900184691
    0.254708707    0.894143462    0.425242692
    0.064232461    0.656048119    0.520231068
    0.873756230    0.417952836    0.615219593
    0.683279932    0.179857522    0.710207939
    0.492803752    0.941762269    0.805196345
