Si+C                                    
   1.00000000000000     
    13.3031797409999992    0.0000000000000000    0.0000000000000000
     6.6515893940000002   14.8734064099999994    0.0000000000000000
     0.0000000000000000    0.0000000000000000    7.9947500229999999
   Si   C 
    36    84
Direct
  0.2832494969999999  0.6416247490000018  0.0000000470000003
  0.8165827990000025  0.4082912800000003  0.1519008730000024
  0.3499159810000023  0.1749577670000022  0.3038017450000012
  0.6165827510000028  0.3082913759999997  0.0000000570000012
  0.1499160529999983  0.0749579299999965  0.1519008730000024
  0.6832492349999981  0.8416244390000003  0.3038017149999988
  0.9499161239999978  0.9749580619999989  0.0000000400000033
  0.4832494850000018  0.7416245940000010  0.1519008730000024
  0.0165826679999981  0.5082911249999995  0.3038017149999988
  0.7999162670000004  0.7749580139999992  0.0759503100000032
  0.3332495089999981  0.5416245460000013  0.2278511669999972
  0.8665827510000028  0.3082910780000034  0.3797520399999996
  0.1332496850000027  0.4416247609999999  0.0759503250000009
  0.6665829419999980  0.2082912770000007  0.2278511669999972
  0.1999162440000006  0.9749577640000027  0.3797520399999996
  0.4665828939999983  0.1082915369999995  0.0759503250000009
  0.9999161360000031  0.8749580380000026  0.2278511669999972
  0.5332493780000007  0.6416245699999976  0.3797520399999996
  0.7832495569999978  0.6416247490000018  0.0000000000000000
  0.3165828289999979  0.4082912800000003  0.1519008579999976
  0.8499160410000002  0.1749577819999999  0.3038017450000012
  0.1165827960000030  0.3082914049999985  0.0000000570000012
  0.6499160529999983  0.0749579519999983  0.1519009020000013
  0.1832492950000031  0.8416244980000016  0.3038017450000012
  0.4499161239999978  0.9749580619999989  0.0000000570000012
  0.9832494260000004  0.7416245940000010  0.1519009020000013
  0.5165826679999981  0.5082911249999995  0.3038017450000012
  0.2999161779999966  0.7749581340000020  0.0759503250000009
  0.8332494499999967  0.5416246650000005  0.2278511969999997
  0.3665826920000015  0.3082911970000026  0.3797520099999971
  0.6332494019999970  0.4416247309999974  0.0759503470000027
  0.1665826440000018  0.2082912620000030  0.2278511969999997
  0.6999159459999973  0.9749578240000005  0.3797519800000018
  0.9665827159999978  0.1082915510000007  0.0759503250000009
  0.4999159569999989  0.8749580380000026  0.2278511969999997
  0.0332492590000015  0.6416246289999989  0.3797520399999996
  0.0122321839999984  0.1573637719999965  0.5651753539999973
  0.9836605189999972  0.4287924169999968  0.6649360059999978
  0.9550889730000023  0.7002210019999993  0.7646965380000026
  0.1550892590000004  0.3002209070000035  0.5651753539999973
  0.1265177129999984  0.5716495510000001  0.6649360059999978
  0.0979461740000005  0.8430781960000004  0.7646965380000026
  0.2979463929999966  0.4430781009999976  0.5651753539999973
  0.2693748470000017  0.7145066860000000  0.6649360059999978
  0.2408033159999974  0.9859353900000016  0.7646965980000004
  0.4408035280000036  0.5859352350000009  0.5651753539999973
  0.4122319820000016  0.8573638800000012  0.6649360059999978
  0.3836604359999995  0.1287925239999979  0.7646965980000004
  0.5836606619999998  0.7287923689999971  0.5651753539999973
  0.5550890559999999  0.0002210139999974  0.6649360059999978
  0.5265175099999979  0.2716495989999999  0.7646965980000004
  0.7265177969999996  0.8716494439999991  0.5651753539999973
  0.6979462500000011  0.1430781039999971  0.6649360059999978
  0.6693747039999991  0.4145066740000019  0.7646965380000026
  0.8693749899999972  0.0145066979999982  0.5651753539999973
  0.8408034440000023  0.2859352830000006  0.6649360059999978
  0.8122317790000011  0.5573638680000030  0.7646965980000004
  0.1050892989999994  0.9002207520000027  0.6150555609999984
  0.0765177609999981  0.1716493520000029  0.7148162129999989
  0.0479462589999997  0.4430780409999997  0.8145768050000015
  0.2479463960000032  0.0430780650000031  0.6150555609999984
  0.2193748500000012  0.3145066499999984  0.7148161530000010
  0.1908032890000015  0.5859353540000001  0.8145768050000015
  0.3908035760000033  0.1859351550000028  0.6150555609999984
  0.3622319700000034  0.4573638439999996  0.7148161530000010
  0.3336603639999964  0.7287924290000021  0.8145768050000015
  0.5336606500000016  0.3287922140000035  0.6150555609999984
  0.5050891639999975  0.6002208589999967  0.7148162129999989
  0.4765174979999998  0.8716493840000012  0.8145768050000015
  0.6765177850000015  0.4716495280000004  0.6150555609999984
  0.6479462389999995  0.7430781130000028  0.7148162129999989
  0.6193746920000009  0.0145068169999973  0.8145768050000015
  0.8193749189999977  0.6145066019999987  0.6150555609999984
  0.7908033730000028  0.8859352469999990  0.7148162129999989
  0.7622318860000021  0.1573639069999970  0.8145768050000015
  0.9622321129999989  0.7573637369999986  0.6150555609999984
  0.9336606259999982  0.0287923810000024  0.7148162129999989
  0.9050889609999970  0.3002208469999985  0.8145768050000015
  0.0836606550000027  0.7287923100000029  0.5651753539999973
  0.0550891350000029  0.0002210139999974  0.6649360059999978
  0.0265175509999978  0.2716495989999999  0.7646965380000026
  0.2265177969999996  0.8716494439999991  0.5651753539999973
  0.1979462649999988  0.1430781039999971  0.6649360059999978
  0.1693747790000018  0.4145067930000010  0.7646965980000004
  0.3693749899999972  0.0145065780000024  0.5651753539999973
  0.3408035040000001  0.2859352830000006  0.6649360059999978
  0.3122318389999990  0.5573638680000030  0.7646965380000026
  0.5122321249999970  0.1573637719999965  0.5651753539999973
  0.4836605189999972  0.4287924169999968  0.6649360059999978
  0.4550890330000001  0.7002210019999993  0.7646965980000004
  0.6550892590000004  0.3002208469999985  0.5651753539999973
  0.6265177129999984  0.5716494919999988  0.6649360059999978
  0.5979461670000035  0.8430781360000026  0.7646965980000004
  0.7979464530000016  0.4430781009999976  0.5651753539999973
  0.7693748470000017  0.7145066860000000  0.6649360059999978
  0.7408033609999976  0.9859353299999967  0.7646965980000004
  0.9408035869999978  0.5859351750000030  0.5651753539999973
  0.9122319820000016  0.8573638200000033  0.6649360059999978
  0.8836604359999995  0.1287924049999987  0.7646965980000004
  0.0336606879999977  0.3287922439999988  0.6150555609999984
  0.0050891639999975  0.6002208589999967  0.7148161530000010
  0.9765175579999976  0.8716495039999970  0.8145768050000015
  0.1765178440000028  0.4716492889999984  0.6150555609999984
  0.1479462980000008  0.7430779339999987  0.7148162129999989
  0.1193747590000029  0.0145065780000024  0.8145768050000015
  0.3193749790000027  0.6145066019999987  0.6150555609999984
  0.2908034319999970  0.8859351870000012  0.7148162129999989
  0.2622318270000008  0.1573637870000013  0.8145768050000015
  0.4622321129999989  0.7573636770000007  0.6150555609999984
  0.4336605669999969  0.0287922620000032  0.7148161530000010
  0.4050890210000020  0.3002208469999985  0.8145768050000015
  0.6050891880000009  0.9002206919999978  0.6150555609999984
  0.5765177010000002  0.1716493520000029  0.7148161530000010
  0.5479461549999982  0.4430780409999997  0.8145768050000015
  0.7479463219999971  0.0430779459999968  0.6150555609999984
  0.7193747760000022  0.3145066499999984  0.7148162129999989
  0.6908032300000002  0.5859351160000017  0.8145768050000015
  0.8908035159999983  0.1859350350000000  0.6150555609999984
  0.8622319099999984  0.4573636049999976  0.7148161530000010
  0.8336603050000022  0.7287921909999966  0.8145768050000015
 
  0.00000000E+00  0.00000000E+00  0.00000000E+00
  0.00000000E+00  0.00000000E+00  0.00000000E+00
  0.00000000E+00  0.00000000E+00  0.00000000E+00
  0.00000000E+00  0.00000000E+00  0.00000000E+00
  0.00000000E+00  0.00000000E+00  0.00000000E+00
  0.00000000E+00  0.00000000E+00  0.00000000E+00
  0.00000000E+00  0.00000000E+00  0.00000000E+00
  0.00000000E+00  0.00000000E+00  0.00000000E+00
  0.00000000E+00  0.00000000E+00  0.00000000E+00
  0.00000000E+00  0.00000000E+00  0.00000000E+00
  0.00000000E+00  0.00000000E+00  0.00000000E+00
  0.00000000E+00  0.00000000E+00  0.00000000E+00
  0.00000000E+00  0.00000000E+00  0.00000000E+00
  0.00000000E+00  0.00000000E+00  0.00000000E+00
  0.00000000E+00  0.00000000E+00  0.00000000E+00
  0.00000000E+00  0.00000000E+00  0.00000000E+00
  0.00000000E+00  0.00000000E+00  0.00000000E+00
  0.00000000E+00  0.00000000E+00  0.00000000E+00
  0.00000000E+00  0.00000000E+00  0.00000000E+00
  0.00000000E+00  0.00000000E+00  0.00000000E+00
  0.00000000E+00  0.00000000E+00  0.00000000E+00
  0.00000000E+00  0.00000000E+00  0.00000000E+00
  0.00000000E+00  0.00000000E+00  0.00000000E+00
  0.00000000E+00  0.00000000E+00  0.00000000E+00
  0.00000000E+00  0.00000000E+00  0.00000000E+00
  0.00000000E+00  0.00000000E+00  0.00000000E+00
  0.00000000E+00  0.00000000E+00  0.00000000E+00
  0.00000000E+00  0.00000000E+00  0.00000000E+00
  0.00000000E+00  0.00000000E+00  0.00000000E+00
  0.00000000E+00  0.00000000E+00  0.00000000E+00
  0.00000000E+00  0.00000000E+00  0.00000000E+00
  0.00000000E+00  0.00000000E+00  0.00000000E+00
  0.00000000E+00  0.00000000E+00  0.00000000E+00
  0.00000000E+00  0.00000000E+00  0.00000000E+00
  0.00000000E+00  0.00000000E+00  0.00000000E+00
  0.00000000E+00  0.00000000E+00  0.00000000E+00
  0.00000000E+00  0.00000000E+00  0.00000000E+00
  0.00000000E+00  0.00000000E+00  0.00000000E+00
  0.00000000E+00  0.00000000E+00  0.00000000E+00
  0.00000000E+00  0.00000000E+00  0.00000000E+00
  0.00000000E+00  0.00000000E+00  0.00000000E+00
  0.00000000E+00  0.00000000E+00  0.00000000E+00
  0.00000000E+00  0.00000000E+00  0.00000000E+00
  0.00000000E+00  0.00000000E+00  0.00000000E+00
  0.00000000E+00  0.00000000E+00  0.00000000E+00
  0.00000000E+00  0.00000000E+00  0.00000000E+00
  0.00000000E+00  0.00000000E+00  0.00000000E+00
  0.00000000E+00  0.00000000E+00  0.00000000E+00
  0.00000000E+00  0.00000000E+00  0.00000000E+00
  0.00000000E+00  0.00000000E+00  0.00000000E+00
  0.00000000E+00  0.00000000E+00  0.00000000E+00
  0.00000000E+00  0.00000000E+00  0.00000000E+00
  0.00000000E+00  0.00000000E+00  0.00000000E+00
  0.00000000E+00  0.00000000E+00  0.00000000E+00
  0.00000000E+00  0.00000000E+00  0.00000000E+00
  0.00000000E+00  0.00000000E+00  0.00000000E+00
  0.00000000E+00  0.00000000E+00  0.00000000E+00
  0.00000000E+00  0.00000000E+00  0.00000000E+00
  0.00000000E+00  0.00000000E+00  0.00000000E+00
  0.00000000E+00  0.00000000E+00  0.00000000E+00
  0.00000000E+00  0.00000000E+00  0.00000000E+00
  0.00000000E+00  0.00000000E+00  0.00000000E+00
  0.00000000E+00  0.00000000E+00  0.00000000E+00
  0.00000000E+00  0.00000000E+00  0.00000000E+00
  0.00000000E+00  0.00000000E+00  0.00000000E+00
  0.00000000E+00  0.00000000E+00  0.00000000E+00
  0.00000000E+00  0.00000000E+00  0.00000000E+00
  0.00000000E+00  0.00000000E+00  0.00000000E+00
  0.00000000E+00  0.00000000E+00  0.00000000E+00
  0.00000000E+00  0.00000000E+00  0.00000000E+00
  0.00000000E+00  0.00000000E+00  0.00000000E+00
  0.00000000E+00  0.00000000E+00  0.00000000E+00
  0.00000000E+00  0.00000000E+00  0.00000000E+00
  0.00000000E+00  0.00000000E+00  0.00000000E+00
  0.00000000E+00  0.00000000E+00  0.00000000E+00
  0.00000000E+00  0.00000000E+00  0.00000000E+00
  0.00000000E+00  0.00000000E+00  0.00000000E+00
  0.00000000E+00  0.00000000E+00  0.00000000E+00
  0.00000000E+00  0.00000000E+00  0.00000000E+00
  0.00000000E+00  0.00000000E+00  0.00000000E+00
  0.00000000E+00  0.00000000E+00  0.00000000E+00
  0.00000000E+00  0.00000000E+00  0.00000000E+00
  0.00000000E+00  0.00000000E+00  0.00000000E+00
  0.00000000E+00  0.00000000E+00  0.00000000E+00
  0.00000000E+00  0.00000000E+00  0.00000000E+00
  0.00000000E+00  0.00000000E+00  0.00000000E+00
  0.00000000E+00  0.00000000E+00  0.00000000E+00
  0.00000000E+00  0.00000000E+00  0.00000000E+00
  0.00000000E+00  0.00000000E+00  0.00000000E+00
  0.00000000E+00  0.00000000E+00  0.00000000E+00
  0.00000000E+00  0.00000000E+00  0.00000000E+00
  0.00000000E+00  0.00000000E+00  0.00000000E+00
  0.00000000E+00  0.00000000E+00  0.00000000E+00
  0.00000000E+00  0.00000000E+00  0.00000000E+00
  0.00000000E+00  0.00000000E+00  0.00000000E+00
  0.00000000E+00  0.00000000E+00  0.00000000E+00
  0.00000000E+00  0.00000000E+00  0.00000000E+00
  0.00000000E+00  0.00000000E+00  0.00000000E+00
  0.00000000E+00  0.00000000E+00  0.00000000E+00
  0.00000000E+00  0.00000000E+00  0.00000000E+00
  0.00000000E+00  0.00000000E+00  0.00000000E+00
  0.00000000E+00  0.00000000E+00  0.00000000E+00
  0.00000000E+00  0.00000000E+00  0.00000000E+00
  0.00000000E+00  0.00000000E+00  0.00000000E+00
  0.00000000E+00  0.00000000E+00  0.00000000E+00
  0.00000000E+00  0.00000000E+00  0.00000000E+00
  0.00000000E+00  0.00000000E+00  0.00000000E+00
  0.00000000E+00  0.00000000E+00  0.00000000E+00
  0.00000000E+00  0.00000000E+00  0.00000000E+00
  0.00000000E+00  0.00000000E+00  0.00000000E+00
  0.00000000E+00  0.00000000E+00  0.00000000E+00
  0.00000000E+00  0.00000000E+00  0.00000000E+00
  0.00000000E+00  0.00000000E+00  0.00000000E+00
  0.00000000E+00  0.00000000E+00  0.00000000E+00
  0.00000000E+00  0.00000000E+00  0.00000000E+00
  0.00000000E+00  0.00000000E+00  0.00000000E+00
  0.00000000E+00  0.00000000E+00  0.00000000E+00
  0.00000000E+00  0.00000000E+00  0.00000000E+00
  0.00000000E+00  0.00000000E+00  0.00000000E+00
  0.00000000E+00  0.00000000E+00  0.00000000E+00
