Si+C
    1.000000000
   13.303179741    0.000000000    0.000000000
    6.651589394   11.520891190    0.000000000
    0.000000000    0.000000000   21.679414749
Si  C  
72     308
Direct
    0.000000000    0.681493819    0.289268851
    0.000000000    0.014827055    0.000000008
    0.000000000    0.348160446    0.144634441
    0.333333343    0.014827132    0.289268851
    0.333333343    0.348160386    0.000000009
    0.333333343    0.681493819    0.144634441
    0.666666687    0.348160386    0.289268821
    0.666666687    0.681493759    0.000000006
    0.666666687    0.014827132    0.144634441
    0.000000000    0.014827251    0.325427473
    0.000000000    0.348160416    0.036158621
    0.000000000    0.681493819    0.180793047
    0.333333343    0.348160505    0.325427443
    0.333333343    0.681493819    0.036158621
    0.333333343    0.014827132    0.180793032
    0.666666746    0.681493998    0.325427473
    0.666666746    0.014827132    0.036158621
    0.666666746    0.348160505    0.180793062
    0.166666672    0.848160446    0.289268821
    0.166666672    0.181493714    0.000000004
    0.166666672    0.514827132    0.144634441
    0.500000060    0.181493759    0.289268821
    0.500000000    0.514827073    0.000000001
    0.500000000    0.848160505    0.144634441
    0.833333373    0.514827251    0.289268851
    0.833333373    0.848160446    0.000000000
    0.833333373    0.181493759    0.144634411
    0.166666687    0.181493759    0.325427383
    0.166666687    0.514827073    0.036158580
    0.166666687    0.848160505    0.180793002
    0.500000000    0.514827132    0.325427383
    0.500000000    0.848160326    0.036158577
    0.500000000    0.181493759    0.180793017
    0.833333313    0.848160446    0.325427383
    0.833333313    0.181493714    0.036158577
    0.833333313    0.514827132    0.180793047
    0.000000000    0.181493759    0.289268821
    0.000000000    0.514827073    0.000000011
    0.000000000    0.848160446    0.144634441
    0.333333343    0.514827251    0.289268851
    0.333333343    0.848160505    0.000000016
    0.333333343    0.181493878    0.144634470
    0.666666687    0.848160446    0.289268821
    0.666666687    0.181493714    0.000000001
    0.666666687    0.514827132    0.144634441
    0.000000014    0.514827251    0.325427443
    0.000000014    0.848160446    0.036158580
    0.000000014    0.181493878    0.180793032
    0.333333373    0.848160446    0.325427443
    0.333333373    0.181493714    0.036158580
    0.333333373    0.514827073    0.180793002
    0.666666746    0.181493878    0.325427443
    0.666666746    0.514827073    0.036158580
    0.666666746    0.848160505    0.180793017
    0.166666672    0.348160386    0.289268821
    0.166666672    0.681493759    0.000000009
    0.166666672    0.014827132    0.144634470
    0.500000000    0.681493759    0.289268851
    0.500000000    0.014827051    0.000000009
    0.500000000    0.348160475    0.144634441
    0.833333313    0.014827132    0.289268821
    0.833333313    0.348160416    0.000000006
    0.833333313    0.681493759    0.144634426
    0.166666687    0.681493878    0.325427473
    0.166666687    0.014827132    0.036158640
    0.166666687    0.348160386    0.180793032
    0.500000000    0.014827251    0.325427473
    0.500000000    0.348160416    0.036158610
    0.500000000    0.681493759    0.180793032
    0.833333373    0.348160505    0.325427443
    0.833333373    0.681493700    0.036158621
    0.833333373    0.014827013    0.180793032
    0.088041827    0.874282837    0.900184870
    0.040422916    0.112378478    0.425242722
    0.849946737    0.064759374    0.520231128
    0.659470499    0.017140150    0.615219593
    0.468994260    0.969521046    0.710208058
    0.278518081    0.921901941    0.805196404
    0.230898961    0.159997091    0.900184870
    0.183280125    0.398092777    0.425242722
    0.992803872    0.350473613    0.520231187
    0.802327693    0.302854478    0.615219593
    0.611851394    0.255235344    0.710208058
    0.421375215    0.207616210    0.805196464
    0.373756111    0.445711374    0.900184870
    0.326137245    0.683807075    0.425242752
    0.135661006    0.636187911    0.520231187
    0.945184827    0.588568747    0.615219593
    0.754708469    0.540949643    0.710208058
    0.564232349    0.493330508    0.805196404
    0.659470379    0.017139912    0.900184870
    0.611851513    0.255235612    0.425242752
    0.421375275    0.207616478    0.520231128
    0.230899081    0.159997359    0.615219593
    0.040422797    0.112378120    0.710208058
    0.849946618    0.064759016    0.805196404
    0.516613185    0.731425583    0.900184870
    0.468994379    0.969521284    0.425242722
    0.278518140    0.921902180    0.520231128
    0.088041916    0.874282956    0.615219593
    0.897565782    0.826663852    0.710207939
    0.707089484    0.779044747    0.805196464
    0.802327514    0.302854210    0.900184870
    0.754708648    0.540949881    0.425242752
    0.564232469    0.493330747    0.520231128
    0.373756230    0.445711613    0.615219593
    0.183280036    0.398092479    0.710207999
    0.992803752    0.350473315    0.805196464
    0.945184588    0.588568449    0.900184870
    0.897565782    0.826664150    0.425242722
    0.707089543    0.779045045    0.520231128
    0.516613305    0.731425881    0.615219593
    0.326137006    0.683806777    0.710208058
    0.135660812    0.636187673    0.805196404
    0.135661066    0.636187971    0.448989779
    0.945184827    0.588568866    0.543978274
    0.754708588    0.540949702    0.638966739
    0.564232349    0.493330598    0.733955085
    0.373755991    0.445711404    0.828943610
    0.421375334    0.207616568    0.448989779
    0.230899096    0.159997433    0.543978274
    0.040422916    0.112378240    0.638966739
    0.849946618    0.064759135    0.733955085
    0.659470260    0.017140031    0.828943610
    0.278518200    0.921902299    0.448989809
    0.088041961    0.874283135    0.543978274
    0.897565782    0.826663971    0.638966739
    0.707089484    0.779044867    0.733955085
    0.516613185    0.731425703    0.828943610
    0.564232469    0.493330836    0.448989779
    0.373756230    0.445711732    0.543978274
    0.183280021    0.398092598    0.638966739
    0.992803752    0.350473434    0.733955085
    0.802327454    0.302854270    0.828943610
    0.707089603    0.779045105    0.448989809
    0.516613364    0.731425941    0.543978333
    0.326137125    0.683806837    0.638966739
    0.135660872    0.636187732    0.733955085
    0.945184588    0.588568568    0.828943610
    0.992803931    0.350473672    0.448989809
    0.802327693    0.302854538    0.543978274
    0.611851513    0.255235404    0.638966739
    0.421375215    0.207616270    0.733955085
    0.230898902    0.159997106    0.828943610
    0.849946737    0.064759374    0.448989809
    0.659470499    0.017140150    0.543978274
    0.468994200    0.969521105    0.638966739
    0.278518021    0.921902001    0.733955085
    0.088041767    0.874282837    0.828943551
    0.159470364    0.017139912    0.900184929
    0.111851543    0.255235612    0.425242752
    0.921375334    0.207616448    0.520231128
    0.730899096    0.159997344    0.615219593
    0.540422797    0.112378120    0.710208058
    0.349946618    0.064759016    0.805196464
    0.302327514    0.302854240    0.900184870
    0.254708678    0.540949881    0.425242752
    0.064232439    0.493330806    0.520231187
    0.873756230    0.445711643    0.615219593
    0.683279932    0.398092508    0.710208058
    0.492803752    0.350473404    0.805196404
    0.588041782    0.874282837    0.900184870
    0.540422916    0.112378478    0.425242752
    0.349946678    0.064759374    0.520231128
    0.159470499    0.017140150    0.615219593
    0.968994200    0.969521046    0.710208058
    0.778518021    0.921901941    0.805196404
    0.445184588    0.588568449    0.900184929
    0.397565782    0.826664150    0.425242752
    0.207089558    0.779045045    0.520231187
    0.016613245    0.731425941    0.615219593
    0.826137125    0.683806777    0.710207999
    0.635660827    0.636187613    0.805196464
    0.730898917    0.159997046    0.900184870
    0.683280110    0.398092747    0.425242722
    0.492803931    0.350473613    0.520231128
    0.302327633    0.302854478    0.615219593
    0.111851498    0.255235344    0.710207939
    0.921375215    0.207616195    0.805196404
    0.873756111    0.445711374    0.900184810
    0.826137304    0.683807075    0.425242692
    0.635661066    0.636187911    0.520231128
    0.445184827    0.588568747    0.615219593
    0.254708529    0.540949583    0.710208058
    0.064232349    0.493330508    0.805196404
    0.016613245    0.731425583    0.900184870
    0.968994439    0.969521344    0.425242722
    0.778518200    0.921902120    0.520231128
    0.588042021    0.874283016    0.615219593
    0.397565663    0.826663911    0.710208058
    0.207089499    0.779044807    0.805196404
    0.064232498    0.493330806    0.448989779
    0.873756230    0.445711702    0.543978274
    0.683280051    0.398092538    0.638966739
    0.492803812    0.350473404    0.733955085
    0.302327573    0.302854270    0.828943491
    0.207089648    0.779045105    0.448989779
    0.016613364    0.731425941    0.543978274
    0.826137185    0.683806837    0.638966739
    0.635660946    0.636187673    0.733955026
    0.445184708    0.588568568    0.828943491
    0.492803872    0.350473642    0.448989779
    0.302327633    0.302854538    0.543978274
    0.111851417    0.255235434    0.638966739
    0.921375215    0.207616299    0.733955085
    0.730899036    0.159997150    0.828943491
    0.349946737    0.064759374    0.448989809
    0.159470499    0.017140269    0.543978274
    0.968994319    0.969521165    0.638966739
    0.778518081    0.921902001    0.733955085
    0.588041842    0.874282897    0.828943551
    0.635661006    0.636188030    0.448989809
    0.445184767    0.588568866    0.543978274
    0.254708558    0.540949762    0.638966739
    0.064232320    0.493330628    0.733955085
    0.873756111    0.445711493    0.828943551
    0.921375394    0.207616568    0.448989779
    0.730899155    0.159997463    0.543978274
    0.540422916    0.112378240    0.638966739
    0.349946678    0.064759135    0.733955026
    0.159470424    0.017140031    0.828943491
    0.778518200    0.921902180    0.448989779
    0.588041961    0.874283075    0.543978274
    0.397565663    0.826663971    0.638966739
    0.207089454    0.779044807    0.733955026
    0.016613245    0.731425703    0.828943551
    0.159470364    0.517139912    0.900184870
    0.111851543    0.755235612    0.425242752
    0.921375334    0.707616448    0.520231128
    0.730899155    0.659997344    0.615219593
    0.540422797    0.612378180    0.710208058
    0.349946678    0.564759076    0.805196404
    0.445184648    0.088568449    0.900184870
    0.397565782    0.326664180    0.425242752
    0.207089573    0.279045045    0.520231128
    0.016613364    0.231425911    0.615219593
    0.826137066    0.183806747    0.710208058
    0.635660946    0.136187628    0.805196404
    0.302327514    0.802854180    0.900184870
    0.254708707    0.040949821    0.425242722
    0.064232491    0.993330717    0.520231128
    0.873756230    0.945711613    0.615219593
    0.683280051    0.898092449    0.710207939
    0.492803752    0.850473285    0.805196404
    0.588041723    0.374282718    0.900184870
    0.540422916    0.612378418    0.425242722
    0.349946678    0.564759254    0.520231128
    0.159470454    0.517140150    0.615219593
    0.968994319    0.469521046    0.710207939
    0.778518021    0.421901852    0.805196464
    0.873755991    0.945711374    0.900184870
    0.826137185    0.183807015    0.425242722
    0.635661006    0.136187881    0.520231128
    0.445184767    0.088568687    0.615219593
    0.254708558    0.040949583    0.710207939
    0.064232245    0.993330479    0.805196464
    0.730898976    0.659997106    0.900184810
    0.683280170    0.898092806    0.425242722
    0.492803872    0.850473642    0.520231128
    0.302327693    0.802854538    0.615219593
    0.111851379    0.755235374    0.710208058
    0.921375215    0.707616270    0.805196404
    0.016613245    0.231425673    0.900184870
    0.968994439    0.469521344    0.425242752
    0.778518140    0.421902210    0.520231187
    0.588041961    0.374283046    0.615219653
    0.397565603    0.326663911    0.710208058
    0.207089454    0.279044777    0.805196464
    0.207089618    0.279045135    0.448989779
    0.016613364    0.231426001    0.543978274
    0.826137185    0.183806866    0.638966739
    0.635660946    0.136187732    0.733955026
    0.445184708    0.088568568    0.828943491
    0.064232491    0.993330836    0.448989779
    0.873756230    0.945711672    0.543978274
    0.683280051    0.898092568    0.638966739
    0.492803812    0.850473404    0.733955085
    0.302327573    0.802854300    0.828943491
    0.349946797    0.564759374    0.448989779
    0.159470528    0.517140269    0.543978274
    0.968994319    0.469521165    0.638966739
    0.778518140    0.421902031    0.733955085
    0.588041842    0.374282897    0.828943491
    0.635661066    0.136188000    0.448989779
    0.445184767    0.088568807    0.543978274
    0.254708588    0.040949702    0.638966739
    0.064232327    0.993330598    0.733955085
    0.873756111    0.945711493    0.828943491
    0.492803872    0.850473702    0.448989779
    0.302327633    0.802854598    0.543978274
    0.111851424    0.755235434    0.638966739
    0.921375215    0.707616270    0.733955026
    0.730898917    0.659997165    0.828943551
    0.778518200    0.421902269    0.448989779
    0.588041902    0.374283165    0.543978274
    0.397565722    0.326664031    0.638966739
    0.207089469    0.279044896    0.733955026
    0.016613245    0.231425762    0.828943551
    0.921375215    0.707616568    0.448989809
    0.730898976    0.659997463    0.543978274
    0.540422738    0.612378299    0.638966739
    0.349946499    0.564759135    0.733955085
    0.159470260    0.517140031    0.828943491
    0.088041827    0.374282777    0.900184929
    0.040422916    0.612378418    0.425242722
    0.849946737    0.564759254    0.520231128
    0.659470558    0.517140150    0.615219593
    0.468994260    0.469521016    0.710208058
    0.278518081    0.421901911    0.805196404
    0.373756111    0.945711374    0.900184870
    0.326137245    0.183807045    0.425242722
    0.135661006    0.136187911    0.520231128
    0.945184827    0.088568807    0.615219593
    0.754708529    0.040949583    0.710208058
    0.564232290    0.993330538    0.805196404
    0.230898902    0.659996986    0.900184870
    0.183280095    0.898092687    0.425242722
    0.992803872    0.850473583    0.520231128
    0.802327633    0.802854419    0.615219593
    0.611851513    0.755235255    0.710207999
    0.421375155    0.707616150    0.805196464
    0.516613185    0.231425598    0.900184870
    0.468994379    0.469521284    0.425242722
    0.278518170    0.421902180    0.520231128
    0.088041931    0.374283016    0.615219593
    0.897565782    0.326663911    0.710207939
    0.707089484    0.279044718    0.805196404
    0.659470379    0.517139912    0.900184810
    0.611851573    0.755235612    0.425242722
    0.421375275    0.707616508    0.520231128
    0.230899096    0.659997344    0.615219593
    0.040422797    0.612378180    0.710208058
    0.849946618    0.564759076    0.805196404
    0.945184588    0.088568449    0.900184870
    0.897565782    0.326664180    0.425242722
    0.707089543    0.279045045    0.520231128
    0.516613364    0.231425911    0.615219593
    0.326137006    0.183806762    0.710208058
    0.135660827    0.136187658    0.805196464
    0.802327454    0.802854180    0.900184929
    0.754708648    0.040949821    0.425242752
    0.564232409    0.993330777    0.520231128
    0.373756170    0.945711553    0.615219653
    0.183279872    0.898092449    0.710208058
    0.992803693    0.850473344    0.805196404
    0.135661066    0.136188015    0.448989809
    0.945184886    0.088568807    0.543978274
    0.754708648    0.040949702    0.638966739
    0.564232409    0.993330598    0.733955085
    0.373756051    0.945711434    0.828943610
    0.278518230    0.421902239    0.448989779
    0.088041991    0.374283135    0.543978333
    0.897565782    0.326664001    0.638966739
    0.707089484    0.279044867    0.733955085
    0.516613185    0.231425703    0.828943610
    0.421375334    0.707616568    0.448989809
    0.230899081    0.659997463    0.543978274
    0.040422797    0.612378299    0.638966739
    0.849946618    0.564759135    0.733955085
    0.659470260    0.517140031    0.828943610
    0.707089603    0.279045105    0.448989779
    0.516613364    0.231426015    0.543978274
    0.326137185    0.183806866    0.638966739
    0.135660887    0.136187717    0.733955085
    0.945184588    0.088568568    0.828943610
    0.564232469    0.993330836    0.448989809
    0.373756230    0.945711672    0.543978333
    0.183279991    0.898092568    0.638966739
    0.992803752    0.850473464    0.733955085
    0.802327454    0.802854300    0.828943610
    0.849946737    0.564759374    0.448989809
    0.659470499    0.517140269    0.543978274
    0.468994260    0.469521105    0.638966739
    0.278517991    0.421901971    0.733955085
    0.088041678    0.374282837    0.828943610
    0.992804050    0.850473702    0.448989809
    0.802327812    0.802854598    0.543978274
    0.611851573    0.755235434    0.638966739
    0.421375275    0.707616270    0.733955085
    0.230899021    0.659997106    0.828943610
