Ge+Si                                   
   1.00000000000000     
    16.9734020229999985    0.0000000000000000    0.0000000000000000
   -18.8593330379999990    5.3342251779999996    0.0000000000000000
     0.0000000000000000    0.0000000000000000   16.7904224400000004
   Ge   Si
    48    36
Direct
  0.0293372419999969  0.9853313569999997  0.0000000040000003
  0.2793372269999992  0.8603313569999997  0.1191354469999979
  0.5293372269999992  0.7353314160000011  0.2382708789999981
  0.7793371679999979  0.6103314160000011  0.3574063180000024
  0.0293371679999979  0.4853313569999997  0.4765417870000022
  0.2793372869999970  0.3603313569999997  0.5956772569999984
  0.0293372140000017  0.4853313859999986  0.0000000080000007
  0.2793372269999992  0.3603313569999997  0.1191354389999972
  0.5293372269999992  0.2353313859999986  0.2382708940000029
  0.7793371679999979  0.1103314460000036  0.3574063180000024
  0.0293372869999970  0.9853314759999989  0.4765417280000008
  0.2793372869999970  0.8603314160000011  0.5956772569999984
  0.5293372869999970  0.2353313859999986  0.0000000009999965
  0.7793372869999970  0.1103313790000016  0.1191354469999979
  0.0293372869999970  0.9853314160000011  0.2382709230000017
  0.2793372869999970  0.8603315350000003  0.3574063180000024
  0.5293370489999987  0.7353312369999969  0.4765417280000008
  0.7793371679999979  0.6103312970000019  0.5956772569999984
  0.5293372869999970  0.7353314160000011  0.0000000069999970
  0.7793372269999992  0.6103314160000011  0.1191354389999972
  0.0293372869999970  0.4853314160000011  0.2382708789999981
  0.2793371679999979  0.3603314759999989  0.3574063180000024
  0.5293372869999970  0.2353314759999989  0.4765417280000008
  0.7793374060000033  0.1103314830000031  0.5956772569999984
  0.5293372269999992  0.3603313569999997  0.0000000029999967
  0.7793372869999970  0.2353313859999986  0.1191354239999995
  0.0293372869999970  0.1103313639999968  0.2382708940000029
  0.2793372869999970  0.9853314759999989  0.3574063180000024
  0.5293372869999970  0.8603315350000003  0.4765417870000022
  0.7793371679999979  0.7353312970000019  0.5956772569999984
  0.5293372869999970  0.8603314759999989  0.0000000080000007
  0.7793372269999992  0.7353314160000011  0.1191354469999979
  0.0293372869999970  0.6103314759999989  0.2382708789999981
  0.2793372869999970  0.4853314759999989  0.3574063180000024
  0.5293372869999970  0.3603314759999989  0.4765417280000008
  0.7793372869999970  0.2353314160000011  0.5956772569999984
  0.0293372370000000  0.1103313790000016  0.0000000000000000
  0.2793372269999992  0.9853313569999997  0.1191354389999972
  0.5293372269999992  0.8603313569999997  0.2382708789999981
  0.7793371080000000  0.7353314160000011  0.3574063180000024
  0.0293371679999979  0.6103314160000011  0.4765417280000008
  0.2793372869999970  0.4853313569999997  0.5956772569999984
  0.0293372009999970  0.6103313569999997  0.0000000200000017
  0.2793372269999992  0.4853313859999986  0.1191354389999972
  0.5293372869999970  0.3603314160000011  0.2382708789999981
  0.7793372269999992  0.2353314610000012  0.3574063180000024
  0.0293372869999970  0.1103314909999966  0.4765417870000022
  0.2793372869999970  0.9853314160000011  0.5956772569999984
  0.0119854049999972  0.9880145790000014  0.5956772569999984
  0.1786521670000027  0.8213478329999973  0.7574063539999969
  0.3453190030000002  0.6546810870000002  0.9191353920000012
  0.6786521080000014  0.3213479220000011  0.5956772569999984
  0.8453188539999985  0.1546812059999993  0.7574063539999969
  0.0119856600000006  0.9880144600000023  0.9191353920000012
  0.3453186449999990  0.6546811460000015  0.5956772569999984
  0.5119854209999986  0.4880144299999998  0.7574063539999969
  0.6786522270000006  0.3213476840000027  0.9191353920000012
  0.7619856000000027  0.9880146980000006  0.6765417459999981
  0.9286524649999990  0.8213479519999964  0.8382709030000015
  0.0953190330000027  0.6546810870000002  0.9999999400000021
  0.4286521080000014  0.3213479220000011  0.6765417459999981
  0.5953188539999985  0.1546811609999992  0.8382709030000015
  0.7619857789999998  0.9880144600000023  0.9999999400000021
  0.0953185560000023  0.6546810870000002  0.6765417459999981
  0.2619853320000018  0.4880143110000006  0.8382709030000015
  0.4286521670000027  0.3213475639999999  0.9999999400000021
  0.5119854809999964  0.9880146980000006  0.5956772569999984
  0.6786522270000006  0.8213479519999964  0.7574063539999969
  0.8453189729999977  0.6546811460000015  0.9191353920000012
  0.1786520779999989  0.3213479220000011  0.5956772569999984
  0.3453188240000031  0.1546811910000017  0.7574063539999969
  0.5119856000000027  0.9880143999999973  0.9191353920000012
  0.8453187349999993  0.6546812650000007  0.5956772569999984
  0.0119855399999977  0.4880145489999990  0.7574063539999969
  0.1786522869999985  0.3213477729999994  0.9191353920000012
  0.2619854510000010  0.9880145790000014  0.6765417459999981
  0.4286521379999968  0.8213478329999973  0.8382709030000015
  0.5953190919999969  0.6546810870000002  0.9999999400000021
  0.9286519890000022  0.3213478919999986  0.6765417459999981
  0.0953187940000007  0.1546811159999990  0.8382709030000015
  0.2619855399999977  0.9880143999999973  0.9999999400000021
  0.5953187349999993  0.6546812059999993  0.6765417459999981
  0.7619855399999977  0.4880144600000023  0.8382709030000015
  0.9286522270000006  0.3213476239999977  0.9999999400000021
 
  0.00000000E+00  0.00000000E+00  0.00000000E+00
  0.00000000E+00  0.00000000E+00  0.00000000E+00
  0.00000000E+00  0.00000000E+00  0.00000000E+00
  0.00000000E+00  0.00000000E+00  0.00000000E+00
  0.00000000E+00  0.00000000E+00  0.00000000E+00
  0.00000000E+00  0.00000000E+00  0.00000000E+00
  0.00000000E+00  0.00000000E+00  0.00000000E+00
  0.00000000E+00  0.00000000E+00  0.00000000E+00
  0.00000000E+00  0.00000000E+00  0.00000000E+00
  0.00000000E+00  0.00000000E+00  0.00000000E+00
  0.00000000E+00  0.00000000E+00  0.00000000E+00
  0.00000000E+00  0.00000000E+00  0.00000000E+00
  0.00000000E+00  0.00000000E+00  0.00000000E+00
  0.00000000E+00  0.00000000E+00  0.00000000E+00
  0.00000000E+00  0.00000000E+00  0.00000000E+00
  0.00000000E+00  0.00000000E+00  0.00000000E+00
  0.00000000E+00  0.00000000E+00  0.00000000E+00
  0.00000000E+00  0.00000000E+00  0.00000000E+00
  0.00000000E+00  0.00000000E+00  0.00000000E+00
  0.00000000E+00  0.00000000E+00  0.00000000E+00
  0.00000000E+00  0.00000000E+00  0.00000000E+00
  0.00000000E+00  0.00000000E+00  0.00000000E+00
  0.00000000E+00  0.00000000E+00  0.00000000E+00
  0.00000000E+00  0.00000000E+00  0.00000000E+00
  0.00000000E+00  0.00000000E+00  0.00000000E+00
  0.00000000E+00  0.00000000E+00  0.00000000E+00
  0.00000000E+00  0.00000000E+00  0.00000000E+00
  0.00000000E+00  0.00000000E+00  0.00000000E+00
  0.00000000E+00  0.00000000E+00  0.00000000E+00
  0.00000000E+00  0.00000000E+00  0.00000000E+00
  0.00000000E+00  0.00000000E+00  0.00000000E+00
  0.00000000E+00  0.00000000E+00  0.00000000E+00
  0.00000000E+00  0.00000000E+00  0.00000000E+00
  0.00000000E+00  0.00000000E+00  0.00000000E+00
  0.00000000E+00  0.00000000E+00  0.00000000E+00
  0.00000000E+00  0.00000000E+00  0.00000000E+00
  0.00000000E+00  0.00000000E+00  0.00000000E+00
  0.00000000E+00  0.00000000E+00  0.00000000E+00
  0.00000000E+00  0.00000000E+00  0.00000000E+00
  0.00000000E+00  0.00000000E+00  0.00000000E+00
  0.00000000E+00  0.00000000E+00  0.00000000E+00
  0.00000000E+00  0.00000000E+00  0.00000000E+00
  0.00000000E+00  0.00000000E+00  0.00000000E+00
  0.00000000E+00  0.00000000E+00  0.00000000E+00
  0.00000000E+00  0.00000000E+00  0.00000000E+00
  0.00000000E+00  0.00000000E+00  0.00000000E+00
  0.00000000E+00  0.00000000E+00  0.00000000E+00
  0.00000000E+00  0.00000000E+00  0.00000000E+00
  0.00000000E+00  0.00000000E+00  0.00000000E+00
  0.00000000E+00  0.00000000E+00  0.00000000E+00
  0.00000000E+00  0.00000000E+00  0.00000000E+00
  0.00000000E+00  0.00000000E+00  0.00000000E+00
  0.00000000E+00  0.00000000E+00  0.00000000E+00
  0.00000000E+00  0.00000000E+00  0.00000000E+00
  0.00000000E+00  0.00000000E+00  0.00000000E+00
  0.00000000E+00  0.00000000E+00  0.00000000E+00
  0.00000000E+00  0.00000000E+00  0.00000000E+00
  0.00000000E+00  0.00000000E+00  0.00000000E+00
  0.00000000E+00  0.00000000E+00  0.00000000E+00
  0.00000000E+00  0.00000000E+00  0.00000000E+00
  0.00000000E+00  0.00000000E+00  0.00000000E+00
  0.00000000E+00  0.00000000E+00  0.00000000E+00
  0.00000000E+00  0.00000000E+00  0.00000000E+00
  0.00000000E+00  0.00000000E+00  0.00000000E+00
  0.00000000E+00  0.00000000E+00  0.00000000E+00
  0.00000000E+00  0.00000000E+00  0.00000000E+00
  0.00000000E+00  0.00000000E+00  0.00000000E+00
  0.00000000E+00  0.00000000E+00  0.00000000E+00
  0.00000000E+00  0.00000000E+00  0.00000000E+00
  0.00000000E+00  0.00000000E+00  0.00000000E+00
  0.00000000E+00  0.00000000E+00  0.00000000E+00
  0.00000000E+00  0.00000000E+00  0.00000000E+00
  0.00000000E+00  0.00000000E+00  0.00000000E+00
  0.00000000E+00  0.00000000E+00  0.00000000E+00
  0.00000000E+00  0.00000000E+00  0.00000000E+00
  0.00000000E+00  0.00000000E+00  0.00000000E+00
  0.00000000E+00  0.00000000E+00  0.00000000E+00
  0.00000000E+00  0.00000000E+00  0.00000000E+00
  0.00000000E+00  0.00000000E+00  0.00000000E+00
  0.00000000E+00  0.00000000E+00  0.00000000E+00
  0.00000000E+00  0.00000000E+00  0.00000000E+00
  0.00000000E+00  0.00000000E+00  0.00000000E+00
  0.00000000E+00  0.00000000E+00  0.00000000E+00
  0.00000000E+00  0.00000000E+00  0.00000000E+00
