Automatic KPOINTS generated
0
Gamma
7 6 2
0 0 0
