Ge+Si
    1.000000000
   16.973402023    0.000000000    0.000000000
  -18.859333038    5.334225178    0.000000000
    0.000000000    0.000000000   16.790422440
Ge  Si 
48     36
Direct
    0.029337242    0.985331357    0.000000004
    0.279337227    0.860331357    0.119135447
    0.529337227    0.735331416    0.238270879
    0.779337168    0.610331416    0.357406318
    0.029337168    0.485331357    0.476541787
    0.279337287    0.360331357    0.595677257
    0.029337214    0.485331386    0.000000008
    0.279337227    0.360331357    0.119135439
    0.529337227    0.235331386    0.238270894
    0.779337168    0.110331446    0.357406318
    0.029337287    0.985331476    0.476541728
    0.279337287    0.860331416    0.595677257
    0.529337287    0.235331386    0.000000001
    0.779337287    0.110331379    0.119135447
    0.029337287    0.985331416    0.238270923
    0.279337287    0.860331535    0.357406318
    0.529337049    0.735331237    0.476541728
    0.779337168    0.610331297    0.595677257
    0.529337287    0.735331416    0.000000007
    0.779337227    0.610331416    0.119135439
    0.029337287    0.485331416    0.238270879
    0.279337168    0.360331476    0.357406318
    0.529337287    0.235331476    0.476541728
    0.779337406    0.110331483    0.595677257
    0.529337227    0.360331357    0.000000003
    0.779337287    0.235331386    0.119135424
    0.029337287    0.110331364    0.238270894
    0.279337287    0.985331476    0.357406318
    0.529337287    0.860331535    0.476541787
    0.779337168    0.735331297    0.595677257
    0.529337287    0.860331476    0.000000008
    0.779337227    0.735331416    0.119135447
    0.029337287    0.610331476    0.238270879
    0.279337287    0.485331476    0.357406318
    0.529337287    0.360331476    0.476541728
    0.779337287    0.235331416    0.595677257
    0.029337237    0.110331379    0.000000000
    0.279337227    0.985331357    0.119135439
    0.529337227    0.860331357    0.238270879
    0.779337108    0.735331416    0.357406318
    0.029337168    0.610331416    0.476541728
    0.279337287    0.485331357    0.595677257
    0.029337201    0.610331357    0.000000020
    0.279337227    0.485331386    0.119135439
    0.529337287    0.360331416    0.238270879
    0.779337227    0.235331461    0.357406318
    0.029337287    0.110331491    0.476541787
    0.279337287    0.985331416    0.595677257
    0.011985405    0.988014579    0.595677257
    0.178652167    0.821347833    0.757406354
    0.345319003    0.654681087    0.919135392
    0.678652108    0.321347922    0.595677257
    0.845318854    0.154681206    0.757406354
    0.011985660    0.988014460    0.919135392
    0.345318645    0.654681146    0.595677257
    0.511985421    0.488014430    0.757406354
    0.678652227    0.321347684    0.919135392
    0.761985600    0.988014698    0.676541746
    0.928652465    0.821347952    0.838270903
    0.095319033    0.654681087    0.999999940
    0.428652108    0.321347922    0.676541746
    0.595318854    0.154681161    0.838270903
    0.761985779    0.988014460    0.999999940
    0.095318556    0.654681087    0.676541746
    0.261985332    0.488014311    0.838270903
    0.428652167    0.321347564    0.999999940
    0.511985481    0.988014698    0.595677257
    0.678652227    0.821347952    0.757406354
    0.845318973    0.654681146    0.919135392
    0.178652078    0.321347922    0.595677257
    0.345318824    0.154681191    0.757406354
    0.511985600    0.988014400    0.919135392
    0.845318735    0.654681265    0.595677257
    0.011985540    0.488014549    0.757406354
    0.178652287    0.321347773    0.919135392
    0.261985451    0.988014579    0.676541746
    0.428652138    0.821347833    0.838270903
    0.595319092    0.654681087    0.999999940
    0.928651989    0.321347892    0.676541746
    0.095318794    0.154681116    0.838270903
    0.261985540    0.988014400    0.999999940
    0.595318735    0.654681206    0.676541746
    0.761985540    0.488014460    0.838270903
    0.928652227    0.321347624    0.999999940
