Si+C
    1.000000000
   13.303179741    0.000000000    0.000000000
    6.651589394   14.873406410    0.000000000
    0.000000000    0.000000000    7.994752407
Si  C  
36     84
Direct
    0.283249497    0.641624749    0.000000047
    0.816582799    0.408291280    0.151900828
    0.349915981    0.174957767    0.303801656
    0.616582751    0.308291376    0.000000057
    0.149916053    0.074957930    0.151900828
    0.683249235    0.841624439    0.303801626
    0.949916124    0.974958062    0.000000040
    0.483249485    0.741624594    0.151900828
    0.016582668    0.508291125    0.303801626
    0.799916267    0.774958014    0.075950287
    0.333249509    0.541624546    0.227851093
    0.866582751    0.308291078    0.379751951
    0.133249685    0.441624761    0.075950302
    0.666582942    0.208291277    0.227851093
    0.199916244    0.974957764    0.379751951
    0.466582894    0.108291537    0.075950302
    0.999916136    0.874958038    0.227851093
    0.533249378    0.641624570    0.379751951
    0.783249557    0.641624749    0.000000000
    0.316582829    0.408291280    0.151900813
    0.849916041    0.174957782    0.303801656
    0.116582796    0.308291405    0.000000057
    0.649916053    0.074957952    0.151900858
    0.183249295    0.841624498    0.303801656
    0.449916124    0.974958062    0.000000057
    0.983249426    0.741624594    0.151900858
    0.516582668    0.508291125    0.303801656
    0.299916178    0.774958134    0.075950302
    0.833249450    0.541624665    0.227851152
    0.366582692    0.308291197    0.379751921
    0.633249402    0.441624731    0.075950317
    0.166582644    0.208291262    0.227851152
    0.699915946    0.974957824    0.379751891
    0.966582716    0.108291551    0.075950302
    0.499915957    0.874958038    0.227851152
    0.033249259    0.641624629    0.379751951
    0.014308929    0.833284318    0.764696479
    0.357165992    0.861855984    0.565175295
    0.685737491    0.847570181    0.664935887
    0.300023109    0.690427244    0.764696479
    0.642880321    0.718998849    0.565175295
    0.971451759    0.704713047    0.664935887
    0.585737407    0.547570109    0.764696479
    0.928594530    0.576141715    0.565175295
    0.257165939    0.561855912    0.664935887
    0.871451795    0.404712945    0.764696479
    0.214308858    0.433284551    0.565175235
    0.542880356    0.418998778    0.664935887
    0.157166034    0.261855811    0.764696479
    0.500023127    0.290427417    0.565175235
    0.828594565    0.276141644    0.664935887
    0.442880303    0.118998691    0.764696479
    0.785737395    0.147570297    0.565175235
    0.114308871    0.133284524    0.664935887
    0.728594720    0.976141572    0.764696538
    0.071451731    0.004713178    0.565175235
    0.400023192    0.990427375    0.664935887
    0.464308769    0.933284342    0.814576685
    0.807165921    0.961855948    0.615055501
    0.135737330    0.947570086    0.714816153
    0.750023067    0.790427208    0.814576685
    0.092880167    0.818998814    0.615055501
    0.421451598    0.804712951    0.714816153
    0.035737276    0.647570074    0.814576805
    0.378594458    0.676141679    0.615055442
    0.707165956    0.661855876    0.714816093
    0.321451694    0.504712999    0.814576685
    0.664308846    0.533284545    0.615055442
    0.992880225    0.518998802    0.714816153
    0.607166111    0.361855894    0.814576805
    0.950023174    0.390427470    0.615055442
    0.278594524    0.376141697    0.714816093
    0.892880261    0.218998700    0.814576805
    0.235737413    0.247570291    0.615055501
    0.564308882    0.233284488    0.714816153
    0.178594619    0.076141566    0.814576685
    0.521451771    0.104713157    0.615055501
    0.850023150    0.090427369    0.714816093
    0.514308870    0.833284378    0.764696479
    0.857165992    0.861855865    0.565175235
    0.185737282    0.847570181    0.664935946
    0.800023317    0.690427244    0.764696538
    0.142880321    0.718998849    0.565175235
    0.471451759    0.704713047    0.664935887
    0.085737623    0.547570109    0.764696538
    0.428594589    0.576141715    0.565175235
    0.757166088    0.561855912    0.664935887
    0.371451765    0.404713005    0.764696538
    0.714308858    0.433284581    0.565175235
    0.042880215    0.418998808    0.664935887
    0.657165945    0.261855930    0.764696538
    0.000023127    0.290427446    0.565175235
    0.328594595    0.276141644    0.664935887
    0.942880392    0.118998721    0.764696538
    0.285737425    0.147570267    0.565175295
    0.614308953    0.133284479    0.664935887
    0.228594571    0.976141632    0.764696538
    0.571451664    0.004713178    0.565175295
    0.900023162    0.990427375    0.664935887
    0.964308858    0.933284461    0.814576685
    0.307165951    0.961856008    0.615055501
    0.635737360    0.947570145    0.714816093
    0.250023156    0.790427268    0.814576685
    0.592880309    0.818998873    0.615055501
    0.921451688    0.804713011    0.714816093
    0.535737455    0.647570074    0.814576685
    0.878594637    0.676141679    0.615055501
    0.207166106    0.661855817    0.714816093
    0.821451604    0.504712999    0.814576626
    0.164308816    0.533284485    0.615055442
    0.492880255    0.518998742    0.714816093
    0.107166089    0.361855835    0.814576685
    0.450023234    0.390427411    0.615055442
    0.778594673    0.376141638    0.714816093
    0.392880112    0.218998656    0.814576685
    0.735737324    0.247570261    0.615055442
    0.064308681    0.233284488    0.714816093
    0.678594530    0.076141641    0.814576685
    0.021451712    0.104713142    0.615055501
    0.350023061    0.090427369    0.714816153
