Ge+Sn                                   
   1.00000000000000     
    11.3156003950000006    0.0000000000000000    0.0000000000000000
   -11.3156003950000006   16.0026760099999983    0.0000000000000000
     0.0000000000000000    0.0000000000000000   25.6042194370000011
   Ge   Sn
    96    72
Direct
  0.4690677230000020  0.9896892309999998  0.0000000169999979
  0.0940677079999972  0.8646892309999998  0.0781252089999995
  0.7190676330000016  0.7396892309999998  0.1562504170000025
  0.3440676929999995  0.6146892309999998  0.2343755810000019
  0.9690678119999987  0.4896892909999977  0.3125007749999966
  0.5940676929999995  0.3646892309999998  0.3906259829999996
  0.9690676929999995  0.9896892309999998  0.0000000169999979
  0.5940676929999995  0.8646892309999998  0.0781252089999995
  0.2190676330000016  0.7396892309999998  0.1562504170000025
  0.8440676929999995  0.6146892309999998  0.2343755810000019
  0.4690678119999987  0.4896892909999977  0.3125007749999966
  0.0940676929999995  0.3646892309999998  0.3906259829999996
  0.4690676929999995  0.4896892309999998  0.0000000089999972
  0.0940676999999965  0.3646892309999998  0.0781252089999995
  0.7190675740000003  0.2396892160000021  0.1562504170000025
  0.3440676929999995  0.1146892309999998  0.2343755810000019
  0.9690678119999987  0.9896892309999998  0.3125007749999966
  0.5940676929999995  0.8646892309999998  0.3906259829999996
  0.9690676929999995  0.4896892309999998  0.0000000089999972
  0.5940676929999995  0.3646892309999998  0.0781252089999995
  0.2190675740000003  0.2396892160000021  0.1562504170000025
  0.8440676929999995  0.1146892309999998  0.2343755810000019
  0.4690676929999995  0.9896892309999998  0.3125007749999966
  0.0940675740000003  0.8646892309999998  0.3906259829999996
  0.7190676929999995  0.2396892309999998  0.0000000169999979
  0.3440676629999970  0.1146892309999998  0.0781252089999995
  0.9690675740000003  0.9896892309999998  0.1562504170000025
  0.5940676929999995  0.8646892309999998  0.2343755810000019
  0.2190676929999995  0.7396892309999998  0.3125007749999966
  0.8440675740000003  0.6146892309999998  0.3906259829999996
  0.2190676780000018  0.2396892309999998  0.0000000169999979
  0.8440676929999995  0.1146892309999998  0.0781252089999995
  0.4690676330000016  0.9896892309999998  0.1562504170000025
  0.0940676929999995  0.8646892309999998  0.2343755810000019
  0.7190678119999987  0.7396892309999998  0.3125007749999966
  0.3440676929999995  0.6146892309999998  0.3906259829999996
  0.7190676330000016  0.7396892309999998  0.0000000209999982
  0.3440676629999970  0.6146892309999998  0.0781252239999972
  0.9690675740000003  0.4896892009999974  0.1562504320000002
  0.5940676330000016  0.3646892309999998  0.2343756109999973
  0.2190676929999995  0.2396892459999975  0.3125008049999991
  0.8440676929999995  0.1146892309999998  0.3906259829999996
  0.2190676929999995  0.7396892309999998  0.0000000209999982
  0.8440676929999995  0.6146892309999998  0.0781252239999972
  0.4690675740000003  0.4896892009999974  0.1562504320000002
  0.0940676929999995  0.3646892309999998  0.2343756109999973
  0.7190676929999995  0.2396892459999975  0.3125008049999991
  0.3440675740000003  0.1146892309999998  0.3906259829999996
  0.4690676629999970  0.3646892309999998  0.0000000160000013
  0.0940676929999995  0.2396892309999998  0.0781252159999966
  0.7190676330000016  0.1146892089999980  0.1562504320000002
  0.3440676929999995  0.9896892309999998  0.2343756109999973
  0.9690678119999987  0.8646892309999998  0.3125007749999966
  0.5940676929999995  0.7396892309999998  0.3906259829999996
  0.9690676929999995  0.3646892309999998  0.0000000160000013
  0.5940676929999995  0.2396892309999998  0.0781252159999966
  0.2190676330000016  0.1146892089999980  0.1562504320000002
  0.8440676929999995  0.9896892309999998  0.2343756109999973
  0.4690678119999987  0.8646892309999998  0.3125007749999966
  0.0940676929999995  0.7396892309999998  0.3906259829999996
  0.4690677520000008  0.8646892909999977  0.0000000000000000
  0.0940677370000031  0.7396892909999977  0.0781252089999995
  0.7190676929999995  0.6146892909999977  0.1562504019999977
  0.3440676929999995  0.4896892909999977  0.2343755810000019
  0.9690678119999987  0.3646892909999977  0.3125007749999966
  0.5940676929999995  0.2396892909999977  0.3906259540000008
  0.9690676929999995  0.8646892909999977  0.0000000000000000
  0.5940675740000003  0.7396892909999977  0.0781252089999995
  0.2190675740000003  0.6146892909999977  0.1562504019999977
  0.8440675740000003  0.4896892909999977  0.2343755810000019
  0.4690675740000003  0.3646892909999977  0.3125007749999966
  0.0940676929999995  0.2396892909999977  0.3906259540000008
  0.7190676929999995  0.1146892229999992  0.0000000169999979
  0.3440676629999970  0.9896892309999998  0.0781252089999995
  0.9690676330000016  0.8646892309999998  0.1562504170000025
  0.5940676929999995  0.7396892309999998  0.2343756109999973
  0.2190676929999995  0.6146892309999998  0.3125007749999966
  0.8440676929999995  0.4896892309999998  0.3906259829999996
  0.2190676780000018  0.1146892229999992  0.0000000169999979
  0.8440676929999995  0.9896892309999998  0.0781252089999995
  0.4690676330000016  0.8646892309999998  0.1562504170000025
  0.0940676929999995  0.7396892309999998  0.2343756109999973
  0.7190678119999987  0.6146892309999998  0.3125007749999966
  0.3440676929999995  0.4896892309999998  0.3906259829999996
  0.7190676929999995  0.6146892309999998  0.0000000149999977
  0.3440676929999995  0.4896892309999998  0.0781252159999966
  0.9690676330000016  0.3646892309999998  0.1562504170000025
  0.5940676929999995  0.2396892309999998  0.2343756109999973
  0.2190677520000008  0.1146892530000017  0.3125007749999966
  0.8440675740000003  0.9896892309999998  0.3906259829999996
  0.2190677230000020  0.6146892309999998  0.0000000149999977
  0.8440676929999995  0.4896892309999998  0.0781252159999966
  0.4690676330000016  0.3646892309999998  0.1562504170000025
  0.0940676929999995  0.2396892309999998  0.2343756109999973
  0.7190678119999987  0.1146892530000017  0.3125007749999966
  0.3440676929999995  0.9896892309999998  0.3906259829999996
  0.4405986069999983  0.8487488629999973  0.4712992010000008
  0.6905986069999983  0.0987488029999994  0.5609046820000003
  0.9405987860000025  0.3487490420000015  0.6505102519999966
  0.1905990690000010  0.5987491610000006  0.7401157620000021
  0.4405989649999995  0.8487491610000006  0.8297212720000005
  0.6905990839999987  0.0987492799999998  0.9193268419999967
  0.1072652340000033  0.1820820869999977  0.4712992010000008
  0.3572652940000012  0.4320821760000015  0.5609047410000016
  0.6072655319999996  0.6820822950000007  0.6505102519999966
  0.8572657109999966  0.9320824149999964  0.7401158210000034
  0.1072656959999989  0.1820825490000004  0.8297212720000005
  0.3572658300000029  0.4320826530000019  0.9193268419999967
  0.7739319800000004  0.5154154299999973  0.4712992010000008
  0.0239320989999996  0.7654154900000023  0.5609047410000016
  0.2739322190000024  0.0154156680000028  0.6505102519999966
  0.5239324570000008  0.2654157879999985  0.7401157620000021
  0.7739323380000016  0.5154157879999985  0.8297212720000005
  0.0239326949999992  0.7654160259999969  0.9193268419999967
  0.2739319209999991  0.0154155489999965  0.4712991709999983
  0.5239318610000012  0.2654155489999965  0.5609046820000003
  0.7739321589999975  0.5154156680000028  0.6505102519999966
  0.0239323380000016  0.7654157879999985  0.7401157620000021
  0.2739322190000024  0.0154159069999977  0.8297212720000005
  0.5239324570000008  0.2654161450000032  0.9193268419999967
  0.6072653530000025  0.6820821170000002  0.4712992010000008
  0.8572652340000033  0.9320821760000015  0.5609047410000016
  0.1072654580000005  0.1820823099999984  0.6505102519999966
  0.3572657109999966  0.4320825340000027  0.7401157620000021
  0.6072657109999966  0.6820824149999964  0.8297212720000005
  0.8572655919999974  0.9320826530000019  0.9193268419999967
  0.9405987259999975  0.3487487729999970  0.4712992010000008
  0.1905988310000026  0.5987488629999973  0.5609047410000016
  0.4405989649999995  0.8487489820000036  0.6505102519999966
  0.6905990839999987  0.0987491610000006  0.7401157620000021
  0.9405989649999995  0.3487491610000006  0.8297212720000005
  0.1905993069999994  0.5987493989999990  0.9193268419999967
  0.1905986220000031  0.8487487439999981  0.4712991709999983
  0.4405986670000033  0.0987488029999994  0.5609047410000016
  0.6905987259999975  0.3487489219999986  0.6505102519999966
  0.9405989050000017  0.5987490420000015  0.7401157620000021
  0.1905989500000018  0.8487490420000015  0.8297212720000005
  0.4405989649999995  0.0987492799999998  0.9193268419999967
  0.5239319800000004  0.5154154299999973  0.4712992010000008
  0.7739319800000004  0.7654154299999973  0.5609047410000016
  0.0239320989999996  0.0154156680000028  0.6505102519999966
  0.2739323380000016  0.2654156680000028  0.7401157620000021
  0.5239322190000024  0.5154157879999985  0.8297212720000005
  0.7739323380000016  0.7654159069999977  0.9193268419999967
  0.8572652940000012  0.1820820869999977  0.4712992010000008
  0.1072653379999977  0.4320821760000015  0.5609047410000016
  0.3572654720000017  0.6820822359999994  0.6505102519999966
  0.6072657109999966  0.9320824149999964  0.7401158210000034
  0.8572658300000029  0.1820825490000004  0.8297212720000005
  0.1072658149999981  0.4320825340000027  0.9193268419999967
  0.3572652340000033  0.6820821760000015  0.4712992010000008
  0.6072653530000025  0.9320821170000002  0.5609047410000016
  0.8572654130000004  0.1820823099999984  0.6505102519999966
  0.1072655769999997  0.4320824149999964  0.7401158210000034
  0.3572655919999974  0.6820824149999964  0.8297212720000005
  0.6072657109999966  0.9320826530000019  0.9193267819999988
  0.0239318610000012  0.0154154299999973  0.4712992010000008
  0.2739320989999996  0.2654155489999965  0.5609047410000016
  0.5239322190000024  0.5154156680000028  0.6505102519999966
  0.7739324570000008  0.7654157879999985  0.7401158210000034
  0.0239323380000016  0.0154157879999985  0.8297212720000005
  0.2739328150000020  0.2654161450000032  0.9193267819999988
  0.6905986670000033  0.3487488029999994  0.4712992010000008
  0.9405986069999983  0.5987488029999994  0.5609047410000016
  0.1905987109999998  0.8487489820000036  0.6505102519999966
  0.4405988449999967  0.0987491610000006  0.7401157620000021
  0.6905988449999967  0.3487491610000006  0.8297212720000005
  0.9405988449999967  0.5987492799999998  0.9193268419999967
 
  0.00000000E+00  0.00000000E+00  0.00000000E+00
  0.00000000E+00  0.00000000E+00  0.00000000E+00
  0.00000000E+00  0.00000000E+00  0.00000000E+00
  0.00000000E+00  0.00000000E+00  0.00000000E+00
  0.00000000E+00  0.00000000E+00  0.00000000E+00
  0.00000000E+00  0.00000000E+00  0.00000000E+00
  0.00000000E+00  0.00000000E+00  0.00000000E+00
  0.00000000E+00  0.00000000E+00  0.00000000E+00
  0.00000000E+00  0.00000000E+00  0.00000000E+00
  0.00000000E+00  0.00000000E+00  0.00000000E+00
  0.00000000E+00  0.00000000E+00  0.00000000E+00
  0.00000000E+00  0.00000000E+00  0.00000000E+00
  0.00000000E+00  0.00000000E+00  0.00000000E+00
  0.00000000E+00  0.00000000E+00  0.00000000E+00
  0.00000000E+00  0.00000000E+00  0.00000000E+00
  0.00000000E+00  0.00000000E+00  0.00000000E+00
  0.00000000E+00  0.00000000E+00  0.00000000E+00
  0.00000000E+00  0.00000000E+00  0.00000000E+00
  0.00000000E+00  0.00000000E+00  0.00000000E+00
  0.00000000E+00  0.00000000E+00  0.00000000E+00
  0.00000000E+00  0.00000000E+00  0.00000000E+00
  0.00000000E+00  0.00000000E+00  0.00000000E+00
  0.00000000E+00  0.00000000E+00  0.00000000E+00
  0.00000000E+00  0.00000000E+00  0.00000000E+00
  0.00000000E+00  0.00000000E+00  0.00000000E+00
  0.00000000E+00  0.00000000E+00  0.00000000E+00
  0.00000000E+00  0.00000000E+00  0.00000000E+00
  0.00000000E+00  0.00000000E+00  0.00000000E+00
  0.00000000E+00  0.00000000E+00  0.00000000E+00
  0.00000000E+00  0.00000000E+00  0.00000000E+00
  0.00000000E+00  0.00000000E+00  0.00000000E+00
  0.00000000E+00  0.00000000E+00  0.00000000E+00
  0.00000000E+00  0.00000000E+00  0.00000000E+00
  0.00000000E+00  0.00000000E+00  0.00000000E+00
  0.00000000E+00  0.00000000E+00  0.00000000E+00
  0.00000000E+00  0.00000000E+00  0.00000000E+00
  0.00000000E+00  0.00000000E+00  0.00000000E+00
  0.00000000E+00  0.00000000E+00  0.00000000E+00
  0.00000000E+00  0.00000000E+00  0.00000000E+00
  0.00000000E+00  0.00000000E+00  0.00000000E+00
  0.00000000E+00  0.00000000E+00  0.00000000E+00
  0.00000000E+00  0.00000000E+00  0.00000000E+00
  0.00000000E+00  0.00000000E+00  0.00000000E+00
  0.00000000E+00  0.00000000E+00  0.00000000E+00
  0.00000000E+00  0.00000000E+00  0.00000000E+00
  0.00000000E+00  0.00000000E+00  0.00000000E+00
  0.00000000E+00  0.00000000E+00  0.00000000E+00
  0.00000000E+00  0.00000000E+00  0.00000000E+00
  0.00000000E+00  0.00000000E+00  0.00000000E+00
  0.00000000E+00  0.00000000E+00  0.00000000E+00
  0.00000000E+00  0.00000000E+00  0.00000000E+00
  0.00000000E+00  0.00000000E+00  0.00000000E+00
  0.00000000E+00  0.00000000E+00  0.00000000E+00
  0.00000000E+00  0.00000000E+00  0.00000000E+00
  0.00000000E+00  0.00000000E+00  0.00000000E+00
  0.00000000E+00  0.00000000E+00  0.00000000E+00
  0.00000000E+00  0.00000000E+00  0.00000000E+00
  0.00000000E+00  0.00000000E+00  0.00000000E+00
  0.00000000E+00  0.00000000E+00  0.00000000E+00
  0.00000000E+00  0.00000000E+00  0.00000000E+00
  0.00000000E+00  0.00000000E+00  0.00000000E+00
  0.00000000E+00  0.00000000E+00  0.00000000E+00
  0.00000000E+00  0.00000000E+00  0.00000000E+00
  0.00000000E+00  0.00000000E+00  0.00000000E+00
  0.00000000E+00  0.00000000E+00  0.00000000E+00
  0.00000000E+00  0.00000000E+00  0.00000000E+00
  0.00000000E+00  0.00000000E+00  0.00000000E+00
  0.00000000E+00  0.00000000E+00  0.00000000E+00
  0.00000000E+00  0.00000000E+00  0.00000000E+00
  0.00000000E+00  0.00000000E+00  0.00000000E+00
  0.00000000E+00  0.00000000E+00  0.00000000E+00
  0.00000000E+00  0.00000000E+00  0.00000000E+00
  0.00000000E+00  0.00000000E+00  0.00000000E+00
  0.00000000E+00  0.00000000E+00  0.00000000E+00
  0.00000000E+00  0.00000000E+00  0.00000000E+00
  0.00000000E+00  0.00000000E+00  0.00000000E+00
  0.00000000E+00  0.00000000E+00  0.00000000E+00
  0.00000000E+00  0.00000000E+00  0.00000000E+00
  0.00000000E+00  0.00000000E+00  0.00000000E+00
  0.00000000E+00  0.00000000E+00  0.00000000E+00
  0.00000000E+00  0.00000000E+00  0.00000000E+00
  0.00000000E+00  0.00000000E+00  0.00000000E+00
  0.00000000E+00  0.00000000E+00  0.00000000E+00
  0.00000000E+00  0.00000000E+00  0.00000000E+00
  0.00000000E+00  0.00000000E+00  0.00000000E+00
  0.00000000E+00  0.00000000E+00  0.00000000E+00
  0.00000000E+00  0.00000000E+00  0.00000000E+00
  0.00000000E+00  0.00000000E+00  0.00000000E+00
  0.00000000E+00  0.00000000E+00  0.00000000E+00
  0.00000000E+00  0.00000000E+00  0.00000000E+00
  0.00000000E+00  0.00000000E+00  0.00000000E+00
  0.00000000E+00  0.00000000E+00  0.00000000E+00
  0.00000000E+00  0.00000000E+00  0.00000000E+00
  0.00000000E+00  0.00000000E+00  0.00000000E+00
  0.00000000E+00  0.00000000E+00  0.00000000E+00
  0.00000000E+00  0.00000000E+00  0.00000000E+00
  0.00000000E+00  0.00000000E+00  0.00000000E+00
  0.00000000E+00  0.00000000E+00  0.00000000E+00
  0.00000000E+00  0.00000000E+00  0.00000000E+00
  0.00000000E+00  0.00000000E+00  0.00000000E+00
  0.00000000E+00  0.00000000E+00  0.00000000E+00
  0.00000000E+00  0.00000000E+00  0.00000000E+00
  0.00000000E+00  0.00000000E+00  0.00000000E+00
  0.00000000E+00  0.00000000E+00  0.00000000E+00
  0.00000000E+00  0.00000000E+00  0.00000000E+00
  0.00000000E+00  0.00000000E+00  0.00000000E+00
  0.00000000E+00  0.00000000E+00  0.00000000E+00
  0.00000000E+00  0.00000000E+00  0.00000000E+00
  0.00000000E+00  0.00000000E+00  0.00000000E+00
  0.00000000E+00  0.00000000E+00  0.00000000E+00
  0.00000000E+00  0.00000000E+00  0.00000000E+00
  0.00000000E+00  0.00000000E+00  0.00000000E+00
  0.00000000E+00  0.00000000E+00  0.00000000E+00
  0.00000000E+00  0.00000000E+00  0.00000000E+00
  0.00000000E+00  0.00000000E+00  0.00000000E+00
  0.00000000E+00  0.00000000E+00  0.00000000E+00
  0.00000000E+00  0.00000000E+00  0.00000000E+00
  0.00000000E+00  0.00000000E+00  0.00000000E+00
  0.00000000E+00  0.00000000E+00  0.00000000E+00
  0.00000000E+00  0.00000000E+00  0.00000000E+00
  0.00000000E+00  0.00000000E+00  0.00000000E+00
  0.00000000E+00  0.00000000E+00  0.00000000E+00
  0.00000000E+00  0.00000000E+00  0.00000000E+00
  0.00000000E+00  0.00000000E+00  0.00000000E+00
  0.00000000E+00  0.00000000E+00  0.00000000E+00
  0.00000000E+00  0.00000000E+00  0.00000000E+00
  0.00000000E+00  0.00000000E+00  0.00000000E+00
  0.00000000E+00  0.00000000E+00  0.00000000E+00
  0.00000000E+00  0.00000000E+00  0.00000000E+00
  0.00000000E+00  0.00000000E+00  0.00000000E+00
  0.00000000E+00  0.00000000E+00  0.00000000E+00
  0.00000000E+00  0.00000000E+00  0.00000000E+00
  0.00000000E+00  0.00000000E+00  0.00000000E+00
  0.00000000E+00  0.00000000E+00  0.00000000E+00
  0.00000000E+00  0.00000000E+00  0.00000000E+00
  0.00000000E+00  0.00000000E+00  0.00000000E+00
  0.00000000E+00  0.00000000E+00  0.00000000E+00
  0.00000000E+00  0.00000000E+00  0.00000000E+00
  0.00000000E+00  0.00000000E+00  0.00000000E+00
  0.00000000E+00  0.00000000E+00  0.00000000E+00
  0.00000000E+00  0.00000000E+00  0.00000000E+00
  0.00000000E+00  0.00000000E+00  0.00000000E+00
  0.00000000E+00  0.00000000E+00  0.00000000E+00
  0.00000000E+00  0.00000000E+00  0.00000000E+00
  0.00000000E+00  0.00000000E+00  0.00000000E+00
  0.00000000E+00  0.00000000E+00  0.00000000E+00
  0.00000000E+00  0.00000000E+00  0.00000000E+00
  0.00000000E+00  0.00000000E+00  0.00000000E+00
  0.00000000E+00  0.00000000E+00  0.00000000E+00
  0.00000000E+00  0.00000000E+00  0.00000000E+00
  0.00000000E+00  0.00000000E+00  0.00000000E+00
  0.00000000E+00  0.00000000E+00  0.00000000E+00
  0.00000000E+00  0.00000000E+00  0.00000000E+00
  0.00000000E+00  0.00000000E+00  0.00000000E+00
  0.00000000E+00  0.00000000E+00  0.00000000E+00
  0.00000000E+00  0.00000000E+00  0.00000000E+00
  0.00000000E+00  0.00000000E+00  0.00000000E+00
  0.00000000E+00  0.00000000E+00  0.00000000E+00
  0.00000000E+00  0.00000000E+00  0.00000000E+00
  0.00000000E+00  0.00000000E+00  0.00000000E+00
  0.00000000E+00  0.00000000E+00  0.00000000E+00
  0.00000000E+00  0.00000000E+00  0.00000000E+00
  0.00000000E+00  0.00000000E+00  0.00000000E+00
  0.00000000E+00  0.00000000E+00  0.00000000E+00
  0.00000000E+00  0.00000000E+00  0.00000000E+00
  0.00000000E+00  0.00000000E+00  0.00000000E+00
  0.00000000E+00  0.00000000E+00  0.00000000E+00
  0.00000000E+00  0.00000000E+00  0.00000000E+00
