Si+C
    1.000000000
   13.303179741    0.000000000    0.000000000
   -6.651589394   11.520891190    0.000000000
    0.000000000    0.000000000   21.679416656
Si  C  
72     308
Direct
    0.348160356    0.681493700    0.000000013
    0.681493759    0.014827132    0.144634396
    0.014827251    0.348160625    0.289268821
    0.014827028    0.014827028    0.000000014
    0.348160386    0.348160386    0.144634396
    0.681493878    0.681493878    0.289268821
    0.681493700    0.348160356    0.000000000
    0.014827132    0.681493759    0.144634396
    0.348160625    0.014827251    0.289268792
    0.014827013    0.681493759    0.036158606
    0.348160386    0.014827132    0.180793017
    0.681493878    0.348160625    0.325427473
    0.348160416    0.348160416    0.036158621
    0.681493759    0.681493819    0.180793032
    0.014827251    0.014827251    0.325427473
    0.681493759    0.014827013    0.036158606
    0.014827132    0.348160386    0.180793017
    0.348160625    0.681493878    0.325427443
    0.014827028    0.514827013    0.000000017
    0.348160416    0.848160446    0.144634411
    0.681493819    0.181493878    0.289268821
    0.681493759    0.848160386    0.000000038
    0.014827132    0.181493759    0.144634396
    0.348160625    0.514827251    0.289268821
    0.348160386    0.181493685    0.000000008
    0.681493759    0.514827073    0.144634396
    0.014827132    0.848160505    0.289268792
    0.348160416    0.848160267    0.036158569
    0.681493878    0.181493759    0.180793002
    0.014827132    0.514827013    0.325427413
    0.014827132    0.181493700    0.036158592
    0.348160505    0.514827132    0.180793002
    0.681493759    0.848160446    0.325427353
    0.681493819    0.514827073    0.036158577
    0.014827251    0.848160505    0.180793017
    0.348160625    0.181493878    0.325427413
    0.181493700    0.848160386    0.000000024
    0.514827073    0.181493759    0.144634396
    0.848160565    0.514827251    0.289268821
    0.514827013    0.514827013    0.000000014
    0.848160446    0.848160386    0.144634396
    0.181493878    0.181493878    0.289268821
    0.848160386    0.181493700    0.000000005
    0.181493759    0.514827073    0.144634381
    0.514827251    0.848160565    0.289268821
    0.181493685    0.514827013    0.036158577
    0.514827132    0.848160505    0.180793017
    0.848160446    0.181493759    0.325427413
    0.848160386    0.848160386    0.036158562
    0.181493878    0.181493878    0.180793017
    0.514827251    0.514827251    0.325427413
    0.514827073    0.181493670    0.036158577
    0.848160505    0.514827132    0.180793017
    0.181493759    0.848160446    0.325427413
    0.181493700    0.348160356    0.000000013
    0.514827073    0.681493759    0.144634396
    0.848160505    0.014827132    0.289268821
    0.848160386    0.681493759    0.000000027
    0.181493759    0.014827132    0.144634396
    0.514827251    0.348160625    0.289268821
    0.514827013    0.014827021    0.000000013
    0.848160386    0.348160416    0.144634396
    0.181493878    0.681493819    0.289268821
    0.514827013    0.681493640    0.036158621
    0.848160386    0.014827013    0.180793017
    0.181493878    0.348160505    0.325427473
    0.181493655    0.014827013    0.036158614
    0.514827013    0.348160386    0.180793017
    0.848160446    0.681493878    0.325427473
    0.848160446    0.348160386    0.036158606
    0.181493878    0.681493759    0.180793017
    0.514827251    0.014827251    0.325427443
    0.895401120    0.157130271    0.876437604
    0.657306075    0.109511256    0.496484011
    0.466829836    0.871416092    0.591472447
    0.276353538    0.633320689    0.686460853
    0.085877299    0.395225435    0.781449199
    0.038258314    0.585701704    0.876437724
    0.800163150    0.538082838    0.496484041
    0.609686971    0.299987555    0.591472447
    0.419210672    0.061892152    0.686460853
    0.228734389    0.823796868    0.781449258
    0.609686852    0.299987406    0.876437724
    0.371591717    0.252368480    0.496484011
    0.181115538    0.014273286    0.591472447
    0.990639210    0.776177883    0.686460853
    0.800163031    0.538082600    0.781449258
    0.752544045    0.728558779    0.876437604
    0.514448881    0.680939913    0.496484011
    0.323972702    0.442844689    0.591472447
    0.133496374    0.204749316    0.686460853
    0.943020105    0.966653943    0.781449258
    0.181115419    0.014273167    0.876437604
    0.943020344    0.966654181    0.496484011
    0.752544045    0.728558898    0.591472447
    0.562067747    0.490463585    0.686460853
    0.371591538    0.252368301    0.781449199
    0.323972553    0.442844540    0.876437604
    0.085877419    0.395225614    0.496484011
    0.895401239    0.157130361    0.591472447
    0.704924941    0.919035077    0.686460853
    0.514448643    0.680939674    0.781449199
    0.466829687    0.871415973    0.876437604
    0.228734598    0.823797107    0.496484011
    0.038258433    0.585701823    0.591472447
    0.847782135    0.347606450    0.686460853
    0.657305837    0.109511137    0.781449199
    0.133496314    0.204749256    0.900184691
    0.085877538    0.395225644    0.425242722
    0.895401239    0.157130331    0.520231128
    0.704925060    0.919035077    0.615219593
    0.514448762    0.680939674    0.710207939
    0.323972434    0.442844421    0.805196404
    0.847782016    0.347606391    0.900184691
    0.800163269    0.538082838    0.425242692
    0.609686971    0.299987555    0.520231068
    0.419210732    0.061892271    0.615219533
    0.228734434    0.823796868    0.710207939
    0.038258195    0.585701704    0.805196345
    0.990639210    0.776177883    0.900184751
    0.943020463    0.966654301    0.425242692
    0.752544165    0.728559017    0.520231128
    0.562067926    0.490463704    0.615219533
    0.371591628    0.252368331    0.710207939
    0.181115419    0.014273047    0.805196404
    0.419210583    0.061892152    0.900184691
    0.371591777    0.252368510    0.425242722
    0.181115538    0.014273167    0.520231128
    0.990639329    0.776177883    0.615219593
    0.800163031    0.538082600    0.710207939
    0.609686732    0.299987346    0.805196464
    0.562067747    0.490463585    0.900184691
    0.514449000    0.680939913    0.425242722
    0.323972702    0.442844689    0.520231128
    0.133496448    0.204749376    0.615219593
    0.943020105    0.966653943    0.710207939
    0.752543926    0.728558779    0.805196404
    0.704924941    0.919034958    0.900184751
    0.657306075    0.109511375    0.425242722
    0.466829866    0.871416092    0.520231128
    0.276353598    0.633320868    0.615219593
    0.085877299    0.395225465    0.710207939
    0.895401120    0.157130256    0.805196404
    0.276353449    0.633320689    0.900184751
    0.228734627    0.823797107    0.425242722
    0.038258314    0.585701823    0.520231128
    0.847782135    0.347606480    0.615219593
    0.657305837    0.109511137    0.710207939
    0.466829628    0.871415854    0.805196464
    0.109686933    0.299987406    0.876437604
    0.871591806    0.252368510    0.496484011
    0.681115627    0.014273286    0.591472447
    0.490639299    0.776177883    0.686460853
    0.300163060    0.538082600    0.781449199
    0.681115389    0.014273047    0.876437604
    0.443020314    0.966654181    0.496484011
    0.252544105    0.728558898    0.591472447
    0.062067866    0.490463585    0.686460853
    0.871591568    0.252368242    0.781449258
    0.823972583    0.442844599    0.876437604
    0.585877538    0.395225614    0.496484041
    0.395401269    0.157130376    0.591472447
    0.204925001    0.919035077    0.686460853
    0.014448762    0.680939674    0.781449258
    0.966829658    0.871415973    0.876437724
    0.728734612    0.823797107    0.496484041
    0.538258374    0.585701823    0.591472447
    0.347782075    0.347606421    0.686460853
    0.157305777    0.109511137    0.781449258
    0.395401090    0.157130212    0.876437604
    0.157306015    0.109511375    0.496484011
    0.966829777    0.871416092    0.591472447
    0.776353478    0.633320689    0.686460853
    0.585877299    0.395225376    0.781449258
    0.538258195    0.585701704    0.876437604
    0.300163150    0.538082719    0.496484041
    0.109686956    0.299987555    0.591472447
    0.919210672    0.061892152    0.686460853
    0.728734374    0.823796868    0.781449258
    0.252543956    0.728558779    0.876437604
    0.014448881    0.680939913    0.496484011
    0.823972702    0.442844659    0.591472447
    0.633496404    0.204749316    0.686460853
    0.443020076    0.966653943    0.781449199
    0.919210672    0.061892033    0.900184751
    0.871591806    0.252368540    0.425242722
    0.681115627    0.014273286    0.520231128
    0.490639418    0.776177883    0.615219593
    0.300163031    0.538082600    0.710207939
    0.109686837    0.299987346    0.805196404
    0.062067747    0.490463525    0.900184751
    0.014449000    0.680939913    0.425242722
    0.823972821    0.442844659    0.520231128
    0.633496523    0.204749361    0.615219593
    0.443020195    0.966653943    0.710207939
    0.252543986    0.728558779    0.805196404
    0.633496404    0.204749256    0.900184691
    0.585877538    0.395225644    0.425242692
    0.395401269    0.157130361    0.520231068
    0.204925060    0.919035196    0.615219474
    0.014448762    0.680939794    0.710207939
    0.823972583    0.442844540    0.805196345
    0.776353478    0.633320689    0.900184691
    0.728734732    0.823797107    0.425242662
    0.538258433    0.585701823    0.520231068
    0.347782254    0.347606599    0.615219474
    0.157305926    0.109511256    0.710207939
    0.966829658    0.871415973    0.805196345
    0.347782046    0.347606391    0.900184691
    0.300163209    0.538082838    0.425242692
    0.109686956    0.299987495    0.520231068
    0.919210792    0.061892271    0.615219474
    0.728734493    0.823796868    0.710207939
    0.538258314    0.585701704    0.805196345
    0.490639240    0.776177883    0.900184691
    0.443020403    0.966654301    0.425242692
    0.252544105    0.728559017    0.520231068
    0.062067986    0.490463734    0.615219474
    0.871591568    0.252368361    0.710207939
    0.681115389    0.014273047    0.805196345
    0.204924852    0.919035077    0.900184691
    0.157306060    0.109511495    0.425242692
    0.966829777    0.871416092    0.520231068
    0.776353598    0.633320928    0.615219474
    0.585877299    0.395225495    0.710207939
    0.395401031    0.157130256    0.805196345
    0.038258314    0.085701704    0.876437724
    0.800163269    0.038082719    0.496484041
    0.609687090    0.799987555    0.591472447
    0.419210702    0.561892152    0.686460853
    0.228734463    0.323796898    0.781449258
    0.752544045    0.228558868    0.876437724
    0.514448941    0.180939928    0.496484041
    0.323972702    0.942844629    0.591472447
    0.133496433    0.704749346    0.686460853
    0.943020225    0.466654032    0.781449258
    0.895401120    0.657130241    0.876437604
    0.657306075    0.609511316    0.496484011
    0.466829836    0.371416092    0.591472447
    0.276353538    0.133320689    0.686460853
    0.085877180    0.895225406    0.781449199
    0.466829687    0.371415943    0.876437604
    0.228734598    0.323797047    0.496484011
    0.038258433    0.085701823    0.591472447
    0.847782135    0.847606421    0.686460853
    0.657305837    0.609511137    0.781449199
    0.609686852    0.799987316    0.876437604
    0.371591777    0.752368450    0.496484011
    0.181115553    0.514273226    0.591472447
    0.990639210    0.276177853    0.686460853
    0.800163031    0.038082480    0.781449199
    0.181115359    0.514273047    0.876437604
    0.943020344    0.466654181    0.496484011
    0.752544045    0.228558958    0.591472447
    0.562067747    0.990463614    0.686460853
    0.371591479    0.752368212    0.781449199
    0.323972493    0.942844510    0.876437724
    0.085877419    0.895225644    0.496483982
    0.895401239    0.657130361    0.591472447
    0.704925060    0.419035196    0.686460793
    0.514448643    0.180939704    0.781449258
    0.990639210    0.276177734    0.900184751
    0.943020463    0.466654181    0.425242722
    0.752544165    0.228558898    0.520231128
    0.562067926    0.990463614    0.615219593
    0.371591598    0.752368212    0.710207939
    0.181115419    0.514273047    0.805196404
    0.133496374    0.704749227    0.900184691
    0.085877538    0.895225644    0.425242722
    0.895401239    0.657130361    0.520231128
    0.704925060    0.419035077    0.615219593
    0.514448762    0.180939719    0.710207939
    0.323972493    0.942844391    0.805196404
    0.704924941    0.419034988    0.900184751
    0.657306075    0.609511435    0.425242692
    0.466829866    0.371416092    0.520231128
    0.276353657    0.133320928    0.615219533
    0.085877299    0.895225525    0.710207939
    0.895401120    0.657130241    0.805196404
    0.847782135    0.847606421    0.900184691
    0.800163269    0.038082838    0.425242692
    0.609686971    0.799987555    0.520231068
    0.419210821    0.561892271    0.615219474
    0.228734508    0.323796898    0.710207939
    0.038258314    0.085701585    0.805196345
    0.276353508    0.133320570    0.900184691
    0.228734657    0.323797047    0.425242692
    0.038258433    0.085701704    0.520231068
    0.847782254    0.847606540    0.615219474
    0.657305956    0.609511137    0.710207939
    0.466829687    0.371415943    0.805196345
    0.419210643    0.561892152    0.900184691
    0.371591806    0.752368569    0.425242692
    0.181115553    0.514273286    0.520231068
    0.990639329    0.276178032    0.615219474
    0.800163031    0.038082600    0.710207939
    0.609686852    0.799987316    0.805196345
    0.562067747    0.990463495    0.900184691
    0.514448941    0.180939928    0.425242692
    0.323972702    0.942844629    0.520231068
    0.133496493    0.704749346    0.615219474
    0.943020225    0.466654032    0.710207939
    0.752543926    0.228558809    0.805196345
    0.966829777    0.371416003    0.876437724
    0.728734732    0.323797047    0.496484041
    0.538258433    0.085701823    0.591472447
    0.347782195    0.847606421    0.686460853
    0.157305881    0.609511137    0.781449318
    0.109686896    0.799987435    0.876437604
    0.871591806    0.752368450    0.496483982
    0.681115627    0.514273286    0.591472447
    0.490639329    0.276177913    0.686460853
    0.300163031    0.038082600    0.781449199
    0.538258314    0.085701585    0.876437604
    0.300163150    0.038082719    0.496484011
    0.109686963    0.799987435    0.591472447
    0.919210672    0.561892152    0.686460853
    0.728734374    0.323796839    0.781449258
    0.681115508    0.514273167    0.876437604
    0.443020284    0.466654181    0.496484011
    0.252544105    0.228558958    0.591472447
    0.062067866    0.990463614    0.686460853
    0.871591568    0.752368212    0.781449258
    0.823972583    0.942844629    0.876437604
    0.585877538    0.895225644    0.496483982
    0.395401299    0.657130480    0.591472447
    0.204925001    0.419035077    0.686460853
    0.014448762    0.180939749    0.781449258
    0.252543956    0.228558868    0.876437604
    0.014448881    0.180939898    0.496484011
    0.823972702    0.942844629    0.591472447
    0.633496404    0.704749227    0.686460853
    0.443020076    0.466653973    0.781449258
    0.395401150    0.657130241    0.876437604
    0.157306015    0.609511375    0.496484011
    0.966829777    0.371416152    0.591472447
    0.776353478    0.133320808    0.686460853
    0.585877299    0.895225525    0.781449199
    0.776353478    0.133320689    0.900184751
    0.728734732    0.323797107    0.425242722
    0.538258493    0.085701823    0.520231128
    0.347782224    0.847606540    0.615219593
    0.157305926    0.609511256    0.710207939
    0.966829777    0.371415883    0.805196404
    0.919210792    0.561892152    0.900184691
    0.871591926    0.752368569    0.425242692
    0.681115627    0.514273286    0.520231068
    0.490639389    0.276177943    0.615219533
    0.300163090    0.038082600    0.710207939
    0.109686889    0.799987316    0.805196345
    0.062067747    0.990463495    0.900184691
    0.014449000    0.180939957    0.425242692
    0.823972702    0.942844629    0.520231068
    0.633496523    0.704749346    0.615219593
    0.443020165    0.466653973    0.710207939
    0.252543986    0.228558689    0.805196404
    0.490639180    0.276177794    0.900184751
    0.443020403    0.466654241    0.425242722
    0.252544165    0.228558958    0.520231128
    0.062067866    0.990463614    0.615219593
    0.871591568    0.752368331    0.710207939
    0.681115389    0.514273047    0.805196404
    0.633496284    0.704749227    0.900184691
    0.585877538    0.895225644    0.425242692
    0.395401269    0.657130361    0.520231068
    0.204925001    0.419035077    0.615219533
    0.014448762    0.180939734    0.710207939
    0.823972583    0.942844510    0.805196404
    0.204924911    0.419035047    0.900184691
    0.157306090    0.609511375    0.425242722
    0.966829896    0.371416152    0.520231128
    0.776353598    0.133320808    0.615219593
    0.585877299    0.895225406    0.710207939
    0.395401031    0.657130241    0.805196404
    0.347782046    0.847606421    0.900184691
    0.300163269    0.038082838    0.425242692
    0.109687008    0.799987555    0.520231068
    0.919210792    0.561892271    0.615219593
    0.728734493    0.323796928    0.710207939
    0.538258314    0.085701704    0.805196345
