Si+Ge
    1.000000000
    7.680594444    0.000000000    0.000000000
    0.000000000   16.292999268    0.000000000
    0.000000000    0.000000000   21.000864029
Si  Ge 
72     48
Direct
    0.978517294    0.985678196    0.000000001
    0.728517234    0.819011450    0.091431901
    0.478517175    0.652344763    0.182863802
    0.228517234    0.485678136    0.274295658
    0.978517175    0.319011390    0.365727574
    0.614321470    0.696336031    0.627551734
    0.114321470    0.196336150    0.896959722
    0.728517234    0.152344853    0.091431901
    0.478517175    0.985678136    0.182863802
    0.228517234    0.819011509    0.274295658
    0.978517175    0.652344763    0.365727574
    0.864321470    0.196336150    0.560199738
    0.978517294    0.652344942    0.000000001
    0.728517234    0.485678196    0.091431901
    0.478517175    0.319011509    0.182863802
    0.864321470    0.446336061    0.560199738
    0.978517175    0.985678136    0.365727574
    0.864321470    0.946336031    0.560199738
    0.614321530    0.696336091    0.896959722
    0.228517249    0.819011450    0.091431901
    0.614321470    0.946336031    0.896959722
    0.728517294    0.485678136    0.274295628
    0.478517175    0.319011390    0.365727574
    0.228517115    0.152344704    0.457159460
    0.614321470    0.446336091    0.896959722
    0.228517249    0.152344853    0.091431901
    0.978517234    0.985678136    0.182863802
    0.728517294    0.819011509    0.274295628
    0.478517175    0.652344763    0.365727574
    0.228517115    0.485678077    0.457159460
    0.364321589    0.196336150    0.829607725
    0.228517249    0.485678196    0.091431901
    0.978517234    0.319011509    0.182863802
    0.728517294    0.152344868    0.274295628
    0.478517175    0.985678136    0.365727574
    0.364321470    0.696336031    0.560199738
    0.728517354    0.235678196    0.000000000
    0.478517294    0.069011487    0.091431893
    0.228517264    0.902344763    0.182863802
    0.978517294    0.735678136    0.274295658
    0.728517234    0.569011450    0.365727574
    0.478517234    0.402344644    0.457159400
    0.728517354    0.569011629    0.000000000
    0.478517294    0.402344882    0.091431893
    0.228517264    0.235678196    0.182863802
    0.978517294    0.069011539    0.274295658
    0.728517234    0.902344823    0.365727574
    0.478517234    0.735678077    0.457159400
    0.728517354    0.902344942    0.000000000
    0.478517294    0.735678196    0.091431893
    0.228517264    0.569011509    0.182863802
    0.978517294    0.402344853    0.274295658
    0.728517234    0.235678121    0.365727574
    0.478517234    0.069011383    0.457159400
    0.228517294    0.235678196    0.000000001
    0.114321470    0.696336091    0.896959722
    0.728517175    0.902344763    0.182863802
    0.478517294    0.735678136    0.274295628
    0.364321589    0.196336150    0.560199738
    0.978517056    0.402344644    0.457159460
    0.228517294    0.569011629    0.000000001
    0.978517234    0.402344882    0.091431901
    0.728517175    0.235678196    0.182863802
    0.478517294    0.069011539    0.274295628
    0.228517175    0.902344823    0.365727574
    0.978517056    0.735678077    0.457159460
    0.228517294    0.902344942    0.000000001
    0.978517234    0.735678196    0.091431901
    0.728517175    0.569011509    0.182863802
    0.478517294    0.402344853    0.274295628
    0.228517175    0.235678121    0.365727574
    0.978517056    0.069011383    0.457159460
    0.228517115    0.819011390    0.457159460
    0.114321589    0.321336091    0.694903731
    0.864321589    0.946336150    0.829607725
    0.728517175    0.819011390    0.457159460
    0.614321530    0.571336091    0.694903731
    0.478517294    0.652344942    0.000000000
    0.228517175    0.569011450    0.365727574
    0.114321589    0.821336150    0.694903731
    0.864321589    0.446336091    0.829607725
    0.228517234    0.152344868    0.274295658
    0.614321530    0.071336150    0.694903731
    0.364321589    0.696336091    0.829607725
    0.728517175    0.152344704    0.457159460
    0.364321589    0.321336091    0.762255728
    0.114321589    0.946336031    0.896959722
    0.114321470    0.946336031    0.627551734
    0.864321530    0.571336091    0.762255728
    0.614321470    0.196336031    0.896959722
    0.614321530    0.196336150    0.627551734
    0.364321589    0.821336150    0.762255728
    0.114321470    0.446336091    0.896959722
    0.114321470    0.446336061    0.627551734
    0.864321530    0.071336150    0.762255728
    0.478517294    0.985678196    0.000000000
    0.364321589    0.946336091    0.560199738
    0.114321589    0.571336150    0.694903731
    0.864321589    0.196336150    0.829607725
    0.364321589    0.446336091    0.560199738
    0.114321589    0.071336150    0.694903731
    0.864321589    0.696336091    0.829607725
    0.864321530    0.696336091    0.560199738
    0.614321589    0.321336150    0.694903731
    0.364321589    0.946336150    0.829607725
    0.728517175    0.485678077    0.457159460
    0.614321530    0.821336091    0.694903731
    0.364321470    0.446336150    0.829607725
    0.614321589    0.946336091    0.627551734
    0.364321589    0.571336150    0.762255728
    0.978517294    0.319011539    0.000000001
    0.614321530    0.446336091    0.627551734
    0.364321589    0.071336150    0.762255728
    0.978517234    0.069011487    0.091431901
    0.114321470    0.696336031    0.627551734
    0.864321470    0.321336061    0.762255728
    0.978517234    0.652344763    0.182863802
    0.114321470    0.196336150    0.627551734
    0.864321530    0.821336150    0.762255728
    0.478517294    0.319011539    0.000000000
