Automatic KPOINTS generated
0
Gamma
5 2 1
0 0 0
