Ge
 1.0000000000000000
    13.8587230667186638    0.0000000000000000    0.0000000000000000
    27.7174461334373348   12.6512254030983016    0.0000000000000000
     0.0000000000000000    0.0000000000000000   60.1428804580427254
 Ge 
 160
Direct
  0.0000000000000000  0.0000000000000000  0.3325414387818111
  0.2499999999999998  0.7500000000000000  0.3325414387818111
  0.9833333333333334  0.3000000000000000  0.3411290573058208
  0.2333333333333334  0.0499999999999999  0.3411290573058208
  0.5000000000000000  0.0000000000000000  0.3325414387818111
  0.7499999999999999  0.7500000000000001  0.3325414387818111
  0.4833333333333333  0.3000000000000000  0.3411290573058208
  0.7333333333333333  0.0500000000000001  0.3411290573058208
  0.9666666666666667  0.6000000000000001  0.3497166758298305
  0.2166666666666665  0.3500000000000000  0.3497166758298305
  0.9500000000000003  0.9000000000000000  0.3583042943538402
  0.1999999999999999  0.6500000000000000  0.3583042943538401
  0.4666666666666666  0.6000000000000001  0.3497166758298305
  0.7166666666666662  0.3500000000000003  0.3497166758298305
  0.4499999999999997  0.9000000000000001  0.3583042943538402
  0.6999999999999997  0.6500000000000000  0.3583042943538402
  0.9333333333333329  0.2000000000000001  0.3668919128778499
  0.1833333333333330  0.9500000000000000  0.3668919128778498
  0.9166666666666662  0.5000000000000002  0.3754795314018595
  0.1666666666666665  0.2500000000000000  0.3754795314018595
  0.4333333333333335  0.2000000000000001  0.3668919128778499
  0.6833333333333323  0.9500000000000004  0.3668919128778498
  0.4166666666666670  0.5000000000000000  0.3754795314018596
  0.6666666666666665  0.2500000000000001  0.3754795314018596
  0.8999999999999997  0.8000000000000003  0.3840671499258692
  0.1499999999999991  0.5500000000000004  0.3840671499258692
  0.8833333333333337  0.1000000000000000  0.3926547684498789
  0.1333333333333328  0.8500000000000001  0.3926547684498789
  0.3999999999999998  0.8000000000000003  0.3840671499258692
  0.6500000000000000  0.5500000000000005  0.3840671499258692
  0.3833333333333324  0.1000000000000003  0.3926547684498789
  0.6333333333333327  0.8500000000000003  0.3926547684498789
  0.8666666666666663  0.4000000000000001  0.4012423869738886
  0.1166666666666663  0.1500000000000001  0.4012423869738886
  0.8500000000000005  0.7000000000000000  0.4098300054978983
  0.0999999999999997  0.4500000000000002  0.4098300054978982
  0.3666666666666661  0.4000000000000001  0.4012423869738886
  0.6166666666666671  0.1500000000000002  0.4012423869738885
  0.3500000000000004  0.7000000000000000  0.4098300054978983
  0.5999999999999999  0.4500000000000002  0.4098300054978983
  0.8333333333333330  0.0000000000000000  0.4184176240219080
  0.0833333333333340  0.7500000000000000  0.4184176240219080
  0.8166666666666673  0.2999999999999998  0.4270052425459177
  0.0666666666666673  0.0500000000000003  0.4270052425459177
  0.3333333333333339  0.0000000000000000  0.4184176240219080
  0.5833333333333336  0.7500000000000003  0.4184176240219079
  0.3166666666666673  0.2999999999999998  0.4270052425459177
  0.5666666666666664  0.0500000000000000  0.4270052425459177
  0.7999999999999998  0.6000000000000005  0.4355928610699273
  0.0499999999999998  0.3500000000000003  0.4355928610699273
  0.7833333333333314  0.9000000000000004  0.4441804795939370
  0.0333333333333312  0.6500000000000008  0.4441804795939370
  0.2999999999999997  0.6000000000000005  0.4355928610699273
  0.5499999999999989  0.3500000000000008  0.4355928610699273
  0.2833333333333323  0.9000000000000008  0.4441804795939370
  0.5333333333333313  0.6500000000000004  0.4441804795939370
  0.7666666666666668  0.2000000000000001  0.4527680981179467
  0.0166666666666674  0.9500000000000002  0.4527680981179467
  0.7499999999999990  0.5000000000000004  0.4613557166419564
  0.0000000000000000  0.2500000000000000  0.4613557166419564
  0.2666666666666666  0.2000000000000001  0.4527680981179467
  0.5166666666666665  0.9500000000000006  0.4527680981179467
  0.2499999999999981  0.5000000000000004  0.4613557166419564
  0.4999999999999991  0.2500000000000004  0.4613557166419564
  0.7333333333333323  0.8000000000000003  0.4699433351659661
  0.9833333333333334  0.5500000000000003  0.4699433351659661
  0.7166666666666669  0.1000000000000001  0.4785309536899758
  0.9666666666666670  0.8500000000000001  0.4785309536899757
  0.2333333333333324  0.8000000000000003  0.4699433351659661
  0.4833333333333326  0.5500000000000007  0.4699433351659661
  0.2166666666666668  0.1000000000000005  0.4785309536899758
  0.4666666666666668  0.8500000000000001  0.4785309536899758
  0.7000000000000012  0.3999999999999999  0.4871185722139855
  0.9499999999999993  0.1500000000000004  0.4871185722139855
  0.6833333333333333  0.7000000000000002  0.4957061907379952
  0.9333333333333355  0.4499999999999997  0.4957061907379952
  0.2000000000000010  0.3999999999999999  0.4871185722139855
  0.4499999999999992  0.1500000000000004  0.4871185722139855
  0.1833333333333335  0.7000000000000006  0.4957061907379952
  0.4333333333333337  0.4500000000000002  0.4957061907379952
  0.6666666666666661  0.0000000000000000  0.5042938092620048
  0.9166666666666657  0.7500000000000000  0.5042938092620048
  0.6500000000000002  0.2999999999999998  0.5128814277860145
  0.8999999999999986  0.0500000000000003  0.5128814277860145
  0.1666666666666661  0.0000000000000000  0.5042938092620048
  0.4166666666666662  0.7500000000000000  0.5042938092620048
  0.1500000000000004  0.3000000000000003  0.5128814277860145
  0.4000000000000004  0.0500000000000003  0.5128814277860145
  0.6333333333333327  0.6000000000000005  0.5214690463100242
  0.8833333333333327  0.3500000000000005  0.5214690463100242
  0.6166666666666638  0.9000000000000012  0.5300566648340338
  0.8666666666666654  0.6500000000000004  0.5300566648340338
  0.1333333333333346  0.5999999999999996  0.5214690463100242
  0.3833333333333346  0.3500000000000001  0.5214690463100242
  0.1166666666666672  0.9000000000000004  0.5300566648340339
  0.3666666666666655  0.6500000000000004  0.5300566648340339
  0.5999999999999996  0.2000000000000011  0.5386442833580435
  0.8499999999999998  0.9500000000000011  0.5386442833580435
  0.5833333333333303  0.5000000000000018  0.5472319018820532
  0.8333333333333320  0.2500000000000009  0.5472319018820532
  0.0999999999999998  0.2000000000000001  0.5386442833580435
  0.3499999999999960  0.9500000000000021  0.5386442833580435
  0.0833333333333322  0.5000000000000009  0.5472319018820534
  0.3333333333333304  0.2500000000000018  0.5472319018820532
  0.5666666666666682  0.7999999999999998  0.5558195204060630
  0.8166666666666663  0.5500000000000007  0.5558195204060630
  0.5499999999999989  0.1000000000000005  0.5644071389300727
  0.7999999999999988  0.8500000000000006  0.5644071389300727
  0.0666666666666683  0.7999999999999998  0.5558195204060631
  0.3166666666666647  0.5500000000000007  0.5558195204060630
  0.0499999999999989  0.1000000000000005  0.5644071389300728
  0.2999999999999987  0.8500000000000006  0.5644071389300728
  0.5333333333333332  0.4000000000000003  0.5729947574540823
  0.7833333333333314  0.1500000000000004  0.5729947574540825
  0.5166666666666657  0.7000000000000011  0.5815823759780920
  0.7666666666666638  0.4500000000000011  0.5815823759780920
  0.0333333333333352  0.4000000000000003  0.5729947574540823
  0.2833333333333332  0.1500000000000004  0.5729947574540823
  0.0166666666666674  0.7000000000000002  0.5815823759780921
  0.2666666666666676  0.4500000000000002  0.5815823759780921
  0.5000000000000018  0.0000000000000000  0.5901699945021017
  0.7500000000000036  0.7499999999999991  0.5901699945021017
  0.4833333333333324  0.3000000000000007  0.5987576130261115
  0.7333333333333307  0.0500000000000007  0.5987576130261115
  0.0000000000000000  0.0000000000000000  0.5901699945021018
  0.2500000000000018  0.7499999999999991  0.5901699945021017
  0.9833333333333361  0.2999999999999989  0.5987576130261115
  0.2333333333333343  0.0499999999999998  0.5987576130261115
  0.4666666666666651  0.6000000000000005  0.6073452315501211
  0.7166666666666666  0.3499999999999997  0.6073452315501211
  0.4499999999999958  0.9000000000000012  0.6159328500741308
  0.6999999999999993  0.6500000000000012  0.6159328500741308
  0.9666666666666649  0.6000000000000005  0.6073452315501211
  0.2166666666666650  0.3500000000000014  0.6073452315501211
  0.9500000000000026  0.8999999999999995  0.6159328500741308
  0.1999999999999994  0.6500000000000012  0.6159328500741307
  0.4333333333333336  0.2000000000000011  0.6245204685981405
  0.6833333333333337  0.9500000000000002  0.6245204685981405
  0.4166666666666644  0.5000000000000018  0.6331080871221501
  0.6666666666666606  0.2500000000000018  0.6331080871221501
  0.9333333333333336  0.2000000000000011  0.6245204685981405
  0.1833333333333371  0.9500000000000002  0.6245204685981405
  0.9166666666666679  0.5000000000000000  0.6331080871221502
  0.1666666666666679  0.2500000000000000  0.6331080871221502
  0.4000000000000021  0.7999999999999998  0.6416957056461599
  0.6500000000000020  0.5499999999999998  0.6416957056461599
  0.3833333333333329  0.1000000000000005  0.6502833241701694
  0.6333333333333324  0.8500000000000006  0.6502833241701694
  0.9000000000000022  0.7999999999999998  0.6416957056461599
  0.1500000000000022  0.5499999999999998  0.6416957056461599
  0.8833333333333363  0.0999999999999996  0.6502833241701695
  0.1333333333333364  0.8499999999999996  0.6502833241701695
  0.3666666666666674  0.4000000000000003  0.6588709426941792
  0.6166666666666635  0.1500000000000004  0.6588709426941792
  0.3499999999999978  0.7000000000000011  0.6674585612181888
  0.5999999999999980  0.4500000000000011  0.6674585612181888
  0.8666666666666673  0.4000000000000003  0.6588709426941792
  0.1166666666666636  0.1500000000000012  0.6588709426941792
  0.8500000000000013  0.7000000000000002  0.6674585612181888
  0.0999999999999943  0.4500000000000011  0.6674585612181888
