Si+C
    1.000000000
   13.303179741    0.000000000    0.000000000
   -6.651589394   11.520891190    0.000000000
    0.000000000    0.000000000   21.679418564
Si  C  
72     308
Direct
    0.348160356    0.681493700    0.000000013
    0.681493759    0.014827132    0.144634396
    0.014827251    0.348160625    0.289268821
    0.014827028    0.014827028    0.000000014
    0.348160386    0.348160386    0.144634396
    0.681493878    0.681493878    0.289268821
    0.681493700    0.348160356    0.000000000
    0.014827132    0.681493759    0.144634381
    0.348160625    0.014827251    0.289268792
    0.014827013    0.681493759    0.036158606
    0.348160386    0.014827132    0.180793002
    0.681493878    0.348160625    0.325427443
    0.348160416    0.348160416    0.036158621
    0.681493759    0.681493819    0.180793017
    0.014827251    0.014827251    0.325427443
    0.681493759    0.014827013    0.036158606
    0.014827132    0.348160386    0.180793002
    0.348160625    0.681493878    0.325427413
    0.014827028    0.514827013    0.000000017
    0.348160416    0.848160446    0.144634411
    0.681493819    0.181493878    0.289268821
    0.681493759    0.848160386    0.000000038
    0.014827132    0.181493759    0.144634396
    0.348160625    0.514827251    0.289268821
    0.348160386    0.181493685    0.000000008
    0.681493759    0.514827073    0.144634381
    0.014827132    0.848160505    0.289268792
    0.348160416    0.848160267    0.036158569
    0.681493878    0.181493759    0.180792972
    0.014827132    0.514827013    0.325427353
    0.014827132    0.181493700    0.036158592
    0.348160505    0.514827132    0.180792972
    0.681493759    0.848160446    0.325427324
    0.681493819    0.514827073    0.036158577
    0.014827251    0.848160505    0.180793002
    0.348160625    0.181493878    0.325427383
    0.181493700    0.848160386    0.000000024
    0.514827073    0.181493759    0.144634396
    0.848160565    0.514827251    0.289268821
    0.514827013    0.514827013    0.000000014
    0.848160446    0.848160386    0.144634396
    0.181493878    0.181493878    0.289268821
    0.848160386    0.181493700    0.000000005
    0.181493759    0.514827073    0.144634381
    0.514827251    0.848160565    0.289268821
    0.181493685    0.514827013    0.036158577
    0.514827132    0.848160505    0.180793002
    0.848160446    0.181493759    0.325427353
    0.848160386    0.848160386    0.036158558
    0.181493878    0.181493878    0.180793002
    0.514827251    0.514827251    0.325427383
    0.514827073    0.181493670    0.036158577
    0.848160505    0.514827132    0.180793002
    0.181493759    0.848160446    0.325427383
    0.181493700    0.348160356    0.000000013
    0.514827073    0.681493759    0.144634396
    0.848160505    0.014827132    0.289268821
    0.848160386    0.681493759    0.000000027
    0.181493759    0.014827132    0.144634396
    0.514827251    0.348160625    0.289268821
    0.514827013    0.014827021    0.000000013
    0.848160386    0.348160416    0.144634396
    0.181493878    0.681493819    0.289268821
    0.514827013    0.681493640    0.036158621
    0.848160386    0.014827013    0.180793002
    0.181493878    0.348160505    0.325427443
    0.181493655    0.014827013    0.036158614
    0.514827013    0.348160386    0.180793002
    0.848160446    0.681493878    0.325427443
    0.848160446    0.348160386    0.036158606
    0.181493878    0.681493759    0.180793002
    0.514827251    0.014827251    0.325427413
    0.802327454    0.211242676    0.900184751
    0.754708767    0.401719213    0.425242633
    0.564232469    0.163623810    0.520231068
    0.373756230    0.925528586    0.615219474
    0.183279902    0.687433183    0.710207880
    0.992803752    0.449337959    0.805196285
    0.945184588    0.639814138    0.900184751
    0.897565901    0.830290675    0.425242662
    0.707089603    0.592195392    0.520231068
    0.516613364    0.354100078    0.615219533
    0.326137066    0.116004705    0.710207939
    0.135660827    0.877909422    0.805196345
    0.516613126    0.354099810    0.900184751
    0.468994439    0.544576406    0.425242633
    0.278518140    0.306481034    0.520231068
    0.088041902    0.068385720    0.615219474
    0.897565544    0.830290318    0.710207939
    0.707089365    0.592195153    0.805196345
    0.659470260    0.782671273    0.900184751
    0.611851573    0.973147750    0.425242633
    0.421375334    0.735052466    0.520231068
    0.230899081    0.496957183    0.615219474
    0.040422678    0.258861780    0.710207880
    0.849946558    0.020766497    0.805196345
    0.088041708    0.068385482    0.900184751
    0.040422916    0.258862019    0.425242633
    0.849946737    0.020766735    0.520231068
    0.659470499    0.782671452    0.615219474
    0.468994141    0.544576108    0.710207880
    0.278517962    0.306480825    0.805196285
    0.230898842    0.496956944    0.900184751
    0.183280140    0.687433481    0.425242633
    0.992803872    0.449338168    0.520231068
    0.802327633    0.211242914    0.615219474
    0.611851275    0.973147511    0.710207939
    0.421375096    0.735052288    0.805196285
    0.373755991    0.925528407    0.900184751
    0.326137245    0.116004944    0.425242633
    0.135661006    0.877909601    0.520231068
    0.945184767    0.639814377    0.615219474
    0.754708469    0.401718944    0.710207939
    0.564232290    0.163623691    0.805196285
    0.992803931    0.449338198    0.448989779
    0.802327693    0.211242914    0.543978214
    0.611851454    0.973147631    0.638966620
    0.421375096    0.735052228    0.733955085
    0.230898783    0.496956885    0.828943491
    0.707089663    0.592195392    0.448989749
    0.516613424    0.354100108    0.543978155
    0.326137185    0.116004825    0.638966560
    0.135660887    0.877909482    0.733955026
    0.945184529    0.639814019    0.828943491
    0.849946856    0.020766854    0.448989749
    0.659470618    0.782671571    0.543978155
    0.468994319    0.544576287    0.638966620
    0.278518051    0.306480885    0.733955026
    0.088041715    0.068385482    0.828943491
    0.278518200    0.306481093    0.448989779
    0.088041961    0.068385839    0.543978214
    0.897565722    0.830290496    0.638966620
    0.707089365    0.592195094    0.733955085
    0.516613066    0.354099751    0.828943491
    0.421375394    0.735052526    0.448989779
    0.230899125    0.496957242    0.543978214
    0.040422916    0.258861899    0.638966620
    0.849946558    0.020766497    0.733955026
    0.659470260    0.782671154    0.828943491
    0.564232528    0.163624048    0.448989779
    0.373756289    0.925528705    0.543978214
    0.183280036    0.687433422    0.638966620
    0.992803752    0.449338019    0.733955026
    0.802327394    0.211242676    0.828943491
    0.135661036    0.877909660    0.448989779
    0.945184827    0.639814377    0.543978214
    0.754708588    0.401719064    0.638966620
    0.564232290    0.163623691    0.733955085
    0.373755932    0.925528288    0.828943491
    0.016613245    0.354099870    0.900184751
    0.968994498    0.544576406    0.425242633
    0.778518260    0.306481063    0.520231068
    0.588042021    0.068385839    0.615219474
    0.397565663    0.830290318    0.710207880
    0.207089469    0.592195153    0.805196345
    0.588041723    0.068385482    0.900184751
    0.540423036    0.258862019    0.425242633
    0.349946737    0.020766735    0.520231068
    0.159470499    0.782671452    0.615219474
    0.968994200    0.544576049    0.710207939
    0.778517962    0.306480765    0.805196345
    0.730898917    0.496956944    0.900184751
    0.683280170    0.687433481    0.425242662
    0.492803931    0.449338198    0.520231068
    0.302327693    0.211242914    0.615219533
    0.111851349    0.973147511    0.710207939
    0.921375096    0.735052288    0.805196345
    0.873755991    0.925528407    0.900184751
    0.826137304    0.116004944    0.425242633
    0.635661006    0.877909601    0.520231068
    0.445184767    0.639814317    0.615219533
    0.254708439    0.401718915    0.710207939
    0.064232215    0.163623691    0.805196345
    0.302327394    0.211242676    0.900184751
    0.254708707    0.401719213    0.425242633
    0.064232431    0.163623810    0.520231068
    0.873756230    0.925528646    0.615219474
    0.683279872    0.687433183    0.710207880
    0.492803693    0.449337900    0.805196345
    0.445184529    0.639814079    0.900184751
    0.397565842    0.830290675    0.425242633
    0.207089573    0.592195332    0.520231068
    0.016613364    0.354100049    0.615219474
    0.826137006    0.116004705    0.710207939
    0.635660827    0.877909422    0.805196345
    0.159470245    0.782671213    0.900184751
    0.111851551    0.973147750    0.425242633
    0.921375275    0.735052466    0.520231068
    0.730899036    0.496957183    0.615219474
    0.540422738    0.258861780    0.710207939
    0.349946499    0.020766497    0.805196345
    0.778518319    0.306481123    0.448989749
    0.588042080    0.068385839    0.543978214
    0.397565782    0.830290496    0.638966560
    0.207089454    0.592195153    0.733955026
    0.016613126    0.354099810    0.828943491
    0.921375453    0.735052466    0.448989749
    0.730899215    0.496957183    0.543978214
    0.540422916    0.258861899    0.638966620
    0.349946618    0.020766497    0.733955026
    0.159470260    0.782671154    0.828943491
    0.492803931    0.449338257    0.448989719
    0.302327633    0.211242914    0.543978155
    0.111851417    0.973147631    0.638966560
    0.921375215    0.735052347    0.733955026
    0.730898857    0.496957004    0.828943431
    0.635661125    0.877909720    0.448989719
    0.445184827    0.639814377    0.543978155
    0.254708588    0.401719093    0.638966560
    0.064232327    0.163623810    0.733955026
    0.873756111    0.925528407    0.828943372
    0.207089648    0.592195392    0.448989749
    0.016613364    0.354100049    0.543978214
    0.826137125    0.116004705    0.638966620
    0.635660887    0.877909482    0.733955026
    0.445184588    0.639814138    0.828943431
    0.349946797    0.020766854    0.448989749
    0.159470513    0.782671511    0.543978214
    0.968994319    0.544576228    0.638966560
    0.778518021    0.306480885    0.733955026
    0.588041782    0.068385601    0.828943491
    0.064232484    0.163624048    0.448989749
    0.873756230    0.925528705    0.543978214
    0.683279932    0.687433362    0.638966560
    0.492803693    0.449338078    0.733955026
    0.302327394    0.211242676    0.828943491
    0.945184648    0.139814138    0.900184751
    0.897565901    0.330290645    0.425242662
    0.707089663    0.092195272    0.520231068
    0.516613424    0.854100049    0.615219533
    0.326137066    0.616004646    0.710207939
    0.135660857    0.377909422    0.805196345
    0.659470379    0.282671273    0.900184751
    0.611851633    0.473147810    0.425242662
    0.421375334    0.235052466    0.520231068
    0.230899110    0.996957183    0.615219533
    0.040422797    0.758861840    0.710207939
    0.849946558    0.520766616    0.805196345
    0.802327454    0.711242616    0.900184751
    0.754708767    0.901719213    0.425242633
    0.564232469    0.663623869    0.520231068
    0.373756230    0.425528586    0.615219474
    0.183279902    0.187433243    0.710207880
    0.992803693    0.949337959    0.805196285
    0.373756051    0.425528347    0.900184751
    0.326137304    0.616004944    0.425242633
    0.135661006    0.377909601    0.520231068
    0.945184767    0.139814377    0.615219474
    0.754708469    0.901718915    0.710207939
    0.564232290    0.663623691    0.805196345
    0.516613185    0.854099810    0.900184751
    0.468994439    0.044576406    0.425242633
    0.278518170    0.806481063    0.520231068
    0.088041931    0.568385720    0.615219474
    0.897565603    0.330290347    0.710207880
    0.707089424    0.092195034    0.805196285
    0.088041648    0.568385541    0.900184751
    0.040422916    0.758862019    0.425242633
    0.849946737    0.520766735    0.520231068
    0.659470499    0.282671452    0.615219474
    0.468994141    0.044576049    0.710207939
    0.278517962    0.806480825    0.805196285
    0.230898842    0.996956944    0.900184751
    0.183280125    0.187433481    0.425242633
    0.992803872    0.949338198    0.520231068
    0.802327573    0.711242914    0.615219474
    0.611851394    0.473147690    0.710207820
    0.421375096    0.235052347    0.805196345
    0.849946856    0.520766735    0.448989779
    0.659470618    0.282671452    0.543978214
    0.468994319    0.044576168    0.638966620
    0.278518021    0.806480825    0.733955085
    0.088041663    0.568385363    0.828943491
    0.992803991    0.949338257    0.448989779
    0.802327693    0.711242914    0.543978214
    0.611851454    0.473147631    0.638966620
    0.421375155    0.235052347    0.733955085
    0.230898842    0.996956885    0.828943491
    0.564232528    0.663623989    0.448989749
    0.373756230    0.425528646    0.543978214
    0.183280036    0.187433362    0.638966620
    0.992803752    0.949338078    0.733955085
    0.802327454    0.711242735    0.828943491
    0.707089722    0.092195392    0.448989749
    0.516613364    0.854100049    0.543978214
    0.326137185    0.616004765    0.638966560
    0.135660931    0.377909452    0.733955026
    0.945184648    0.139814138    0.828943431
    0.135661080    0.377909631    0.448989749
    0.945184767    0.139814258    0.543978214
    0.754708588    0.901718974    0.638966560
    0.564232290    0.663623750    0.733955026
    0.373756051    0.425528407    0.828943431
    0.278518260    0.806481123    0.448989749
    0.088041954    0.568385720    0.543978214
    0.897565722    0.330290496    0.638966560
    0.707089484    0.092195153    0.733955026
    0.516613185    0.854099870    0.828943431
    0.421375394    0.235052466    0.448989719
    0.230899081    0.996957183    0.543978155
    0.040422797    0.758861899    0.638966560
    0.849946618    0.520766556    0.733955026
    0.659470320    0.282671213    0.828943372
    0.873756111    0.425528347    0.900184751
    0.826137364    0.616004944    0.425242662
    0.635661125    0.377909601    0.520231068
    0.445184886    0.139814377    0.615219533
    0.254708529    0.901718915    0.710207939
    0.064232290    0.663623631    0.805196404
    0.016613245    0.854099810    0.900184751
    0.968994558    0.044576406    0.425242633
    0.778518260    0.806481063    0.520231068
    0.588042021    0.568385780    0.615219474
    0.397565663    0.330290377    0.710207880
    0.207089484    0.092195153    0.805196285
    0.445184529    0.139814019    0.900184751
    0.397565842    0.330290616    0.425242633
    0.207089588    0.092195272    0.520231068
    0.016613364    0.854099989    0.615219474
    0.826137006    0.616004586    0.710207880
    0.635660827    0.377909362    0.805196345
    0.588041663    0.568385482    0.900184751
    0.540422976    0.758862019    0.425242633
    0.349946737    0.520766735    0.520231068
    0.159470499    0.282671452    0.615219474
    0.968994200    0.044576049    0.710207939
    0.778517902    0.806480825    0.805196345
    0.730898917    0.996957004    0.900184751
    0.683280230    0.187433481    0.425242633
    0.492803931    0.949338198    0.520231068
    0.302327693    0.711242914    0.615219474
    0.111851357    0.473147541    0.710207880
    0.921375155    0.235052347    0.805196285
    0.159470245    0.282671213    0.900184751
    0.111851558    0.473147780    0.425242633
    0.921375275    0.235052466    0.520231068
    0.730899036    0.996957183    0.615219474
    0.540422678    0.758861780    0.710207880
    0.349946499    0.520766556    0.805196345
    0.302327454    0.711242735    0.900184751
    0.254708707    0.901719272    0.425242633
    0.064232446    0.663623929    0.520231068
    0.873756230    0.425528675    0.615219474
    0.683279872    0.187433243    0.710207880
    0.492803693    0.949338078    0.805196285
    0.635661185    0.377909720    0.448989779
    0.445184886    0.139814377    0.543978214
    0.254708648    0.901719093    0.638966620
    0.064232342    0.663623750    0.733955085
    0.873756051    0.425528347    0.828943491
    0.778518319    0.806481123    0.448989749
    0.588042080    0.568385839    0.543978155
    0.397565782    0.330290496    0.638966620
    0.207089543    0.092195153    0.733955026
    0.016613126    0.854099751    0.828943491
    0.921375453    0.235052586    0.448989749
    0.730899215    0.996957183    0.543978214
    0.540422857    0.758861899    0.638966560
    0.349946618    0.520766556    0.733955026
    0.159470275    0.282671213    0.828943491
    0.349946856    0.520766854    0.448989749
    0.159470588    0.282671511    0.543978214
    0.968994319    0.044576168    0.638966620
    0.778518021    0.806480885    0.733955085
    0.588041723    0.568385482    0.828943491
    0.492803931    0.949338198    0.448989749
    0.302327693    0.711242914    0.543978214
    0.111851424    0.473147631    0.638966620
    0.921375155    0.235052347    0.733955026
    0.730898798    0.996956825    0.828943491
    0.064232528    0.663623989    0.448989749
    0.873756289    0.425528705    0.543978214
    0.683280051    0.187433362    0.638966620
    0.492803693    0.949338019    0.733955085
    0.302327394    0.711242616    0.828943491
    0.207089677    0.092195392    0.448989749
    0.016613364    0.854100108    0.543978214
    0.826137185    0.616004825    0.638966620
    0.635660946    0.377909482    0.733955026
    0.445184588    0.139814138    0.828943491
