Si+C
    1.000000000
   16.293001175    0.000000000    0.000000000
  -10.862000465   12.144085884    0.000000000
    0.000000000    0.000000000    7.401784897
Si  C  
36     84
Direct
    0.982905626    0.641025126    0.000000002
    0.782905579    0.341025025    0.164069757
    0.582905412    0.041024935    0.328139514
    0.982905626    0.307691783    0.000000002
    0.782905579    0.007691715    0.164069757
    0.582905412    0.707691669    0.328139514
    0.982905626    0.974358499    0.000000002
    0.782905579    0.674358368    0.164069757
    0.582905412    0.374358296    0.328139514
    0.632905662    0.657691717    0.082034707
    0.432905585    0.357691616    0.246104479
    0.232905522    0.057691578    0.410174221
    0.632905662    0.324358463    0.082034707
    0.432905585    0.024358369    0.246104479
    0.232905522    0.724358320    0.410174221
    0.632905662    0.991025209    0.082034707
    0.432905585    0.691025138    0.246104479
    0.232905522    0.391025066    0.410174221
    0.482905626    0.807691753    0.000000000
    0.282905549    0.507691622    0.164069757
    0.082905442    0.207691610    0.328139514
    0.482905626    0.474358439    0.000000000
    0.282905549    0.174358353    0.164069757
    0.082905442    0.874358296    0.328139514
    0.482905626    0.141025141    0.000000000
    0.282905549    0.841025054    0.164069757
    0.082905442    0.541024983    0.328139514
    0.132905677    0.824358523    0.082034722
    0.932905555    0.524358392    0.246104479
    0.732905507    0.224358380    0.410174221
    0.132905677    0.491025209    0.082034722
    0.932905555    0.191025108    0.246104479
    0.732905507    0.891025126    0.410174221
    0.132905677    0.157691956    0.082034722
    0.932905555    0.857691884    0.246104479
    0.732905507    0.557691932    0.410174221
    0.895185173    0.034117699    0.570396423
    0.138042450    0.005546212    0.678148985
    0.380899668    0.976974666    0.785901487
    0.180899382    0.176974803    0.570396423
    0.423756599    0.148403302    0.678148985
    0.666613817    0.119831838    0.785901487
    0.466613650    0.319831908    0.570396423
    0.709470987    0.291260421    0.678148985
    0.952328205    0.262688965    0.785901487
    0.752328038    0.462689102    0.570396423
    0.995185256    0.434117615    0.678148985
    0.238042593    0.405546159    0.785901487
    0.038042307    0.605546176    0.570396423
    0.280899525    0.576974750    0.678148985
    0.523756742    0.548403263    0.785901487
    0.323756576    0.748403370    0.570396423
    0.566613913    0.719831884    0.678148985
    0.809471130    0.691260397    0.785901487
    0.609470844    0.891260505    0.570396423
    0.852328062    0.862688959    0.678148985
    0.095185280    0.834117532    0.785901487
    0.730899334    0.126974791    0.624272645
    0.973756671    0.098403320    0.732025087
    0.216613889    0.069831811    0.839777648
    0.016613483    0.269831926    0.624272585
    0.259470820    0.241260469    0.732025087
    0.502328038    0.212688953    0.839777708
    0.302327871    0.412689120    0.624272585
    0.545185089    0.384117633    0.732025087
    0.788042426    0.355546147    0.839777708
    0.588042259    0.555546224    0.624272585
    0.830899477    0.526974738    0.732025087
    0.073756814    0.498403341    0.839777708
    0.873756409    0.698403358    0.624272585
    0.116613746    0.669831872    0.732025087
    0.359470844    0.641260386    0.839777708
    0.159470797    0.841260493    0.624272645
    0.402328134    0.812688947    0.732025087
    0.645185351    0.784117520    0.839777648
    0.445184946    0.984117568    0.624272645
    0.688042164    0.955546141    0.732025087
    0.930899501    0.926974654    0.839777648
    0.538042426    0.105546243    0.570396423
    0.780899525    0.076974735    0.678148985
    0.023756862    0.048403312    0.785901487
    0.823756695    0.248403400    0.570396423
    0.066613913    0.219831884    0.678148985
    0.309471011    0.191260397    0.785901487
    0.109470844    0.391260535    0.570396423
    0.352328062    0.362689048    0.678148985
    0.595185280    0.334117562    0.785901487
    0.395185113    0.534117639    0.570396423
    0.638042450    0.505546153    0.678148985
    0.880899668    0.476974726    0.785901487
    0.680899382    0.676974773    0.570396423
    0.923756719    0.648403347    0.678148985
    0.166613817    0.619831800    0.785901487
    0.966613710    0.819831967    0.570396423
    0.209470987    0.791260540    0.678148985
    0.452328205    0.762689054    0.785901487
    0.252328038    0.962689102    0.570396423
    0.495185137    0.934117675    0.678148985
    0.738042593    0.905546188    0.785901487
    0.088042259    0.055546235    0.624272585
    0.330899596    0.026974678    0.732025087
    0.573756933    0.998403251    0.839777708
    0.373756409    0.198403388    0.624272585
    0.616613746    0.169831872    0.732025087
    0.859470963    0.141260430    0.839777648
    0.659470797    0.341260493    0.624272585
    0.902328134    0.312689066    0.732025146
    0.145185351    0.284117609    0.839777648
    0.945184946    0.484117657    0.624272585
    0.188042283    0.455546200    0.732025087
    0.430899501    0.426974684    0.839777648
    0.230899334    0.626974702    0.624272585
    0.473756790    0.598403215    0.732025087
    0.716614008    0.569831789    0.839777708
    0.516613722    0.769831896    0.624272585
    0.759470940    0.741260409    0.732025087
    0.002328277    0.712689042    0.839777708
    0.802327871    0.912689030    0.624272585
    0.045185208    0.884117603    0.732025087
    0.288042426    0.855546117    0.839777708
