Ge+Si                                   
   1.00000000000000     
     8.0013380049999991    0.0000000000000000    0.0000000000000000
     0.0000000000000000   16.0026760099999983    0.0000000000000000
     0.0000000000000000    0.0000000000000000   10.2725019450000001
   Ge   Si
    48    24
Direct
  0.0085417270000008  0.9957291480000023  0.0000000000000000
  0.2585417029999988  0.8707291480000023  0.2753856779999992
  0.5085417029999988  0.7457291480000023  0.5507714149999998
  0.5085417029999988  0.2457291190000035  0.0000000000000000
  0.7585416439999975  0.1207291329999975  0.2753856779999992
  0.0085415839999996  0.9957291480000023  0.5507714149999998
  0.0085417399999983  0.4957290890000010  0.0000000000000000
  0.2585417029999988  0.3707291190000035  0.2753856779999992
  0.5085417029999988  0.2457291190000035  0.5507714149999998
  0.5085417029999988  0.7457290890000010  0.0000000000000000
  0.7585416439999975  0.6207290890000010  0.2753856779999992
  0.0085417029999988  0.4957291190000035  0.5507714149999998
  0.0085417029999988  0.1207291560000030  0.1376928390000032
  0.2585417029999988  0.9957291480000023  0.4130785469999978
  0.5085417029999988  0.8707291480000023  0.6884643440000033
  0.5085417629999966  0.3707291190000035  0.1376928390000032
  0.7585417029999988  0.2457291480000023  0.4130785469999978
  0.0085417029999988  0.1207291329999975  0.6884643440000033
  0.0085415839999996  0.6207290890000010  0.1376928390000032
  0.2585415839999996  0.4957290890000010  0.4130785469999978
  0.5085415839999996  0.3707290589999985  0.6884643440000033
  0.5085417029999988  0.8707291480000023  0.1376928390000032
  0.7585417029999988  0.7457291480000023  0.4130785469999978
  0.0085417029999988  0.6207291480000023  0.6884643440000033
  0.5085417029999988  0.9957291480000023  0.0000000000000000
  0.7585416439999975  0.8707291480000023  0.2753856779999992
  0.0085415839999996  0.7457292080000002  0.5507714149999998
  0.0085417169999999  0.2457291329999975  0.0000000000000000
  0.2585417029999988  0.1207291329999975  0.2753856779999992
  0.5085417029999988  0.9957291480000023  0.5507714149999998
  0.5085417029999988  0.4957291480000023  0.0000000000000000
  0.7585417029999988  0.3707291480000023  0.2753856779999992
  0.0085417029999988  0.2457291630000000  0.5507714149999998
  0.0085417419999985  0.7457291480000023  0.0000000000000000
  0.2585416730000034  0.6207291480000023  0.2753856779999992
  0.5085417029999988  0.4957291480000023  0.5507714149999998
  0.5085417029999988  0.1207291329999975  0.1376928390000032
  0.7585417029999988  0.9957291480000023  0.4130785469999978
  0.0085417029999988  0.8707291480000023  0.6884643440000033
  0.0085417029999988  0.3707291190000035  0.1376928390000032
  0.2585415839999996  0.2457291190000035  0.4130785469999978
  0.5085417029999988  0.1207291110000028  0.6884643440000033
  0.5085417029999988  0.6207290890000010  0.1376928390000032
  0.7585416439999975  0.4957291190000035  0.4130785469999978
  0.0085417029999988  0.3707290890000010  0.6884643440000033
  0.0085415839999996  0.8707290890000010  0.1376928390000032
  0.2585415839999996  0.7457290890000010  0.4130785469999978
  0.5085415839999996  0.6207290890000010  0.6884643440000033
  0.0564859400000017  0.9121329780000025  0.6884643440000033
  0.3064860109999969  0.5232440229999966  0.7507715229999974
  0.5564860109999969  0.1343551280000028  0.8130785820000028
  0.8064860699999983  0.7454661129999991  0.8753857020000027
  0.0564861300000032  0.3565771580000003  0.9376929399999980
  0.3064862490000024  0.9676878450000004  0.9999999400000021
  0.8064860109999969  0.6621330380000003  0.6884643440000033
  0.0564860109999969  0.2732439939999978  0.7507715229999974
  0.3064860109999969  0.8843551280000028  0.8130785820000028
  0.5564862490000024  0.4954660530000012  0.8753857020000027
  0.8064861300000032  0.1065770390000012  0.9376928209999988
  0.0564863680000016  0.7176879639999996  0.9999999400000021
  0.3064860109999969  0.6621330380000003  0.6884643440000033
  0.5564860109999969  0.2732440229999966  0.7507715229999974
  0.8064860699999983  0.8843551280000028  0.8130785820000028
  0.0564861300000032  0.4954660530000012  0.8753857020000027
  0.3064861300000032  0.1065770390000012  0.9376928209999988
  0.5564862490000024  0.7176879639999996  0.9999999400000021
  0.5564859509999991  0.9121329780000025  0.6884643440000033
  0.8064859509999991  0.5232440229999966  0.7507715229999974
  0.0564860109999969  0.1343551280000028  0.8130785820000028
  0.3064860109999969  0.7454661129999991  0.8753857020000027
  0.5564863680000016  0.3565770390000012  0.9376928209999988
  0.8064862490000024  0.9676880840000024  0.9999999400000021
 
  0.00000000E+00  0.00000000E+00  0.00000000E+00
  0.00000000E+00  0.00000000E+00  0.00000000E+00
  0.00000000E+00  0.00000000E+00  0.00000000E+00
  0.00000000E+00  0.00000000E+00  0.00000000E+00
  0.00000000E+00  0.00000000E+00  0.00000000E+00
  0.00000000E+00  0.00000000E+00  0.00000000E+00
  0.00000000E+00  0.00000000E+00  0.00000000E+00
  0.00000000E+00  0.00000000E+00  0.00000000E+00
  0.00000000E+00  0.00000000E+00  0.00000000E+00
  0.00000000E+00  0.00000000E+00  0.00000000E+00
  0.00000000E+00  0.00000000E+00  0.00000000E+00
  0.00000000E+00  0.00000000E+00  0.00000000E+00
  0.00000000E+00  0.00000000E+00  0.00000000E+00
  0.00000000E+00  0.00000000E+00  0.00000000E+00
  0.00000000E+00  0.00000000E+00  0.00000000E+00
  0.00000000E+00  0.00000000E+00  0.00000000E+00
  0.00000000E+00  0.00000000E+00  0.00000000E+00
  0.00000000E+00  0.00000000E+00  0.00000000E+00
  0.00000000E+00  0.00000000E+00  0.00000000E+00
  0.00000000E+00  0.00000000E+00  0.00000000E+00
  0.00000000E+00  0.00000000E+00  0.00000000E+00
  0.00000000E+00  0.00000000E+00  0.00000000E+00
  0.00000000E+00  0.00000000E+00  0.00000000E+00
  0.00000000E+00  0.00000000E+00  0.00000000E+00
  0.00000000E+00  0.00000000E+00  0.00000000E+00
  0.00000000E+00  0.00000000E+00  0.00000000E+00
  0.00000000E+00  0.00000000E+00  0.00000000E+00
  0.00000000E+00  0.00000000E+00  0.00000000E+00
  0.00000000E+00  0.00000000E+00  0.00000000E+00
  0.00000000E+00  0.00000000E+00  0.00000000E+00
  0.00000000E+00  0.00000000E+00  0.00000000E+00
  0.00000000E+00  0.00000000E+00  0.00000000E+00
  0.00000000E+00  0.00000000E+00  0.00000000E+00
  0.00000000E+00  0.00000000E+00  0.00000000E+00
  0.00000000E+00  0.00000000E+00  0.00000000E+00
  0.00000000E+00  0.00000000E+00  0.00000000E+00
  0.00000000E+00  0.00000000E+00  0.00000000E+00
  0.00000000E+00  0.00000000E+00  0.00000000E+00
  0.00000000E+00  0.00000000E+00  0.00000000E+00
  0.00000000E+00  0.00000000E+00  0.00000000E+00
  0.00000000E+00  0.00000000E+00  0.00000000E+00
  0.00000000E+00  0.00000000E+00  0.00000000E+00
  0.00000000E+00  0.00000000E+00  0.00000000E+00
  0.00000000E+00  0.00000000E+00  0.00000000E+00
  0.00000000E+00  0.00000000E+00  0.00000000E+00
  0.00000000E+00  0.00000000E+00  0.00000000E+00
  0.00000000E+00  0.00000000E+00  0.00000000E+00
  0.00000000E+00  0.00000000E+00  0.00000000E+00
  0.00000000E+00  0.00000000E+00  0.00000000E+00
  0.00000000E+00  0.00000000E+00  0.00000000E+00
  0.00000000E+00  0.00000000E+00  0.00000000E+00
  0.00000000E+00  0.00000000E+00  0.00000000E+00
  0.00000000E+00  0.00000000E+00  0.00000000E+00
  0.00000000E+00  0.00000000E+00  0.00000000E+00
  0.00000000E+00  0.00000000E+00  0.00000000E+00
  0.00000000E+00  0.00000000E+00  0.00000000E+00
  0.00000000E+00  0.00000000E+00  0.00000000E+00
  0.00000000E+00  0.00000000E+00  0.00000000E+00
  0.00000000E+00  0.00000000E+00  0.00000000E+00
  0.00000000E+00  0.00000000E+00  0.00000000E+00
  0.00000000E+00  0.00000000E+00  0.00000000E+00
  0.00000000E+00  0.00000000E+00  0.00000000E+00
  0.00000000E+00  0.00000000E+00  0.00000000E+00
  0.00000000E+00  0.00000000E+00  0.00000000E+00
  0.00000000E+00  0.00000000E+00  0.00000000E+00
  0.00000000E+00  0.00000000E+00  0.00000000E+00
  0.00000000E+00  0.00000000E+00  0.00000000E+00
  0.00000000E+00  0.00000000E+00  0.00000000E+00
  0.00000000E+00  0.00000000E+00  0.00000000E+00
  0.00000000E+00  0.00000000E+00  0.00000000E+00
  0.00000000E+00  0.00000000E+00  0.00000000E+00
  0.00000000E+00  0.00000000E+00  0.00000000E+00
