Ge+Si
    1.000000000
    8.001338005    0.000000000    0.000000000
    0.000000000   16.002676010    0.000000000
    0.000000000    0.000000000   10.272501945
Ge  Si 
48     24
Direct
    0.008541727    0.995729148    0.000000000
    0.258541703    0.870729148    0.275385678
    0.508541703    0.745729148    0.550771415
    0.508541703    0.245729119    0.000000000
    0.758541644    0.120729133    0.275385678
    0.008541584    0.995729148    0.550771415
    0.008541740    0.495729089    0.000000000
    0.258541703    0.370729119    0.275385678
    0.508541703    0.245729119    0.550771415
    0.508541703    0.745729089    0.000000000
    0.758541644    0.620729089    0.275385678
    0.008541703    0.495729119    0.550771415
    0.008541703    0.120729156    0.137692839
    0.258541703    0.995729148    0.413078547
    0.508541703    0.870729148    0.688464344
    0.508541763    0.370729119    0.137692839
    0.758541703    0.245729148    0.413078547
    0.008541703    0.120729133    0.688464344
    0.008541584    0.620729089    0.137692839
    0.258541584    0.495729089    0.413078547
    0.508541584    0.370729059    0.688464344
    0.508541703    0.870729148    0.137692839
    0.758541703    0.745729148    0.413078547
    0.008541703    0.620729148    0.688464344
    0.508541703    0.995729148    0.000000000
    0.758541644    0.870729148    0.275385678
    0.008541584    0.745729208    0.550771415
    0.008541717    0.245729133    0.000000000
    0.258541703    0.120729133    0.275385678
    0.508541703    0.995729148    0.550771415
    0.508541703    0.495729148    0.000000000
    0.758541703    0.370729148    0.275385678
    0.008541703    0.245729163    0.550771415
    0.008541742    0.745729148    0.000000000
    0.258541673    0.620729148    0.275385678
    0.508541703    0.495729148    0.550771415
    0.508541703    0.120729133    0.137692839
    0.758541703    0.995729148    0.413078547
    0.008541703    0.870729148    0.688464344
    0.008541703    0.370729119    0.137692839
    0.258541584    0.245729119    0.413078547
    0.508541703    0.120729111    0.688464344
    0.508541703    0.620729089    0.137692839
    0.758541644    0.495729119    0.413078547
    0.008541703    0.370729089    0.688464344
    0.008541584    0.870729089    0.137692839
    0.258541584    0.745729089    0.413078547
    0.508541584    0.620729089    0.688464344
    0.056485940    0.912132978    0.688464344
    0.306486011    0.523244023    0.750771523
    0.556486011    0.134355128    0.813078582
    0.806486070    0.745466113    0.875385702
    0.056486130    0.356577158    0.937692940
    0.306486249    0.967687845    0.999999940
    0.806486011    0.662133038    0.688464344
    0.056486011    0.273243994    0.750771523
    0.306486011    0.884355128    0.813078582
    0.556486249    0.495466053    0.875385702
    0.806486130    0.106577039    0.937692821
    0.056486368    0.717687964    0.999999940
    0.306486011    0.662133038    0.688464344
    0.556486011    0.273244023    0.750771523
    0.806486070    0.884355128    0.813078582
    0.056486130    0.495466053    0.875385702
    0.306486130    0.106577039    0.937692821
    0.556486249    0.717687964    0.999999940
    0.556485951    0.912132978    0.688464344
    0.806485951    0.523244023    0.750771523
    0.056486011    0.134355128    0.813078582
    0.306486011    0.745466113    0.875385702
    0.556486368    0.356577039    0.937692821
    0.806486249    0.967688084    0.999999940
