Si+C                                    
   1.00000000000000     
    16.2930011750000006    0.0000000000000000    0.0000000000000000
   -10.8620004649999995   12.1440858840000008    0.0000000000000000
     0.0000000000000000    0.0000000000000000    8.1924037930000004
   Si   C 
    36    84
Direct
  0.9743584989999974  0.9829056259999973  0.0000000020000002
  0.6743584279999979  0.7829055790000012  0.1482359769999988
  0.3743584159999997  0.5829055310000015  0.2964719530000011
  0.3076917830000028  0.9829056259999973  0.0000000020000002
  0.0076917259999973  0.7829055790000012  0.1482359769999988
  0.7076916689999990  0.5829055310000015  0.2964719530000011
  0.6410250659999974  0.9829056259999973  0.0000000020000002
  0.3410250250000004  0.7829055790000012  0.1482359769999988
  0.0410249870000001  0.5829055310000015  0.2964719530000011
  0.1576919700000019  0.6329056020000010  0.0741178390000030
  0.8576919440000026  0.4329055250000025  0.2223538160000018
  0.5576919319999973  0.2329055069999981  0.3705897629999981
  0.4910252090000000  0.6329056020000010  0.0741178390000030
  0.1910251529999982  0.4329055250000025  0.2223538160000018
  0.8910251860000002  0.2329055069999981  0.3705897629999981
  0.8243584630000029  0.6329056020000010  0.0741178390000030
  0.5243583920000034  0.4329055250000025  0.2223538160000018
  0.2243584989999974  0.2329055069999981  0.3705897629999981
  0.1410251559999978  0.4829055960000019  0.0000000000000000
  0.8410251139999971  0.2829054890000009  0.1482359769999988
  0.5410251019999990  0.0829054339999971  0.2964719530000011
  0.4743584389999995  0.4829055960000019  0.0000000000000000
  0.1743583829999977  0.2829054890000009  0.1482359769999988
  0.8743583560000019  0.0829054339999971  0.2964719530000011
  0.8076916930000024  0.4829055960000019  0.0000000000000000
  0.5076916809999972  0.2829054890000009  0.1482359769999988
  0.2076916250000025  0.0829054339999971  0.2964719530000011
  0.9910252090000000  0.1329056619999989  0.0741178469999966
  0.6910251380000005  0.9329056139999992  0.2223538160000018
  0.3910251860000002  0.7329055670000031  0.3705897629999981
  0.3243584630000029  0.1329056619999989  0.0741178469999966
  0.0243584139999982  0.9329056139999992  0.2223538160000018
  0.7243584389999995  0.7329055670000031  0.3705897629999981
  0.6576916579999974  0.1329056619999989  0.0741178469999966
  0.3576916159999968  0.9329056139999992  0.2223538160000018
  0.0576916520000026  0.7329055670000031  0.3705897629999981
  0.7328225369999970  0.3158416750000015  0.7583101390000024
  0.9613939520000017  0.3729842899999980  0.5636027460000008
  0.8471082450000011  0.8444130419999993  0.6609565019999977
  0.5899653430000029  0.0301274059999983  0.7583101390000024
  0.8185368179999983  0.0872700210000019  0.5636027460000008
  0.7042510510000000  0.5586987730000033  0.6609565019999977
  0.4471081789999971  0.7444131370000022  0.7583101390000024
  0.6756796239999971  0.8015557530000024  0.5636027460000008
  0.5613938569999988  0.2729845049999966  0.6609565019999977
  0.3042511049999987  0.4586988690000027  0.7583101390000024
  0.5328225490000023  0.5158414839999992  0.5636027460000008
  0.4185368119999993  0.9872702360000005  0.6609565019999977
  0.1613939849999966  0.1729845999999995  0.7583101390000024
  0.3899654149999989  0.2301270959999968  0.5636027460000008
  0.2756796780000030  0.7015559669999973  0.6609565019999977
  0.0185368060000002  0.8872703310000034  0.7583101390000024
  0.2471082510000002  0.9444128869999986  0.5636027460000008
  0.1328225139999972  0.4158415790000021  0.6609565019999977
  0.8756797309999982  0.6015560629999968  0.7583101390000024
  0.1042511460000028  0.6586986180000025  0.5636027460000008
  0.9899654390000023  0.1301274300000017  0.6609565019999977
  0.7828226090000001  0.7658417219999976  0.8069869280000006
  0.0113940239999977  0.8229842189999985  0.6122795340000025
  0.8971083759999985  0.2944130899999990  0.7096332309999980
  0.6399654149999989  0.4801274539999980  0.8069869280000006
  0.8685367699999986  0.5372700690000016  0.6122795340000025
  0.7542510629999981  0.0086987019999967  0.7096332309999980
  0.4971083399999969  0.1944127080000015  0.8069869280000006
  0.7256796960000003  0.2515554430000009  0.6122795940000003
  0.6113940480000011  0.7229841950000022  0.7096332309999980
  0.3542511759999982  0.9086986780000004  0.8069869280000006
  0.5828225610000004  0.9658412929999969  0.6122795940000003
  0.4685368239999974  0.4372699259999990  0.7096332309999980
  0.2113939669999993  0.6229844089999972  0.8069869280000006
  0.4399654269999971  0.6801271439999965  0.6122795340000025
  0.3256796599999987  0.1515557769999987  0.7096332309999980
  0.0685369970000025  0.3372703790000031  0.8069869280000006
  0.2971083819999976  0.3944129939999996  0.6122795340000025
  0.1828226599999994  0.8658416270000018  0.7096332309999980
  0.9256796840000021  0.0515556340000032  0.8069869280000006
  0.1542511580000010  0.1086983679999989  0.6122795340000025
  0.0399653910000026  0.5801270010000010  0.7096332309999980
  0.8042510149999984  0.9586988690000027  0.7583101390000024
  0.0328226090000001  0.0158414839999992  0.5636027460000008
  0.9185367230000026  0.4872701170000013  0.6609565019999977
  0.6613938209999972  0.6729845999999995  0.7583101390000024
  0.8899652959999997  0.7301272150000031  0.5636028050000021
  0.7756795290000014  0.2015559669999973  0.6609565019999977
  0.5185367469999989  0.3872702119999971  0.7583101390000024
  0.7471082209999977  0.4444128270000007  0.5636027460000008
  0.6328225139999972  0.9158416989999978  0.6609565019999977
  0.3756796119999990  0.1015559430000010  0.7583101390000024
  0.6042511460000028  0.1586985590000012  0.5636027460000008
  0.4899653490000020  0.6301273110000025  0.6609565019999977
  0.2328225520000018  0.8158417940000007  0.7583101390000024
  0.4613939819999970  0.8729842899999980  0.5636027460000008
  0.3471082149999987  0.3444130419999993  0.6609565019999977
  0.0899653430000029  0.5301272869999991  0.7583101390000024
  0.3185368179999983  0.5872700210000019  0.5636028050000021
  0.2042511399999967  0.0586987730000033  0.6609565019999977
  0.9471082689999974  0.2444130180000030  0.7583101390000024
  0.1756796840000021  0.3015556340000032  0.5636028050000021
  0.0613940949999972  0.7729846240000029  0.6609565019999977
  0.8542511460000028  0.4086986780000004  0.8069869280000006
  0.0828226799999996  0.4658412929999969  0.6122795340000025
  0.9685368539999999  0.9372699259999990  0.7096332309999980
  0.7113940119999995  0.1229846479999992  0.8069869280000006
  0.9399653079999979  0.1801271439999965  0.6122795340000025
  0.8256796599999987  0.6515558959999979  0.7096332309999980
  0.5685368780000033  0.8372699020000027  0.8069869280000006
  0.7971082330000030  0.8944125180000029  0.6122795340000025
  0.6828225260000025  0.3658411500000014  0.7096332309999980
  0.4256797130000010  0.5515557530000024  0.8069869280000006
  0.6542511580000010  0.6086983679999989  0.6122795340000025
  0.5399655100000018  0.0801271200000002  0.7096332309999980
  0.2828225789999976  0.2658416029999984  0.8069869280000006
  0.5113940239999977  0.3229842189999985  0.6122795340000025
  0.3971083160000006  0.7944128509999970  0.7096332309999980
  0.1399654299999966  0.9801274539999980  0.8069869280000006
  0.3685368599999990  0.0372700690000016  0.6122795340000025
  0.2542511520000019  0.5086988210000030  0.7096332309999980
  0.9971084000000019  0.6944129470000036  0.8069869280000006
  0.2256798149999995  0.7515554430000009  0.6122795340000025
  0.1113941670000003  0.2229843140000014  0.7096331719999966
 
  0.00000000E+00  0.00000000E+00  0.00000000E+00
  0.00000000E+00  0.00000000E+00  0.00000000E+00
  0.00000000E+00  0.00000000E+00  0.00000000E+00
  0.00000000E+00  0.00000000E+00  0.00000000E+00
  0.00000000E+00  0.00000000E+00  0.00000000E+00
  0.00000000E+00  0.00000000E+00  0.00000000E+00
  0.00000000E+00  0.00000000E+00  0.00000000E+00
  0.00000000E+00  0.00000000E+00  0.00000000E+00
  0.00000000E+00  0.00000000E+00  0.00000000E+00
  0.00000000E+00  0.00000000E+00  0.00000000E+00
  0.00000000E+00  0.00000000E+00  0.00000000E+00
  0.00000000E+00  0.00000000E+00  0.00000000E+00
  0.00000000E+00  0.00000000E+00  0.00000000E+00
  0.00000000E+00  0.00000000E+00  0.00000000E+00
  0.00000000E+00  0.00000000E+00  0.00000000E+00
  0.00000000E+00  0.00000000E+00  0.00000000E+00
  0.00000000E+00  0.00000000E+00  0.00000000E+00
  0.00000000E+00  0.00000000E+00  0.00000000E+00
  0.00000000E+00  0.00000000E+00  0.00000000E+00
  0.00000000E+00  0.00000000E+00  0.00000000E+00
  0.00000000E+00  0.00000000E+00  0.00000000E+00
  0.00000000E+00  0.00000000E+00  0.00000000E+00
  0.00000000E+00  0.00000000E+00  0.00000000E+00
  0.00000000E+00  0.00000000E+00  0.00000000E+00
  0.00000000E+00  0.00000000E+00  0.00000000E+00
  0.00000000E+00  0.00000000E+00  0.00000000E+00
  0.00000000E+00  0.00000000E+00  0.00000000E+00
  0.00000000E+00  0.00000000E+00  0.00000000E+00
  0.00000000E+00  0.00000000E+00  0.00000000E+00
  0.00000000E+00  0.00000000E+00  0.00000000E+00
  0.00000000E+00  0.00000000E+00  0.00000000E+00
  0.00000000E+00  0.00000000E+00  0.00000000E+00
  0.00000000E+00  0.00000000E+00  0.00000000E+00
  0.00000000E+00  0.00000000E+00  0.00000000E+00
  0.00000000E+00  0.00000000E+00  0.00000000E+00
  0.00000000E+00  0.00000000E+00  0.00000000E+00
  0.00000000E+00  0.00000000E+00  0.00000000E+00
  0.00000000E+00  0.00000000E+00  0.00000000E+00
  0.00000000E+00  0.00000000E+00  0.00000000E+00
  0.00000000E+00  0.00000000E+00  0.00000000E+00
  0.00000000E+00  0.00000000E+00  0.00000000E+00
  0.00000000E+00  0.00000000E+00  0.00000000E+00
  0.00000000E+00  0.00000000E+00  0.00000000E+00
  0.00000000E+00  0.00000000E+00  0.00000000E+00
  0.00000000E+00  0.00000000E+00  0.00000000E+00
  0.00000000E+00  0.00000000E+00  0.00000000E+00
  0.00000000E+00  0.00000000E+00  0.00000000E+00
  0.00000000E+00  0.00000000E+00  0.00000000E+00
  0.00000000E+00  0.00000000E+00  0.00000000E+00
  0.00000000E+00  0.00000000E+00  0.00000000E+00
  0.00000000E+00  0.00000000E+00  0.00000000E+00
  0.00000000E+00  0.00000000E+00  0.00000000E+00
  0.00000000E+00  0.00000000E+00  0.00000000E+00
  0.00000000E+00  0.00000000E+00  0.00000000E+00
  0.00000000E+00  0.00000000E+00  0.00000000E+00
  0.00000000E+00  0.00000000E+00  0.00000000E+00
  0.00000000E+00  0.00000000E+00  0.00000000E+00
  0.00000000E+00  0.00000000E+00  0.00000000E+00
  0.00000000E+00  0.00000000E+00  0.00000000E+00
  0.00000000E+00  0.00000000E+00  0.00000000E+00
  0.00000000E+00  0.00000000E+00  0.00000000E+00
  0.00000000E+00  0.00000000E+00  0.00000000E+00
  0.00000000E+00  0.00000000E+00  0.00000000E+00
  0.00000000E+00  0.00000000E+00  0.00000000E+00
  0.00000000E+00  0.00000000E+00  0.00000000E+00
  0.00000000E+00  0.00000000E+00  0.00000000E+00
  0.00000000E+00  0.00000000E+00  0.00000000E+00
  0.00000000E+00  0.00000000E+00  0.00000000E+00
  0.00000000E+00  0.00000000E+00  0.00000000E+00
  0.00000000E+00  0.00000000E+00  0.00000000E+00
  0.00000000E+00  0.00000000E+00  0.00000000E+00
  0.00000000E+00  0.00000000E+00  0.00000000E+00
  0.00000000E+00  0.00000000E+00  0.00000000E+00
  0.00000000E+00  0.00000000E+00  0.00000000E+00
  0.00000000E+00  0.00000000E+00  0.00000000E+00
  0.00000000E+00  0.00000000E+00  0.00000000E+00
  0.00000000E+00  0.00000000E+00  0.00000000E+00
  0.00000000E+00  0.00000000E+00  0.00000000E+00
  0.00000000E+00  0.00000000E+00  0.00000000E+00
  0.00000000E+00  0.00000000E+00  0.00000000E+00
  0.00000000E+00  0.00000000E+00  0.00000000E+00
  0.00000000E+00  0.00000000E+00  0.00000000E+00
  0.00000000E+00  0.00000000E+00  0.00000000E+00
  0.00000000E+00  0.00000000E+00  0.00000000E+00
  0.00000000E+00  0.00000000E+00  0.00000000E+00
  0.00000000E+00  0.00000000E+00  0.00000000E+00
  0.00000000E+00  0.00000000E+00  0.00000000E+00
  0.00000000E+00  0.00000000E+00  0.00000000E+00
  0.00000000E+00  0.00000000E+00  0.00000000E+00
  0.00000000E+00  0.00000000E+00  0.00000000E+00
  0.00000000E+00  0.00000000E+00  0.00000000E+00
  0.00000000E+00  0.00000000E+00  0.00000000E+00
  0.00000000E+00  0.00000000E+00  0.00000000E+00
  0.00000000E+00  0.00000000E+00  0.00000000E+00
  0.00000000E+00  0.00000000E+00  0.00000000E+00
  0.00000000E+00  0.00000000E+00  0.00000000E+00
  0.00000000E+00  0.00000000E+00  0.00000000E+00
  0.00000000E+00  0.00000000E+00  0.00000000E+00
  0.00000000E+00  0.00000000E+00  0.00000000E+00
  0.00000000E+00  0.00000000E+00  0.00000000E+00
  0.00000000E+00  0.00000000E+00  0.00000000E+00
  0.00000000E+00  0.00000000E+00  0.00000000E+00
  0.00000000E+00  0.00000000E+00  0.00000000E+00
  0.00000000E+00  0.00000000E+00  0.00000000E+00
  0.00000000E+00  0.00000000E+00  0.00000000E+00
  0.00000000E+00  0.00000000E+00  0.00000000E+00
  0.00000000E+00  0.00000000E+00  0.00000000E+00
  0.00000000E+00  0.00000000E+00  0.00000000E+00
  0.00000000E+00  0.00000000E+00  0.00000000E+00
  0.00000000E+00  0.00000000E+00  0.00000000E+00
  0.00000000E+00  0.00000000E+00  0.00000000E+00
  0.00000000E+00  0.00000000E+00  0.00000000E+00
  0.00000000E+00  0.00000000E+00  0.00000000E+00
  0.00000000E+00  0.00000000E+00  0.00000000E+00
  0.00000000E+00  0.00000000E+00  0.00000000E+00
  0.00000000E+00  0.00000000E+00  0.00000000E+00
  0.00000000E+00  0.00000000E+00  0.00000000E+00
  0.00000000E+00  0.00000000E+00  0.00000000E+00
  0.00000000E+00  0.00000000E+00  0.00000000E+00
  0.00000000E+00  0.00000000E+00  0.00000000E+00
