Si+C
    1.000000000
   16.293001175    0.000000000    0.000000000
  -10.862000465   12.144085884    0.000000000
    0.000000000    0.000000000    8.192403793
Si  C  
36     84
Direct
    0.974358499    0.982905626    0.000000002
    0.674358428    0.782905579    0.148235977
    0.374358416    0.582905531    0.296471953
    0.307691783    0.982905626    0.000000002
    0.007691726    0.782905579    0.148235977
    0.707691669    0.582905531    0.296471953
    0.641025066    0.982905626    0.000000002
    0.341025025    0.782905579    0.148235977
    0.041024987    0.582905531    0.296471953
    0.157691970    0.632905602    0.074117839
    0.857691944    0.432905525    0.222353816
    0.557691932    0.232905507    0.370589763
    0.491025209    0.632905602    0.074117839
    0.191025153    0.432905525    0.222353816
    0.891025186    0.232905507    0.370589763
    0.824358463    0.632905602    0.074117839
    0.524358392    0.432905525    0.222353816
    0.224358499    0.232905507    0.370589763
    0.141025156    0.482905596    0.000000000
    0.841025114    0.282905489    0.148235977
    0.541025102    0.082905434    0.296471953
    0.474358439    0.482905596    0.000000000
    0.174358383    0.282905489    0.148235977
    0.874358356    0.082905434    0.296471953
    0.807691693    0.482905596    0.000000000
    0.507691681    0.282905489    0.148235977
    0.207691625    0.082905434    0.296471953
    0.991025209    0.132905662    0.074117847
    0.691025138    0.932905614    0.222353816
    0.391025186    0.732905567    0.370589763
    0.324358463    0.132905662    0.074117847
    0.024358414    0.932905614    0.222353816
    0.724358439    0.732905567    0.370589763
    0.657691658    0.132905662    0.074117847
    0.357691616    0.932905614    0.222353816
    0.057691652    0.732905567    0.370589763
    0.732822537    0.315841675    0.758310139
    0.961393952    0.372984290    0.563602746
    0.847108245    0.844413042    0.660956502
    0.589965343    0.030127406    0.758310139
    0.818536818    0.087270021    0.563602746
    0.704251051    0.558698773    0.660956502
    0.447108179    0.744413137    0.758310139
    0.675679624    0.801555753    0.563602746
    0.561393857    0.272984505    0.660956502
    0.304251105    0.458698869    0.758310139
    0.532822549    0.515841484    0.563602746
    0.418536812    0.987270236    0.660956502
    0.161393985    0.172984600    0.758310139
    0.389965415    0.230127096    0.563602746
    0.275679678    0.701555967    0.660956502
    0.018536806    0.887270331    0.758310139
    0.247108251    0.944412887    0.563602746
    0.132822514    0.415841579    0.660956502
    0.875679731    0.601556063    0.758310139
    0.104251146    0.658698618    0.563602746
    0.989965439    0.130127430    0.660956502
    0.782822609    0.765841722    0.806986928
    0.011394024    0.822984219    0.612279534
    0.897108376    0.294413090    0.709633231
    0.639965415    0.480127454    0.806986928
    0.868536770    0.537270069    0.612279534
    0.754251063    0.008698702    0.709633231
    0.497108340    0.194412708    0.806986928
    0.725679696    0.251555443    0.612279594
    0.611394048    0.722984195    0.709633231
    0.354251176    0.908698678    0.806986928
    0.582822561    0.965841293    0.612279594
    0.468536824    0.437269926    0.709633231
    0.211393967    0.622984409    0.806986928
    0.439965427    0.680127144    0.612279534
    0.325679660    0.151555777    0.709633231
    0.068536997    0.337270379    0.806986928
    0.297108382    0.394412994    0.612279534
    0.182822660    0.865841627    0.709633231
    0.925679684    0.051555634    0.806986928
    0.154251158    0.108698368    0.612279534
    0.039965391    0.580127001    0.709633231
    0.804251015    0.958698869    0.758310139
    0.032822609    0.015841484    0.563602746
    0.918536723    0.487270117    0.660956502
    0.661393821    0.672984600    0.758310139
    0.889965296    0.730127215    0.563602805
    0.775679529    0.201555967    0.660956502
    0.518536747    0.387270212    0.758310139
    0.747108221    0.444412827    0.563602746
    0.632822514    0.915841699    0.660956502
    0.375679612    0.101555943    0.758310139
    0.604251146    0.158698559    0.563602746
    0.489965349    0.630127311    0.660956502
    0.232822552    0.815841794    0.758310139
    0.461393982    0.872984290    0.563602746
    0.347108215    0.344413042    0.660956502
    0.089965343    0.530127287    0.758310139
    0.318536818    0.587270021    0.563602805
    0.204251140    0.058698773    0.660956502
    0.947108269    0.244413018    0.758310139
    0.175679684    0.301555634    0.563602805
    0.061394095    0.772984624    0.660956502
    0.854251146    0.408698678    0.806986928
    0.082822680    0.465841293    0.612279534
    0.968536854    0.937269926    0.709633231
    0.711394012    0.122984648    0.806986928
    0.939965308    0.180127144    0.612279534
    0.825679660    0.651555896    0.709633231
    0.568536878    0.837269902    0.806986928
    0.797108233    0.894412518    0.612279534
    0.682822526    0.365841150    0.709633231
    0.425679713    0.551555753    0.806986928
    0.654251158    0.608698368    0.612279534
    0.539965510    0.080127120    0.709633231
    0.282822579    0.265841603    0.806986928
    0.511394024    0.322984219    0.612279534
    0.397108316    0.794412851    0.709633231
    0.139965430    0.980127454    0.806986928
    0.368536860    0.037270069    0.612279534
    0.254251152    0.508698821    0.709633231
    0.997108400    0.694412947    0.806986928
    0.225679815    0.751555443    0.612279534
    0.111394167    0.222984314    0.709633172
