Automatic KPOINTS generated
0
Gamma
3 2 3
0 0 0
