Si+C
    1.000000000
   13.303179741    0.000000000    0.000000000
    6.651589394   14.873406410    0.000000000
    0.000000000    0.000000000    5.029923916
Si  C  
36     84
Direct
    0.982905626    0.658119500    0.000000008
    0.782905579    0.558119297    0.241436884
    0.582905412    0.458119094    0.482873768
    0.982905626    0.324786127    0.000000008
    0.782905579    0.224785969    0.241436884
    0.582905412    0.124785803    0.482873768
    0.982905626    0.991452813    0.000000008
    0.782905579    0.891452670    0.241436884
    0.582905412    0.791452527    0.482873768
    0.632905662    0.691452682    0.120718181
    0.432905585    0.591452479    0.362155110
    0.232905522    0.491452426    0.603591919
    0.632905662    0.358119428    0.120718181
    0.432905585    0.258119285    0.362155110
    0.232905522    0.158119142    0.603591919
    0.632905662    0.024786137    0.120718181
    0.432905585    0.924785972    0.362155110
    0.232905522    0.824785829    0.603591919
    0.482905626    0.658119500    0.000000000
    0.282905549    0.558119297    0.241436884
    0.082905442    0.458119094    0.482873768
    0.482905626    0.324786127    0.000000000
    0.282905549    0.224785954    0.241436884
    0.082905442    0.124785811    0.482873768
    0.482905626    0.991452813    0.000000000
    0.282905549    0.891452670    0.241436884
    0.082905442    0.791452527    0.482873768
    0.132905677    0.691452742    0.120718211
    0.932905555    0.591452479    0.362155110
    0.732905507    0.491452396    0.603591919
    0.132905677    0.358119488    0.120718211
    0.932905555    0.258119285    0.362155110
    0.732905507    0.158119127    0.603591919
    0.132905677    0.024786137    0.120718211
    0.932905555    0.924785972    0.362155110
    0.732905507    0.824785829    0.603591919
    0.997080624    0.027734149    0.603591919
    0.968509018    0.299162775    0.762155294
    0.939937472    0.570591390    0.920718551
    0.139937744    0.170591295    0.603591919
    0.111366190    0.442019910    0.762155294
    0.082794659    0.713448584    0.920718551
    0.282794893    0.313448459    0.603591919
    0.254223317    0.584877074    0.762155294
    0.225651801    0.856305778    0.920718551
    0.425652027    0.456305593    0.603591919
    0.397080481    0.727734268    0.762155294
    0.368508935    0.999162912    0.920718551
    0.568509161    0.599162757    0.603591919
    0.539937556    0.870591342    0.762155294
    0.511366010    0.142019987    0.920718551
    0.711366296    0.742019832    0.603591919
    0.682794750    0.013448477    0.762155294
    0.654223204    0.284877062    0.920718551
    0.854223490    0.884877086    0.603591919
    0.825651944    0.156305671    0.762155294
    0.797080278    0.427734256    0.920718551
    0.089937784    0.770591140    0.682873487
    0.061366241    0.042019725    0.841436744
    0.032794744    0.313448429    1.000000000
    0.232794881    0.913448393    0.682873487
    0.204223335    0.184877038    0.841436744
    0.175651774    0.456305742    1.000000000
    0.375652045    0.056305528    0.682873487
    0.347080469    0.327734232    0.841436744
    0.318508863    0.599162817    0.999999881
    0.518509150    0.199162588    0.682873487
    0.489937633    0.470591247    0.841436744
    0.461365998    0.742019773    0.999999881
    0.661366284    0.342019886    0.682873487
    0.632794738    0.613448501    0.841436744
    0.604223192    0.884877145    0.999999881
    0.804223418    0.484876990    0.682873487
    0.775651872    0.756305635    0.841436744
    0.747080386    0.027734280    1.000000000
    0.947080612    0.627734125    0.682873487
    0.918509126    0.899162769    0.841436744
    0.889937460    0.170591235    0.999999881
    0.068509139    0.599162698    0.603591919
    0.039937619    0.870591342    0.762155294
    0.011366037    0.142019987    0.920718551
    0.211366281    0.742019832    0.603591919
    0.182794750    0.013448477    0.762155294
    0.154223263    0.284877181    0.920718551
    0.354223490    0.884876966    0.603591919
    0.325651973    0.156305671    0.762155294
    0.297080338    0.427734256    0.920718431
    0.497080624    0.027734149    0.603591919
    0.468509018    0.299162775    0.762155294
    0.439937502    0.570591390    0.920718551
    0.639937758    0.170591235    0.603591919
    0.611366212    0.442019880    0.762155294
    0.582794666    0.713448524    0.920718551
    0.782794952    0.313448459    0.603591919
    0.754223347    0.584877074    0.762155294
    0.725651860    0.856305718    0.920718551
    0.925652087    0.456305563    0.603591919
    0.897080481    0.727734208    0.762155294
    0.868508935    0.999162793    0.920718551
    0.018509172    0.199162617    0.682873487
    0.989937663    0.470591247    0.841436744
    0.961366057    0.742019892    0.999999881
    0.161366329    0.342019677    0.682873487
    0.132794783    0.613448322    0.841436744
    0.104223244    0.884876907    0.999999881
    0.304223448    0.484876961    0.682873487
    0.275651902    0.756305575    0.841436744
    0.247080326    0.027734160    1.000000000
    0.447080612    0.627734065    0.682873487
    0.418509036    0.899162650    0.841436744
    0.389937520    0.170591235    1.000000000
    0.589937687    0.770591080    0.682873487
    0.561366200    0.042019725    0.841436744
    0.532794654    0.313448429    1.000000000
    0.732794821    0.913448334    0.682873487
    0.704223275    0.184877038    0.841436744
    0.675651729    0.456305504    1.000000000
    0.875652015    0.056305408    0.682873487
    0.847080410    0.327733994    0.841436744
    0.818508804    0.599162579    0.999999881
