Ge+Si
    1.000000000
    8.001338005    0.000000000    0.000000000
    0.000000000   16.002676010    0.000000000
    0.000000000    0.000000000   10.272500992
Ge  Si 
48     24
Direct
    0.991458297    0.995729148    0.000000000
    0.741458297    0.870729148    0.275385708
    0.491458297    0.745729148    0.550771415
    0.991458237    0.495729089    0.000000000
    0.741458297    0.370729119    0.275385708
    0.491458297    0.245729119    0.550771415
    0.491458237    0.245729119    0.000000000
    0.241458267    0.120729133    0.275385708
    0.991458297    0.995729148    0.550771415
    0.491458237    0.745729089    0.000000000
    0.241458282    0.620729089    0.275385708
    0.991458237    0.495729089    0.550771415
    0.241458282    0.995729148    0.137692854
    0.991458297    0.870729148    0.413078576
    0.741458297    0.745729148    0.688464344
    0.241458237    0.495729089    0.137692854
    0.991458237    0.370729089    0.413078576
    0.741458237    0.245729089    0.688464344
    0.741458297    0.245729148    0.137692854
    0.491458297    0.120729148    0.413078576
    0.241458282    0.995729148    0.688464344
    0.741458297    0.745729089    0.137692854
    0.491458267    0.620729089    0.413078576
    0.241458267    0.495729119    0.688464344
    0.991458297    0.245729133    0.000000000
    0.741458297    0.120729133    0.275385708
    0.491458297    0.995729148    0.550771415
    0.491458267    0.995729148    0.000000000
    0.241458267    0.870729148    0.275385708
    0.991458297    0.745729148    0.550771415
    0.991458237    0.745729148    0.000000000
    0.741458297    0.620729148    0.275385708
    0.491458297    0.495729148    0.550771415
    0.491458267    0.495729119    0.000000000
    0.241458312    0.370729148    0.275385708
    0.991458297    0.245729148    0.550771415
    0.241458282    0.245729119    0.137692854
    0.991458297    0.120729133    0.413078576
    0.741458297    0.995729148    0.688464344
    0.741458237    0.995729148    0.137692854
    0.491458267    0.870729148    0.413078576
    0.241458252    0.745729089    0.688464344
    0.241458282    0.745729089    0.137692854
    0.991458297    0.620729089    0.413078576
    0.741458297    0.495729089    0.688464344
    0.741458237    0.495729089    0.137692854
    0.491458267    0.370729119    0.413078576
    0.241458252    0.245729089    0.688464344
    0.943514049    0.912132978    0.688464284
    0.693513989    0.523244023    0.750771523
    0.443513989    0.134355128    0.813078642
    0.193513930    0.745466113    0.875385642
    0.943513870    0.356577158    0.937692881
    0.693513751    0.967687845    1.000000000
    0.193514079    0.662133038    0.688464284
    0.943514049    0.273244023    0.750771523
    0.693514049    0.884355128    0.813078642
    0.443513870    0.495466053    0.875385761
    0.193513811    0.106577039    0.937692761
    0.943513751    0.717687964    1.000000119
    0.693514168    0.662133038    0.688464284
    0.443514049    0.273243994    0.750771523
    0.193514034    0.884355068    0.813078642
    0.943513989    0.495466053    0.875385761
    0.693513870    0.106577039    0.937692761
    0.443513811    0.717687964    1.000000000
    0.443514079    0.912132978    0.688464284
    0.193513989    0.523244023    0.750771523
    0.943513989    0.134355128    0.813078642
    0.693513989    0.745466113    0.875385642
    0.443513930    0.356577039    0.937692881
    0.193513691    0.967688084    1.000000119
