Si+Ge
    1.000000000
    5.431000233    0.000000000    0.000000000
    0.000000000   16.293001175    0.000000000
    0.000000000    0.000000000   20.724849701
Si  Ge 
36     48
Direct
    0.017796859    0.666666746    0.000000000
    0.517796874    0.666666746    0.131026298
    0.017796874    0.666666746    0.262052596
    0.017796859    0.333333373    0.000000000
    0.517796874    0.333333373    0.131026298
    0.017796874    0.333333373    0.262052596
    0.017796859    0.000000000    0.000000000
    0.517796874    0.000000000    0.131026298
    0.017796874    0.000000000    0.262052596
    0.267796874    0.916666746    0.065513149
    0.767796934    0.916666746    0.196539462
    0.267796993    0.916666746    0.327565730
    0.267796874    0.583333433    0.065513149
    0.767796934    0.583333433    0.196539462
    0.267796993    0.583333433    0.327565730
    0.267796874    0.250000000    0.065513149
    0.767796934    0.250000000    0.196539462
    0.267796993    0.250000000    0.327565730
    0.517796874    0.833333313    0.000000000
    0.017796874    0.833333313    0.131026298
    0.517796993    0.833333313    0.262052596
    0.517796874    0.500000000    0.000000000
    0.017796874    0.500000000    0.131026298
    0.517796993    0.500000000    0.262052596
    0.517796874    0.166666687    0.000000000
    0.017796874    0.166666687    0.131026298
    0.517796993    0.166666687    0.262052596
    0.767796934    0.750000060    0.065513149
    0.267796874    0.750000060    0.196539462
    0.767796993    0.750000060    0.327565730
    0.767796934    0.416666687    0.065513149
    0.267796874    0.416666687    0.196539462
    0.767796993    0.416666687    0.327565730
    0.767796934    0.083333351    0.065513149
    0.267796874    0.083333351    0.196539462
    0.767796993    0.083333351    0.327565730
    0.530372560    0.548586726    0.422486275
    0.030372620    0.173586726    0.519004941
    0.530372560    0.798586726    0.615523577
    0.030372381    0.423586845    0.712042212
    0.530372679    0.048586726    0.808560908
    0.030372620    0.673586726    0.905079603
    0.530372560    0.048586726    0.422486275
    0.030372620    0.673586726    0.519005001
    0.530372560    0.298586726    0.615523577
    0.030372381    0.923586965    0.712042212
    0.530372679    0.548586726    0.808560908
    0.030372620    0.173586726    0.905079484
    0.530372560    0.798586726    0.422486275
    0.030372620    0.423586726    0.519004941
    0.530372560    0.048586726    0.615523577
    0.030372381    0.673586845    0.712042272
    0.530372679    0.298586786    0.808560908
    0.030372620    0.923586726    0.905079603
    0.530372560    0.298586726    0.422486275
    0.030372620    0.923586726    0.519004941
    0.530372560    0.548586726    0.615523577
    0.030372381    0.173586845    0.712042272
    0.530372679    0.798586845    0.808560908
    0.030372620    0.423586726    0.905079484
    0.280372620    0.673586786    0.422486275
    0.780372560    0.298586756    0.519004941
    0.280372620    0.923586726    0.615523577
    0.780372441    0.548586845    0.712042212
    0.280372620    0.173586786    0.808560908
    0.780372441    0.798586726    0.905079603
    0.280372620    0.173586726    0.422486275
    0.780372560    0.798586726    0.519004941
    0.280372620    0.423586726    0.615523577
    0.780372441    0.048586845    0.712042272
    0.280372620    0.673586845    0.808560908
    0.780372441    0.298586607    0.905079484
    0.280372620    0.923586786    0.422486246
    0.780372560    0.548586786    0.519004941
    0.280372620    0.173586756    0.615523577
    0.780372441    0.798586905    0.712042212
    0.280372620    0.423586845    0.808560908
    0.780372441    0.048586726    0.905079484
    0.280372620    0.423586726    0.422486275
    0.780372560    0.048586726    0.519005001
    0.280372620    0.673586726    0.615523577
    0.780372441    0.298586845    0.712042272
    0.280372620    0.923586726    0.808560908
    0.780372441    0.548586726    0.905079484
