Si Ge                                   
   1.00000000000000     
     6.8117344406037601    0.0458499962087173    0.1051454283419008
     1.1606336124445487    3.8493862115533313    0.0000000000000000
     0.2197985522368067   -0.0662717570211654   16.2162510741766717
   Si   Ge
    10    10
Direct
  0.9293411039159722  0.0580567207692872  0.0109417117917495
  0.9363385498212246  0.5545579978166610  0.0939896251985086
  0.5690334463697563  0.7382105495423954  0.0981169943589277
  0.5001118094264760  0.2726713680140352  0.1785383782557539
  0.1414206466063758  0.4520169494240820  0.2104261646682298
  0.0403975352118042  0.0025285051213712  0.2792924500503891
  0.6817063723917036  0.1818740865314180  0.3111802364628651
  0.6127847354484307  0.7163349050030579  0.3916016203596911
  0.2454796319969555  0.8999874567287922  0.3957289895201032
  0.2524770779022076  0.3964887337761659  0.4787769029268624
  0.8986008683515716  0.0734268385514877  0.4860639886514342
  0.9524691843524938  0.5464926805510266  0.5819552196860572
  0.5480644661455580  0.7486950396544942  0.5611278582713221
  0.5315776778166617  0.2569384338189425  0.6671948360062327
  0.1563722467781496  0.4445411493381951  0.7061470947469518
  0.0254459350400302  0.0100043052072583  0.7835715199716601
  0.6502405040015182  0.1976070207265107  0.8225237787123791
  0.6337537156726289  0.7058504148909590  0.9285907564472969
  0.2293489974656860  0.9080527739944267  0.9077633950325618
  0.2832173134666086  0.3811186159939656  0.0036546260671775
 
  0.00000000E+00  0.00000000E+00  0.00000000E+00
  0.00000000E+00  0.00000000E+00  0.00000000E+00
  0.00000000E+00  0.00000000E+00  0.00000000E+00
  0.00000000E+00  0.00000000E+00  0.00000000E+00
  0.00000000E+00  0.00000000E+00  0.00000000E+00
  0.00000000E+00  0.00000000E+00  0.00000000E+00
  0.00000000E+00  0.00000000E+00  0.00000000E+00
  0.00000000E+00  0.00000000E+00  0.00000000E+00
  0.00000000E+00  0.00000000E+00  0.00000000E+00
  0.00000000E+00  0.00000000E+00  0.00000000E+00
  0.00000000E+00  0.00000000E+00  0.00000000E+00
  0.00000000E+00  0.00000000E+00  0.00000000E+00
  0.00000000E+00  0.00000000E+00  0.00000000E+00
  0.00000000E+00  0.00000000E+00  0.00000000E+00
  0.00000000E+00  0.00000000E+00  0.00000000E+00
  0.00000000E+00  0.00000000E+00  0.00000000E+00
  0.00000000E+00  0.00000000E+00  0.00000000E+00
  0.00000000E+00  0.00000000E+00  0.00000000E+00
  0.00000000E+00  0.00000000E+00  0.00000000E+00
  0.00000000E+00  0.00000000E+00  0.00000000E+00
