Si Ge
 1.0000000000000000
     6.7899855669949698    0.0000000000000000    0.0000000000000000
     1.1316642611658283    3.7533057429418140    0.0000000000000000
     0.0000000000000000    0.0000000000000000   15.8799994962216537
 Si  Ge 
  10  10
Cartesian
  0.3086357075906804  0.0000000000000002  0.0000000000000000
  7.0986212745856507  2.0472576779682630  1.2279049507929420
  4.8352927522539924  2.7296769039576825  1.6372066010572561
  3.7036284910881658  1.0236288389841313  2.8651115518501986
  1.4402999687565088  1.7060480649735512  3.2744132021145123
  1.4402999687565083  3.7533057429418140  4.5023181529074545
  4.8352927522539924  0.6824192259894203  4.9116198031717682
  4.8352927522539941  2.7296769039576834  6.1395247539647109
  2.5719642299223371  3.4120961299471020  6.5488264042290245
  1.4402999687565095  1.7060480649735512  7.7767313550219672
  0.3086357075906812  0.0000000000000002  7.7767313550219672
  7.0986212745856498  2.0472576779682621  9.0561947457377077
  4.8352927522539932  2.7296769039576834  9.4826825426429533
  3.7036284910881658  1.0236288389841313 10.7621459333586937
  1.4402999687565095  1.7060480649735517 11.1886337302639411
  1.4402999687565108  3.7533057429418140 12.4680971209796798
  4.8352927522539950  0.6824192259894200 12.8945849178849272
  4.8352927522539959  2.7296769039576825 14.1740483086006677
  2.5719642299223380  3.4120961299471029 14.6005361055059133
  1.4402999687565101  1.7060480649735510 15.8799994962216537
