Ge+Si                                   
   1.00000000000000     
    16.9734001160000005    0.0000000000000000    0.0000000000000000
     0.0000000000000000   16.9734001160000005    0.0000000000000000
     0.0000000000000000    0.0000000000000000   17.8610000609999986
   Ge   Si
   108   120
Direct
  0.9943054909999987  0.6666665670000000  0.0000000000000000
  0.8276388649999973  0.6666665670000000  0.1583841739999983
  0.6609721179999966  0.6666665670000000  0.3167683779999990
  0.9943054909999987  0.3333332839999983  0.0000000000000000
  0.8276388649999973  0.3333332839999983  0.1583841739999983
  0.6609721179999966  0.3333332839999983  0.3167683779999990
  0.9943054909999987  0.0000000000000000  0.0000000000000000
  0.8276388649999973  0.0000000000000000  0.1583841739999983
  0.6609721179999966  0.0000000000000000  0.3167683779999990
  0.3276388049999994  0.6666665670000000  0.0000000000000000
  0.1609721479999990  0.6666665670000000  0.1583841739999983
  0.9943054319999973  0.6666665670000000  0.3167683779999990
  0.3276388049999994  0.3333332839999983  0.0000000000000000
  0.1609721479999990  0.3333332839999983  0.1583841739999983
  0.9943054319999973  0.3333332839999983  0.3167683779999990
  0.3276388049999994  0.0000000000000000  0.0000000000000000
  0.1609721479999990  0.0000000000000000  0.1583841739999983
  0.9943054319999973  0.0000000000000000  0.3167683779999990
  0.6609721179999966  0.6666665670000000  0.0000000000000000
  0.4943054319999973  0.6666665670000000  0.1583841739999983
  0.3276387450000016  0.6666665670000000  0.3167683779999990
  0.6609721179999966  0.3333332839999983  0.0000000000000000
  0.4943054319999973  0.3333332839999983  0.1583841739999983
  0.3276387450000016  0.3333332839999983  0.3167683779999990
  0.6609721179999966  0.0000000000000000  0.0000000000000000
  0.4943054319999973  0.0000000000000000  0.1583841739999983
  0.3276387450000016  0.0000000000000000  0.3167683779999990
  0.0776388419999989  0.9166665670000000  0.0791920950000033
  0.9109721179999966  0.9166665670000000  0.2375762910000034
  0.7443054909999987  0.9166665670000000  0.3959604799999994
  0.0776388419999989  0.5833333129999971  0.0791920950000033
  0.9109721179999966  0.5833333129999971  0.2375762910000034
  0.7443054909999987  0.5833333129999971  0.3959604799999994
  0.0776388419999989  0.2499999549999998  0.0791920950000033
  0.9109721179999966  0.2499999549999998  0.2375762910000034
  0.7443054909999987  0.2499999549999998  0.3959604799999994
  0.4109720889999977  0.9166665670000000  0.0791920950000033
  0.2443054169999996  0.9166665670000000  0.2375762910000034
  0.0776387229999997  0.9166665670000000  0.3959604799999994
  0.4109720889999977  0.5833333129999971  0.0791920950000033
  0.2443054169999996  0.5833333129999971  0.2375762910000034
  0.0776387229999997  0.5833333129999971  0.3959604799999994
  0.4109720889999977  0.2499999549999998  0.0791920950000033
  0.2443054169999996  0.2499999549999998  0.2375762910000034
  0.0776387229999997  0.2499999549999998  0.3959604799999994
  0.7443054909999987  0.9166665670000000  0.0791920950000033
  0.5776387450000016  0.9166665670000000  0.2375762910000034
  0.4109720590000023  0.9166665670000000  0.3959604799999994
  0.7443054909999987  0.5833333129999971  0.0791920950000033
  0.5776387450000016  0.5833333129999971  0.2375762910000034
  0.4109720590000023  0.5833333129999971  0.3959604799999994
  0.7443054909999987  0.2499999549999998  0.0791920950000033
  0.5776387450000016  0.2499999549999998  0.2375762910000034
  0.4109720590000023  0.2499999549999998  0.3959604799999994
  0.1609721629999967  0.8333331939999979  0.0000000000000000
  0.9943054909999987  0.8333331939999979  0.1583841739999983
  0.8276388049999994  0.8333331939999979  0.3167683779999990
  0.1609721629999967  0.4999999110000033  0.0000000000000000
  0.9943054909999987  0.4999999110000033  0.1583841739999983
  0.8276388049999994  0.4999999110000033  0.3167683779999990
  0.1609721629999967  0.1666666420000027  0.0000000000000000
  0.9943054909999987  0.1666666420000027  0.1583841739999983
  0.8276388049999994  0.1666666420000027  0.3167683779999990
  0.4943054319999973  0.8333331939999979  0.0000000000000000
  0.3276387450000016  0.8333331939999979  0.1583841739999983
  0.1609720740000000  0.8333331939999979  0.3167683779999990
  0.4943054319999973  0.4999999110000033  0.0000000000000000
  0.3276387450000016  0.4999999110000033  0.1583841739999983
  0.1609720740000000  0.4999999110000033  0.3167683779999990
  0.4943054319999973  0.1666666420000027  0.0000000000000000
  0.3276387450000016  0.1666666420000027  0.1583841739999983
  0.1609720740000000  0.1666666420000027  0.3167683779999990
  0.8276388049999994  0.8333331939999979  0.0000000000000000
  0.6609721179999966  0.8333331939999979  0.1583841739999983
  0.4943054319999973  0.8333331939999979  0.3167683779999990
  0.8276388049999994  0.4999999110000033  0.0000000000000000
  0.6609721179999966  0.4999999110000033  0.1583841739999983
  0.4943054319999973  0.4999999110000033  0.3167683779999990
  0.8276388049999994  0.1666666420000027  0.0000000000000000
  0.6609721179999966  0.1666666420000027  0.1583841739999983
  0.4943054319999973  0.1666666420000027  0.3167683779999990
  0.2443054619999998  0.7499998810000008  0.0791920950000033
  0.0776387829999976  0.7499998810000008  0.2375762910000034
  0.9109721179999966  0.7499998810000008  0.3959604799999994
  0.2443054619999998  0.4166666269999979  0.0791920950000033
  0.0776387829999976  0.4166666269999979  0.2375762910000034
  0.9109721179999966  0.4166666269999979  0.3959604799999994
  0.2443054619999998  0.0833333280000019  0.0791920950000033
  0.0776387829999976  0.0833333280000019  0.2375762910000034
  0.9109721179999966  0.0833333280000019  0.3959604799999994
  0.5776388649999973  0.7499998810000008  0.0791920950000033
  0.4109721479999990  0.7499998810000008  0.2375762910000034
  0.2443054470000021  0.7499998810000008  0.3959604799999994
  0.5776388649999973  0.4166666269999979  0.0791920950000033
  0.4109721479999990  0.4166666269999979  0.2375762910000034
  0.2443054470000021  0.4166666269999979  0.3959604799999994
  0.5776388649999973  0.0833333280000019  0.0791920950000033
  0.4109721479999990  0.0833333280000019  0.2375762910000034
  0.2443054470000021  0.0833333280000019  0.3959604799999994
  0.9109721780000015  0.7499998810000008  0.0791920950000033
  0.7443054909999987  0.7499998810000008  0.2375762910000034
  0.5776387450000016  0.7499998810000008  0.3959604799999994
  0.9109721780000015  0.4166666269999979  0.0791920950000033
  0.7443054909999987  0.4166666269999979  0.2375762910000034
  0.5776387450000016  0.4166666269999979  0.3959604799999994
  0.9109721780000015  0.0833333280000019  0.0791920950000033
  0.7443054909999987  0.0833333280000019  0.2375762910000034
  0.5776387450000016  0.0833333280000019  0.3959604799999994
  0.9372645620000029  0.1905371249999988  0.5079362990000007
  0.7872644660000034  0.2405371810000005  0.6599714760000026
  0.6372644309999984  0.2905372379999989  0.8120066520000009
  0.0372644660000034  0.4905371669999994  0.5079362990000007
  0.8872644309999984  0.5405372379999989  0.6599714760000026
  0.7372643949999969  0.5905373100000020  0.8120066520000009
  0.1372644899999997  0.7905371189999997  0.5079362990000007
  0.9872643949999969  0.8405371309999978  0.6599714760000026
  0.8372644190000003  0.8905372620000023  0.8120066520000009
  0.6372644899999997  0.2905371189999997  0.5079362990000007
  0.4872644539999982  0.3405371899999992  0.6599714760000026
  0.3372643590000024  0.3905372319999998  0.8120066520000009
  0.7372645140000031  0.5905371309999978  0.5079362990000007
  0.5872644190000003  0.6405372019999973  0.6599714760000026
  0.4372643829999987  0.6905372740000004  0.8120066520000009
  0.8372644780000016  0.8905371430000031  0.5079362990000007
  0.6872643829999987  0.9405371550000012  0.6599714760000026
  0.5372643469999971  0.9905372859999986  0.8120066520000009
  0.2372645140000031  0.0905370859999977  0.5079362990000007
  0.0872644190000003  0.1405371580000008  0.6599714760000026
  0.9372643230000008  0.1905372140000026  0.8120066520000009
  0.3372644780000016  0.3905371130000006  0.5079362990000007
  0.1872644420000000  0.4405371840000001  0.6599714760000026
  0.0372643469999971  0.4905372260000007  0.8120066520000009
  0.4372645019999979  0.6905371550000012  0.5079362990000007
  0.2872644360000010  0.7405372260000007  0.6599714760000026
  0.1372643710000006  0.7905372979999967  0.8120066520000009
  0.5372644660000034  0.9905371070000015  0.5079362990000007
  0.3872643710000006  0.0405371189999997  0.6599714760000026
  0.2372643949999969  0.0905373100000020  0.8120066520000009
  0.1872644420000000  0.1905370950000034  0.5839539170000023
  0.0372643469999971  0.2405371669999994  0.7359890939999971
  0.8872642520000014  0.2905372379999989  0.8880242110000012
  0.8872645499999976  0.2905371189999997  0.5839539170000023
  0.7372645140000031  0.3405371899999992  0.7359890939999971
  0.5872644190000003  0.3905372620000023  0.8880242110000012
  0.9872645140000031  0.5905371899999992  0.5839539170000023
  0.8372644190000003  0.6405372620000023  0.7359890939999971
  0.6872643829999987  0.6905372740000004  0.8880242110000012
  0.0872645379999994  0.8905371430000031  0.5839539170000023
  0.9372644420000000  0.9405372740000004  0.7359890939999971
  0.7872643469999971  0.9905372859999986  0.8880242110000012
  0.4872645140000031  0.0905370710000000  0.5839539170000023
  0.3372644479999991  0.1405372620000023  0.7359890939999971
  0.1872643230000008  0.1905373330000018  0.8880242110000012
  0.5872644780000016  0.3905371130000006  0.5839539170000023
  0.4372644130000012  0.4405372140000026  0.7359890939999971
  0.2872643170000018  0.4905372260000007  0.8880242110000012
  0.6872645019999979  0.6905370950000034  0.5839539170000023
  0.5372644070000021  0.7405371669999994  0.7359890939999971
  0.3872643409999981  0.7905372979999967  0.8880242110000012
  0.7872644660000034  0.9905371070000015  0.5839539170000023
  0.6372644309999984  0.0405372379999989  0.7359890939999971
  0.4872643349999990  0.0905373100000020  0.8880242110000012
  0.2872644959999988  0.4905371070000015  0.5839539170000023
  0.1372643710000006  0.5405372379999989  0.7359890939999971
  0.9872642759999977  0.5905372499999970  0.8880242110000012
  0.3872644899999997  0.7905371789999975  0.5839539170000023
  0.2372643949999969  0.8405372499999970  0.7359890939999971
  0.0872642989999974  0.8905372620000023  0.8880242110000012
  0.1372644899999997  0.2905371189999997  0.5079362990000007
  0.9872644539999982  0.3405371899999992  0.6599714760000026
  0.8372643590000024  0.3905372919999976  0.8120066520000009
  0.7372645140000031  0.0905370939999983  0.5079362990000007
  0.5872644780000016  0.1405371580000008  0.6599714760000026
  0.4372643530000033  0.1905372439999979  0.8120066520000009
  0.8372644780000016  0.3905371130000006  0.5079362990000007
  0.6872644420000000  0.4405371840000001  0.6599714760000026
  0.5372643469999971  0.4905372859999986  0.8120066520000009
  0.9372645019999979  0.6905371550000012  0.5079362990000007
  0.7872644660000034  0.7405372260000007  0.6599714760000026
  0.6372643710000006  0.7905372979999967  0.8120066520000009
  0.0372645850000026  0.9905372859999986  0.5079362990000007
  0.8872644309999984  0.0405373569999981  0.6599714760000026
  0.7372643949999969  0.0905373100000020  0.8120066520000009
  0.4372645019999979  0.1905371100000011  0.5079362990000007
  0.2872644360000010  0.2405371810000005  0.6599714760000026
  0.1372643710000006  0.2905372379999989  0.8120066520000009
  0.5372645260000013  0.4905371669999994  0.5079362990000007
  0.3872644309999984  0.5405372379999989  0.6599714760000026
  0.2372643949999969  0.5905373100000020  0.8120066520000009
  0.6372644899999997  0.7905371189999997  0.5079362990000007
  0.4872643949999969  0.8405371899999992  0.6599714760000026
  0.3372643289999999  0.8905372620000023  0.8120066520000009
  0.2372645140000031  0.5905370710000000  0.5079362990000007
  0.0872644190000003  0.6405372019999973  0.6599714760000026
  0.9372643230000008  0.6905372740000004  0.8120066520000009
  0.3372644780000016  0.8905371430000031  0.5079362990000007
  0.1872644420000000  0.9405372140000026  0.6599714760000026
  0.0372643469999971  0.9905372859999986  0.8120066520000009
  0.9872644539999982  0.0905370710000000  0.5839539170000023
  0.8372644190000003  0.1405372620000023  0.7359890939999971
  0.6872643829999987  0.1905372140000026  0.8880242110000012
  0.0872645379999994  0.3905371130000006  0.5839539170000023
  0.9372644420000000  0.4405372140000026  0.7359890939999971
  0.7872643469999971  0.4905372260000007  0.8880242110000012
  0.1872645620000029  0.6905370950000034  0.5839539170000023
  0.0372644660000034  0.7405371669999994  0.7359890939999971
  0.8872643710000006  0.7905372379999989  0.8880242110000012
  0.6872645019999979  0.1905370950000034  0.5839539170000023
  0.5372644660000034  0.2405371810000005  0.7359890939999971
  0.3872643710000006  0.2905372379999989  0.8880242110000012
  0.7872645850000026  0.4905371669999994  0.5839539170000023
  0.6372644899999997  0.5405371789999975  0.7359890939999971
  0.4872644249999993  0.5905372499999970  0.8880242110000012
  0.8872644899999997  0.7905371189999997  0.5839539170000023
  0.7372644539999982  0.8405371899999992  0.7359890939999971
  0.5872643590000024  0.8905373220000001  0.8880242110000012
  0.3872645200000022  0.2905371189999997  0.5839539170000023
  0.2372645140000031  0.3405371899999992  0.7359890939999971
  0.0872642989999974  0.3905372620000023  0.8880242110000012
  0.4872645140000031  0.5905371309999978  0.5839539170000023
  0.3372644190000003  0.6405372019999973  0.7359890939999971
  0.1872643230000008  0.6905372140000026  0.8880242110000012
  0.5872644780000016  0.8905370829999981  0.5839539170000023
  0.4372643829999987  0.9405371550000012  0.7359890939999971
  0.2872642869999993  0.9905372859999986  0.8880242110000012
  0.2872644959999988  0.9905371070000015  0.5839539170000023
  0.1372643710000006  0.0405372379999989  0.7359890939999971
  0.9872642759999977  0.0905373100000020  0.8880242110000012
 
  0.00000000E+00  0.00000000E+00  0.00000000E+00
  0.00000000E+00  0.00000000E+00  0.00000000E+00
  0.00000000E+00  0.00000000E+00  0.00000000E+00
  0.00000000E+00  0.00000000E+00  0.00000000E+00
  0.00000000E+00  0.00000000E+00  0.00000000E+00
  0.00000000E+00  0.00000000E+00  0.00000000E+00
  0.00000000E+00  0.00000000E+00  0.00000000E+00
  0.00000000E+00  0.00000000E+00  0.00000000E+00
  0.00000000E+00  0.00000000E+00  0.00000000E+00
  0.00000000E+00  0.00000000E+00  0.00000000E+00
  0.00000000E+00  0.00000000E+00  0.00000000E+00
  0.00000000E+00  0.00000000E+00  0.00000000E+00
  0.00000000E+00  0.00000000E+00  0.00000000E+00
  0.00000000E+00  0.00000000E+00  0.00000000E+00
  0.00000000E+00  0.00000000E+00  0.00000000E+00
  0.00000000E+00  0.00000000E+00  0.00000000E+00
  0.00000000E+00  0.00000000E+00  0.00000000E+00
  0.00000000E+00  0.00000000E+00  0.00000000E+00
  0.00000000E+00  0.00000000E+00  0.00000000E+00
  0.00000000E+00  0.00000000E+00  0.00000000E+00
  0.00000000E+00  0.00000000E+00  0.00000000E+00
  0.00000000E+00  0.00000000E+00  0.00000000E+00
  0.00000000E+00  0.00000000E+00  0.00000000E+00
  0.00000000E+00  0.00000000E+00  0.00000000E+00
  0.00000000E+00  0.00000000E+00  0.00000000E+00
  0.00000000E+00  0.00000000E+00  0.00000000E+00
  0.00000000E+00  0.00000000E+00  0.00000000E+00
  0.00000000E+00  0.00000000E+00  0.00000000E+00
  0.00000000E+00  0.00000000E+00  0.00000000E+00
  0.00000000E+00  0.00000000E+00  0.00000000E+00
  0.00000000E+00  0.00000000E+00  0.00000000E+00
  0.00000000E+00  0.00000000E+00  0.00000000E+00
  0.00000000E+00  0.00000000E+00  0.00000000E+00
  0.00000000E+00  0.00000000E+00  0.00000000E+00
  0.00000000E+00  0.00000000E+00  0.00000000E+00
  0.00000000E+00  0.00000000E+00  0.00000000E+00
  0.00000000E+00  0.00000000E+00  0.00000000E+00
  0.00000000E+00  0.00000000E+00  0.00000000E+00
  0.00000000E+00  0.00000000E+00  0.00000000E+00
  0.00000000E+00  0.00000000E+00  0.00000000E+00
  0.00000000E+00  0.00000000E+00  0.00000000E+00
  0.00000000E+00  0.00000000E+00  0.00000000E+00
  0.00000000E+00  0.00000000E+00  0.00000000E+00
  0.00000000E+00  0.00000000E+00  0.00000000E+00
  0.00000000E+00  0.00000000E+00  0.00000000E+00
  0.00000000E+00  0.00000000E+00  0.00000000E+00
  0.00000000E+00  0.00000000E+00  0.00000000E+00
  0.00000000E+00  0.00000000E+00  0.00000000E+00
  0.00000000E+00  0.00000000E+00  0.00000000E+00
  0.00000000E+00  0.00000000E+00  0.00000000E+00
  0.00000000E+00  0.00000000E+00  0.00000000E+00
  0.00000000E+00  0.00000000E+00  0.00000000E+00
  0.00000000E+00  0.00000000E+00  0.00000000E+00
  0.00000000E+00  0.00000000E+00  0.00000000E+00
  0.00000000E+00  0.00000000E+00  0.00000000E+00
  0.00000000E+00  0.00000000E+00  0.00000000E+00
  0.00000000E+00  0.00000000E+00  0.00000000E+00
  0.00000000E+00  0.00000000E+00  0.00000000E+00
  0.00000000E+00  0.00000000E+00  0.00000000E+00
  0.00000000E+00  0.00000000E+00  0.00000000E+00
  0.00000000E+00  0.00000000E+00  0.00000000E+00
  0.00000000E+00  0.00000000E+00  0.00000000E+00
  0.00000000E+00  0.00000000E+00  0.00000000E+00
  0.00000000E+00  0.00000000E+00  0.00000000E+00
  0.00000000E+00  0.00000000E+00  0.00000000E+00
  0.00000000E+00  0.00000000E+00  0.00000000E+00
  0.00000000E+00  0.00000000E+00  0.00000000E+00
  0.00000000E+00  0.00000000E+00  0.00000000E+00
  0.00000000E+00  0.00000000E+00  0.00000000E+00
  0.00000000E+00  0.00000000E+00  0.00000000E+00
  0.00000000E+00  0.00000000E+00  0.00000000E+00
  0.00000000E+00  0.00000000E+00  0.00000000E+00
  0.00000000E+00  0.00000000E+00  0.00000000E+00
  0.00000000E+00  0.00000000E+00  0.00000000E+00
  0.00000000E+00  0.00000000E+00  0.00000000E+00
  0.00000000E+00  0.00000000E+00  0.00000000E+00
  0.00000000E+00  0.00000000E+00  0.00000000E+00
  0.00000000E+00  0.00000000E+00  0.00000000E+00
  0.00000000E+00  0.00000000E+00  0.00000000E+00
  0.00000000E+00  0.00000000E+00  0.00000000E+00
  0.00000000E+00  0.00000000E+00  0.00000000E+00
  0.00000000E+00  0.00000000E+00  0.00000000E+00
  0.00000000E+00  0.00000000E+00  0.00000000E+00
  0.00000000E+00  0.00000000E+00  0.00000000E+00
  0.00000000E+00  0.00000000E+00  0.00000000E+00
  0.00000000E+00  0.00000000E+00  0.00000000E+00
  0.00000000E+00  0.00000000E+00  0.00000000E+00
  0.00000000E+00  0.00000000E+00  0.00000000E+00
  0.00000000E+00  0.00000000E+00  0.00000000E+00
  0.00000000E+00  0.00000000E+00  0.00000000E+00
  0.00000000E+00  0.00000000E+00  0.00000000E+00
  0.00000000E+00  0.00000000E+00  0.00000000E+00
  0.00000000E+00  0.00000000E+00  0.00000000E+00
  0.00000000E+00  0.00000000E+00  0.00000000E+00
  0.00000000E+00  0.00000000E+00  0.00000000E+00
  0.00000000E+00  0.00000000E+00  0.00000000E+00
  0.00000000E+00  0.00000000E+00  0.00000000E+00
  0.00000000E+00  0.00000000E+00  0.00000000E+00
  0.00000000E+00  0.00000000E+00  0.00000000E+00
  0.00000000E+00  0.00000000E+00  0.00000000E+00
  0.00000000E+00  0.00000000E+00  0.00000000E+00
  0.00000000E+00  0.00000000E+00  0.00000000E+00
  0.00000000E+00  0.00000000E+00  0.00000000E+00
  0.00000000E+00  0.00000000E+00  0.00000000E+00
  0.00000000E+00  0.00000000E+00  0.00000000E+00
  0.00000000E+00  0.00000000E+00  0.00000000E+00
  0.00000000E+00  0.00000000E+00  0.00000000E+00
  0.00000000E+00  0.00000000E+00  0.00000000E+00
  0.00000000E+00  0.00000000E+00  0.00000000E+00
  0.00000000E+00  0.00000000E+00  0.00000000E+00
  0.00000000E+00  0.00000000E+00  0.00000000E+00
  0.00000000E+00  0.00000000E+00  0.00000000E+00
  0.00000000E+00  0.00000000E+00  0.00000000E+00
  0.00000000E+00  0.00000000E+00  0.00000000E+00
  0.00000000E+00  0.00000000E+00  0.00000000E+00
  0.00000000E+00  0.00000000E+00  0.00000000E+00
  0.00000000E+00  0.00000000E+00  0.00000000E+00
  0.00000000E+00  0.00000000E+00  0.00000000E+00
  0.00000000E+00  0.00000000E+00  0.00000000E+00
  0.00000000E+00  0.00000000E+00  0.00000000E+00
  0.00000000E+00  0.00000000E+00  0.00000000E+00
  0.00000000E+00  0.00000000E+00  0.00000000E+00
  0.00000000E+00  0.00000000E+00  0.00000000E+00
  0.00000000E+00  0.00000000E+00  0.00000000E+00
  0.00000000E+00  0.00000000E+00  0.00000000E+00
  0.00000000E+00  0.00000000E+00  0.00000000E+00
  0.00000000E+00  0.00000000E+00  0.00000000E+00
  0.00000000E+00  0.00000000E+00  0.00000000E+00
  0.00000000E+00  0.00000000E+00  0.00000000E+00
  0.00000000E+00  0.00000000E+00  0.00000000E+00
  0.00000000E+00  0.00000000E+00  0.00000000E+00
  0.00000000E+00  0.00000000E+00  0.00000000E+00
  0.00000000E+00  0.00000000E+00  0.00000000E+00
  0.00000000E+00  0.00000000E+00  0.00000000E+00
  0.00000000E+00  0.00000000E+00  0.00000000E+00
  0.00000000E+00  0.00000000E+00  0.00000000E+00
  0.00000000E+00  0.00000000E+00  0.00000000E+00
  0.00000000E+00  0.00000000E+00  0.00000000E+00
  0.00000000E+00  0.00000000E+00  0.00000000E+00
  0.00000000E+00  0.00000000E+00  0.00000000E+00
  0.00000000E+00  0.00000000E+00  0.00000000E+00
  0.00000000E+00  0.00000000E+00  0.00000000E+00
  0.00000000E+00  0.00000000E+00  0.00000000E+00
  0.00000000E+00  0.00000000E+00  0.00000000E+00
  0.00000000E+00  0.00000000E+00  0.00000000E+00
  0.00000000E+00  0.00000000E+00  0.00000000E+00
  0.00000000E+00  0.00000000E+00  0.00000000E+00
  0.00000000E+00  0.00000000E+00  0.00000000E+00
  0.00000000E+00  0.00000000E+00  0.00000000E+00
  0.00000000E+00  0.00000000E+00  0.00000000E+00
  0.00000000E+00  0.00000000E+00  0.00000000E+00
  0.00000000E+00  0.00000000E+00  0.00000000E+00
  0.00000000E+00  0.00000000E+00  0.00000000E+00
  0.00000000E+00  0.00000000E+00  0.00000000E+00
  0.00000000E+00  0.00000000E+00  0.00000000E+00
  0.00000000E+00  0.00000000E+00  0.00000000E+00
  0.00000000E+00  0.00000000E+00  0.00000000E+00
  0.00000000E+00  0.00000000E+00  0.00000000E+00
  0.00000000E+00  0.00000000E+00  0.00000000E+00
  0.00000000E+00  0.00000000E+00  0.00000000E+00
  0.00000000E+00  0.00000000E+00  0.00000000E+00
  0.00000000E+00  0.00000000E+00  0.00000000E+00
  0.00000000E+00  0.00000000E+00  0.00000000E+00
  0.00000000E+00  0.00000000E+00  0.00000000E+00
  0.00000000E+00  0.00000000E+00  0.00000000E+00
  0.00000000E+00  0.00000000E+00  0.00000000E+00
  0.00000000E+00  0.00000000E+00  0.00000000E+00
  0.00000000E+00  0.00000000E+00  0.00000000E+00
  0.00000000E+00  0.00000000E+00  0.00000000E+00
  0.00000000E+00  0.00000000E+00  0.00000000E+00
  0.00000000E+00  0.00000000E+00  0.00000000E+00
  0.00000000E+00  0.00000000E+00  0.00000000E+00
  0.00000000E+00  0.00000000E+00  0.00000000E+00
  0.00000000E+00  0.00000000E+00  0.00000000E+00
  0.00000000E+00  0.00000000E+00  0.00000000E+00
  0.00000000E+00  0.00000000E+00  0.00000000E+00
  0.00000000E+00  0.00000000E+00  0.00000000E+00
  0.00000000E+00  0.00000000E+00  0.00000000E+00
  0.00000000E+00  0.00000000E+00  0.00000000E+00
  0.00000000E+00  0.00000000E+00  0.00000000E+00
  0.00000000E+00  0.00000000E+00  0.00000000E+00
  0.00000000E+00  0.00000000E+00  0.00000000E+00
  0.00000000E+00  0.00000000E+00  0.00000000E+00
  0.00000000E+00  0.00000000E+00  0.00000000E+00
  0.00000000E+00  0.00000000E+00  0.00000000E+00
  0.00000000E+00  0.00000000E+00  0.00000000E+00
  0.00000000E+00  0.00000000E+00  0.00000000E+00
  0.00000000E+00  0.00000000E+00  0.00000000E+00
  0.00000000E+00  0.00000000E+00  0.00000000E+00
  0.00000000E+00  0.00000000E+00  0.00000000E+00
  0.00000000E+00  0.00000000E+00  0.00000000E+00
  0.00000000E+00  0.00000000E+00  0.00000000E+00
  0.00000000E+00  0.00000000E+00  0.00000000E+00
  0.00000000E+00  0.00000000E+00  0.00000000E+00
  0.00000000E+00  0.00000000E+00  0.00000000E+00
  0.00000000E+00  0.00000000E+00  0.00000000E+00
  0.00000000E+00  0.00000000E+00  0.00000000E+00
  0.00000000E+00  0.00000000E+00  0.00000000E+00
  0.00000000E+00  0.00000000E+00  0.00000000E+00
  0.00000000E+00  0.00000000E+00  0.00000000E+00
  0.00000000E+00  0.00000000E+00  0.00000000E+00
  0.00000000E+00  0.00000000E+00  0.00000000E+00
  0.00000000E+00  0.00000000E+00  0.00000000E+00
  0.00000000E+00  0.00000000E+00  0.00000000E+00
  0.00000000E+00  0.00000000E+00  0.00000000E+00
  0.00000000E+00  0.00000000E+00  0.00000000E+00
  0.00000000E+00  0.00000000E+00  0.00000000E+00
  0.00000000E+00  0.00000000E+00  0.00000000E+00
  0.00000000E+00  0.00000000E+00  0.00000000E+00
  0.00000000E+00  0.00000000E+00  0.00000000E+00
  0.00000000E+00  0.00000000E+00  0.00000000E+00
  0.00000000E+00  0.00000000E+00  0.00000000E+00
  0.00000000E+00  0.00000000E+00  0.00000000E+00
  0.00000000E+00  0.00000000E+00  0.00000000E+00
  0.00000000E+00  0.00000000E+00  0.00000000E+00
  0.00000000E+00  0.00000000E+00  0.00000000E+00
  0.00000000E+00  0.00000000E+00  0.00000000E+00
  0.00000000E+00  0.00000000E+00  0.00000000E+00
  0.00000000E+00  0.00000000E+00  0.00000000E+00
  0.00000000E+00  0.00000000E+00  0.00000000E+00
  0.00000000E+00  0.00000000E+00  0.00000000E+00
  0.00000000E+00  0.00000000E+00  0.00000000E+00
  0.00000000E+00  0.00000000E+00  0.00000000E+00
  0.00000000E+00  0.00000000E+00  0.00000000E+00
  0.00000000E+00  0.00000000E+00  0.00000000E+00
  0.00000000E+00  0.00000000E+00  0.00000000E+00
  0.00000000E+00  0.00000000E+00  0.00000000E+00
  0.00000000E+00  0.00000000E+00  0.00000000E+00
