Sn+Ge                                   
   1.00000000000000     
    12.9784002300000001    0.0000000000000000    0.0000000000000000
   -12.9784002300000001   14.5102930069999996    0.0000000000000000
     0.0000000000000000    0.0000000000000000    9.1904125210000007
   Sn   Ge
    24    24
Direct
  0.4743584989999974  0.9743584989999974  0.0000000000000000
  0.1743583530000024  0.6743584279999979  0.1578851189999995
  0.8743582959999969  0.3743583560000019  0.3157702680000014
  0.9743584989999974  0.9743584989999974  0.0000000000000000
  0.6743583680000000  0.6743584279999979  0.1578851189999995
  0.3743582959999969  0.3743583560000019  0.3157702680000014
  0.6993584630000029  0.3243584929999983  0.0789424109999999
  0.3993583620000010  0.0243584460000008  0.2368275370000035
  0.0993583200000003  0.7243584389999995  0.3947126569999995
  0.1993584780000006  0.3243584929999983  0.0789424109999999
  0.8993583920000034  0.0243584460000008  0.2368275370000035
  0.5993583200000003  0.7243584389999995  0.3947126569999995
  0.7243584389999995  0.4743584989999974  0.0000000160000013
  0.4243583379999976  0.1743583980000025  0.1578851339999972
  0.1243581920000025  0.8743582959999969  0.3157702680000014
  0.2243584690000020  0.4743584989999974  0.0000000160000013
  0.9243583680000000  0.1743583980000025  0.1578851339999972
  0.6243582370000027  0.8743582959999969  0.3157702680000014
  0.9493585820000021  0.8243585820000021  0.0789424179999969
  0.6493585110000026  0.5243585710000005  0.2368275079999975
  0.3493583799999982  0.2243584989999974  0.3947126569999995
  0.4493587910000016  0.8243585820000021  0.0789424179999969
  0.1493586449999995  0.5243585710000005  0.2368275079999975
  0.8493585590000023  0.2243584989999974  0.3947126569999995
  0.0737824440000026  0.8520510199999975  0.5568605659999974
  0.9571157099999965  0.4353842740000005  0.6130588050000014
  0.8404489759999976  0.0187175269999997  0.6692571040000033
  0.7237821220000029  0.6020507810000026  0.7254555820000022
  0.6071154480000018  0.1853842740000005  0.7816537619999977
  0.4904485940000001  0.7687172890000014  0.8378521200000009
  0.5737824440000026  0.1020510199999975  0.5568605659999974
  0.4571157099999965  0.6853842740000005  0.6130588050000014
  0.3404489460000022  0.2687175269999997  0.6692572239999990
  0.2237821519999983  0.8520507810000026  0.7254554029999980
  0.1071153879999969  0.4353840349999984  0.7816537019999998
  0.9904487129999993  0.0187172890000014  0.8378519420000003
  0.5737824440000026  0.3520510199999975  0.5568606260000024
  0.4571156499999987  0.9353842740000005  0.6130588050000014
  0.3404489159999997  0.5187175269999997  0.6692572239999990
  0.2237821820000008  0.1020507810000026  0.7254555230000008
  0.1071154480000018  0.6853840349999984  0.7816537019999998
  0.9904485940000001  0.2687170510000030  0.8378520010000017
  0.0737824440000026  0.6020510199999975  0.5568606260000024
  0.9571156499999987  0.1853842740000005  0.6130589249999971
  0.8404489159999997  0.7687175269999997  0.6692572239999990
  0.7237821220000029  0.3520507810000026  0.7254555230000008
  0.6071153879999969  0.9353840349999984  0.7816537619999977
  0.4904485940000001  0.5187170510000030  0.8378521200000009
 
  0.00000000E+00  0.00000000E+00  0.00000000E+00
  0.00000000E+00  0.00000000E+00  0.00000000E+00
  0.00000000E+00  0.00000000E+00  0.00000000E+00
  0.00000000E+00  0.00000000E+00  0.00000000E+00
  0.00000000E+00  0.00000000E+00  0.00000000E+00
  0.00000000E+00  0.00000000E+00  0.00000000E+00
  0.00000000E+00  0.00000000E+00  0.00000000E+00
  0.00000000E+00  0.00000000E+00  0.00000000E+00
  0.00000000E+00  0.00000000E+00  0.00000000E+00
  0.00000000E+00  0.00000000E+00  0.00000000E+00
  0.00000000E+00  0.00000000E+00  0.00000000E+00
  0.00000000E+00  0.00000000E+00  0.00000000E+00
  0.00000000E+00  0.00000000E+00  0.00000000E+00
  0.00000000E+00  0.00000000E+00  0.00000000E+00
  0.00000000E+00  0.00000000E+00  0.00000000E+00
  0.00000000E+00  0.00000000E+00  0.00000000E+00
  0.00000000E+00  0.00000000E+00  0.00000000E+00
  0.00000000E+00  0.00000000E+00  0.00000000E+00
  0.00000000E+00  0.00000000E+00  0.00000000E+00
  0.00000000E+00  0.00000000E+00  0.00000000E+00
  0.00000000E+00  0.00000000E+00  0.00000000E+00
  0.00000000E+00  0.00000000E+00  0.00000000E+00
  0.00000000E+00  0.00000000E+00  0.00000000E+00
  0.00000000E+00  0.00000000E+00  0.00000000E+00
  0.00000000E+00  0.00000000E+00  0.00000000E+00
  0.00000000E+00  0.00000000E+00  0.00000000E+00
  0.00000000E+00  0.00000000E+00  0.00000000E+00
  0.00000000E+00  0.00000000E+00  0.00000000E+00
  0.00000000E+00  0.00000000E+00  0.00000000E+00
  0.00000000E+00  0.00000000E+00  0.00000000E+00
  0.00000000E+00  0.00000000E+00  0.00000000E+00
  0.00000000E+00  0.00000000E+00  0.00000000E+00
  0.00000000E+00  0.00000000E+00  0.00000000E+00
  0.00000000E+00  0.00000000E+00  0.00000000E+00
  0.00000000E+00  0.00000000E+00  0.00000000E+00
  0.00000000E+00  0.00000000E+00  0.00000000E+00
  0.00000000E+00  0.00000000E+00  0.00000000E+00
  0.00000000E+00  0.00000000E+00  0.00000000E+00
  0.00000000E+00  0.00000000E+00  0.00000000E+00
  0.00000000E+00  0.00000000E+00  0.00000000E+00
  0.00000000E+00  0.00000000E+00  0.00000000E+00
  0.00000000E+00  0.00000000E+00  0.00000000E+00
  0.00000000E+00  0.00000000E+00  0.00000000E+00
  0.00000000E+00  0.00000000E+00  0.00000000E+00
  0.00000000E+00  0.00000000E+00  0.00000000E+00
  0.00000000E+00  0.00000000E+00  0.00000000E+00
  0.00000000E+00  0.00000000E+00  0.00000000E+00
  0.00000000E+00  0.00000000E+00  0.00000000E+00
