fcc Si+fcc Ge                           
   1.00000000000000     
     7.7498903219999997    0.0000000000000000    0.0000000000000000
    -3.8749451609999999   11.6248354830000000    0.0000000000000000
     0.0000000000000000    0.0000000000000000   18.4333333330000002
   Si   Ge
    12    66
Direct
  0.0000000000000000  0.0000000000000000  0.0000000000000000
  0.3888888890000004  0.2777777780000008  0.0495479200000020
  0.7777777780000008  0.5555555560000016  0.0990958410000005
  0.5000000000000000  0.0000000000000000  0.0000000000000000
  0.8888888890000004  0.2777777780000008  0.0495479200000020
  0.2777777780000008  0.5555555560000016  0.0990958410000005
  0.6944444439999984  0.8888888890000004  0.0247739599999974
  0.0833333329999988  0.1666666670000012  0.0743218810000030
  0.4722222219999992  0.4444444439999984  0.1238698009999979
  0.1944444439999984  0.8888888890000004  0.0247739599999974
  0.5833333329999988  0.1666666670000012  0.0743218810000030
  0.9722222219999992  0.4444444439999984  0.1238698009999979
  0.1491228069999977  0.7199453550000001  0.2548824590000009
  0.3157894739999989  0.5532786890000025  0.4084086800000009
  0.4824561399999965  0.3866120220000013  0.5619349010000008
  0.6491228069999977  0.2199453550000001  0.7154611209999970
  0.8157894739999989  0.0532786890000025  0.8689873419999969
  0.8157894739999989  0.0532786890000025  0.2548824590000009
  0.9824561399999965  0.8866120220000013  0.4084086800000009
  0.1491228069999977  0.7199453550000001  0.5619349010000008
  0.3157894739999989  0.5532786890000025  0.7154611209999970
  0.4824561399999965  0.3866120220000013  0.8689873419999969
  0.4824561399999965  0.3866120220000013  0.2548824590000009
  0.6491228069999977  0.2199453550000001  0.4084086800000009
  0.8157894739999989  0.0532786890000025  0.5619349010000008
  0.9824561399999965  0.8866120220000013  0.7154611209999970
  0.1491228069999977  0.7199453550000001  0.8689873419999969
  0.6491228069999977  0.7199453550000001  0.2548824590000009
  0.8157894739999989  0.5532786890000025  0.4084086800000009
  0.9824561399999965  0.3866120220000013  0.5619349010000008
  0.1491228069999977  0.2199453550000001  0.7154611209999970
  0.3157894739999989  0.0532786890000025  0.8689873419999969
  0.3157894739999989  0.0532786890000025  0.2548824590000009
  0.4824561399999965  0.8866120220000013  0.4084086800000009
  0.6491228069999977  0.7199453550000001  0.5619349010000008
  0.8157894739999989  0.5532786890000025  0.7154611209999970
  0.9824561399999965  0.3866120220000013  0.8689873419999969
  0.9824561399999965  0.3866120220000013  0.2548824590000009
  0.1491228069999977  0.2199453550000001  0.4084086800000009
  0.3157894739999989  0.0532786890000025  0.5619349010000008
  0.4824561399999965  0.8866120220000013  0.7154611209999970
  0.6491228069999977  0.7199453550000001  0.8689873419999969
  0.0657894739999989  0.0532786890000025  0.1781193489999993
  0.2324561399999965  0.8866120220000013  0.3316455699999992
  0.3991228069999977  0.7199453550000001  0.4851717900000025
  0.5657894739999989  0.5532786890000025  0.6386980110000025
  0.7324561399999965  0.3866120220000013  0.7922242309999987
  0.8991228069999977  0.2199453550000001  0.9457504519999986
  0.7324561399999965  0.3866120220000013  0.1781193489999993
  0.8991228069999977  0.2199453550000001  0.3316455699999992
  0.0657894739999989  0.0532786890000025  0.4851717900000025
  0.2324561399999965  0.8866120220000013  0.6386980110000025
  0.3991228069999977  0.7199453550000001  0.7922242309999987
  0.5657894739999989  0.5532786890000025  0.9457504519999986
  0.3991228069999977  0.7199453550000001  0.1781193489999993
  0.5657894739999989  0.5532786890000025  0.3316455699999992
  0.7324561399999965  0.3866120220000013  0.4851717900000025
  0.8991228069999977  0.2199453550000001  0.6386980110000025
  0.0657894739999989  0.0532786890000025  0.7922242309999987
  0.2324561399999965  0.8866120220000013  0.9457504519999986
  0.5657894739999989  0.0532786890000025  0.1781193489999993
  0.7324561399999965  0.8866120220000013  0.3316455699999992
  0.8991228069999977  0.7199453550000001  0.4851717900000025
  0.0657894739999989  0.5532786890000025  0.6386980110000025
  0.2324561399999965  0.3866120220000013  0.7922242309999987
  0.3991228069999977  0.2199453550000001  0.9457504519999986
  0.2324561399999965  0.3866120220000013  0.1781193489999993
  0.3991228069999977  0.2199453550000001  0.3316455699999992
  0.5657894739999989  0.0532786890000025  0.4851717900000025
  0.7324561399999965  0.8866120220000013  0.6386980110000025
  0.8991228069999977  0.7199453550000001  0.7922242309999987
  0.0657894739999989  0.5532786890000025  0.9457504519999986
  0.8991228069999977  0.7199453550000001  0.1781193489999993
  0.0657894739999989  0.5532786890000025  0.3316455699999992
  0.2324561399999965  0.3866120220000013  0.4851717900000025
  0.3991228069999977  0.2199453550000001  0.6386980110000025
  0.5657894739999989  0.0532786890000025  0.7922242309999987
  0.7324561399999965  0.8866120220000013  0.9457504519999986
 
  0.00000000E+00  0.00000000E+00  0.00000000E+00
  0.00000000E+00  0.00000000E+00  0.00000000E+00
  0.00000000E+00  0.00000000E+00  0.00000000E+00
  0.00000000E+00  0.00000000E+00  0.00000000E+00
  0.00000000E+00  0.00000000E+00  0.00000000E+00
  0.00000000E+00  0.00000000E+00  0.00000000E+00
  0.00000000E+00  0.00000000E+00  0.00000000E+00
  0.00000000E+00  0.00000000E+00  0.00000000E+00
  0.00000000E+00  0.00000000E+00  0.00000000E+00
  0.00000000E+00  0.00000000E+00  0.00000000E+00
  0.00000000E+00  0.00000000E+00  0.00000000E+00
  0.00000000E+00  0.00000000E+00  0.00000000E+00
  0.00000000E+00  0.00000000E+00  0.00000000E+00
  0.00000000E+00  0.00000000E+00  0.00000000E+00
  0.00000000E+00  0.00000000E+00  0.00000000E+00
  0.00000000E+00  0.00000000E+00  0.00000000E+00
  0.00000000E+00  0.00000000E+00  0.00000000E+00
  0.00000000E+00  0.00000000E+00  0.00000000E+00
  0.00000000E+00  0.00000000E+00  0.00000000E+00
  0.00000000E+00  0.00000000E+00  0.00000000E+00
  0.00000000E+00  0.00000000E+00  0.00000000E+00
  0.00000000E+00  0.00000000E+00  0.00000000E+00
  0.00000000E+00  0.00000000E+00  0.00000000E+00
  0.00000000E+00  0.00000000E+00  0.00000000E+00
  0.00000000E+00  0.00000000E+00  0.00000000E+00
  0.00000000E+00  0.00000000E+00  0.00000000E+00
  0.00000000E+00  0.00000000E+00  0.00000000E+00
  0.00000000E+00  0.00000000E+00  0.00000000E+00
  0.00000000E+00  0.00000000E+00  0.00000000E+00
  0.00000000E+00  0.00000000E+00  0.00000000E+00
  0.00000000E+00  0.00000000E+00  0.00000000E+00
  0.00000000E+00  0.00000000E+00  0.00000000E+00
  0.00000000E+00  0.00000000E+00  0.00000000E+00
  0.00000000E+00  0.00000000E+00  0.00000000E+00
  0.00000000E+00  0.00000000E+00  0.00000000E+00
  0.00000000E+00  0.00000000E+00  0.00000000E+00
  0.00000000E+00  0.00000000E+00  0.00000000E+00
  0.00000000E+00  0.00000000E+00  0.00000000E+00
  0.00000000E+00  0.00000000E+00  0.00000000E+00
  0.00000000E+00  0.00000000E+00  0.00000000E+00
  0.00000000E+00  0.00000000E+00  0.00000000E+00
  0.00000000E+00  0.00000000E+00  0.00000000E+00
  0.00000000E+00  0.00000000E+00  0.00000000E+00
  0.00000000E+00  0.00000000E+00  0.00000000E+00
  0.00000000E+00  0.00000000E+00  0.00000000E+00
  0.00000000E+00  0.00000000E+00  0.00000000E+00
  0.00000000E+00  0.00000000E+00  0.00000000E+00
  0.00000000E+00  0.00000000E+00  0.00000000E+00
  0.00000000E+00  0.00000000E+00  0.00000000E+00
  0.00000000E+00  0.00000000E+00  0.00000000E+00
  0.00000000E+00  0.00000000E+00  0.00000000E+00
  0.00000000E+00  0.00000000E+00  0.00000000E+00
  0.00000000E+00  0.00000000E+00  0.00000000E+00
  0.00000000E+00  0.00000000E+00  0.00000000E+00
  0.00000000E+00  0.00000000E+00  0.00000000E+00
  0.00000000E+00  0.00000000E+00  0.00000000E+00
  0.00000000E+00  0.00000000E+00  0.00000000E+00
  0.00000000E+00  0.00000000E+00  0.00000000E+00
  0.00000000E+00  0.00000000E+00  0.00000000E+00
  0.00000000E+00  0.00000000E+00  0.00000000E+00
  0.00000000E+00  0.00000000E+00  0.00000000E+00
  0.00000000E+00  0.00000000E+00  0.00000000E+00
  0.00000000E+00  0.00000000E+00  0.00000000E+00
  0.00000000E+00  0.00000000E+00  0.00000000E+00
  0.00000000E+00  0.00000000E+00  0.00000000E+00
  0.00000000E+00  0.00000000E+00  0.00000000E+00
  0.00000000E+00  0.00000000E+00  0.00000000E+00
  0.00000000E+00  0.00000000E+00  0.00000000E+00
  0.00000000E+00  0.00000000E+00  0.00000000E+00
  0.00000000E+00  0.00000000E+00  0.00000000E+00
  0.00000000E+00  0.00000000E+00  0.00000000E+00
  0.00000000E+00  0.00000000E+00  0.00000000E+00
  0.00000000E+00  0.00000000E+00  0.00000000E+00
  0.00000000E+00  0.00000000E+00  0.00000000E+00
  0.00000000E+00  0.00000000E+00  0.00000000E+00
  0.00000000E+00  0.00000000E+00  0.00000000E+00
  0.00000000E+00  0.00000000E+00  0.00000000E+00
  0.00000000E+00  0.00000000E+00  0.00000000E+00
