fcc Si+fcc Ge
    1.000000000
    7.749890322    0.000000000    0.000000000
   -3.874945161   11.624835483    0.000000000
    0.000000000    0.000000000   18.433333333
Si    Ge   
12     66
Direct
    0.000000000    0.000000000    0.000000000
    0.388888889    0.277777778    0.049547920
    0.777777778    0.555555556    0.099095841
    0.500000000    0.000000000    0.000000000
    0.888888889    0.277777778    0.049547920
    0.277777778    0.555555556    0.099095841
    0.694444444    0.888888889    0.024773960
    0.083333333    0.166666667    0.074321881
    0.472222222    0.444444444    0.123869801
    0.194444444    0.888888889    0.024773960
    0.583333333    0.166666667    0.074321881
    0.972222222    0.444444444    0.123869801
    0.149122807    0.719945355    0.254882459
    0.315789474    0.553278689    0.408408680
    0.482456140    0.386612022    0.561934901
    0.649122807    0.219945355    0.715461121
    0.815789474    0.053278689    0.868987342
    0.815789474    0.053278689    0.254882459
    0.982456140    0.886612022    0.408408680
    0.149122807    0.719945355    0.561934901
    0.315789474    0.553278689    0.715461121
    0.482456140    0.386612022    0.868987342
    0.482456140    0.386612022    0.254882459
    0.649122807    0.219945355    0.408408680
    0.815789474    0.053278689    0.561934901
    0.982456140    0.886612022    0.715461121
    0.149122807    0.719945355    0.868987342
    0.649122807    0.719945355    0.254882459
    0.815789474    0.553278689    0.408408680
    0.982456140    0.386612022    0.561934901
    0.149122807    0.219945355    0.715461121
    0.315789474    0.053278689    0.868987342
    0.315789474    0.053278689    0.254882459
    0.482456140    0.886612022    0.408408680
    0.649122807    0.719945355    0.561934901
    0.815789474    0.553278689    0.715461121
    0.982456140    0.386612022    0.868987342
    0.982456140    0.386612022    0.254882459
    0.149122807    0.219945355    0.408408680
    0.315789474    0.053278689    0.561934901
    0.482456140    0.886612022    0.715461121
    0.649122807    0.719945355    0.868987342
    0.065789474    0.053278689    0.178119349
    0.232456140    0.886612022    0.331645570
    0.399122807    0.719945355    0.485171790
    0.565789474    0.553278689    0.638698011
    0.732456140    0.386612022    0.792224231
    0.899122807    0.219945355    0.945750452
    0.732456140    0.386612022    0.178119349
    0.899122807    0.219945355    0.331645570
    0.065789474    0.053278689    0.485171790
    0.232456140    0.886612022    0.638698011
    0.399122807    0.719945355    0.792224231
    0.565789474    0.553278689    0.945750452
    0.399122807    0.719945355    0.178119349
    0.565789474    0.553278689    0.331645570
    0.732456140    0.386612022    0.485171790
    0.899122807    0.219945355    0.638698011
    0.065789474    0.053278689    0.792224231
    0.232456140    0.886612022    0.945750452
    0.565789474    0.053278689    0.178119349
    0.732456140    0.886612022    0.331645570
    0.899122807    0.719945355    0.485171790
    0.065789474    0.553278689    0.638698011
    0.232456140    0.386612022    0.792224231
    0.399122807    0.219945355    0.945750452
    0.232456140    0.386612022    0.178119349
    0.399122807    0.219945355    0.331645570
    0.565789474    0.053278689    0.485171790
    0.732456140    0.886612022    0.638698011
    0.899122807    0.719945355    0.792224231
    0.065789474    0.553278689    0.945750452
    0.899122807    0.719945355    0.178119349
    0.065789474    0.553278689    0.331645570
    0.232456140    0.386612022    0.485171790
    0.399122807    0.219945355    0.638698011
    0.565789474    0.053278689    0.792224231
    0.732456140    0.886612022    0.945750452
