fcc Si+fcc Ge
    1.000000000
   12.253652517    0.000000000    0.000000000
  -12.253652517   12.253652517    0.000000000
    0.000000000    0.000000000   32.050000000
Si    Ge   
110     110
Direct
    0.400000000    0.800000000    0.000000000
    0.500000000    0.000000000    0.085491420
    0.600000000    0.200000000    0.170982839
    0.700000000    0.400000000    0.256474259
    0.800000000    0.600000000    0.341965679
    0.900000000    0.800000000    0.427457098
    0.200000000    0.400000000    0.000000000
    0.300000000    0.600000000    0.085491420
    0.400000000    0.800000000    0.170982839
    0.500000000    0.000000000    0.256474259
    0.600000000    0.200000000    0.341965679
    0.700000000    0.400000000    0.427457098
    0.800000000    0.600000000    0.000000000
    0.900000000    0.800000000    0.085491420
    0.000000000    0.000000000    0.170982839
    0.100000000    0.200000000    0.256474259
    0.200000000    0.400000000    0.341965679
    0.300000000    0.600000000    0.427457098
    0.000000000    0.000000000    0.000000000
    0.100000000    0.200000000    0.085491420
    0.200000000    0.400000000    0.170982839
    0.300000000    0.600000000    0.256474259
    0.400000000    0.800000000    0.341965679
    0.500000000    0.000000000    0.427457098
    0.600000000    0.200000000    0.000000000
    0.700000000    0.400000000    0.085491420
    0.800000000    0.600000000    0.170982839
    0.900000000    0.800000000    0.256474259
    0.000000000    0.000000000    0.341965679
    0.100000000    0.200000000    0.427457098
    0.200000000    0.900000000    0.000000000
    0.300000000    0.100000000    0.085491420
    0.400000000    0.300000000    0.170982839
    0.500000000    0.500000000    0.256474259
    0.600000000    0.700000000    0.341965679
    0.700000000    0.900000000    0.427457098
    0.000000000    0.500000000    0.000000000
    0.100000000    0.700000000    0.085491420
    0.200000000    0.900000000    0.170982839
    0.300000000    0.100000000    0.256474259
    0.400000000    0.300000000    0.341965679
    0.500000000    0.500000000    0.427457098
    0.600000000    0.700000000    0.000000000
    0.700000000    0.900000000    0.085491420
    0.800000000    0.100000000    0.170982839
    0.900000000    0.300000000    0.256474259
    0.000000000    0.500000000    0.341965679
    0.100000000    0.700000000    0.427457098
    0.400000000    0.300000000    0.000000000
    0.500000000    0.500000000    0.085491420
    0.600000000    0.700000000    0.170982839
    0.700000000    0.900000000    0.256474259
    0.800000000    0.100000000    0.341965679
    0.900000000    0.300000000    0.427457098
    0.800000000    0.100000000    0.000000000
    0.900000000    0.300000000    0.085491420
    0.000000000    0.500000000    0.170982839
    0.100000000    0.700000000    0.256474259
    0.200000000    0.900000000    0.341965679
    0.300000000    0.100000000    0.427457098
    0.100000000    0.950000000    0.042745710
    0.200000000    0.150000000    0.128237129
    0.300000000    0.350000000    0.213728549
    0.400000000    0.550000000    0.299219969
    0.500000000    0.750000000    0.384711388
    0.500000000    0.750000000    0.042745710
    0.600000000    0.950000000    0.128237129
    0.700000000    0.150000000    0.213728549
    0.800000000    0.350000000    0.299219969
    0.900000000    0.550000000    0.384711388
    0.300000000    0.350000000    0.042745710
    0.400000000    0.550000000    0.128237129
    0.500000000    0.750000000    0.213728549
    0.600000000    0.950000000    0.299219969
    0.700000000    0.150000000    0.384711388
    0.900000000    0.550000000    0.042745710
    0.000000000    0.750000000    0.128237129
    0.100000000    0.950000000    0.213728549
    0.200000000    0.150000000    0.299219969
    0.300000000    0.350000000    0.384711388
    0.700000000    0.150000000    0.042745710
    0.800000000    0.350000000    0.128237129
    0.900000000    0.550000000    0.213728549
    0.000000000    0.750000000    0.299219969
    0.100000000    0.950000000    0.384711388
    0.300000000    0.850000000    0.042745710
    0.400000000    0.050000000    0.128237129
    0.500000000    0.250000000    0.213728549
    0.600000000    0.450000000    0.299219969
    0.700000000    0.650000000    0.384711388
    0.100000000    0.450000000    0.042745710
    0.200000000    0.650000000    0.128237129
    0.300000000    0.850000000    0.213728549
    0.400000000    0.050000000    0.299219969
    0.500000000    0.250000000    0.384711388
    0.700000000    0.650000000    0.042745710
    0.800000000    0.850000000    0.128237129
    0.900000000    0.050000000    0.213728549
    0.000000000    0.250000000    0.299219969
    0.100000000    0.450000000    0.384711388
    0.500000000    0.250000000    0.042745710
    0.600000000    0.450000000    0.128237129
    0.700000000    0.650000000    0.213728549
    0.800000000    0.850000000    0.299219969
    0.900000000    0.050000000    0.384711388
    0.900000000    0.050000000    0.042745710
    0.000000000    0.250000000    0.128237129
    0.100000000    0.450000000    0.213728549
    0.200000000    0.650000000    0.299219969
    0.300000000    0.850000000    0.384711388
    0.307377049    0.854651163    0.537129485
    0.407377049    0.754651163    0.625429017
    0.507377049    0.654651163    0.713728549
    0.607377049    0.554651163    0.802028081
    0.707377049    0.454651163    0.890327613
    0.507377049    0.654651163    0.537129485
    0.607377049    0.554651163    0.625429017
    0.707377049    0.454651163    0.713728549
    0.807377049    0.354651163    0.802028081
    0.907377049    0.254651163    0.890327613
    0.107377049    0.054651163    0.537129485
    0.207377049    0.954651163    0.625429017
    0.307377049    0.854651163    0.713728549
    0.407377049    0.754651163    0.802028081
    0.507377049    0.654651163    0.890327613
    0.707377049    0.454651163    0.537129485
    0.807377049    0.354651163    0.625429017
    0.907377049    0.254651163    0.713728549
    0.007377049    0.154651163    0.802028081
    0.107377049    0.054651163    0.890327613
    0.907377049    0.254651163    0.537129485
    0.007377049    0.154651163    0.625429017
    0.107377049    0.054651163    0.713728549
    0.207377049    0.954651163    0.802028081
    0.307377049    0.854651163    0.890327613
    0.107377049    0.554651163    0.537129485
    0.207377049    0.454651163    0.625429017
    0.307377049    0.354651163    0.713728549
    0.407377049    0.254651163    0.802028081
    0.507377049    0.154651163    0.890327613
    0.707377049    0.954651163    0.537129485
    0.807377049    0.854651163    0.625429017
    0.907377049    0.754651163    0.713728549
    0.007377049    0.654651163    0.802028081
    0.107377049    0.554651163    0.890327613
    0.307377049    0.354651163    0.537129485
    0.407377049    0.254651163    0.625429017
    0.507377049    0.154651163    0.713728549
    0.607377049    0.054651163    0.802028081
    0.707377049    0.954651163    0.890327613
    0.907377049    0.754651163    0.537129485
    0.007377049    0.654651163    0.625429017
    0.107377049    0.554651163    0.713728549
    0.207377049    0.454651163    0.802028081
    0.307377049    0.354651163    0.890327613
    0.507377049    0.154651163    0.537129485
    0.607377049    0.054651163    0.625429017
    0.707377049    0.954651163    0.713728549
    0.807377049    0.854651163    0.802028081
    0.907377049    0.754651163    0.890327613
    0.407377049    0.004651163    0.492979719
    0.507377049    0.904651163    0.581279251
    0.607377049    0.804651163    0.669578783
    0.707377049    0.704651163    0.757878315
    0.807377049    0.604651163    0.846177847
    0.907377049    0.504651163    0.934477379
    0.007377049    0.404651163    0.492979719
    0.107377049    0.304651163    0.581279251
    0.207377049    0.204651163    0.669578783
    0.307377049    0.104651163    0.757878315
    0.407377049    0.004651163    0.846177847
    0.507377049    0.904651163    0.934477379
    0.607377049    0.804651163    0.492979719
    0.707377049    0.704651163    0.581279251
    0.807377049    0.604651163    0.669578783
    0.907377049    0.504651163    0.757878315
    0.007377049    0.404651163    0.846177847
    0.107377049    0.304651163    0.934477379
    0.207377049    0.204651163    0.492979719
    0.307377049    0.104651163    0.581279251
    0.407377049    0.004651163    0.669578783
    0.507377049    0.904651163    0.757878315
    0.607377049    0.804651163    0.846177847
    0.707377049    0.704651163    0.934477379
    0.807377049    0.604651163    0.492979719
    0.907377049    0.504651163    0.581279251
    0.007377049    0.404651163    0.669578783
    0.107377049    0.304651163    0.757878315
    0.207377049    0.204651163    0.846177847
    0.307377049    0.104651163    0.934477379
    0.007377049    0.904651163    0.492979719
    0.107377049    0.804651163    0.581279251
    0.207377049    0.704651163    0.669578783
    0.307377049    0.604651163    0.757878315
    0.407377049    0.504651163    0.846177847
    0.507377049    0.404651163    0.934477379
    0.207377049    0.704651163    0.492979719
    0.307377049    0.604651163    0.581279251
    0.407377049    0.504651163    0.669578783
    0.507377049    0.404651163    0.757878315
    0.607377049    0.304651163    0.846177847
    0.707377049    0.204651163    0.934477379
    0.807377049    0.104651163    0.492979719
    0.907377049    0.004651163    0.581279251
    0.007377049    0.904651163    0.669578783
    0.107377049    0.804651163    0.757878315
    0.207377049    0.704651163    0.846177847
    0.307377049    0.604651163    0.934477379
    0.407377049    0.504651163    0.492979719
    0.507377049    0.404651163    0.581279251
    0.607377049    0.304651163    0.669578783
    0.707377049    0.204651163    0.757878315
    0.807377049    0.104651163    0.846177847
    0.907377049    0.004651163    0.934477379
    0.607377049    0.304651163    0.492979719
    0.707377049    0.204651163    0.581279251
    0.807377049    0.104651163    0.669578783
    0.907377049    0.004651163    0.757878315
    0.007377049    0.904651163    0.846177847
    0.107377049    0.804651163    0.934477379
