Ge+Ge                                   
   1.00000000000000     
    12.6512260439999995    0.0000000000000000    0.0000000000000000
   -10.1209812160000006    7.5907354350000000    0.0000000000000000
     0.0000000000000000    0.0000000000000000    9.4296684269999993
   Ge
    48
Direct
  0.9628466369999984  0.9893847700000009  0.0000000000000000
  0.5739576819999996  0.8782736060000005  0.1000000390000011
  0.1850687270000009  0.7671624420000001  0.2000000330000020
  0.4628466369999984  0.4893847410000021  0.0000000029999967
  0.0739576739999990  0.3782736060000005  0.1000000390000011
  0.6850687270000009  0.2671624420000001  0.2000000330000020
  0.7684021000000030  0.6838291879999971  0.0500000190000023
  0.3795131440000006  0.5727180239999967  0.1500000360000016
  0.9906241890000018  0.4616068010000021  0.2500000889999967
  0.2684021589999972  0.1838291729999995  0.0500000079999978
  0.8795132039999984  0.0727180089999990  0.1500000360000016
  0.4906241890000018  0.9616068010000021  0.2500000889999967
  0.3447222710000020  0.6723611350000027  0.2500000599999979
  0.6780556439999970  0.8390278219999985  0.5500000720000031
  0.0113890169999991  0.0056946280000005  0.8500000240000034
  0.0113889710000024  0.0056944869999995  0.2500000599999979
  0.3447223309999998  0.1723612250000031  0.5500000720000031
  0.6780557040000019  0.3390279710000002  0.8500000240000034
  0.6780556439999970  0.3390278219999985  0.2500000599999979
  0.0113888979999999  0.5056945090000013  0.5500000720000031
  0.3447223900000012  0.6723613139999998  0.8500000240000034
  0.0947222710000020  0.9223611350000027  0.4000000360000016
  0.4280556439999970  0.0890278820000034  0.6999999880000018
  0.7613890169999991  0.2556946280000005  0.0000000000000000
  0.4280556439999970  0.5890278820000034  0.4000000360000016
  0.7613890169999991  0.7556945680000027  0.6999999880000018
  0.0947223900000012  0.9223613739999976  0.0000000000000000
  0.7613888979999999  0.2556944789999989  0.4000000360000016
  0.0947223900000012  0.4223612250000031  0.6999999880000018
  0.4280556439999970  0.5890279409999977  0.0000000000000000
  0.1780555699999979  0.8390277029999993  0.2500000599999979
  0.5113889579999977  0.0056945090000013  0.5500000720000031
  0.8447222710000020  0.1723611350000027  0.8500000240000034
  0.5113889579999977  0.5056945090000013  0.2500000599999979
  0.8447222710000020  0.6723611950000006  0.5500000720000031
  0.1780556439999970  0.8390279409999977  0.8500000240000034
  0.8447223309999998  0.1723611800000029  0.2500000599999979
  0.1780556439999970  0.3390279110000023  0.5500000720000031
  0.5113890169999991  0.5056946280000005  0.8500000240000034
  0.2613889579999977  0.7556944490000035  0.4000000360000016
  0.5947223309999998  0.9223611950000006  0.6999999880000018
  0.9280557630000033  0.0890280010000026  0.0000000000000000
  0.5947223309999998  0.4223611649999981  0.4000000360000016
  0.9280557040000019  0.5890278820000034  0.6999999880000018
  0.2613890169999991  0.7556946280000005  0.0000000000000000
  0.9280556439999970  0.0890278740000028  0.4000000360000016
  0.2613890169999991  0.2556946280000005  0.6999999880000018
  0.5947223900000012  0.4223613440000022  0.0000000000000000
 
  0.00000000E+00  0.00000000E+00  0.00000000E+00
  0.00000000E+00  0.00000000E+00  0.00000000E+00
  0.00000000E+00  0.00000000E+00  0.00000000E+00
  0.00000000E+00  0.00000000E+00  0.00000000E+00
  0.00000000E+00  0.00000000E+00  0.00000000E+00
  0.00000000E+00  0.00000000E+00  0.00000000E+00
  0.00000000E+00  0.00000000E+00  0.00000000E+00
  0.00000000E+00  0.00000000E+00  0.00000000E+00
  0.00000000E+00  0.00000000E+00  0.00000000E+00
  0.00000000E+00  0.00000000E+00  0.00000000E+00
  0.00000000E+00  0.00000000E+00  0.00000000E+00
  0.00000000E+00  0.00000000E+00  0.00000000E+00
  0.00000000E+00  0.00000000E+00  0.00000000E+00
  0.00000000E+00  0.00000000E+00  0.00000000E+00
  0.00000000E+00  0.00000000E+00  0.00000000E+00
  0.00000000E+00  0.00000000E+00  0.00000000E+00
  0.00000000E+00  0.00000000E+00  0.00000000E+00
  0.00000000E+00  0.00000000E+00  0.00000000E+00
  0.00000000E+00  0.00000000E+00  0.00000000E+00
  0.00000000E+00  0.00000000E+00  0.00000000E+00
  0.00000000E+00  0.00000000E+00  0.00000000E+00
  0.00000000E+00  0.00000000E+00  0.00000000E+00
  0.00000000E+00  0.00000000E+00  0.00000000E+00
  0.00000000E+00  0.00000000E+00  0.00000000E+00
  0.00000000E+00  0.00000000E+00  0.00000000E+00
  0.00000000E+00  0.00000000E+00  0.00000000E+00
  0.00000000E+00  0.00000000E+00  0.00000000E+00
  0.00000000E+00  0.00000000E+00  0.00000000E+00
  0.00000000E+00  0.00000000E+00  0.00000000E+00
  0.00000000E+00  0.00000000E+00  0.00000000E+00
  0.00000000E+00  0.00000000E+00  0.00000000E+00
  0.00000000E+00  0.00000000E+00  0.00000000E+00
  0.00000000E+00  0.00000000E+00  0.00000000E+00
  0.00000000E+00  0.00000000E+00  0.00000000E+00
  0.00000000E+00  0.00000000E+00  0.00000000E+00
  0.00000000E+00  0.00000000E+00  0.00000000E+00
  0.00000000E+00  0.00000000E+00  0.00000000E+00
  0.00000000E+00  0.00000000E+00  0.00000000E+00
  0.00000000E+00  0.00000000E+00  0.00000000E+00
  0.00000000E+00  0.00000000E+00  0.00000000E+00
  0.00000000E+00  0.00000000E+00  0.00000000E+00
  0.00000000E+00  0.00000000E+00  0.00000000E+00
  0.00000000E+00  0.00000000E+00  0.00000000E+00
  0.00000000E+00  0.00000000E+00  0.00000000E+00
  0.00000000E+00  0.00000000E+00  0.00000000E+00
  0.00000000E+00  0.00000000E+00  0.00000000E+00
  0.00000000E+00  0.00000000E+00  0.00000000E+00
  0.00000000E+00  0.00000000E+00  0.00000000E+00
