Ge+Sn
    1.000000000
   11.315600395    0.000000000    0.000000000
  -11.315600395   16.002676010    0.000000000
    0.000000000    0.000000000   25.604219437
Ge  Sn 
96     72
Direct
    0.469067723    0.989689231    0.000000017
    0.094067708    0.864689231    0.078125209
    0.719067633    0.739689231    0.156250417
    0.344067693    0.614689231    0.234375581
    0.969067812    0.489689291    0.312500775
    0.594067693    0.364689231    0.390625983
    0.969067693    0.989689231    0.000000017
    0.594067693    0.864689231    0.078125209
    0.219067633    0.739689231    0.156250417
    0.844067693    0.614689231    0.234375581
    0.469067812    0.489689291    0.312500775
    0.094067693    0.364689231    0.390625983
    0.469067693    0.489689231    0.000000009
    0.094067700    0.364689231    0.078125209
    0.719067574    0.239689216    0.156250417
    0.344067693    0.114689231    0.234375581
    0.969067812    0.989689231    0.312500775
    0.594067693    0.864689231    0.390625983
    0.969067693    0.489689231    0.000000009
    0.594067693    0.364689231    0.078125209
    0.219067574    0.239689216    0.156250417
    0.844067693    0.114689231    0.234375581
    0.469067693    0.989689231    0.312500775
    0.094067574    0.864689231    0.390625983
    0.719067693    0.239689231    0.000000017
    0.344067663    0.114689231    0.078125209
    0.969067574    0.989689231    0.156250417
    0.594067693    0.864689231    0.234375581
    0.219067693    0.739689231    0.312500775
    0.844067574    0.614689231    0.390625983
    0.219067678    0.239689231    0.000000017
    0.844067693    0.114689231    0.078125209
    0.469067633    0.989689231    0.156250417
    0.094067693    0.864689231    0.234375581
    0.719067812    0.739689231    0.312500775
    0.344067693    0.614689231    0.390625983
    0.719067633    0.739689231    0.000000021
    0.344067663    0.614689231    0.078125224
    0.969067574    0.489689201    0.156250432
    0.594067633    0.364689231    0.234375611
    0.219067693    0.239689246    0.312500805
    0.844067693    0.114689231    0.390625983
    0.219067693    0.739689231    0.000000021
    0.844067693    0.614689231    0.078125224
    0.469067574    0.489689201    0.156250432
    0.094067693    0.364689231    0.234375611
    0.719067693    0.239689246    0.312500805
    0.344067574    0.114689231    0.390625983
    0.469067663    0.364689231    0.000000016
    0.094067693    0.239689231    0.078125216
    0.719067633    0.114689209    0.156250432
    0.344067693    0.989689231    0.234375611
    0.969067812    0.864689231    0.312500775
    0.594067693    0.739689231    0.390625983
    0.969067693    0.364689231    0.000000016
    0.594067693    0.239689231    0.078125216
    0.219067633    0.114689209    0.156250432
    0.844067693    0.989689231    0.234375611
    0.469067812    0.864689231    0.312500775
    0.094067693    0.739689231    0.390625983
    0.469067752    0.864689291    0.000000000
    0.094067737    0.739689291    0.078125209
    0.719067693    0.614689291    0.156250402
    0.344067693    0.489689291    0.234375581
    0.969067812    0.364689291    0.312500775
    0.594067693    0.239689291    0.390625954
    0.969067693    0.864689291    0.000000000
    0.594067574    0.739689291    0.078125209
    0.219067574    0.614689291    0.156250402
    0.844067574    0.489689291    0.234375581
    0.469067574    0.364689291    0.312500775
    0.094067693    0.239689291    0.390625954
    0.719067693    0.114689223    0.000000017
    0.344067663    0.989689231    0.078125209
    0.969067633    0.864689231    0.156250417
    0.594067693    0.739689231    0.234375611
    0.219067693    0.614689231    0.312500775
    0.844067693    0.489689231    0.390625983
    0.219067678    0.114689223    0.000000017
    0.844067693    0.989689231    0.078125209
    0.469067633    0.864689231    0.156250417
    0.094067693    0.739689231    0.234375611
    0.719067812    0.614689231    0.312500775
    0.344067693    0.489689231    0.390625983
    0.719067693    0.614689231    0.000000015
    0.344067693    0.489689231    0.078125216
    0.969067633    0.364689231    0.156250417
    0.594067693    0.239689231    0.234375611
    0.219067752    0.114689253    0.312500775
    0.844067574    0.989689231    0.390625983
    0.219067723    0.614689231    0.000000015
    0.844067693    0.489689231    0.078125216
    0.469067633    0.364689231    0.156250417
    0.094067693    0.239689231    0.234375611
    0.719067812    0.114689253    0.312500775
    0.344067693    0.989689231    0.390625983
    0.520955741    0.761569381    0.471299201
    0.770955741    0.011569381    0.560904682
    0.020955920    0.261569560    0.650510252
    0.270956218    0.511569679    0.740115762
    0.520956099    0.761569679    0.829721272
    0.770956218    0.011569858    0.919326842
    0.187622368    0.094902597    0.471299201
    0.437622428    0.344902664    0.560904741
    0.687622666    0.594902813    0.650510252
    0.937622845    0.844902933    0.740115821
    0.187622830    0.094903059    0.829721272
    0.437622964    0.344903171    0.919326842
    0.854289114    0.428235948    0.471299201
    0.104289174    0.678236008    0.560904741
    0.354289353    0.928236127    0.650510252
    0.604289591    0.178236306    0.740115762
    0.854289472    0.428236306    0.829721272
    0.104289770    0.678236544    0.919326842
    0.354289055    0.928236008    0.471299171
    0.604288995    0.178236067    0.560904682
    0.854289293    0.428236187    0.650510252
    0.104289532    0.678236306    0.740115762
    0.354289353    0.928236425    0.829721272
    0.604289591    0.178236663    0.919326842
    0.687622488    0.594902635    0.471299201
    0.937622368    0.844902694    0.560904741
    0.187622592    0.094902821    0.650510252
    0.437622845    0.344903052    0.740115762
    0.687622845    0.594902933    0.829721272
    0.937622726    0.844903171    0.919326842
    0.020955801    0.261569291    0.471299201
    0.270955980    0.511569381    0.560904741
    0.520956099    0.761569500    0.650510252
    0.770956218    0.011569738    0.740115762
    0.020956039    0.261569679    0.829721272
    0.270956457    0.511569917    0.919326842
    0.270955741    0.761569262    0.471299171
    0.520955801    0.011569262    0.560904741
    0.770955861    0.261569440    0.650510252
    0.020956039    0.511569560    0.740115762
    0.270956099    0.761569560    0.829721272
    0.520956099    0.011569858    0.919326842
    0.604289114    0.428235948    0.471299201
    0.854289114    0.678235948    0.560904741
    0.104289293    0.928236127    0.650510252
    0.354289472    0.178236187    0.740115762
    0.604289353    0.428236306    0.829721272
    0.854289472    0.678236425    0.919326842
    0.937622428    0.094902597    0.471299201
    0.187622473    0.344902664    0.560904741
    0.437622607    0.594902754    0.650510252
    0.687622845    0.844902933    0.740115821
    0.937622964    0.094903059    0.829721272
    0.187622949    0.344903052    0.919326842
    0.437622368    0.594902694    0.471299201
    0.687622488    0.844902635    0.560904741
    0.937622547    0.094902821    0.650510252
    0.187622711    0.344902933    0.740115821
    0.437622726    0.594902933    0.829721272
    0.687622845    0.844903171    0.919326782
    0.104289055    0.928235948    0.471299201
    0.354289234    0.178236067    0.560904741
    0.604289353    0.428236187    0.650510252
    0.854289591    0.678236306    0.740115821
    0.104289412    0.928236306    0.829721272
    0.354289949    0.178236663    0.919326782
    0.770955801    0.261569321    0.471299201
    0.020955682    0.511569321    0.560904741
    0.270955861    0.761569500    0.650510252
    0.520955980    0.011569619    0.740115762
    0.770955980    0.261569679    0.829721272
    0.020955920    0.511569798    0.919326842
