Ge+Sn
    1.000000000
   11.315600395    0.000000000    0.000000000
    0.000000000   17.891534805    0.000000000
    0.000000000   -0.000000316   13.669415474
Ge  Sn 
48     48
Direct
    0.945568740    0.076203801    0.000000013
    0.695568681    0.426203907    0.065443784
    0.445568681    0.776203990    0.130887553
    0.195568621    0.126204133    0.196331382
    0.945568681    0.476204157    0.261775136
    0.695568681    0.826204300    0.327218831
    0.445568740    0.076203801    0.000000013
    0.195568711    0.426203907    0.065443784
    0.945568681    0.776203990    0.130887553
    0.695568681    0.126204133    0.196331382
    0.445568681    0.476204157    0.261775136
    0.195568621    0.826204300    0.327218831
    0.070568725    0.826203942    0.000000030
    0.820568681    0.176204085    0.065443762
    0.570568681    0.526204109    0.130887493
    0.320568621    0.876204133    0.196331352
    0.070568621    0.226204157    0.261775166
    0.820568562    0.576204300    0.327218890
    0.570568740    0.826203942    0.000000030
    0.320568740    0.176204085    0.065443762
    0.070568711    0.526204109    0.130887493
    0.820568681    0.876204133    0.196331352
    0.570568681    0.226204157    0.261775166
    0.320568621    0.576204300    0.327218890
    0.945568740    0.576203823    0.000000016
    0.695568681    0.926203907    0.065443747
    0.445568681    0.276203990    0.130887568
    0.195568621    0.626204133    0.196331307
    0.945568681    0.976204157    0.261775136
    0.695568681    0.326204300    0.327218890
    0.445568740    0.576203823    0.000000016
    0.195568711    0.926203907    0.065443747
    0.945568681    0.276203990    0.130887568
    0.695568681    0.626204133    0.196331307
    0.445568681    0.976204157    0.261775136
    0.195568621    0.326204300    0.327218890
    0.070568725    0.326203823    0.000000000
    0.820568681    0.676203966    0.065443791
    0.570568681    0.026203990    0.130887553
    0.320568621    0.376204133    0.196331307
    0.070568621    0.726204157    0.261775106
    0.820568562    0.076204300    0.327218801
    0.570568740    0.326203823    0.000000000
    0.320568740    0.676203966    0.065443791
    0.070568711    0.026203990    0.130887553
    0.820568681    0.376204133    0.196331307
    0.570568681    0.726204157    0.261775106
    0.320568621    0.076204300    0.327218801
    0.064725399    0.708663344    0.421352744
    0.731391907    0.333663225    0.518255413
    0.398058504    0.958663225    0.615158081
    0.064725041    0.583663225    0.712060750
    0.731391549    0.208662987    0.808963478
    0.398058206    0.833663046    0.905866086
    0.064725399    0.208663344    0.421352744
    0.731391907    0.833663285    0.518255413
    0.398058504    0.458663225    0.615158081
    0.064725161    0.083663225    0.712060750
    0.731391549    0.708662987    0.808963478
    0.398058087    0.333662987    0.905866206
    0.314725399    0.958663344    0.421352744
    0.981391907    0.583663225    0.518255413
    0.648058534    0.208663225    0.615158081
    0.314725131    0.833663225    0.712060690
    0.981391549    0.458662987    0.808963478
    0.648058176    0.083662987    0.905866086
    0.314725399    0.458663344    0.421352744
    0.981391907    0.083663225    0.518255413
    0.648058534    0.708663225    0.615158081
    0.314725131    0.333663225    0.712060690
    0.981391549    0.958663046    0.808963478
    0.648058176    0.583662987    0.905866086
    0.064725399    0.958663344    0.421352744
    0.731391907    0.583663225    0.518255413
    0.398058504    0.208663225    0.615158081
    0.064725161    0.833663225    0.712060750
    0.731391549    0.458662987    0.808963478
    0.398058087    0.083662987    0.905866086
    0.064725399    0.458663344    0.421352744
    0.731391907    0.083663225    0.518255413
    0.398058504    0.708663225    0.615158081
    0.064725041    0.333663225    0.712060750
    0.731391549    0.958663046    0.808963478
    0.398058087    0.583662987    0.905866206
    0.314725459    0.708663225    0.421352744
    0.981392026    0.333663225    0.518255413
    0.648058534    0.958663166    0.615158081
    0.314725131    0.583663225    0.712060690
    0.981391549    0.208662987    0.808963478
    0.648058176    0.833663046    0.905866086
    0.314725459    0.208663344    0.421352774
    0.981392026    0.833663285    0.518255413
    0.648058534    0.458663225    0.615158081
    0.314725131    0.083663225    0.712060690
    0.981391549    0.708662987    0.808963478
    0.648058176    0.333662987    0.905866086
