Sn+Sn
    1.000000000
   11.239624023    0.000000000    0.000000000
  -11.239624977   15.895229340    0.000000000
    0.000000000    0.000000000   22.942790985
Sn 
144
Direct
    0.982020497    0.982020497    0.000000002
    0.053366542    0.410673052    1.000000119
    0.482020378    0.482020259    0.200000033
    0.232020319    0.232020140    0.299999982
    0.982020259    0.982020140    0.400000006
    0.732020259    0.732020020    0.500000060
    0.982020497    0.315353841    0.000000002
    0.732020497    0.065353788    0.099999994
    0.482020378    0.815353632    0.200000033
    0.232020319    0.565353513    0.299999982
    0.970034122    0.994006813    0.500000060
    0.732020259    0.065353394    0.500000060
    0.982020497    0.648687184    0.000000002
    0.732020497    0.398687124    0.099999994
    0.482020378    0.148687005    0.200000033
    0.232020319    0.898686886    0.299999982
    0.982020259    0.648686886    0.400000006
    0.732020259    0.398686767    0.500000060
    0.982020497    0.065353774    0.100000001
    0.232020482    0.898687124    0.099999994
    0.982020378    0.648687005    0.200000003
    0.732020378    0.398686826    0.299999982
    0.482020319    0.148686767    0.400000006
    0.732020259    0.815353572    0.400000036
    0.482020497    0.482020468    0.000000000
    0.232020482    0.232020438    0.099999994
    0.303366661    0.410673022    1.000000119
    0.053367451    0.160673469    0.500000060
    0.803367496    0.160673484    0.500000060
    0.232020259    0.232020080    0.500000060
    0.482020497    0.815353870    0.000000000
    0.220033288    0.244006366    1.000000119
    0.232020497    0.982020497    0.000000001
    0.982020259    0.732020020    0.500000060
    0.482020319    0.815353513    0.400000006
    0.232020259    0.565353394    0.500000060
    0.732020497    0.148687154    0.000000014
    0.482020468    0.898687124    0.100000001
    0.232020393    0.648687005    0.200000033
    0.982020319    0.398686886    0.300000042
    0.220034182    0.994006813    0.500000060
    0.482020259    0.898686767    0.500000060
    0.732020497    0.482020468    0.000000014
    0.482020468    0.232020453    0.100000001
    0.232020393    0.982020319    0.200000033
    0.982020319    0.732020259    0.300000042
    0.732020259    0.482020140    0.400000036
    0.482020259    0.232020020    0.500000060
    0.732020497    0.815353870    0.000000014
    0.482020468    0.565353870    0.100000001
    0.886699915    0.577339649    1.000000119
    0.636700809    0.327340156    0.500000060
    0.232020259    0.898686647    0.500000060
    0.482020259    0.565353453    0.500000060
    0.982020378    0.315353692    0.200000003
    0.982020497    0.732020497    0.100000001
    0.720033288    0.744006336    1.000000119
    0.470034122    0.494006813    0.500000060
    0.232020319    0.982020140    0.400000006
    0.732020378    0.065353587    0.299999982
    0.232020497    0.315353811    0.000000001
    0.482020497    0.148687169    0.000000000
    0.136700153    0.577339649    1.000000119
    0.886700749    0.327340096    0.500000060
    0.232020319    0.315353453    0.400000006
    0.982020259    0.065353394    0.500000060
    0.232020497    0.648687243    0.000000001
    0.470033288    0.244006321    1.000000119
    0.732020378    0.148686990    0.200000033
    0.482020259    0.898686886    0.300000042
    0.232020319    0.648686886    0.400000006
    0.982020259    0.398686767    0.500000060
    0.303367406    0.660673499    0.500000060
    0.886700630    0.577340066    0.600000083
    0.470033824    0.494006634    0.700000048
    0.053366840    0.410673201    0.800000072
    0.636700034    0.327339768    0.900000036
    0.232020482    0.565353751    0.099999994
    0.982020319    0.065353602    0.300000042
    0.220034048    0.244006738    0.600000024
    0.803367198    0.160673305    0.700000048
    0.386700273    0.077339850    0.800000072
    0.970033407    0.994006455    0.900000036
    0.553366542    0.910673022    1.000000119
    0.982020259    0.315353513    0.400000006
    0.553367317    0.910673380    0.600000024
    0.136700511    0.827339947    0.700000048
    0.720033526    0.744006515    0.800000072
    0.303366780    0.660673082    0.900000036
    0.232020393    0.315353721    0.200000033
    0.136700764    0.827340186    0.500000060
    0.720033944    0.744006753    0.600000024
    0.303367138    0.660673320    0.700000048
    0.886700153    0.577339888    0.800000072
    0.470033407    0.494006425    0.900000036
    0.732020497    0.732020438    0.099999994
    0.482020259    0.232020199    0.300000042
    0.053367335    0.410673380    0.600000083
    0.636700511    0.327339947    0.700000048
    0.220033526    0.244006500    0.800000072
    0.803366661    0.160673067    0.900000036
    0.386699915    0.077339686    1.000000119
    0.482020319    0.482020140    0.400000006
    0.386700720    0.077340074    0.600000024
    0.970033884    0.994006634    0.700000048
    0.553366899    0.910673201    0.800000072
    0.136700094    0.827339768    0.900000036
    0.732020378    0.482020319    0.200000033
    0.386700809    0.827340186    0.500000060
    0.970034003    0.744006813    0.600000024
    0.553367138    0.660673320    0.700000048
    0.136700213    0.577339888    0.800000072
    0.720033407    0.494006425    0.900000036
    0.982020378    0.982020319    0.200000003
    0.720034242    0.494006813    0.500000060
    0.303367406    0.410673410    0.600000083
    0.886700571    0.327339977    0.700000048
    0.470033586    0.244006515    0.800000072
    0.053366780    0.160673082    0.900000036
    0.636700034    0.077339649    1.000000119
    0.732020378    0.732020199    0.299999982
    0.636700630    0.077340044    0.600000024
    0.220033824    0.994006634    0.700000048
    0.803366899    0.910673141    0.800000072
    0.386700034    0.827339709    0.900000036
    0.970033407    0.744006336    1.000000119
    0.553367555    0.660673440    0.500000060
    0.136700764    0.577340066    0.600000083
    0.720033884    0.494006634    0.700000107
    0.303366959    0.410673171    0.800000072
    0.886700153    0.327339739    0.900000036
    0.982020497    0.398687094    0.100000001
    0.482020259    0.565353513    0.300000042
    0.470034003    0.244006708    0.600000024
    0.053367123    0.160673261    0.700000048
    0.636700153    0.077339806    0.800000072
    0.220033348    0.994006395    0.900000036
    0.803366542    0.910672903    1.000000119
    0.732020259    0.148686826    0.400000036
    0.803367376    0.910673380    0.600000024
    0.386700511    0.827340007    0.700000048
    0.970033526    0.744006515    0.800000072
    0.553366780    0.660673141    0.900000036
    0.732020378    0.815353632    0.200000033
