Sn+Ge
    1.000000000
   12.978400230    0.000000000    0.000000000
    0.000000000   12.978400230    0.000000000
    0.000000000    0.000000000   15.183753014
Sn  Ge 
48     60
Direct
    0.992552638    0.499999970    0.000000000
    0.742552638    0.499999970    0.213688970
    0.492552757    0.499999970    0.427377820
    0.992552638    0.000000000    0.000000000
    0.742552638    0.000000000    0.213688970
    0.492552757    0.000000000    0.427377820
    0.492552608    0.499999970    0.000000000
    0.242552638    0.499999970    0.213688970
    0.992552698    0.499999970    0.427377820
    0.492552608    0.000000000    0.000000000
    0.242552638    0.000000000    0.213688970
    0.992552698    0.000000000    0.427377820
    0.117552646    0.874999940    0.106844470
    0.867552757    0.874999940    0.320533395
    0.617552698    0.874999940    0.534222364
    0.117552646    0.374999970    0.106844470
    0.867552757    0.374999970    0.320533395
    0.617552698    0.374999970    0.534222364
    0.617552578    0.874999940    0.106844470
    0.367552698    0.874999940    0.320533395
    0.117552668    0.874999940    0.534222364
    0.617552578    0.374999970    0.106844470
    0.367552698    0.374999970    0.320533395
    0.117552668    0.374999970    0.534222364
    0.242552638    0.749999940    0.000000000
    0.992552638    0.749999940    0.213688970
    0.742552757    0.749999940    0.427377820
    0.242552638    0.249999985    0.000000000
    0.992552638    0.249999985    0.213688970
    0.742552757    0.249999985    0.427377820
    0.742552578    0.749999940    0.000000000
    0.492552608    0.749999940    0.213688970
    0.242552698    0.749999940    0.427377820
    0.742552578    0.249999985    0.000000000
    0.492552608    0.249999985    0.213688970
    0.242552698    0.249999985    0.427377820
    0.367552638    0.624999940    0.106844470
    0.117552713    0.624999940    0.320533395
    0.867552698    0.624999940    0.534222364
    0.367552638    0.124999993    0.106844470
    0.117552713    0.124999993    0.320533395
    0.867552698    0.124999993    0.534222364
    0.867552638    0.624999940    0.106844470
    0.617552757    0.624999940    0.320533395
    0.367552698    0.624999940    0.534222364
    0.867552638    0.124999993    0.106844470
    0.617552757    0.124999993    0.320533395
    0.367552698    0.124999993    0.534222364
    0.000000000    0.034514841    0.534222364
    0.000000068    0.534514844    0.720533311
    0.000000088    0.034514904    0.906844378
    0.199999988    0.634514809    0.534222364
    0.200000003    0.134514809    0.720533311
    0.200000137    0.634514809    0.906844378
    0.399999976    0.234514832    0.534222364
    0.400000036    0.734514773    0.720533311
    0.400000095    0.234514832    0.906844378
    0.600000024    0.834514856    0.534222364
    0.600000024    0.334514856    0.720533311
    0.600000203    0.834514856    0.906844378
    0.799999952    0.434514821    0.534222364
    0.800000012    0.934514761    0.720533311
    0.800000012    0.434514880    0.906844378
    0.150000006    0.984514713    0.627377868
    0.150000051    0.484514832    0.813688874
    0.150000080    0.984514832    0.999999881
    0.349999994    0.584514856    0.627377868
    0.350000054    0.084514856    0.813688874
    0.350000143    0.584514856    0.999999881
    0.549999952    0.184514761    0.627377868
    0.549999952    0.684514880    0.813688874
    0.550000012    0.184514761    0.999999881
    0.750000060    0.784514844    0.627377868
    0.750000119    0.284514904    0.813688874
    0.750000119    0.784514904    0.999999881
    0.950000107    0.384514838    0.627377868
    0.950000107    0.884514809    0.813688874
    0.950000167    0.384514809    0.999999881
    0.100000024    0.334514827    0.534222364
    0.100000076    0.834514797    0.720533311
    0.100000143    0.334514737    0.906844378
    0.300000042    0.934514761    0.534222364
    0.300000101    0.434514761    0.720533311
    0.300000191    0.934514761    0.906844378
    0.500000000    0.534514844    0.534222364
    0.500000060    0.034514785    0.720533311
    0.500000119    0.534514904    0.906844378
    0.699999988    0.134514838    0.534222364
    0.700000048    0.634514809    0.720533311
    0.700000167    0.134514809    0.906844378
    0.899999976    0.734514773    0.534222364
    0.900000036    0.234514832    0.720533311
    0.900000155    0.734514713    0.906844378
    0.050000016    0.684514821    0.627377868
    0.050000083    0.184514880    0.813688874
    0.050000150    0.684514880    0.999999881
    0.250000000    0.284514844    0.627377868
    0.250000060    0.784514844    0.813688874
    0.250000119    0.284514904    0.999999881
    0.449999988    0.884514809    0.627377868
    0.449999988    0.384514809    0.813688874
    0.450000137    0.884514809    0.999999881
    0.649999976    0.484514862    0.627377868
    0.650000036    0.984514832    0.813688874
    0.650000095    0.484514952    0.999999881
    0.850000083    0.084514856    0.627377868
    0.850000143    0.584514856    0.813688874
    0.850000262    0.084514856    0.999999881
