Ge+Si                                   
   1.00000000000000     
    12.6512260439999995    0.0000000000000000    0.0000000000000000
     2.5302445890000000   17.7117156979999990    0.0000000000000000
     0.0000000000000000    0.0000000000000000   12.6152467730000009
   Ge   Si
    84    72
Direct
  0.9975594880000003  0.9951190350000019  0.0000000000000000
  0.9261308310000018  0.8522617819999994  0.2242445349999969
  0.8547021749999999  0.7094045879999982  0.4484891000000033
  0.1404166370000013  0.2808332740000026  0.0000000000000000
  0.0689879800000028  0.1379760800000014  0.2242445349999969
  0.9975593090000032  0.9951189160000027  0.4484891000000033
  0.5689880850000009  0.1379761549999969  0.0000000000000000
  0.4975593979999999  0.9951189160000027  0.2242445349999969
  0.4261307419999980  0.8522617819999994  0.4484891000000033
  0.2832737860000023  0.5665475730000011  0.0000000000000000
  0.2118451150000027  0.4236903790000000  0.2242445349999969
  0.1404164579999971  0.2808331849999988  0.4484891000000033
  0.7118452189999971  0.4236904679999967  0.0000000000000000
  0.6404165630000023  0.2808332740000026  0.2242445349999969
  0.5689879059999967  0.1379760800000014  0.4484891000000033
  0.4261309500000010  0.8522619009999985  0.0000000000000000
  0.3547022939999991  0.7094047069999974  0.2242445349999969
  0.2832736370000006  0.5665475130000033  0.4484891000000033
  0.8547024129999983  0.7094047069999974  0.0000000000000000
  0.7832738159999977  0.5665475130000033  0.2242445349999969
  0.7118450999999979  0.4236903489999975  0.4484891000000033
  0.1404166519999990  0.0308332930000006  0.1121222669999966
  0.0689879880000035  0.8879760499999989  0.3363668320000031
  0.9975593090000032  0.7451188559999977  0.5606113669999999
  0.2832737860000023  0.3165476020000000  0.1121222669999966
  0.2118451300000004  0.1736904079999988  0.3363668320000031
  0.1404164579999971  0.0308331980000034  0.5606113669999999
  0.7118452189999971  0.1736904229999965  0.1121222669999966
  0.6404165029999973  0.0308332290000024  0.3363668320000031
  0.5689879059999967  0.8879759909999976  0.5606113669999999
  0.9975594880000003  0.7451189760000005  0.1121222669999966
  0.9261308310000018  0.6022617819999994  0.3363668320000031
  0.8547021749999999  0.4594045580000028  0.5606113669999999
  0.4261309500000010  0.6022618410000007  0.1121222669999966
  0.3547022939999991  0.4594046469999995  0.3363668320000031
  0.2832736069999982  0.3165474239999995  0.5606113669999999
  0.8547022939999991  0.4594047670000023  0.1121222669999966
  0.7832736969999985  0.3165475730000011  0.3363668320000031
  0.7118450400000000  0.1736903339999998  0.5606113669999999
  0.5689880850000009  0.8879762890000009  0.1121222669999966
  0.4975594280000024  0.7451190350000019  0.3363668320000031
  0.4261307419999980  0.6022618410000007  0.5606113669999999
  0.2832737860000023  0.0665475799999982  0.0000000000000000
  0.2118451150000027  0.9236903790000000  0.2242445349999969
  0.1404164579999971  0.7808331849999988  0.4484891000000033
  0.9975594880000003  0.4951190350000019  0.0000000000000000
  0.9261308310000018  0.3522618109999982  0.2242445349999969
  0.8547021749999999  0.2094046320000018  0.4484891000000033
  0.4261309800000035  0.3522618710000032  0.0000000000000000
  0.3547022939999991  0.2094046469999995  0.2242445349999969
  0.2832736370000006  0.0665474680000031  0.4484891000000033
  0.8547024129999983  0.2094047369999998  0.0000000000000000
  0.7832736969999985  0.0665475130000033  0.2242445349999969
  0.7118450999999979  0.9236903190000021  0.4484891000000033
  0.1404166219999965  0.7808333039999980  0.0000000000000000
  0.0689879509999969  0.6379761099999968  0.2242445349999969
  0.9975593090000032  0.4951189160000027  0.4484891000000033
  0.5689880250000030  0.6379761700000017  0.0000000000000000
  0.4975593979999999  0.4951189760000005  0.2242445349999969
  0.4261307419999980  0.3522617819999994  0.4484891000000033
  0.7118452189999971  0.9236905570000005  0.0000000000000000
  0.6404165630000023  0.7808333640000029  0.2242445349999969
  0.5689879059999967  0.6379761700000017  0.4484891000000033
  0.9975594880000003  0.2451189909999982  0.1121222669999966
  0.9261308310000018  0.1022617819999994  0.3363668320000031
  0.8547021749999999  0.9594045879999982  0.5606113669999999
  0.4261309500000010  0.1022618710000032  0.1121222669999966
  0.3547022939999991  0.9594046469999995  0.3363668320000031
  0.2832736370000006  0.8165474529999983  0.5606113669999999
  0.1404166370000013  0.5308333039999980  0.1121222669999966
  0.0689879800000028  0.3879761099999968  0.3363668320000031
  0.9975593090000032  0.2451188860000002  0.5606113669999999
  0.5689880250000030  0.3879761700000017  0.1121222669999966
  0.4975593979999999  0.2451189610000029  0.3363668320000031
  0.4261307720000005  0.1022617300000022  0.5606113669999999
  0.2832737570000035  0.8165475730000011  0.1121222669999966
  0.2118451150000027  0.6736903790000000  0.3363668320000031
  0.1404164579999971  0.5308331849999988  0.5606113669999999
  0.7118451600000029  0.6736904380000013  0.1121222669999966
  0.6404165630000023  0.5308332440000001  0.3363668320000031
  0.5689879059999967  0.3879760499999989  0.5606113669999999
  0.8547024730000032  0.9594047670000023  0.1121222669999966
  0.7832738159999977  0.8165475730000011  0.3363668320000031
  0.7118450999999979  0.6736903790000000  0.5606113669999999
  0.7418981790000032  0.6030093429999965  0.5606113669999999
  0.1030094620000028  0.2974536420000007  0.6484891180000005
  0.4641207459999990  0.9918978809999999  0.7363668679999975
  0.8252317910000002  0.6863422389999982  0.8242444990000024
  0.1863429550000006  0.3807864790000011  0.9121221300000002
  0.5474543569999994  0.0752307180000003  0.0000000000000000
  0.4085648060000011  0.2696759399999991  0.5606113669999999
  0.7696760890000007  0.9641202090000007  0.6484891180000005
  0.1307873729999969  0.6585645079999978  0.7363668679999975
  0.4918984170000016  0.3530088660000033  0.8242444990000024
  0.8530097009999977  0.0474531050000024  0.9121223690000022
  0.2141208649999982  0.7418974639999973  0.0000000000000000
  0.0752315000000010  0.9363425969999994  0.5606113669999999
  0.4363427460000011  0.6307868960000036  0.6484891180000005
  0.7974539399999969  0.3252310749999978  0.7363668679999975
  0.1585650439999995  0.0196754930000012  0.8242444990000024
  0.5196763280000027  0.7141197919999982  0.9121221300000002
  0.8807876110000024  0.4085639720000032  0.0000000000000000
  0.0752314850000033  0.6863427159999986  0.5606113669999999
  0.4363427460000011  0.3807870150000028  0.6484891180000005
  0.7974539399999969  0.0752312910000015  0.7363668679999975
  0.1585651640000023  0.7696756120000003  0.8242444990000024
  0.5196763280000027  0.4641199109999974  0.9121223690000022
  0.8807877300000015  0.1585641499999966  0.9999998810000008
  0.7418981189999982  0.3530092840000023  0.5606113669999999
  0.1030093429999965  0.0474535640000013  0.6484891180000005
  0.4641205069999970  0.7418978210000020  0.7363668679999975
  0.8252316709999974  0.4363422389999982  0.8242444990000024
  0.1863429550000006  0.1307863589999982  0.9121223690000022
  0.5474541190000011  0.8252307180000003  0.0000000000000000
  0.4085648659999990  0.0196759119999967  0.5606113669999999
  0.7696760890000007  0.7141201499999994  0.6484891180000005
  0.1307873729999969  0.4085643889999986  0.7363668679999975
  0.4918985369999973  0.1030088660000033  0.8242446180000016
  0.8530097009999977  0.7974531650000003  0.9121223690000022
  0.2141208649999982  0.4918972250000024  0.0000000000000000
  0.9085648659999990  0.7696760299999994  0.5606114859999991
  0.2696762079999999  0.4641203580000024  0.6484891180000005
  0.6307873729999969  0.1585645680000027  0.7363668679999975
  0.9918984170000016  0.8530089260000011  0.8242444990000024
  0.3530099390000032  0.5474532249999982  0.9121223690000022
  0.7141208649999982  0.2418975229999987  0.0000000000000000
  0.5752315519999982  0.4363426270000019  0.5606113669999999
  0.9363427159999986  0.1307868959999965  0.6484891180000005
  0.2974540000000019  0.8252311939999970  0.7363668679999975
  0.6585651640000023  0.5196755529999990  0.8242444990000024
  0.0196764470000019  0.2141198520000032  0.9121221300000002
  0.3807876110000024  0.9085640910000023  0.0000000000000000
  0.2418981490000007  0.1030092689999975  0.5606113669999999
  0.6030094030000015  0.7974535230000015  0.6484891180000005
  0.9641206260000033  0.4918977620000007  0.7363668679999975
  0.3252317910000002  0.1863421799999969  0.8242444990000024
  0.6863429550000006  0.8807864190000032  0.9121223690000022
  0.0474541190000011  0.5752307180000003  0.0000000000000000
  0.2418981490000007  0.8530093429999965  0.5606113669999999
  0.6030093429999965  0.5474536420000007  0.6484891180000005
  0.9641206260000033  0.2418979110000024  0.7363668679999975
  0.3252317910000002  0.9363422389999982  0.8242444990000024
  0.6863430739999998  0.6307865380000024  0.9121223690000022
  0.0474543569999994  0.3252308369999994  0.0000000000000000
  0.9085648659999990  0.5196759700000015  0.5606114859999991
  0.2696760890000007  0.2141202990000011  0.6484891180000005
  0.6307873729999969  0.9085645680000027  0.7363668679999975
  0.9918985369999973  0.6030089260000011  0.8242444990000024
  0.3530097009999977  0.2974532249999982  0.9121223690000022
  0.7141211029999965  0.9918974639999973  0.0000000000000000
  0.5752314929999969  0.1863426119999971  0.5606113669999999
  0.9363427760000036  0.8807868960000036  0.6484891180000005
  0.2974540000000019  0.5752311350000028  0.7363668679999975
  0.6585651640000023  0.2696755529999990  0.8242444990000024
  0.0196762079999999  0.9641197919999982  0.9121223690000022
  0.3807876110000024  0.6585640910000023  0.0000000000000000
 
  0.00000000E+00  0.00000000E+00  0.00000000E+00
  0.00000000E+00  0.00000000E+00  0.00000000E+00
  0.00000000E+00  0.00000000E+00  0.00000000E+00
  0.00000000E+00  0.00000000E+00  0.00000000E+00
  0.00000000E+00  0.00000000E+00  0.00000000E+00
  0.00000000E+00  0.00000000E+00  0.00000000E+00
  0.00000000E+00  0.00000000E+00  0.00000000E+00
  0.00000000E+00  0.00000000E+00  0.00000000E+00
  0.00000000E+00  0.00000000E+00  0.00000000E+00
  0.00000000E+00  0.00000000E+00  0.00000000E+00
  0.00000000E+00  0.00000000E+00  0.00000000E+00
  0.00000000E+00  0.00000000E+00  0.00000000E+00
  0.00000000E+00  0.00000000E+00  0.00000000E+00
  0.00000000E+00  0.00000000E+00  0.00000000E+00
  0.00000000E+00  0.00000000E+00  0.00000000E+00
  0.00000000E+00  0.00000000E+00  0.00000000E+00
  0.00000000E+00  0.00000000E+00  0.00000000E+00
  0.00000000E+00  0.00000000E+00  0.00000000E+00
  0.00000000E+00  0.00000000E+00  0.00000000E+00
  0.00000000E+00  0.00000000E+00  0.00000000E+00
  0.00000000E+00  0.00000000E+00  0.00000000E+00
  0.00000000E+00  0.00000000E+00  0.00000000E+00
  0.00000000E+00  0.00000000E+00  0.00000000E+00
  0.00000000E+00  0.00000000E+00  0.00000000E+00
  0.00000000E+00  0.00000000E+00  0.00000000E+00
  0.00000000E+00  0.00000000E+00  0.00000000E+00
  0.00000000E+00  0.00000000E+00  0.00000000E+00
  0.00000000E+00  0.00000000E+00  0.00000000E+00
  0.00000000E+00  0.00000000E+00  0.00000000E+00
  0.00000000E+00  0.00000000E+00  0.00000000E+00
  0.00000000E+00  0.00000000E+00  0.00000000E+00
  0.00000000E+00  0.00000000E+00  0.00000000E+00
  0.00000000E+00  0.00000000E+00  0.00000000E+00
  0.00000000E+00  0.00000000E+00  0.00000000E+00
  0.00000000E+00  0.00000000E+00  0.00000000E+00
  0.00000000E+00  0.00000000E+00  0.00000000E+00
  0.00000000E+00  0.00000000E+00  0.00000000E+00
  0.00000000E+00  0.00000000E+00  0.00000000E+00
  0.00000000E+00  0.00000000E+00  0.00000000E+00
  0.00000000E+00  0.00000000E+00  0.00000000E+00
  0.00000000E+00  0.00000000E+00  0.00000000E+00
  0.00000000E+00  0.00000000E+00  0.00000000E+00
  0.00000000E+00  0.00000000E+00  0.00000000E+00
  0.00000000E+00  0.00000000E+00  0.00000000E+00
  0.00000000E+00  0.00000000E+00  0.00000000E+00
  0.00000000E+00  0.00000000E+00  0.00000000E+00
  0.00000000E+00  0.00000000E+00  0.00000000E+00
  0.00000000E+00  0.00000000E+00  0.00000000E+00
  0.00000000E+00  0.00000000E+00  0.00000000E+00
  0.00000000E+00  0.00000000E+00  0.00000000E+00
  0.00000000E+00  0.00000000E+00  0.00000000E+00
  0.00000000E+00  0.00000000E+00  0.00000000E+00
  0.00000000E+00  0.00000000E+00  0.00000000E+00
  0.00000000E+00  0.00000000E+00  0.00000000E+00
  0.00000000E+00  0.00000000E+00  0.00000000E+00
  0.00000000E+00  0.00000000E+00  0.00000000E+00
  0.00000000E+00  0.00000000E+00  0.00000000E+00
  0.00000000E+00  0.00000000E+00  0.00000000E+00
  0.00000000E+00  0.00000000E+00  0.00000000E+00
  0.00000000E+00  0.00000000E+00  0.00000000E+00
  0.00000000E+00  0.00000000E+00  0.00000000E+00
  0.00000000E+00  0.00000000E+00  0.00000000E+00
  0.00000000E+00  0.00000000E+00  0.00000000E+00
  0.00000000E+00  0.00000000E+00  0.00000000E+00
  0.00000000E+00  0.00000000E+00  0.00000000E+00
  0.00000000E+00  0.00000000E+00  0.00000000E+00
  0.00000000E+00  0.00000000E+00  0.00000000E+00
  0.00000000E+00  0.00000000E+00  0.00000000E+00
  0.00000000E+00  0.00000000E+00  0.00000000E+00
  0.00000000E+00  0.00000000E+00  0.00000000E+00
  0.00000000E+00  0.00000000E+00  0.00000000E+00
  0.00000000E+00  0.00000000E+00  0.00000000E+00
  0.00000000E+00  0.00000000E+00  0.00000000E+00
  0.00000000E+00  0.00000000E+00  0.00000000E+00
  0.00000000E+00  0.00000000E+00  0.00000000E+00
  0.00000000E+00  0.00000000E+00  0.00000000E+00
  0.00000000E+00  0.00000000E+00  0.00000000E+00
  0.00000000E+00  0.00000000E+00  0.00000000E+00
  0.00000000E+00  0.00000000E+00  0.00000000E+00
  0.00000000E+00  0.00000000E+00  0.00000000E+00
  0.00000000E+00  0.00000000E+00  0.00000000E+00
  0.00000000E+00  0.00000000E+00  0.00000000E+00
  0.00000000E+00  0.00000000E+00  0.00000000E+00
  0.00000000E+00  0.00000000E+00  0.00000000E+00
  0.00000000E+00  0.00000000E+00  0.00000000E+00
  0.00000000E+00  0.00000000E+00  0.00000000E+00
  0.00000000E+00  0.00000000E+00  0.00000000E+00
  0.00000000E+00  0.00000000E+00  0.00000000E+00
  0.00000000E+00  0.00000000E+00  0.00000000E+00
  0.00000000E+00  0.00000000E+00  0.00000000E+00
  0.00000000E+00  0.00000000E+00  0.00000000E+00
  0.00000000E+00  0.00000000E+00  0.00000000E+00
  0.00000000E+00  0.00000000E+00  0.00000000E+00
  0.00000000E+00  0.00000000E+00  0.00000000E+00
  0.00000000E+00  0.00000000E+00  0.00000000E+00
  0.00000000E+00  0.00000000E+00  0.00000000E+00
  0.00000000E+00  0.00000000E+00  0.00000000E+00
  0.00000000E+00  0.00000000E+00  0.00000000E+00
  0.00000000E+00  0.00000000E+00  0.00000000E+00
  0.00000000E+00  0.00000000E+00  0.00000000E+00
  0.00000000E+00  0.00000000E+00  0.00000000E+00
  0.00000000E+00  0.00000000E+00  0.00000000E+00
  0.00000000E+00  0.00000000E+00  0.00000000E+00
  0.00000000E+00  0.00000000E+00  0.00000000E+00
  0.00000000E+00  0.00000000E+00  0.00000000E+00
  0.00000000E+00  0.00000000E+00  0.00000000E+00
  0.00000000E+00  0.00000000E+00  0.00000000E+00
  0.00000000E+00  0.00000000E+00  0.00000000E+00
  0.00000000E+00  0.00000000E+00  0.00000000E+00
  0.00000000E+00  0.00000000E+00  0.00000000E+00
  0.00000000E+00  0.00000000E+00  0.00000000E+00
  0.00000000E+00  0.00000000E+00  0.00000000E+00
  0.00000000E+00  0.00000000E+00  0.00000000E+00
  0.00000000E+00  0.00000000E+00  0.00000000E+00
  0.00000000E+00  0.00000000E+00  0.00000000E+00
  0.00000000E+00  0.00000000E+00  0.00000000E+00
  0.00000000E+00  0.00000000E+00  0.00000000E+00
  0.00000000E+00  0.00000000E+00  0.00000000E+00
  0.00000000E+00  0.00000000E+00  0.00000000E+00
  0.00000000E+00  0.00000000E+00  0.00000000E+00
  0.00000000E+00  0.00000000E+00  0.00000000E+00
  0.00000000E+00  0.00000000E+00  0.00000000E+00
  0.00000000E+00  0.00000000E+00  0.00000000E+00
  0.00000000E+00  0.00000000E+00  0.00000000E+00
  0.00000000E+00  0.00000000E+00  0.00000000E+00
  0.00000000E+00  0.00000000E+00  0.00000000E+00
  0.00000000E+00  0.00000000E+00  0.00000000E+00
  0.00000000E+00  0.00000000E+00  0.00000000E+00
  0.00000000E+00  0.00000000E+00  0.00000000E+00
  0.00000000E+00  0.00000000E+00  0.00000000E+00
  0.00000000E+00  0.00000000E+00  0.00000000E+00
  0.00000000E+00  0.00000000E+00  0.00000000E+00
  0.00000000E+00  0.00000000E+00  0.00000000E+00
  0.00000000E+00  0.00000000E+00  0.00000000E+00
  0.00000000E+00  0.00000000E+00  0.00000000E+00
  0.00000000E+00  0.00000000E+00  0.00000000E+00
  0.00000000E+00  0.00000000E+00  0.00000000E+00
  0.00000000E+00  0.00000000E+00  0.00000000E+00
  0.00000000E+00  0.00000000E+00  0.00000000E+00
  0.00000000E+00  0.00000000E+00  0.00000000E+00
  0.00000000E+00  0.00000000E+00  0.00000000E+00
  0.00000000E+00  0.00000000E+00  0.00000000E+00
  0.00000000E+00  0.00000000E+00  0.00000000E+00
  0.00000000E+00  0.00000000E+00  0.00000000E+00
  0.00000000E+00  0.00000000E+00  0.00000000E+00
  0.00000000E+00  0.00000000E+00  0.00000000E+00
  0.00000000E+00  0.00000000E+00  0.00000000E+00
  0.00000000E+00  0.00000000E+00  0.00000000E+00
  0.00000000E+00  0.00000000E+00  0.00000000E+00
  0.00000000E+00  0.00000000E+00  0.00000000E+00
  0.00000000E+00  0.00000000E+00  0.00000000E+00
  0.00000000E+00  0.00000000E+00  0.00000000E+00
  0.00000000E+00  0.00000000E+00  0.00000000E+00
  0.00000000E+00  0.00000000E+00  0.00000000E+00
  0.00000000E+00  0.00000000E+00  0.00000000E+00
  0.00000000E+00  0.00000000E+00  0.00000000E+00
