Ge+Ge
    1.000000000
    8.001338005    0.000000000    0.000000000
    4.000669003   12.002006531    0.000000000
    0.000000000    0.000000000    9.429668427
Ge 
48
Direct
    0.994305491    0.994305491    0.000000000
    0.827638865    0.827638865    0.299999923
    0.660972118    0.660972118    0.599999905
    0.327638805    0.327638805    0.000000000
    0.160972148    0.160972148    0.299999923
    0.994305432    0.994305432    0.599999905
    0.660972118    0.660972118    0.000000000
    0.494305432    0.494305432    0.299999923
    0.327638745    0.327638745    0.599999905
    0.244305477    0.994305491    0.149999961
    0.077638790    0.827638865    0.449999899
    0.910972118    0.660972118    0.749999940
    0.577638805    0.327638805    0.149999961
    0.410972118    0.160972133    0.449999899
    0.244305432    0.994305432    0.749999940
    0.910972178    0.660972118    0.149999961
    0.744305491    0.494305462    0.449999899
    0.577638805    0.327638775    0.749999940
    0.494305432    0.994305491    0.000000000
    0.327638775    0.827638865    0.299999923
    0.160972089    0.660972118    0.599999905
    0.160972178    0.660972118    0.000000000
    0.994305491    0.494305462    0.299999923
    0.827638805    0.327638775    0.599999905
    0.827638745    0.327638835    0.000000000
    0.660972118    0.160972163    0.299999923
    0.494305402    0.994305491    0.599999905
    0.077638827    0.327638835    0.149999961
    0.910972118    0.160972148    0.449999899
    0.744305491    0.994305491    0.749999940
    0.744305491    0.994305491    0.149999961
    0.577638805    0.827638805    0.449999899
    0.410972089    0.660972118    0.749999940
    0.410972148    0.660972118    0.149999961
    0.244305447    0.494305402    0.449999899
    0.077638745    0.327638716    0.749999940
    0.962846637    0.026538121    0.749999881
    0.573957682    0.304315925    0.849999905
    0.185068786    0.582093775    0.949999928
    0.462846607    0.026538121    0.749999881
    0.073957689    0.304315954    0.849999905
    0.685068727    0.582093775    0.949999928
    0.768402100    0.915427029    0.799999833
    0.379513264    0.193204761    0.899999976
    0.990624189    0.470982671    1.000000000
    0.268402100    0.915427089    0.799999833
    0.879513264    0.193204761    0.899999976
    0.490624249    0.470982671    1.000000000
