Si+Ge                                   
   1.00000000000000     
    16.2930011750000006    0.0000000000000000    0.0000000000000000
     0.0000000000000000   17.1743297579999989    0.0000000000000000
     0.0000000000000000    0.0000002530000000   10.4023427959999992
   Si   Ge
    72    48
Direct
  0.1303789019999968  0.8262046580000018  0.4127521509999994
  0.9637124540000030  0.0762039119999969  0.0000000570000012
  0.7970457079999989  0.4262040260000006  0.0825504809999984
  0.6303790810000010  0.7762041690000032  0.1651008870000013
  0.4637122749999989  0.1262044910000029  0.2476513240000031
  0.2970455290000018  0.4762046339999984  0.3302018050000015
  0.4637122749999989  0.8262046580000018  0.4127521509999994
  0.2970457970000027  0.0762039119999969  0.0000000570000012
  0.1303790810000010  0.4262040260000006  0.0825504809999984
  0.9637123939999981  0.7762041690000032  0.1651008870000013
  0.7970455880000031  0.1262044910000029  0.2476513240000031
  0.6303788419999989  0.4762046339999984  0.3302018050000015
  0.7970455880000031  0.8262046580000018  0.4127521509999994
  0.6303791400000023  0.0762039119999969  0.0000000570000012
  0.4637124240000006  0.4262040260000006  0.0825504809999984
  0.2970457670000002  0.7762041690000032  0.1651008870000013
  0.1303789760000029  0.1262044910000029  0.2476513240000031
  0.9637122150000010  0.4762046339999984  0.3302018050000015
  0.2137122150000010  0.5762047770000009  0.4127520919999981
  0.0470457670000002  0.8262040019999972  0.0000000000000000
  0.8803790810000010  0.1762042049999977  0.0825504660000007
  0.7137123349999968  0.5262044669999995  0.1651007979999974
  0.5470455880000031  0.8762046100000020  0.2476512639999982
  0.3803789620000018  0.2262046339999984  0.3302016259999974
  0.5470455880000031  0.5762047770000009  0.4127520919999981
  0.3803790810000010  0.8262040019999972  0.0000000000000000
  0.2137123790000004  0.1762042049999977  0.0825504660000007
  0.0470456930000012  0.5262044669999995  0.1651007979999974
  0.8803789620000018  0.8762046100000020  0.2476512639999982
  0.7137123349999968  0.2262046339999984  0.3302016259999974
  0.8803789019999968  0.5762047770000009  0.4127520919999981
  0.7137123939999981  0.8262040019999972  0.0000000000000000
  0.5470457079999989  0.1762042049999977  0.0825504660000007
  0.3803789910000006  0.5262044669999995  0.1651007979999974
  0.2137122299999987  0.8762046100000020  0.2476512639999982
  0.0470455809999990  0.2262046339999984  0.3302016259999974
  0.1303789019999968  0.3262047770000009  0.4127521509999994
  0.9637123939999981  0.5762040019999972  0.0000000229999984
  0.7970457079999989  0.9262041449999998  0.0825504439999989
  0.6303790210000031  0.2762042279999974  0.1651007979999974
  0.4637122749999989  0.6262044910000029  0.2476513240000031
  0.2970456480000010  0.9762046339999984  0.3302016259999974
  0.4637122749999989  0.3262047770000009  0.4127521509999994
  0.2970457670000002  0.5762040019999972  0.0000000229999984
  0.1303790509999985  0.9262041449999998  0.0825504439999989
  0.9637123939999981  0.2762042279999974  0.1651007979999974
  0.7970455880000031  0.6262044910000029  0.2476513240000031
  0.6303789620000018  0.9762046339999984  0.3302016259999974
  0.7970455880000031  0.3262047770000009  0.4127521509999994
  0.6303791400000023  0.5762040019999972  0.0000000229999984
  0.4637123939999981  0.9262041449999998  0.0825504439999989
  0.2970457380000013  0.2762042279999974  0.1651007979999974
  0.1303789760000029  0.6262044910000029  0.2476513240000031
  0.9637123349999968  0.9762046339999984  0.3302016259999974
  0.2137122150000010  0.0762047770000009  0.4127520620000027
  0.0470457670000002  0.3262039119999969  0.0000000570000012
  0.8803790810000010  0.6762040260000006  0.0825504510000030
  0.7137123939999981  0.0262042279999974  0.1651008130000022
  0.5470455880000031  0.3762044910000029  0.2476512639999982
  0.3803788419999989  0.7262047529999975  0.3302016259999974
  0.5470455880000031  0.0762047770000009  0.4127520620000027
  0.3803791110000034  0.3262039119999969  0.0000000570000012
  0.2137124090000029  0.6762040260000006  0.0825504510000030
  0.0470457260000003  0.0262042279999974  0.1651008130000022
  0.8803789620000018  0.3762044910000029  0.2476512639999982
  0.7137122150000010  0.7262047529999975  0.3302016259999974
  0.8803789620000018  0.0762047770000009  0.4127520620000027
  0.7137124540000030  0.3262039119999969  0.0000000570000012
  0.5470457670000002  0.6762040260000006  0.0825504510000030
  0.3803790810000010  0.0262042279999974  0.1651008130000022
  0.2137122899999966  0.3762044910000029  0.2476512639999982
  0.0470455399999992  0.7262047529999975  0.3302016259999974
  0.7157068249999980  0.6819541449999988  0.5461288690000003
  0.3407068550000005  0.2930650710000009  0.6102277040000033
  0.9657068850000030  0.9041762350000013  0.6743265389999991
  0.5907069439999972  0.5152873990000018  0.7384254930000012
  0.2157069439999972  0.1263983249999967  0.8025243279999970
  0.8407068249999980  0.7375092509999988  0.8666232819999991
  0.2157068249999980  0.6819541449999988  0.5461288690000003
  0.8407069439999972  0.2930650710000009  0.6102277040000033
  0.4657068850000030  0.9041761760000000  0.6743265389999991
  0.0907069439999972  0.5152873990000018  0.7384254930000012
  0.7157070640000001  0.1263983249999967  0.8025243279999970
  0.3407069439999972  0.7375092509999988  0.8666232819999991
  0.0907068249999980  0.4319540259999997  0.5461288690000003
  0.7157068850000030  0.0430650710000009  0.6102278230000024
  0.3407069149999984  0.6541762350000013  0.6743266579999982
  0.9657070040000022  0.2652873990000018  0.7384254930000012
  0.5907071230000014  0.8763984440000030  0.8025244470000032
  0.2157068249999980  0.4875092509999988  0.8666232819999991
  0.5907068249999980  0.4319540259999997  0.5461288690000003
  0.2157068249999980  0.0430650710000009  0.6102277040000033
  0.8407068850000030  0.6541761160000021  0.6743265389999991
  0.4657069439999972  0.2652872800000026  0.7384254930000012
  0.0907070640000001  0.8763983249999967  0.8025243279999970
  0.7157068249999980  0.4875092509999988  0.8666232819999991
  0.8407068249999980  0.4319540259999997  0.5461288690000003
  0.4657068249999980  0.0430650710000009  0.6102277040000033
  0.0907068249999980  0.6541761160000021  0.6743265389999991
  0.7157069439999972  0.2652872800000026  0.7384254930000012
  0.3407070640000001  0.8763983850000017  0.8025243279999970
  0.9657068249999980  0.4875092509999988  0.8666232819999991
  0.3407068249999980  0.4319540259999997  0.5461288690000003
  0.9657068850000030  0.0430650710000009  0.6102277040000033
  0.5907068850000030  0.6541762350000013  0.6743265389999991
  0.2157069439999972  0.2652872800000026  0.7384254930000012
  0.8407070640000001  0.8763983850000017  0.8025243279999970
  0.4657069439999972  0.4875092509999988  0.8666232819999991
  0.9657067659999967  0.6819541449999988  0.5461288690000003
  0.5907068249999980  0.2930650710000009  0.6102277040000033
  0.2157068249999980  0.9041762350000013  0.6743265389999991
  0.8407069439999972  0.5152871610000034  0.7384254930000012
  0.4657070640000001  0.1263983249999967  0.8025243279999970
  0.0907068249999980  0.7375092509999988  0.8666232819999991
  0.4657068249999980  0.6819541449999988  0.5461288690000003
  0.0907068249999980  0.2930650710000009  0.6102277040000033
  0.7157069439999972  0.9041762350000013  0.6743266579999982
  0.3407070040000022  0.5152873990000018  0.7384254930000012
  0.9657070640000001  0.1263983249999967  0.8025243279999970
  0.5907068249999980  0.7375092509999988  0.8666232819999991
 
  0.00000000E+00  0.00000000E+00  0.00000000E+00
  0.00000000E+00  0.00000000E+00  0.00000000E+00
  0.00000000E+00  0.00000000E+00  0.00000000E+00
  0.00000000E+00  0.00000000E+00  0.00000000E+00
  0.00000000E+00  0.00000000E+00  0.00000000E+00
  0.00000000E+00  0.00000000E+00  0.00000000E+00
  0.00000000E+00  0.00000000E+00  0.00000000E+00
  0.00000000E+00  0.00000000E+00  0.00000000E+00
  0.00000000E+00  0.00000000E+00  0.00000000E+00
  0.00000000E+00  0.00000000E+00  0.00000000E+00
  0.00000000E+00  0.00000000E+00  0.00000000E+00
  0.00000000E+00  0.00000000E+00  0.00000000E+00
  0.00000000E+00  0.00000000E+00  0.00000000E+00
  0.00000000E+00  0.00000000E+00  0.00000000E+00
  0.00000000E+00  0.00000000E+00  0.00000000E+00
  0.00000000E+00  0.00000000E+00  0.00000000E+00
  0.00000000E+00  0.00000000E+00  0.00000000E+00
  0.00000000E+00  0.00000000E+00  0.00000000E+00
  0.00000000E+00  0.00000000E+00  0.00000000E+00
  0.00000000E+00  0.00000000E+00  0.00000000E+00
  0.00000000E+00  0.00000000E+00  0.00000000E+00
  0.00000000E+00  0.00000000E+00  0.00000000E+00
  0.00000000E+00  0.00000000E+00  0.00000000E+00
  0.00000000E+00  0.00000000E+00  0.00000000E+00
  0.00000000E+00  0.00000000E+00  0.00000000E+00
  0.00000000E+00  0.00000000E+00  0.00000000E+00
  0.00000000E+00  0.00000000E+00  0.00000000E+00
  0.00000000E+00  0.00000000E+00  0.00000000E+00
  0.00000000E+00  0.00000000E+00  0.00000000E+00
  0.00000000E+00  0.00000000E+00  0.00000000E+00
  0.00000000E+00  0.00000000E+00  0.00000000E+00
  0.00000000E+00  0.00000000E+00  0.00000000E+00
  0.00000000E+00  0.00000000E+00  0.00000000E+00
  0.00000000E+00  0.00000000E+00  0.00000000E+00
  0.00000000E+00  0.00000000E+00  0.00000000E+00
  0.00000000E+00  0.00000000E+00  0.00000000E+00
  0.00000000E+00  0.00000000E+00  0.00000000E+00
  0.00000000E+00  0.00000000E+00  0.00000000E+00
  0.00000000E+00  0.00000000E+00  0.00000000E+00
  0.00000000E+00  0.00000000E+00  0.00000000E+00
  0.00000000E+00  0.00000000E+00  0.00000000E+00
  0.00000000E+00  0.00000000E+00  0.00000000E+00
  0.00000000E+00  0.00000000E+00  0.00000000E+00
  0.00000000E+00  0.00000000E+00  0.00000000E+00
  0.00000000E+00  0.00000000E+00  0.00000000E+00
  0.00000000E+00  0.00000000E+00  0.00000000E+00
  0.00000000E+00  0.00000000E+00  0.00000000E+00
  0.00000000E+00  0.00000000E+00  0.00000000E+00
  0.00000000E+00  0.00000000E+00  0.00000000E+00
  0.00000000E+00  0.00000000E+00  0.00000000E+00
  0.00000000E+00  0.00000000E+00  0.00000000E+00
  0.00000000E+00  0.00000000E+00  0.00000000E+00
  0.00000000E+00  0.00000000E+00  0.00000000E+00
  0.00000000E+00  0.00000000E+00  0.00000000E+00
  0.00000000E+00  0.00000000E+00  0.00000000E+00
  0.00000000E+00  0.00000000E+00  0.00000000E+00
  0.00000000E+00  0.00000000E+00  0.00000000E+00
  0.00000000E+00  0.00000000E+00  0.00000000E+00
  0.00000000E+00  0.00000000E+00  0.00000000E+00
  0.00000000E+00  0.00000000E+00  0.00000000E+00
  0.00000000E+00  0.00000000E+00  0.00000000E+00
  0.00000000E+00  0.00000000E+00  0.00000000E+00
  0.00000000E+00  0.00000000E+00  0.00000000E+00
  0.00000000E+00  0.00000000E+00  0.00000000E+00
  0.00000000E+00  0.00000000E+00  0.00000000E+00
  0.00000000E+00  0.00000000E+00  0.00000000E+00
  0.00000000E+00  0.00000000E+00  0.00000000E+00
  0.00000000E+00  0.00000000E+00  0.00000000E+00
  0.00000000E+00  0.00000000E+00  0.00000000E+00
  0.00000000E+00  0.00000000E+00  0.00000000E+00
  0.00000000E+00  0.00000000E+00  0.00000000E+00
  0.00000000E+00  0.00000000E+00  0.00000000E+00
  0.00000000E+00  0.00000000E+00  0.00000000E+00
  0.00000000E+00  0.00000000E+00  0.00000000E+00
  0.00000000E+00  0.00000000E+00  0.00000000E+00
  0.00000000E+00  0.00000000E+00  0.00000000E+00
  0.00000000E+00  0.00000000E+00  0.00000000E+00
  0.00000000E+00  0.00000000E+00  0.00000000E+00
  0.00000000E+00  0.00000000E+00  0.00000000E+00
  0.00000000E+00  0.00000000E+00  0.00000000E+00
  0.00000000E+00  0.00000000E+00  0.00000000E+00
  0.00000000E+00  0.00000000E+00  0.00000000E+00
  0.00000000E+00  0.00000000E+00  0.00000000E+00
  0.00000000E+00  0.00000000E+00  0.00000000E+00
  0.00000000E+00  0.00000000E+00  0.00000000E+00
  0.00000000E+00  0.00000000E+00  0.00000000E+00
  0.00000000E+00  0.00000000E+00  0.00000000E+00
  0.00000000E+00  0.00000000E+00  0.00000000E+00
  0.00000000E+00  0.00000000E+00  0.00000000E+00
  0.00000000E+00  0.00000000E+00  0.00000000E+00
  0.00000000E+00  0.00000000E+00  0.00000000E+00
  0.00000000E+00  0.00000000E+00  0.00000000E+00
  0.00000000E+00  0.00000000E+00  0.00000000E+00
  0.00000000E+00  0.00000000E+00  0.00000000E+00
  0.00000000E+00  0.00000000E+00  0.00000000E+00
  0.00000000E+00  0.00000000E+00  0.00000000E+00
  0.00000000E+00  0.00000000E+00  0.00000000E+00
  0.00000000E+00  0.00000000E+00  0.00000000E+00
  0.00000000E+00  0.00000000E+00  0.00000000E+00
  0.00000000E+00  0.00000000E+00  0.00000000E+00
  0.00000000E+00  0.00000000E+00  0.00000000E+00
  0.00000000E+00  0.00000000E+00  0.00000000E+00
  0.00000000E+00  0.00000000E+00  0.00000000E+00
  0.00000000E+00  0.00000000E+00  0.00000000E+00
  0.00000000E+00  0.00000000E+00  0.00000000E+00
  0.00000000E+00  0.00000000E+00  0.00000000E+00
  0.00000000E+00  0.00000000E+00  0.00000000E+00
  0.00000000E+00  0.00000000E+00  0.00000000E+00
  0.00000000E+00  0.00000000E+00  0.00000000E+00
  0.00000000E+00  0.00000000E+00  0.00000000E+00
  0.00000000E+00  0.00000000E+00  0.00000000E+00
  0.00000000E+00  0.00000000E+00  0.00000000E+00
  0.00000000E+00  0.00000000E+00  0.00000000E+00
  0.00000000E+00  0.00000000E+00  0.00000000E+00
  0.00000000E+00  0.00000000E+00  0.00000000E+00
  0.00000000E+00  0.00000000E+00  0.00000000E+00
  0.00000000E+00  0.00000000E+00  0.00000000E+00
  0.00000000E+00  0.00000000E+00  0.00000000E+00
  0.00000000E+00  0.00000000E+00  0.00000000E+00
  0.00000000E+00  0.00000000E+00  0.00000000E+00
