Ge+Sn
    1.000000000
   19.599195480    0.000000000    0.000000000
    6.533064842   18.478298187    0.000000000
    0.000000000    0.000000000   25.800945282
Ge  Sn 
192     144
Direct
    0.941464424    0.974913359    0.000000015
    0.503964424    0.787413359    0.077529527
    0.066464484    0.599913359    0.155059054
    0.628964424    0.412413418    0.232588500
    0.191464424    0.224913478    0.310118079
    0.753964186    0.037413359    0.387647510
    0.441464454    0.974913359    0.000000018
    0.003964441    0.787413359    0.077529527
    0.566464424    0.599913359    0.155059040
    0.128964424    0.412413359    0.232588500
    0.691464424    0.224913418    0.310118049
    0.253964305    0.037413359    0.387647599
    0.191464439    0.224913329    0.000000018
    0.753964424    0.037413348    0.077529527
    0.316464424    0.849913359    0.155059040
    0.878964424    0.662413418    0.232588500
    0.441464424    0.474913478    0.310118049
    0.003964305    0.287413359    0.387647599
    0.941464484    0.474913329    0.000000018
    0.503964424    0.287413329    0.077529527
    0.066464424    0.099913359    0.155059040
    0.628964424    0.912413359    0.232588500
    0.191464424    0.724913478    0.310118049
    0.753964186    0.537413359    0.387647599
    0.691464424    0.224913359    0.000000000
    0.253964424    0.037413381    0.077529527
    0.816464424    0.849913359    0.155059040
    0.378964424    0.662413418    0.232588500
    0.941464424    0.474913418    0.310118079
    0.503964186    0.287413359    0.387647629
    0.441464454    0.474913329    0.000000000
    0.003964454    0.287413359    0.077529527
    0.566464424    0.099913374    0.155059040
    0.128964424    0.912413418    0.232588500
    0.691464424    0.724913478    0.310118079
    0.253964305    0.537413359    0.387647629
    0.191464454    0.724913359    0.000000000
    0.753964484    0.537413359    0.077529527
    0.316464484    0.349913388    0.155059040
    0.878964424    0.162413403    0.232588500
    0.441464424    0.974913418    0.310118079
    0.003964186    0.787413359    0.387647629
    0.691464424    0.724913359    0.000000010
    0.253964424    0.537413359    0.077529512
    0.816464424    0.349913359    0.155059040
    0.378964424    0.162413388    0.232588530
    0.941464424    0.974913418    0.310118049
    0.503964305    0.787413299    0.387647569
    0.066464439    0.099913336    0.000000019
    0.628964424    0.912413359    0.077529527
    0.191464424    0.724913359    0.155059025
    0.753964424    0.537413359    0.232588500
    0.316464424    0.349913418    0.310118049
    0.878964424    0.162413359    0.387647599
    0.566464484    0.099913321    0.000000009
    0.128964439    0.912413359    0.077529527
    0.691464424    0.724913359    0.155059040
    0.253964424    0.537413359    0.232588530
    0.816464424    0.349913359    0.310118049
    0.378964305    0.162413299    0.387647569
    0.316464424    0.349913359    0.000000009
    0.878964424    0.162413344    0.077529527
    0.441464424    0.974913359    0.155059040
    0.003964424    0.787413418    0.232588530
    0.566464424    0.599913478    0.310118049
    0.128964186    0.412413299    0.387647569
    0.066464446    0.599913359    0.000000009
    0.628964424    0.412413329    0.077529527
    0.191464484    0.224913359    0.155059040
    0.753964424    0.037413366    0.232588530
    0.316464424    0.849913478    0.310118049
    0.878964186    0.662413359    0.387647569
    0.816464484    0.349913329    0.000000019
    0.378964514    0.162413359    0.077529527
    0.941464484    0.974913359    0.155059040
    0.503964484    0.787413359    0.232588530
    0.066464484    0.599913359    0.310118049
    0.628964305    0.412413359    0.387647599
    0.566464484    0.599913359    0.000000019
    0.128964469    0.412413388    0.077529527
    0.691464484    0.224913374    0.155059040
    0.253964424    0.037413437    0.232588530
    0.816464424    0.849913418    0.310118049
    0.378964305    0.662413359    0.387647599
    0.316464484    0.849913359    0.000000019
    0.878964484    0.662413359    0.077529527
    0.441464484    0.474913418    0.155059040
    0.003964484    0.287413418    0.232588530
    0.566464424    0.099913470    0.310118049
    0.128964186    0.912413359    0.387647599
    0.816464484    0.849913359    0.000000003
    0.378964514    0.662413418    0.077529535
    0.941464484    0.474913388    0.155059025
    0.503964543    0.287413388    0.232588530
    0.066464484    0.099913426    0.310118049
    0.628964305    0.912413359    0.387647569
    0.191464424    0.099913329    0.000000015
    0.753964424    0.912413359    0.077529520
    0.316464424    0.724913359    0.155059040
    0.878964424    0.537413359    0.232588559
    0.441464424    0.349913359    0.310118079
    0.003964305    0.162413299    0.387647629
    0.941464424    0.349913329    0.000000015
    0.503964424    0.162413359    0.077529520
    0.066464424    0.974913359    0.155059040
    0.628964424    0.787413359    0.232588559
    0.191464424    0.599913359    0.310118079
    0.753964186    0.412413299    0.387647629
    0.691464365    0.099913336    0.000000003
    0.253964394    0.912413359    0.077529520
    0.816464424    0.724913359    0.155059040
    0.378964365    0.537413359    0.232588530
    0.941464424    0.349913359    0.310118079
    0.503964305    0.162413359    0.387647539
    0.441464484    0.349913359    0.000000005
    0.003964453    0.162413374    0.077529520
    0.566464484    0.974913418    0.155059040
    0.128964424    0.787413359    0.232588530
    0.691464424    0.599913359    0.310118109
    0.253964305    0.412413359    0.387647599
    0.191464469    0.599913359    0.000000005
    0.753964424    0.412413359    0.077529520
    0.316464484    0.224913403    0.155059040
    0.878964424    0.037413388    0.232588530
    0.441464543    0.849913359    0.310118109
    0.003964305    0.662413359    0.387647599
    0.941464424    0.849913418    0.000000005
    0.503964424    0.662413418    0.077529520
    0.066464484    0.474913418    0.155059040
    0.628964424    0.287413448    0.232588530
    0.191464543    0.099913388    0.310118109
    0.753964186    0.912413478    0.387647599
    0.691464424    0.599913359    0.000000015
    0.253964454    0.412413359    0.077529520
    0.816464424    0.224913374    0.155059025
    0.378964484    0.037413400    0.232588530
    0.941464424    0.849913418    0.310118049
    0.503964305    0.662413359    0.387647599
    0.441464454    0.849913359    0.000000015
    0.003964434    0.662413418    0.077529520
    0.566464424    0.474913388    0.155059025
    0.128964484    0.287413388    0.232588530
    0.691464424    0.099913403    0.310118049
    0.253964305    0.912413299    0.387647599
    0.066464432    0.974913359    0.000000014
    0.628964424    0.787413359    0.077529520
    0.191464424    0.599913359    0.155059040
    0.753964424    0.412413359    0.232588559
    0.316464543    0.224913418    0.310118020
    0.878964186    0.037413299    0.387647569
    0.566464484    0.974913359    0.000000014
    0.128964439    0.787413359    0.077529527
    0.691464424    0.599913359    0.155059025
    0.253964484    0.412413359    0.232588530
    0.816464424    0.224913418    0.310118049
    0.378964305    0.037413359    0.387647510
    0.316464454    0.224913359    0.000000014
    0.878964424    0.037413359    0.077529527
    0.441464424    0.849913359    0.155059025
    0.003964484    0.662413359    0.232588530
    0.566464424    0.474913418    0.310118049
    0.128964424    0.287413359    0.387647510
    0.066464461    0.474913329    0.000000014
    0.628964424    0.287413359    0.077529527
    0.191464484    0.099913374    0.155059025
    0.753964424    0.912413418    0.232588530
    0.316464424    0.724913359    0.310118049
    0.878964424    0.537413359    0.387647510
    0.816464484    0.224913359    0.000000024
    0.378964484    0.037413385    0.077529535
    0.941464484    0.849913359    0.155059040
    0.503964484    0.662413359    0.232588500
    0.066464484    0.474913418    0.310118049
    0.628964305    0.287413359    0.387647569
    0.566464484    0.474913359    0.000000024
    0.128964484    0.287413388    0.077529535
    0.691464424    0.099913396    0.155059040
    0.253964484    0.912413418    0.232588500
    0.816464424    0.724913418    0.310118049
    0.378964305    0.537413359    0.387647569
    0.316464454    0.724913359    0.000000023
    0.878964424    0.537413359    0.077529535
    0.441464424    0.349913359    0.155059040
    0.003964484    0.162413359    0.232588500
    0.566464424    0.974913359    0.310118079
    0.128964305    0.787413359    0.387647569
    0.816464543    0.724913418    0.000000036
    0.378964514    0.537413418    0.077529512
    0.941464543    0.349913388    0.155059040
    0.503964484    0.162413433    0.232588530
    0.066464484    0.974913478    0.310118049
    0.628964305    0.787413359    0.387647569
    0.191010237    0.637164116    0.471518040
    0.066010237    0.512163997    0.560440361
    0.941010177    0.387163877    0.649362683
    0.816010177    0.262163758    0.738284945
    0.691010118    0.137163639    0.827207267
    0.566010118    0.012163520    0.916129589
    0.191010237    0.303830743    0.471518040
    0.066010237    0.178830624    0.560440361
    0.941010177    0.053830504    0.649362683
    0.816010177    0.928830385    0.738284945
    0.691010118    0.803830266    0.827207267
    0.566010118    0.678830147    0.916129589
    0.191010237    0.970497370    0.471518040
    0.066010237    0.845497370    0.560440361
    0.941010177    0.720497131    0.649362683
    0.816010177    0.595497012    0.738284945
    0.691010118    0.470496893    0.827207267
    0.566010118    0.345496774    0.916129589
    0.691010237    0.803830862    0.471518040
    0.566010237    0.678830624    0.560440361
    0.441010237    0.553830504    0.649362683
    0.316010177    0.428830385    0.738285005
    0.191010118    0.303830266    0.827207267
    0.066010118    0.178830147    0.916129529
    0.691010237    0.470497608    0.471518040
    0.566010237    0.345497370    0.560440361
    0.441010237    0.220497251    0.649362683
    0.316010177    0.095497131    0.738285005
    0.191010118    0.970496893    0.827207267
    0.066010118    0.845496893    0.916129529
    0.691010237    0.137164116    0.471518040
    0.566010237    0.012163997    0.560440361
    0.441010237    0.887163877    0.649362683
    0.316010177    0.762163639    0.738285005
    0.191010118    0.637163520    0.827207267
    0.066010118    0.512163401    0.916129529
    0.441010237    0.887164116    0.471518040
    0.316010237    0.762163877    0.560440361
    0.191010237    0.637163877    0.649362683
    0.066010237    0.512163639    0.738284945
    0.941010118    0.387163639    0.827207267
    0.816010118    0.262163401    0.916129589
    0.441010237    0.553830862    0.471518040
    0.316010237    0.428830743    0.560440361
    0.191010237    0.303830624    0.649362683
    0.066010237    0.178830385    0.738284945
    0.941010118    0.053830266    0.827207267
    0.816010118    0.928830147    0.916129589
    0.441010237    0.220497489    0.471518040
    0.316010237    0.095497370    0.560440361
    0.191010237    0.970497131    0.649362683
    0.066010237    0.845497012    0.738284945
    0.941010118    0.720496893    0.827207267
    0.816010118    0.595496774    0.916129589
    0.941010237    0.720497370    0.471518040
    0.816010237    0.595497370    0.560440361
    0.691010237    0.470497131    0.649362683
    0.566010177    0.345497012    0.738285005
    0.441010147    0.220496893    0.827207267
    0.316010118    0.095496774    0.916129529
    0.941010237    0.387164116    0.471518040
    0.816010237    0.262163877    0.560440361
    0.691010237    0.137163758    0.649362683
    0.566010177    0.012163639    0.738285005
    0.441010147    0.887163520    0.827207267
    0.316010118    0.762163401    0.916129529
    0.941010237    0.053830743    0.471518040
    0.816010237    0.928830624    0.560440361
    0.691010237    0.803830504    0.649362683
    0.566010177    0.678830385    0.738285005
    0.441010147    0.553830266    0.827207267
    0.316010118    0.428830147    0.916129529
    0.566010237    0.928830743    0.471518070
    0.441010237    0.803830624    0.560440361
    0.316010207    0.678830504    0.649362683
    0.191010118    0.553830385    0.738285005
    0.066010118    0.428830147    0.827207267
    0.941010118    0.303830147    0.916129529
    0.566010237    0.595497489    0.471518070
    0.441010237    0.470497370    0.560440361
    0.316010207    0.345497251    0.649362683
    0.191010118    0.220497012    0.738285005
    0.066010118    0.095496893    0.827207267
    0.941010118    0.970496893    0.916129529
    0.566010237    0.262164116    0.471518070
    0.441010237    0.137163997    0.560440361
    0.316010207    0.012163877    0.649362683
    0.191010118    0.887163639    0.738285005
    0.066010118    0.762163639    0.827207267
    0.941010118    0.637163520    0.916129529
    0.066010356    0.762164235    0.471518040
    0.941010237    0.637164116    0.560440361
    0.816010237    0.512163877    0.649362683
    0.691010177    0.387163758    0.738285005
    0.566010177    0.262163639    0.827207267
    0.441010177    0.137163520    0.916129529
    0.066010356    0.428830862    0.471518040
    0.941010237    0.303830624    0.560440361
    0.816010237    0.178830504    0.649362683
    0.691010177    0.053830385    0.738285005
    0.566010177    0.928830147    0.827207267
    0.441010177    0.803830147    0.916129529
    0.066010356    0.095497370    0.471518040
    0.941010237    0.970497251    0.560440361
    0.816010237    0.845497131    0.649362683
    0.691010177    0.720497012    0.738285005
    0.566010177    0.595496893    0.827207267
    0.441010177    0.470496774    0.916129529
    0.316010237    0.678830862    0.471518040
    0.191010237    0.553830624    0.560440361
    0.066010237    0.428830504    0.649362683
    0.941010118    0.303830385    0.738285005
    0.816010118    0.178830266    0.827207267
    0.691010118    0.053830147    0.916129529
    0.316010237    0.345497489    0.471518040
    0.191010237    0.220497370    0.560440361
    0.066010237    0.095497251    0.649362683
    0.941010118    0.970497131    0.738285005
    0.816010118    0.845496893    0.827207267
    0.691010118    0.720496893    0.916129529
    0.316010237    0.012164116    0.471518040
    0.191010237    0.887163877    0.560440361
    0.066010237    0.762163877    0.649362683
    0.941010118    0.637163639    0.738285005
    0.816010118    0.512163639    0.827207267
    0.691010118    0.387163401    0.916129529
    0.816010237    0.845497608    0.471518070
    0.691010237    0.720497370    0.560440361
    0.566010237    0.595497131    0.649362683
    0.441010177    0.470497131    0.738285005
    0.316010147    0.345497012    0.827207267
    0.191010118    0.220496893    0.916129529
    0.816010237    0.512164116    0.471518070
    0.691010237    0.387163997    0.560440361
    0.566010237    0.262163877    0.649362683
    0.441010177    0.137163758    0.738285005
    0.316010147    0.012163639    0.827207267
    0.191010118    0.887163401    0.916129529
    0.816010237    0.178830743    0.471518070
    0.691010237    0.053830624    0.560440361
    0.566010237    0.928830504    0.649362683
    0.441010177    0.803830385    0.738285005
    0.316010147    0.678830266    0.827207267
    0.191010118    0.553830147    0.916129529
