Ge+Ge                                   
   1.00000000000000     
     8.0013380049999991    0.0000000000000000    0.0000000000000000
     4.0006690029999996   12.0020065309999993    0.0000000000000000
     0.0000000000000000    0.0000000000000000    9.4296674730000003
   Ge
    48
Direct
  0.9943054909999987  0.9943054909999987  0.0000000000000000
  0.8276388649999973  0.8276388649999973  0.2999999230000014
  0.6609721179999966  0.6609721179999966  0.5999999639999984
  0.3276388049999994  0.3276388049999994  0.0000000000000000
  0.1609721479999990  0.1609721479999990  0.2999999230000014
  0.9943054319999973  0.9943054319999973  0.5999999639999984
  0.6609721179999966  0.6609721179999966  0.0000000000000000
  0.4943054319999973  0.4943054319999973  0.2999999230000014
  0.3276387450000016  0.3276387450000016  0.5999999639999984
  0.2443054769999975  0.9943054909999987  0.1499999609999989
  0.0776387900000017  0.8276388649999973  0.4499999279999969
  0.9109721179999966  0.6609721179999966  0.7499999400000021
  0.5776388049999994  0.3276388049999994  0.1499999609999989
  0.4109721179999966  0.1609721330000013  0.4499999279999969
  0.2443054319999973  0.9943054319999973  0.7499999400000021
  0.9109721780000015  0.6609721179999966  0.1499999609999989
  0.7443054909999987  0.4943054619999998  0.4499999279999969
  0.5776388049999994  0.3276387749999969  0.7499999400000021
  0.4943054319999973  0.9943054909999987  0.0000000000000000
  0.3276387749999969  0.8276388649999973  0.2999999230000014
  0.1609720889999977  0.6609721179999966  0.5999999639999984
  0.1609721780000015  0.6609721179999966  0.0000000000000000
  0.9943054909999987  0.4943054619999998  0.2999999230000014
  0.8276388049999994  0.3276387749999969  0.5999999639999984
  0.8276387450000016  0.3276388350000019  0.0000000000000000
  0.6609721179999966  0.1609721629999967  0.2999999230000014
  0.4943054020000019  0.9943054909999987  0.5999999639999984
  0.0776388270000012  0.3276388350000019  0.1499999609999989
  0.9109721179999966  0.1609721479999990  0.4499999279999969
  0.7443054909999987  0.9943054909999987  0.7499999400000021
  0.7443054909999987  0.9943054909999987  0.1499999609999989
  0.5776388049999994  0.8276388049999994  0.4499999279999969
  0.4109720889999977  0.6609721179999966  0.7499999400000021
  0.4109721479999990  0.6609721179999966  0.1499999609999989
  0.2443054470000021  0.4943054020000019  0.4499999279999969
  0.0776387450000016  0.3276387160000027  0.7499999400000021
  0.9893847700000009  0.9734618660000010  0.7499999400000021
  0.8782736060000005  0.6956840750000026  0.8499999639999984
  0.7671624420000001  0.4179062250000030  0.9499999880000018
  0.4893847410000021  0.9734618660000010  0.7499999400000021
  0.3782735759999980  0.6956840160000013  0.8499999639999984
  0.2671624420000001  0.4179062250000030  0.9499999880000018
  0.6838291290000029  0.0845729409999976  0.7999998929999990
  0.5727179650000025  0.8067951199999968  0.8999999170000024
  0.4616068010000021  0.5290172699999971  0.9999999400000021
  0.1838291589999983  0.0845729409999976  0.7999998929999990
  0.0727180089999990  0.8067951199999968  0.8999999170000024
  0.9616068600000034  0.5290172099999992  0.9999999400000021
 
  0.00000000E+00  0.00000000E+00  0.00000000E+00
  0.00000000E+00  0.00000000E+00  0.00000000E+00
  0.00000000E+00  0.00000000E+00  0.00000000E+00
  0.00000000E+00  0.00000000E+00  0.00000000E+00
  0.00000000E+00  0.00000000E+00  0.00000000E+00
  0.00000000E+00  0.00000000E+00  0.00000000E+00
  0.00000000E+00  0.00000000E+00  0.00000000E+00
  0.00000000E+00  0.00000000E+00  0.00000000E+00
  0.00000000E+00  0.00000000E+00  0.00000000E+00
  0.00000000E+00  0.00000000E+00  0.00000000E+00
  0.00000000E+00  0.00000000E+00  0.00000000E+00
  0.00000000E+00  0.00000000E+00  0.00000000E+00
  0.00000000E+00  0.00000000E+00  0.00000000E+00
  0.00000000E+00  0.00000000E+00  0.00000000E+00
  0.00000000E+00  0.00000000E+00  0.00000000E+00
  0.00000000E+00  0.00000000E+00  0.00000000E+00
  0.00000000E+00  0.00000000E+00  0.00000000E+00
  0.00000000E+00  0.00000000E+00  0.00000000E+00
  0.00000000E+00  0.00000000E+00  0.00000000E+00
  0.00000000E+00  0.00000000E+00  0.00000000E+00
  0.00000000E+00  0.00000000E+00  0.00000000E+00
  0.00000000E+00  0.00000000E+00  0.00000000E+00
  0.00000000E+00  0.00000000E+00  0.00000000E+00
  0.00000000E+00  0.00000000E+00  0.00000000E+00
  0.00000000E+00  0.00000000E+00  0.00000000E+00
  0.00000000E+00  0.00000000E+00  0.00000000E+00
  0.00000000E+00  0.00000000E+00  0.00000000E+00
  0.00000000E+00  0.00000000E+00  0.00000000E+00
  0.00000000E+00  0.00000000E+00  0.00000000E+00
  0.00000000E+00  0.00000000E+00  0.00000000E+00
  0.00000000E+00  0.00000000E+00  0.00000000E+00
  0.00000000E+00  0.00000000E+00  0.00000000E+00
  0.00000000E+00  0.00000000E+00  0.00000000E+00
  0.00000000E+00  0.00000000E+00  0.00000000E+00
  0.00000000E+00  0.00000000E+00  0.00000000E+00
  0.00000000E+00  0.00000000E+00  0.00000000E+00
  0.00000000E+00  0.00000000E+00  0.00000000E+00
  0.00000000E+00  0.00000000E+00  0.00000000E+00
  0.00000000E+00  0.00000000E+00  0.00000000E+00
  0.00000000E+00  0.00000000E+00  0.00000000E+00
  0.00000000E+00  0.00000000E+00  0.00000000E+00
  0.00000000E+00  0.00000000E+00  0.00000000E+00
  0.00000000E+00  0.00000000E+00  0.00000000E+00
  0.00000000E+00  0.00000000E+00  0.00000000E+00
  0.00000000E+00  0.00000000E+00  0.00000000E+00
  0.00000000E+00  0.00000000E+00  0.00000000E+00
  0.00000000E+00  0.00000000E+00  0.00000000E+00
  0.00000000E+00  0.00000000E+00  0.00000000E+00
