Si+C
    1.000000000
   13.303179741    0.000000000    0.000000000
    6.651589394   14.873406410    0.000000000
    0.000000000    0.000000000    8.192405701
Si  C  
36     84
Direct
    0.982905626    0.658119500    0.000000005
    0.782905579    0.558119297    0.148235962
    0.582905412    0.458119094    0.296471924
    0.982905626    0.324786127    0.000000005
    0.782905579    0.224785969    0.148235962
    0.582905412    0.124785803    0.296471924
    0.982905626    0.991452813    0.000000005
    0.782905579    0.891452670    0.148235962
    0.582905412    0.791452527    0.296471924
    0.632905662    0.691452682    0.074117824
    0.432905585    0.591452479    0.222353801
    0.232905522    0.491452426    0.370589733
    0.632905662    0.358119428    0.074117824
    0.432905585    0.258119285    0.222353801
    0.232905522    0.158119142    0.370589733
    0.632905662    0.024786137    0.074117824
    0.432905585    0.924785972    0.222353801
    0.232905522    0.824785829    0.370589733
    0.482905626    0.658119500    0.000000000
    0.282905549    0.558119297    0.148235962
    0.082905442    0.458119094    0.296471924
    0.482905626    0.324786127    0.000000000
    0.282905549    0.224785954    0.148235962
    0.082905442    0.124785811    0.296471924
    0.482905626    0.991452813    0.000000000
    0.282905549    0.891452670    0.148235962
    0.082905442    0.791452527    0.296471924
    0.132905677    0.691452742    0.074117839
    0.932905555    0.591452479    0.222353801
    0.732905507    0.491452396    0.370589733
    0.132905677    0.358119488    0.074117839
    0.932905555    0.258119285    0.222353801
    0.732905507    0.158119127    0.370589733
    0.132905677    0.024786137    0.074117839
    0.932905555    0.924785972    0.222353801
    0.732905507    0.824785829    0.370589733
    0.211278558    0.962913930    0.758310258
    0.554135680    0.991485596    0.563602746
    0.882707179    0.977199793    0.660956442
    0.496992826    0.820056856    0.758310258
    0.839850008    0.848628461    0.563602746
    0.168421388    0.834342659    0.660956442
    0.782707095    0.677199721    0.758310258
    0.125564218    0.705771327    0.563602746
    0.454135656    0.691485524    0.660956442
    0.068421483    0.534342587    0.758310199
    0.411278546    0.562914193    0.563602686
    0.739850044    0.548628390    0.660956442
    0.354135752    0.391485453    0.758310199
    0.696992815    0.420057058    0.563602686
    0.025564194    0.405771255    0.660956442
    0.639850020    0.248628318    0.758310199
    0.982707083    0.277199924    0.563602686
    0.311278582    0.262914151    0.660956442
    0.925564408    0.105771184    0.758310258
    0.268421412    0.134342790    0.563602686
    0.596992910    0.120056987    0.660956502
    0.661278486    0.062914014    0.806987047
    0.004135609    0.091485620    0.612279534
    0.332707047    0.077199697    0.709633291
    0.946992755    0.920056820    0.806987047
    0.289849877    0.948628426    0.612279534
    0.618421316    0.934342563    0.709633291
    0.232707024    0.777199686    0.806987107
    0.575564146    0.805771291    0.612279475
    0.904135644    0.791485488    0.709633231
    0.518421412    0.634342611    0.806986988
    0.861278534    0.662914157    0.612279475
    0.189849854    0.648628414    0.709633231
    0.804135799    0.491485536    0.806987107
    0.146992803    0.520057082    0.612279475
    0.475564241    0.505771339    0.709633172
    0.089849949    0.348628342    0.806987107
    0.432707101    0.377199918    0.612279534
    0.761278570    0.362914115    0.709633231
    0.375564337    0.205771178    0.806986988
    0.718421459    0.234342784    0.612279534
    0.046992779    0.220056996    0.709633231
    0.711278558    0.962913990    0.758310199
    0.054135680    0.991485476    0.563602686
    0.382707000    0.977199793    0.660956502
    0.996993005    0.820056856    0.758310258
    0.339850008    0.848628461    0.563602686
    0.668421447    0.834342659    0.660956442
    0.282707334    0.677199721    0.758310258
    0.625564277    0.705771327    0.563602686
    0.954135776    0.691485524    0.660956442
    0.568421483    0.534342647    0.758310258
    0.911278546    0.562914193    0.563602686
    0.239849910    0.548628449    0.660956442
    0.854135633    0.391485572    0.758310258
    0.196992755    0.420057058    0.563602686
    0.525564313    0.405771255    0.660956442
    0.139850020    0.248628348    0.758310258
    0.482707113    0.277199894    0.563602746
    0.811278641    0.262914121    0.660956502
    0.425564289    0.105771303    0.758310258
    0.768421352    0.134342790    0.563602746
    0.096992850    0.120056987    0.660956502
    0.161278486    0.062914133    0.806987047
    0.504135668    0.091485620    0.612279534
    0.832707047    0.077199817    0.709633231
    0.446992874    0.920056880    0.806987047
    0.789849997    0.948628485    0.612279534
    0.118421316    0.934342623    0.709633231
    0.732707143    0.777199686    0.806987047
    0.075564265    0.805771291    0.612279534
    0.404135823    0.791485429    0.709633231
    0.018421292    0.634342611    0.806986988
    0.361278534    0.662914097    0.612279475
    0.689849973    0.648628354    0.709633231
    0.304135799    0.491485476    0.806986988
    0.646992922    0.520057023    0.612279475
    0.975564361    0.505771279    0.709633231
    0.589849830    0.348628283    0.806987047
    0.932707012    0.377199888    0.612279475
    0.261278391    0.362914115    0.709633231
    0.875564218    0.205771267    0.806986988
    0.218421459    0.234342754    0.612279534
    0.546992779    0.220056981    0.709633231
