Sn
 1.0000000000000000
     6.4892000000000003    0.0000000000000000    0.0000000000000000
     0.0000000000000000    6.4892000000000003    0.0000000000000000
     0.0000000000000000    0.0000000000000000   64.3344999999999914
 Sn 
  32
Direct
  0.0000000000000000  0.0000000000000000  0.3108751913825397
  0.2499999999999999  0.2499999999999999  0.3360918325315344
  0.0000000000000000  0.4999999999999996  0.3613084736805291
  0.2499999999999999  0.7499999999999992  0.3865251148295238
  0.4999999999999996  0.0000000000000000  0.3613084736805291
  0.7499999999999992  0.2499999999999999  0.3865251148295238
  0.4999999999999996  0.4999999999999996  0.3108751913825397
  0.7499999999999992  0.7499999999999992  0.3360918325315344
  0.0000000000000000  0.0000000000000000  0.4117417559785185
  0.2499999999999999  0.2499999999999999  0.4369583971275133
  0.0000000000000000  0.4999999999999996  0.4621750382765080
  0.2499999999999999  0.7499999999999992  0.4873916794255027
  0.4999999999999996  0.0000000000000000  0.4621750382765080
  0.7499999999999992  0.2499999999999999  0.4873916794255027
  0.4999999999999996  0.4999999999999996  0.4117417559785185
  0.7499999999999992  0.7499999999999992  0.4369583971275133
  0.0000000000000000  0.0000000000000000  0.5126083205744973
  0.2499999999999999  0.2499999999999999  0.5378249617234921
  0.0000000000000000  0.4999999999999996  0.5630416028724868
  0.2499999999999999  0.7499999999999992  0.5882582440214815
  0.4999999999999996  0.0000000000000000  0.5630416028724868
  0.7499999999999992  0.2499999999999999  0.5882582440214815
  0.4999999999999996  0.4999999999999996  0.5126083205744973
  0.7499999999999992  0.7499999999999992  0.5378249617234921
  0.0000000000000000  0.0000000000000000  0.6134748851704762
  0.2499999999999999  0.2499999999999999  0.6386915263194710
  0.0000000000000000  0.4999999999999996  0.6639081674684657
  0.2499999999999999  0.7499999999999992  0.6891248086174603
  0.4999999999999996  0.0000000000000000  0.6639081674684657
  0.7499999999999992  0.2499999999999999  0.6891248086174603
  0.4999999999999996  0.4999999999999996  0.6134748851704762
  0.7499999999999992  0.7499999999999992  0.6386915263194710
