Sn+Ge                                   
   1.00000000000000     
    12.9784002300000001    0.0000000000000000    0.0000000000000000
   -12.9784002300000001   14.5102930069999996    0.0000000000000000
     0.0000000000000000    0.0000000000000000    9.1904125210000007
   Sn   Ge
    24    24
Direct
  0.4743584989999974  0.9743584989999974  0.0000000000000000
  0.1743583530000024  0.6743584279999979  0.1578851189999995
  0.8743582959999969  0.3743583560000019  0.3157702680000014
  0.9743584989999974  0.9743584989999974  0.0000000000000000
  0.6743583680000000  0.6743584279999979  0.1578851189999995
  0.3743582959999969  0.3743583560000019  0.3157702680000014
  0.6993584630000029  0.3243584929999983  0.0789424109999999
  0.3993583620000010  0.0243584460000008  0.2368275370000035
  0.0993583200000003  0.7243584389999995  0.3947126569999995
  0.1993584780000006  0.3243584929999983  0.0789424109999999
  0.8993583920000034  0.0243584460000008  0.2368275370000035
  0.5993583200000003  0.7243584389999995  0.3947126569999995
  0.7243584389999995  0.4743584989999974  0.0000000160000013
  0.4243583379999976  0.1743583980000025  0.1578851339999972
  0.1243581920000025  0.8743582959999969  0.3157702680000014
  0.2243584690000020  0.4743584989999974  0.0000000160000013
  0.9243583680000000  0.1743583980000025  0.1578851339999972
  0.6243582370000027  0.8743582959999969  0.3157702680000014
  0.9493585820000021  0.8243585820000021  0.0789424179999969
  0.6493585110000026  0.5243585710000005  0.2368275079999975
  0.3493583799999982  0.2243584989999974  0.3947126569999995
  0.4493587910000016  0.8243585820000021  0.0789424179999969
  0.1493586449999995  0.5243585710000005  0.2368275079999975
  0.8493585590000023  0.2243584989999974  0.3947126569999995
  0.3373483419999985  0.3572057490000020  0.5568605659999974
  0.2206816670000009  0.9405390020000013  0.6130588050000014
  0.1040148740000006  0.5238722559999971  0.6692571040000033
  0.9873480199999989  0.1072055100000000  0.7254555820000022
  0.8706813450000013  0.6905388830000021  0.7816537619999977
  0.7540144920000031  0.2738718989999995  0.8378521200000009
  0.8373483419999985  0.6072056889999971  0.5568605659999974
  0.7206815480000017  0.1905388830000021  0.6130588050000014
  0.6040148140000028  0.7738722559999971  0.6692572239999990
  0.4873480199999989  0.3572055100000000  0.7254554029999980
  0.3706812859999999  0.9405387640000029  0.7816537019999998
  0.2540146110000023  0.5238718989999995  0.8378519420000003
  0.8373483419999985  0.8572056889999971  0.5568606260000024
  0.7206815480000017  0.4405390020000013  0.6130588050000014
  0.6040147539999978  0.0238722559999971  0.6692572239999990
  0.4873480500000014  0.6072053910000008  0.7254555230000008
  0.3706813450000013  0.1905387640000029  0.7816537019999998
  0.2540144920000031  0.7738717789999967  0.8378520010000017
  0.3373482229999993  0.1072057490000020  0.5568606260000024
  0.2206815480000017  0.6905389430000000  0.6130589249999971
  0.1040148740000006  0.2738721369999979  0.6692572239999990
  0.9873480199999989  0.8572053910000008  0.7254555230000008
  0.8706812859999999  0.4405387640000029  0.7816537619999977
  0.7540144920000031  0.0238717789999967  0.8378521200000009
 
  0.00000000E+00  0.00000000E+00  0.00000000E+00
  0.00000000E+00  0.00000000E+00  0.00000000E+00
  0.00000000E+00  0.00000000E+00  0.00000000E+00
  0.00000000E+00  0.00000000E+00  0.00000000E+00
  0.00000000E+00  0.00000000E+00  0.00000000E+00
  0.00000000E+00  0.00000000E+00  0.00000000E+00
  0.00000000E+00  0.00000000E+00  0.00000000E+00
  0.00000000E+00  0.00000000E+00  0.00000000E+00
  0.00000000E+00  0.00000000E+00  0.00000000E+00
  0.00000000E+00  0.00000000E+00  0.00000000E+00
  0.00000000E+00  0.00000000E+00  0.00000000E+00
  0.00000000E+00  0.00000000E+00  0.00000000E+00
  0.00000000E+00  0.00000000E+00  0.00000000E+00
  0.00000000E+00  0.00000000E+00  0.00000000E+00
  0.00000000E+00  0.00000000E+00  0.00000000E+00
  0.00000000E+00  0.00000000E+00  0.00000000E+00
  0.00000000E+00  0.00000000E+00  0.00000000E+00
  0.00000000E+00  0.00000000E+00  0.00000000E+00
  0.00000000E+00  0.00000000E+00  0.00000000E+00
  0.00000000E+00  0.00000000E+00  0.00000000E+00
  0.00000000E+00  0.00000000E+00  0.00000000E+00
  0.00000000E+00  0.00000000E+00  0.00000000E+00
  0.00000000E+00  0.00000000E+00  0.00000000E+00
  0.00000000E+00  0.00000000E+00  0.00000000E+00
  0.00000000E+00  0.00000000E+00  0.00000000E+00
  0.00000000E+00  0.00000000E+00  0.00000000E+00
  0.00000000E+00  0.00000000E+00  0.00000000E+00
  0.00000000E+00  0.00000000E+00  0.00000000E+00
  0.00000000E+00  0.00000000E+00  0.00000000E+00
  0.00000000E+00  0.00000000E+00  0.00000000E+00
  0.00000000E+00  0.00000000E+00  0.00000000E+00
  0.00000000E+00  0.00000000E+00  0.00000000E+00
  0.00000000E+00  0.00000000E+00  0.00000000E+00
  0.00000000E+00  0.00000000E+00  0.00000000E+00
  0.00000000E+00  0.00000000E+00  0.00000000E+00
  0.00000000E+00  0.00000000E+00  0.00000000E+00
  0.00000000E+00  0.00000000E+00  0.00000000E+00
  0.00000000E+00  0.00000000E+00  0.00000000E+00
  0.00000000E+00  0.00000000E+00  0.00000000E+00
  0.00000000E+00  0.00000000E+00  0.00000000E+00
  0.00000000E+00  0.00000000E+00  0.00000000E+00
  0.00000000E+00  0.00000000E+00  0.00000000E+00
  0.00000000E+00  0.00000000E+00  0.00000000E+00
  0.00000000E+00  0.00000000E+00  0.00000000E+00
  0.00000000E+00  0.00000000E+00  0.00000000E+00
  0.00000000E+00  0.00000000E+00  0.00000000E+00
  0.00000000E+00  0.00000000E+00  0.00000000E+00
  0.00000000E+00  0.00000000E+00  0.00000000E+00
