Sn+Ge
    1.000000000
   12.978400230    0.000000000    0.000000000
  -12.978400230   14.510293007    0.000000000
    0.000000000    0.000000000    9.190412521
Sn  Ge 
24     24
Direct
    0.474358499    0.974358499    0.000000000
    0.174358353    0.674358428    0.157885119
    0.874358296    0.374358356    0.315770268
    0.974358499    0.974358499    0.000000000
    0.674358368    0.674358428    0.157885119
    0.374358296    0.374358356    0.315770268
    0.699358463    0.324358493    0.078942411
    0.399358362    0.024358446    0.236827537
    0.099358320    0.724358439    0.394712657
    0.199358478    0.324358493    0.078942411
    0.899358392    0.024358446    0.236827537
    0.599358320    0.724358439    0.394712657
    0.724358439    0.474358499    0.000000016
    0.424358338    0.174358398    0.157885134
    0.124358192    0.874358296    0.315770268
    0.224358469    0.474358499    0.000000016
    0.924358368    0.174358398    0.157885134
    0.624358237    0.874358296    0.315770268
    0.949358582    0.824358582    0.078942418
    0.649358511    0.524358571    0.236827508
    0.349358380    0.224358499    0.394712657
    0.449358791    0.824358582    0.078942418
    0.149358645    0.524358571    0.236827508
    0.849358559    0.224358499    0.394712657
    0.337348342    0.357205749    0.556860566
    0.220681667    0.940539002    0.613058805
    0.104014874    0.523872256    0.669257104
    0.987348020    0.107205510    0.725455582
    0.870681345    0.690538883    0.781653762
    0.754014492    0.273871899    0.837852120
    0.837348342    0.607205689    0.556860566
    0.720681548    0.190538883    0.613058805
    0.604014814    0.773872256    0.669257224
    0.487348020    0.357205510    0.725455403
    0.370681286    0.940538764    0.781653702
    0.254014611    0.523871899    0.837851942
    0.837348342    0.857205689    0.556860626
    0.720681548    0.440539002    0.613058805
    0.604014754    0.023872256    0.669257224
    0.487348050    0.607205391    0.725455523
    0.370681345    0.190538764    0.781653702
    0.254014492    0.773871779    0.837852001
    0.337348223    0.107205749    0.556860626
    0.220681548    0.690538943    0.613058925
    0.104014874    0.273872137    0.669257224
    0.987348020    0.857205391    0.725455523
    0.870681286    0.440538764    0.781653762
    0.754014492    0.023871779    0.837852120
