Ge+Sn                                   
   1.00000000000000     
    11.3156003950000006    0.0000000000000000    0.0000000000000000
     0.0000000000000000   16.0026760099999983    0.0000000000000000
     0.0000000000000000    0.0000000000000000   21.4730682369999997
   Ge   Sn
    96    72
Direct
  0.9706627730000008  0.4559941589999994  0.0000000220000018
  0.7206627130000030  0.0809941369999976  0.0931555259999968
  0.4706627730000008  0.7059941289999969  0.1863110509999970
  0.2206628920000000  0.3309942480000032  0.2794664800000035
  0.9706627130000030  0.9559941289999969  0.3726219830000019
  0.7206627130000030  0.5809941289999969  0.4657775459999982
  0.4706627730000008  0.4559941589999994  0.0000000220000018
  0.2206627580000031  0.0809941369999976  0.0931555259999968
  0.9706627730000008  0.7059941289999969  0.1863110509999970
  0.7206628320000021  0.3309942480000032  0.2794664800000035
  0.4706628320000021  0.9559941289999969  0.3726219830000019
  0.2206627730000008  0.5809941289999969  0.4657775459999982
  0.9706627730000008  0.9559941289999969  0.0000000189999980
  0.7206627130000030  0.5809941289999969  0.0931555330000009
  0.4706627730000008  0.2059941289999969  0.1863110359999993
  0.2206628920000000  0.8309943679999989  0.2794664800000035
  0.9706627130000030  0.4559941289999969  0.3726220730000023
  0.7206627130000030  0.0809941289999969  0.4657775160000028
  0.4706627730000008  0.9559941289999969  0.0000000189999980
  0.2206627580000031  0.5809941289999969  0.0931555330000009
  0.9706627730000008  0.2059941289999969  0.1863110359999993
  0.7206628320000021  0.8309943679999989  0.2794664800000035
  0.4706628320000021  0.4559941289999969  0.3726220730000023
  0.2206627730000008  0.0809941289999969  0.4657775160000028
  0.9706627730000008  0.7059941289999969  0.0000000249999985
  0.7206627130000030  0.3309941289999969  0.0931555259999968
  0.4706627730000008  0.9559941289999969  0.1863110359999993
  0.2206628920000000  0.5809942480000032  0.2794665099999989
  0.9706627130000030  0.2059941890000019  0.3726220730000023
  0.7206627130000030  0.8309941289999969  0.4657775459999982
  0.4706627730000008  0.7059941289999969  0.0000000249999985
  0.2206627580000031  0.3309941289999969  0.0931555259999968
  0.9706627730000008  0.9559941289999969  0.1863110359999993
  0.7206628320000021  0.5809942480000032  0.2794665099999989
  0.4706628320000021  0.2059941890000019  0.3726220730000023
  0.2206627730000008  0.8309941289999969  0.4657775459999982
  0.9706627730000008  0.2059941440000017  0.0000000209999982
  0.7206627130000030  0.8309941289999969  0.0931555259999968
  0.4706627730000008  0.4559941289999969  0.1863110359999993
  0.2206628920000000  0.0809942480000032  0.2794665099999989
  0.9706627130000030  0.7059942480000032  0.3726219830000019
  0.7206627130000030  0.3309941289999969  0.4657775160000028
  0.4706627730000008  0.2059941440000017  0.0000000209999982
  0.2206627580000031  0.8309941289999969  0.0931555259999968
  0.9706627730000008  0.4559941289999969  0.1863110359999993
  0.7206628320000021  0.0809942480000032  0.2794665099999989
  0.4706628320000021  0.7059942480000032  0.3726219830000019
  0.2206627730000008  0.3309941289999969  0.4657775160000028
  0.3456627429999983  0.5809941890000019  0.0000000309999990
  0.0956627580000031  0.2059941589999994  0.0931555259999968
  0.8456627730000008  0.8309941289999969  0.1863110359999993
  0.5956628320000021  0.4559942480000032  0.2794664800000035
  0.3456627730000008  0.0809941890000019  0.3726220730000023
  0.0956627130000030  0.7059941289999969  0.4657775459999982
  0.8456628320000021  0.5809941890000019  0.0000000309999990
  0.5956627730000008  0.2059941589999994  0.0931555259999968
  0.3456628019999997  0.8309941289999969  0.1863110359999993
  0.0956628839999993  0.4559942480000032  0.2794664800000035
  0.8456628320000021  0.0809941890000019  0.3726220730000023
  0.5956627730000008  0.7059941289999969  0.4657775459999982
  0.3456627429999983  0.0809941369999976  0.0000000160000013
  0.0956627580000031  0.7059941289999969  0.0931555259999968
  0.8456627730000008  0.3309941289999969  0.1863110359999993
  0.5956628320000021  0.9559942480000032  0.2794665099999989
  0.3456627730000008  0.5809942480000032  0.3726219830000019
  0.0956627130000030  0.2059940099999977  0.4657775160000028
  0.8456628320000021  0.0809941369999976  0.0000000160000013
  0.5956627730000008  0.7059941289999969  0.0931555259999968
  0.3456628019999997  0.3309941289999969  0.1863110359999993
  0.0956628839999993  0.9559942480000032  0.2794665099999989
  0.8456628320000021  0.5809942480000032  0.3726219830000019
  0.5956627730000008  0.2059940099999977  0.4657775160000028
  0.3456627429999983  0.8309941890000019  0.0000000000000000
  0.0956627580000031  0.4559941890000019  0.0931555259999968
  0.8456627730000008  0.0809941739999971  0.1863110359999993
  0.5956628320000021  0.7059943080000011  0.2794664800000035
  0.3456627730000008  0.3309942480000032  0.3726219830000019
  0.0956627130000030  0.9559941289999969  0.4657774869999969
  0.8456628320000021  0.8309941890000019  0.0000000000000000
  0.5956627730000008  0.4559941890000019  0.0931555259999968
  0.3456628019999997  0.0809941739999971  0.1863110359999993
  0.0956628839999993  0.7059943080000011  0.2794664800000035
  0.8456628320000021  0.3309942480000032  0.3726219830000019
  0.5956627730000008  0.9559941289999969  0.4657774869999969
  0.3456627429999983  0.3309941289999969  0.0000000220000018
  0.0956627580000031  0.9559941289999969  0.0931555330000009
  0.8456627730000008  0.5809941289999969  0.1863110359999993
  0.5956628320000021  0.2059942480000032  0.2794665099999989
  0.3456627730000008  0.8309941289999969  0.3726219830000019
  0.0956627130000030  0.4559941289999969  0.4657775160000028
  0.8456628320000021  0.3309941289999969  0.0000000220000018
  0.5956627730000008  0.9559941289999969  0.0931555330000009
  0.3456628019999997  0.5809941289999969  0.1863110359999993
  0.0956628839999993  0.2059942480000032  0.2794665099999989
  0.8456628320000021  0.8309941289999969  0.3726219830000019
  0.5956627730000008  0.4559941289999969  0.4657775160000028
  0.0000000000000000  0.9820204970000006  0.4657775459999982
  0.9999999400000021  0.7320203780000014  0.5726219419999978
  0.9999998810000008  0.4820202590000022  0.6794666050000018
  0.9999998210000030  0.2320200799999981  0.7863110300000002
  0.9999997620000016  0.9820200200000002  0.8931554560000023
  0.9999997620000016  0.7320199010000010  0.0000000000000000
  0.6666667459999971  0.3153538409999967  0.4657775459999982
  0.6666666870000029  0.0653537809999989  0.5726219419999978
  0.6666666269999979  0.8153536319999972  0.6794666050000018
  0.6666666269999979  0.5653535129999980  0.7863110300000002
  0.6666665670000000  0.3153534530000002  0.8931555750000015
  0.6666665079999987  0.0653532740000031  0.0000000000000000
  0.3333334029999975  0.6486871840000035  0.4657775459999982
  0.3333333429999996  0.3986871239999985  0.5726219419999978
  0.3333332839999983  0.1486870049999993  0.6794666050000018
  0.3333332240000004  0.8986868860000001  0.7863110300000002
  0.3333331640000026  0.6486868260000023  0.8931555750000015
  0.3333331640000026  0.3986866469999981  0.0000000000000000
  0.3333333730000021  0.1486871689999987  0.4657775459999982
  0.3333333129999971  0.8986871239999985  0.5726219419999978
  0.3333332540000029  0.6486870049999993  0.6794666050000018
  0.3333332540000029  0.3986867670000009  0.7863110300000002
  0.3333332240000004  0.1486867070000031  0.8931554560000023
  0.3333331640000026  0.8986866469999981  0.0000000000000000
  0.0000000000000000  0.4820204970000006  0.4657775459999982
  0.9999999400000021  0.2320204379999993  0.5726219419999978
  0.9999998810000008  0.9820203190000001  0.6794666050000018
  0.9999998210000030  0.7320201400000030  0.7863110300000002
  0.9999997620000016  0.4820201400000030  0.8931554560000023
  0.9999997620000016  0.2320199609999989  0.0000000000000000
  0.6666668060000021  0.8153539300000006  0.4657775459999982
  0.6666667459999971  0.5653538110000014  0.5726220609999970
  0.6666666269999979  0.3153536619999997  0.6794666050000018
  0.6666666269999979  0.0653535650000023  0.7863110300000002
  0.6666665079999987  0.8153535129999980  0.8931555750000015
  0.6666665079999987  0.5653533340000010  0.0000000000000000
  0.5833333730000021  0.1486871689999987  0.4657776060000032
  0.5833333730000021  0.8986871239999985  0.5726219419999978
  0.5833333129999971  0.6486868860000001  0.6794666050000018
  0.5833331939999979  0.3986868260000023  0.7863110300000002
  0.5833332540000029  0.1486867670000009  0.8931554560000023
  0.5833331349999966  0.8986867670000009  0.0000000000000000
  0.2500000000000000  0.4820204680000018  0.4657776060000032
  0.2499999400000021  0.2320204230000016  0.5726219419999978
  0.2499999110000033  0.9820203190000001  0.6794666050000018
  0.2499998210000030  0.7320201400000030  0.7863110300000002
  0.2499997620000016  0.4820201400000030  0.8931555750000015
  0.2499997170000015  0.2320199609999989  0.0000000000000000
  0.9166667459999971  0.8153538700000027  0.4657775459999982
  0.9166666269999979  0.5653538110000014  0.5726219419999978
  0.9166665079999987  0.3153536319999972  0.6794666050000018
  0.9166665079999987  0.0653535280000028  0.7863110300000002
  0.9166664480000009  0.8153534530000002  0.8931554560000023
  0.9166664480000009  0.5653532740000031  0.0000000000000000
  0.2500000300000025  0.9820204970000006  0.4657775459999982
  0.2499999850000023  0.7320204379999993  0.5726220609999970
  0.2499999699999975  0.4820202590000022  0.6794666050000018
  0.2499998810000008  0.2320201400000030  0.7863110300000002
  0.2499998210000030  0.9820201400000030  0.8931555750000015
  0.2499997019999967  0.7320200200000002  0.0000000000000000
  0.9166668060000021  0.3153538409999967  0.4657776060000032
  0.9166666870000029  0.0653537880000030  0.5726220609999970
  0.9166666269999979  0.8153536319999972  0.6794666050000018
  0.9166666269999979  0.5653535129999980  0.7863110300000002
  0.9166665670000000  0.3153534530000002  0.8931554560000023
  0.9166664480000009  0.0653533939999988  0.0000000000000000
  0.5833334330000000  0.6486871840000035  0.4657776060000032
  0.5833333129999971  0.3986871239999985  0.5726220609999970
  0.5833332540000029  0.1486869900000016  0.6794666050000018
  0.5833332540000029  0.8986868860000001  0.7863110300000002
  0.5833331939999979  0.6486868260000023  0.8931554560000023
  0.5833331939999979  0.3986867070000031  0.0000000000000000
 
  0.00000000E+00  0.00000000E+00  0.00000000E+00
  0.00000000E+00  0.00000000E+00  0.00000000E+00
  0.00000000E+00  0.00000000E+00  0.00000000E+00
  0.00000000E+00  0.00000000E+00  0.00000000E+00
  0.00000000E+00  0.00000000E+00  0.00000000E+00
  0.00000000E+00  0.00000000E+00  0.00000000E+00
  0.00000000E+00  0.00000000E+00  0.00000000E+00
  0.00000000E+00  0.00000000E+00  0.00000000E+00
  0.00000000E+00  0.00000000E+00  0.00000000E+00
  0.00000000E+00  0.00000000E+00  0.00000000E+00
  0.00000000E+00  0.00000000E+00  0.00000000E+00
  0.00000000E+00  0.00000000E+00  0.00000000E+00
  0.00000000E+00  0.00000000E+00  0.00000000E+00
  0.00000000E+00  0.00000000E+00  0.00000000E+00
  0.00000000E+00  0.00000000E+00  0.00000000E+00
  0.00000000E+00  0.00000000E+00  0.00000000E+00
  0.00000000E+00  0.00000000E+00  0.00000000E+00
  0.00000000E+00  0.00000000E+00  0.00000000E+00
  0.00000000E+00  0.00000000E+00  0.00000000E+00
  0.00000000E+00  0.00000000E+00  0.00000000E+00
  0.00000000E+00  0.00000000E+00  0.00000000E+00
  0.00000000E+00  0.00000000E+00  0.00000000E+00
  0.00000000E+00  0.00000000E+00  0.00000000E+00
  0.00000000E+00  0.00000000E+00  0.00000000E+00
  0.00000000E+00  0.00000000E+00  0.00000000E+00
  0.00000000E+00  0.00000000E+00  0.00000000E+00
  0.00000000E+00  0.00000000E+00  0.00000000E+00
  0.00000000E+00  0.00000000E+00  0.00000000E+00
  0.00000000E+00  0.00000000E+00  0.00000000E+00
  0.00000000E+00  0.00000000E+00  0.00000000E+00
  0.00000000E+00  0.00000000E+00  0.00000000E+00
  0.00000000E+00  0.00000000E+00  0.00000000E+00
  0.00000000E+00  0.00000000E+00  0.00000000E+00
  0.00000000E+00  0.00000000E+00  0.00000000E+00
  0.00000000E+00  0.00000000E+00  0.00000000E+00
  0.00000000E+00  0.00000000E+00  0.00000000E+00
  0.00000000E+00  0.00000000E+00  0.00000000E+00
  0.00000000E+00  0.00000000E+00  0.00000000E+00
  0.00000000E+00  0.00000000E+00  0.00000000E+00
  0.00000000E+00  0.00000000E+00  0.00000000E+00
  0.00000000E+00  0.00000000E+00  0.00000000E+00
  0.00000000E+00  0.00000000E+00  0.00000000E+00
  0.00000000E+00  0.00000000E+00  0.00000000E+00
  0.00000000E+00  0.00000000E+00  0.00000000E+00
  0.00000000E+00  0.00000000E+00  0.00000000E+00
  0.00000000E+00  0.00000000E+00  0.00000000E+00
  0.00000000E+00  0.00000000E+00  0.00000000E+00
  0.00000000E+00  0.00000000E+00  0.00000000E+00
  0.00000000E+00  0.00000000E+00  0.00000000E+00
  0.00000000E+00  0.00000000E+00  0.00000000E+00
  0.00000000E+00  0.00000000E+00  0.00000000E+00
  0.00000000E+00  0.00000000E+00  0.00000000E+00
  0.00000000E+00  0.00000000E+00  0.00000000E+00
  0.00000000E+00  0.00000000E+00  0.00000000E+00
  0.00000000E+00  0.00000000E+00  0.00000000E+00
  0.00000000E+00  0.00000000E+00  0.00000000E+00
  0.00000000E+00  0.00000000E+00  0.00000000E+00
  0.00000000E+00  0.00000000E+00  0.00000000E+00
  0.00000000E+00  0.00000000E+00  0.00000000E+00
  0.00000000E+00  0.00000000E+00  0.00000000E+00
  0.00000000E+00  0.00000000E+00  0.00000000E+00
  0.00000000E+00  0.00000000E+00  0.00000000E+00
  0.00000000E+00  0.00000000E+00  0.00000000E+00
  0.00000000E+00  0.00000000E+00  0.00000000E+00
  0.00000000E+00  0.00000000E+00  0.00000000E+00
  0.00000000E+00  0.00000000E+00  0.00000000E+00
  0.00000000E+00  0.00000000E+00  0.00000000E+00
  0.00000000E+00  0.00000000E+00  0.00000000E+00
  0.00000000E+00  0.00000000E+00  0.00000000E+00
  0.00000000E+00  0.00000000E+00  0.00000000E+00
  0.00000000E+00  0.00000000E+00  0.00000000E+00
  0.00000000E+00  0.00000000E+00  0.00000000E+00
  0.00000000E+00  0.00000000E+00  0.00000000E+00
  0.00000000E+00  0.00000000E+00  0.00000000E+00
  0.00000000E+00  0.00000000E+00  0.00000000E+00
  0.00000000E+00  0.00000000E+00  0.00000000E+00
  0.00000000E+00  0.00000000E+00  0.00000000E+00
  0.00000000E+00  0.00000000E+00  0.00000000E+00
  0.00000000E+00  0.00000000E+00  0.00000000E+00
  0.00000000E+00  0.00000000E+00  0.00000000E+00
  0.00000000E+00  0.00000000E+00  0.00000000E+00
  0.00000000E+00  0.00000000E+00  0.00000000E+00
  0.00000000E+00  0.00000000E+00  0.00000000E+00
  0.00000000E+00  0.00000000E+00  0.00000000E+00
  0.00000000E+00  0.00000000E+00  0.00000000E+00
  0.00000000E+00  0.00000000E+00  0.00000000E+00
  0.00000000E+00  0.00000000E+00  0.00000000E+00
  0.00000000E+00  0.00000000E+00  0.00000000E+00
  0.00000000E+00  0.00000000E+00  0.00000000E+00
  0.00000000E+00  0.00000000E+00  0.00000000E+00
  0.00000000E+00  0.00000000E+00  0.00000000E+00
  0.00000000E+00  0.00000000E+00  0.00000000E+00
  0.00000000E+00  0.00000000E+00  0.00000000E+00
  0.00000000E+00  0.00000000E+00  0.00000000E+00
  0.00000000E+00  0.00000000E+00  0.00000000E+00
  0.00000000E+00  0.00000000E+00  0.00000000E+00
  0.00000000E+00  0.00000000E+00  0.00000000E+00
  0.00000000E+00  0.00000000E+00  0.00000000E+00
  0.00000000E+00  0.00000000E+00  0.00000000E+00
  0.00000000E+00  0.00000000E+00  0.00000000E+00
  0.00000000E+00  0.00000000E+00  0.00000000E+00
  0.00000000E+00  0.00000000E+00  0.00000000E+00
  0.00000000E+00  0.00000000E+00  0.00000000E+00
  0.00000000E+00  0.00000000E+00  0.00000000E+00
  0.00000000E+00  0.00000000E+00  0.00000000E+00
  0.00000000E+00  0.00000000E+00  0.00000000E+00
  0.00000000E+00  0.00000000E+00  0.00000000E+00
  0.00000000E+00  0.00000000E+00  0.00000000E+00
  0.00000000E+00  0.00000000E+00  0.00000000E+00
  0.00000000E+00  0.00000000E+00  0.00000000E+00
  0.00000000E+00  0.00000000E+00  0.00000000E+00
  0.00000000E+00  0.00000000E+00  0.00000000E+00
  0.00000000E+00  0.00000000E+00  0.00000000E+00
  0.00000000E+00  0.00000000E+00  0.00000000E+00
  0.00000000E+00  0.00000000E+00  0.00000000E+00
  0.00000000E+00  0.00000000E+00  0.00000000E+00
  0.00000000E+00  0.00000000E+00  0.00000000E+00
  0.00000000E+00  0.00000000E+00  0.00000000E+00
  0.00000000E+00  0.00000000E+00  0.00000000E+00
  0.00000000E+00  0.00000000E+00  0.00000000E+00
  0.00000000E+00  0.00000000E+00  0.00000000E+00
  0.00000000E+00  0.00000000E+00  0.00000000E+00
  0.00000000E+00  0.00000000E+00  0.00000000E+00
  0.00000000E+00  0.00000000E+00  0.00000000E+00
  0.00000000E+00  0.00000000E+00  0.00000000E+00
  0.00000000E+00  0.00000000E+00  0.00000000E+00
  0.00000000E+00  0.00000000E+00  0.00000000E+00
  0.00000000E+00  0.00000000E+00  0.00000000E+00
  0.00000000E+00  0.00000000E+00  0.00000000E+00
  0.00000000E+00  0.00000000E+00  0.00000000E+00
  0.00000000E+00  0.00000000E+00  0.00000000E+00
  0.00000000E+00  0.00000000E+00  0.00000000E+00
  0.00000000E+00  0.00000000E+00  0.00000000E+00
  0.00000000E+00  0.00000000E+00  0.00000000E+00
  0.00000000E+00  0.00000000E+00  0.00000000E+00
  0.00000000E+00  0.00000000E+00  0.00000000E+00
  0.00000000E+00  0.00000000E+00  0.00000000E+00
  0.00000000E+00  0.00000000E+00  0.00000000E+00
  0.00000000E+00  0.00000000E+00  0.00000000E+00
  0.00000000E+00  0.00000000E+00  0.00000000E+00
  0.00000000E+00  0.00000000E+00  0.00000000E+00
  0.00000000E+00  0.00000000E+00  0.00000000E+00
  0.00000000E+00  0.00000000E+00  0.00000000E+00
  0.00000000E+00  0.00000000E+00  0.00000000E+00
  0.00000000E+00  0.00000000E+00  0.00000000E+00
  0.00000000E+00  0.00000000E+00  0.00000000E+00
  0.00000000E+00  0.00000000E+00  0.00000000E+00
  0.00000000E+00  0.00000000E+00  0.00000000E+00
  0.00000000E+00  0.00000000E+00  0.00000000E+00
  0.00000000E+00  0.00000000E+00  0.00000000E+00
  0.00000000E+00  0.00000000E+00  0.00000000E+00
  0.00000000E+00  0.00000000E+00  0.00000000E+00
  0.00000000E+00  0.00000000E+00  0.00000000E+00
  0.00000000E+00  0.00000000E+00  0.00000000E+00
  0.00000000E+00  0.00000000E+00  0.00000000E+00
  0.00000000E+00  0.00000000E+00  0.00000000E+00
  0.00000000E+00  0.00000000E+00  0.00000000E+00
  0.00000000E+00  0.00000000E+00  0.00000000E+00
  0.00000000E+00  0.00000000E+00  0.00000000E+00
  0.00000000E+00  0.00000000E+00  0.00000000E+00
  0.00000000E+00  0.00000000E+00  0.00000000E+00
  0.00000000E+00  0.00000000E+00  0.00000000E+00
  0.00000000E+00  0.00000000E+00  0.00000000E+00
  0.00000000E+00  0.00000000E+00  0.00000000E+00
  0.00000000E+00  0.00000000E+00  0.00000000E+00
  0.00000000E+00  0.00000000E+00  0.00000000E+00
  0.00000000E+00  0.00000000E+00  0.00000000E+00
  0.00000000E+00  0.00000000E+00  0.00000000E+00
