Ge+Sn
    1.000000000
   11.315600395    0.000000000    0.000000000
    0.000000000   16.002676010    0.000000000
    0.000000000    0.000000000   21.473068237
Ge  Sn 
96     72
Direct
    0.970662773    0.455994159    0.000000022
    0.720662713    0.080994137    0.093155526
    0.470662773    0.705994129    0.186311051
    0.220662892    0.330994248    0.279466480
    0.970662713    0.955994129    0.372621983
    0.720662713    0.580994129    0.465777546
    0.470662773    0.455994159    0.000000022
    0.220662758    0.080994137    0.093155526
    0.970662773    0.705994129    0.186311051
    0.720662832    0.330994248    0.279466480
    0.470662832    0.955994129    0.372621983
    0.220662773    0.580994129    0.465777546
    0.970662773    0.955994129    0.000000019
    0.720662713    0.580994129    0.093155533
    0.470662773    0.205994129    0.186311036
    0.220662892    0.830994368    0.279466480
    0.970662713    0.455994129    0.372622073
    0.720662713    0.080994129    0.465777516
    0.470662773    0.955994129    0.000000019
    0.220662758    0.580994129    0.093155533
    0.970662773    0.205994129    0.186311036
    0.720662832    0.830994368    0.279466480
    0.470662832    0.455994129    0.372622073
    0.220662773    0.080994129    0.465777516
    0.970662773    0.705994129    0.000000025
    0.720662713    0.330994129    0.093155526
    0.470662773    0.955994129    0.186311036
    0.220662892    0.580994248    0.279466510
    0.970662713    0.205994189    0.372622073
    0.720662713    0.830994129    0.465777546
    0.470662773    0.705994129    0.000000025
    0.220662758    0.330994129    0.093155526
    0.970662773    0.955994129    0.186311036
    0.720662832    0.580994248    0.279466510
    0.470662832    0.205994189    0.372622073
    0.220662773    0.830994129    0.465777546
    0.970662773    0.205994144    0.000000021
    0.720662713    0.830994129    0.093155526
    0.470662773    0.455994129    0.186311036
    0.220662892    0.080994248    0.279466510
    0.970662713    0.705994248    0.372621983
    0.720662713    0.330994129    0.465777516
    0.470662773    0.205994144    0.000000021
    0.220662758    0.830994129    0.093155526
    0.970662773    0.455994129    0.186311036
    0.720662832    0.080994248    0.279466510
    0.470662832    0.705994248    0.372621983
    0.220662773    0.330994129    0.465777516
    0.345662743    0.580994189    0.000000031
    0.095662758    0.205994159    0.093155526
    0.845662773    0.830994129    0.186311036
    0.595662832    0.455994248    0.279466480
    0.345662773    0.080994189    0.372622073
    0.095662713    0.705994129    0.465777546
    0.845662832    0.580994189    0.000000031
    0.595662773    0.205994159    0.093155526
    0.345662802    0.830994129    0.186311036
    0.095662884    0.455994248    0.279466480
    0.845662832    0.080994189    0.372622073
    0.595662773    0.705994129    0.465777546
    0.345662743    0.080994137    0.000000016
    0.095662758    0.705994129    0.093155526
    0.845662773    0.330994129    0.186311036
    0.595662832    0.955994248    0.279466510
    0.345662773    0.580994248    0.372621983
    0.095662713    0.205994010    0.465777516
    0.845662832    0.080994137    0.000000016
    0.595662773    0.705994129    0.093155526
    0.345662802    0.330994129    0.186311036
    0.095662884    0.955994248    0.279466510
    0.845662832    0.580994248    0.372621983
    0.595662773    0.205994010    0.465777516
    0.345662743    0.830994189    0.000000000
    0.095662758    0.455994189    0.093155526
    0.845662773    0.080994174    0.186311036
    0.595662832    0.705994308    0.279466480
    0.345662773    0.330994248    0.372621983
    0.095662713    0.955994129    0.465777487
    0.845662832    0.830994189    0.000000000
    0.595662773    0.455994189    0.093155526
    0.345662802    0.080994174    0.186311036
    0.095662884    0.705994308    0.279466480
    0.845662832    0.330994248    0.372621983
    0.595662773    0.955994129    0.465777487
    0.345662743    0.330994129    0.000000022
    0.095662758    0.955994129    0.093155533
    0.845662773    0.580994129    0.186311036
    0.595662832    0.205994248    0.279466510
    0.345662773    0.830994129    0.372621983
    0.095662713    0.455994129    0.465777516
    0.845662832    0.330994129    0.000000022
    0.595662773    0.955994129    0.093155533
    0.345662802    0.580994129    0.186311036
    0.095662884    0.205994248    0.279466510
    0.845662832    0.830994129    0.372621983
    0.595662773    0.455994129    0.465777516
    0.000000000    0.982020497    0.465777546
    0.999999940    0.732020378    0.572621942
    0.999999881    0.482020259    0.679466605
    0.999999821    0.232020080    0.786311030
    0.999999762    0.982020020    0.893155456
    0.999999762    0.732019901    1.000000000
    0.666666746    0.315353841    0.465777546
    0.666666687    0.065353781    0.572621942
    0.666666627    0.815353632    0.679466605
    0.666666627    0.565353513    0.786311030
    0.666666567    0.315353453    0.893155575
    0.666666508    0.065353274    1.000000000
    0.333333403    0.648687184    0.465777546
    0.333333343    0.398687124    0.572621942
    0.333333284    0.148687005    0.679466605
    0.333333224    0.898686886    0.786311030
    0.333333164    0.648686826    0.893155575
    0.333333164    0.398686647    1.000000000
    0.333333373    0.148687169    0.465777546
    0.333333313    0.898687124    0.572621942
    0.333333254    0.648687005    0.679466605
    0.333333254    0.398686767    0.786311030
    0.333333224    0.148686707    0.893155456
    0.333333164    0.898686647    1.000000000
    0.000000000    0.482020497    0.465777546
    0.999999940    0.232020438    0.572621942
    0.999999881    0.982020319    0.679466605
    0.999999821    0.732020140    0.786311030
    0.999999762    0.482020140    0.893155456
    0.999999762    0.232019961    1.000000000
    0.666666806    0.815353930    0.465777546
    0.666666746    0.565353811    0.572622061
    0.666666627    0.315353662    0.679466605
    0.666666627    0.065353565    0.786311030
    0.666666508    0.815353513    0.893155575
    0.666666508    0.565353334    1.000000000
    0.583333373    0.148687169    0.465777606
    0.583333373    0.898687124    0.572621942
    0.583333313    0.648686886    0.679466605
    0.583333194    0.398686826    0.786311030
    0.583333254    0.148686767    0.893155456
    0.583333135    0.898686767    1.000000000
    0.250000000    0.482020468    0.465777606
    0.249999940    0.232020423    0.572621942
    0.249999911    0.982020319    0.679466605
    0.249999821    0.732020140    0.786311030
    0.249999762    0.482020140    0.893155575
    0.249999717    0.232019961    1.000000000
    0.916666746    0.815353870    0.465777546
    0.916666627    0.565353811    0.572621942
    0.916666508    0.315353632    0.679466605
    0.916666508    0.065353528    0.786311030
    0.916666448    0.815353453    0.893155456
    0.916666448    0.565353274    1.000000000
    0.250000030    0.982020497    0.465777546
    0.249999985    0.732020438    0.572622061
    0.249999970    0.482020259    0.679466605
    0.249999881    0.232020140    0.786311030
    0.249999821    0.982020140    0.893155575
    0.249999702    0.732020020    1.000000000
    0.916666806    0.315353841    0.465777606
    0.916666687    0.065353788    0.572622061
    0.916666627    0.815353632    0.679466605
    0.916666627    0.565353513    0.786311030
    0.916666567    0.315353453    0.893155456
    0.916666448    0.065353394    1.000000000
    0.583333433    0.648687184    0.465777606
    0.583333313    0.398687124    0.572622061
    0.583333254    0.148686990    0.679466605
    0.583333254    0.898686886    0.786311030
    0.583333194    0.648686826    0.893155456
    0.583333194    0.398686707    1.000000000
