Ge+Si
    1.000000000
   16.002676010    0.000000000    0.000000000
    0.000000000   16.973400116    0.000000000
    0.000000000    0.000000000   18.072525024
Ge  Si 
144     72
Direct
    0.989689231    0.986252308    0.000000021
    0.864689231    0.819585621    0.110683732
    0.739689231    0.652918935    0.221367493
    0.614689231    0.486252248    0.332051188
    0.489689291    0.319585562    0.442734867
    0.364689231    0.152918875    0.553418636
    0.989689231    0.319585651    0.000000021
    0.864689231    0.152918950    0.110683732
    0.739689231    0.986252248    0.221367493
    0.614689231    0.819585562    0.332051188
    0.489689291    0.652918935    0.442734867
    0.364689231    0.486252189    0.553418636
    0.989689231    0.652918994    0.000000021
    0.864689231    0.486252308    0.110683732
    0.739689231    0.319585592    0.221367493
    0.614689231    0.152918935    0.332051188
    0.489689291    0.986252248    0.442734867
    0.364689231    0.819585562    0.553418636
    0.489689231    0.986252308    0.000000019
    0.364689231    0.819585621    0.110683747
    0.239689216    0.652918935    0.221367493
    0.114689231    0.486252248    0.332051218
    0.989689231    0.319585562    0.442734897
    0.864689231    0.152918875    0.553418577
    0.489689231    0.319585651    0.000000019
    0.364689231    0.152918950    0.110683747
    0.239689216    0.986252248    0.221367493
    0.114689231    0.819585562    0.332051218
    0.989689231    0.652918935    0.442734897
    0.864689231    0.486252189    0.553418577
    0.489689231    0.652918994    0.000000019
    0.364689231    0.486252308    0.110683747
    0.239689216    0.319585592    0.221367493
    0.114689231    0.152918935    0.332051218
    0.989689231    0.986252248    0.442734897
    0.864689231    0.819585562    0.553418577
    0.239689231    0.986252308    0.000000026
    0.114689231    0.819585621    0.110683747
    0.989689231    0.652918935    0.221367493
    0.864689231    0.486252248    0.332051218
    0.739689231    0.319585562    0.442734897
    0.614689231    0.152918875    0.553418636
    0.239689231    0.319585651    0.000000026
    0.114689231    0.152918950    0.110683747
    0.989689231    0.986252248    0.221367493
    0.864689231    0.819585562    0.332051218
    0.739689231    0.652918935    0.442734897
    0.614689231    0.486252189    0.553418636
    0.239689231    0.652918994    0.000000026
    0.114689231    0.486252308    0.110683747
    0.989689231    0.319585592    0.221367493
    0.864689231    0.152918935    0.332051218
    0.739689231    0.986252248    0.442734897
    0.614689231    0.819585562    0.553418636
    0.739689231    0.986252308    0.000000012
    0.614689231    0.819585621    0.110683747
    0.489689201    0.652918935    0.221367463
    0.364689231    0.486252248    0.332051218
    0.239689246    0.319585562    0.442734897
    0.114689231    0.152918875    0.553418577
    0.739689231    0.319585651    0.000000012
    0.614689231    0.152918950    0.110683747
    0.489689201    0.986252248    0.221367463
    0.364689231    0.819585562    0.332051218
    0.239689246    0.652918935    0.442734897
    0.114689231    0.486252189    0.553418577
    0.739689231    0.652918994    0.000000012
    0.614689231    0.486252308    0.110683747
    0.489689201    0.319585592    0.221367463
    0.364689231    0.152918935    0.332051218
    0.239689246    0.986252248    0.442734897
    0.114689231    0.819585562    0.553418577
    0.364689231    0.236252308    0.000000012
    0.239689231    0.069585621    0.110683732
    0.114689209    0.902918875    0.221367463
    0.989689231    0.736252189    0.332051218
    0.864689231    0.569585562    0.442734897
    0.739689231    0.402918875    0.553418636
    0.364689231    0.569585681    0.000000012
    0.239689231    0.402918994    0.110683732
    0.114689209    0.236252293    0.221367463
    0.989689231    0.069585614    0.332051218
    0.864689231    0.902918935    0.442734897
    0.739689231    0.736252189    0.553418636
    0.364689231    0.902918994    0.000000012
    0.239689231    0.736252308    0.110683732
    0.114689209    0.569585562    0.221367463
    0.989689231    0.402918905    0.332051218
    0.864689231    0.236252263    0.442734897
    0.739689231    0.069585547    0.553418636
    0.864689291    0.236252308    0.000000000
    0.739689291    0.069585621    0.110683732
    0.614689291    0.902918875    0.221367463
    0.489689291    0.736252189    0.332051188
    0.364689291    0.569585562    0.442734867
    0.239689291    0.402918875    0.553418577
    0.864689291    0.569585681    0.000000000
    0.739689291    0.402918994    0.110683732
    0.614689291    0.236252293    0.221367463
    0.489689291    0.069585614    0.332051188
    0.364689291    0.902918935    0.442734867
    0.239689291    0.736252189    0.553418577
    0.864689291    0.902918994    0.000000000
    0.739689291    0.736252308    0.110683732
    0.614689291    0.569585562    0.221367463
    0.489689291    0.402918905    0.332051188
    0.364689291    0.236252263    0.442734867
    0.239689291    0.069585547    0.553418577
    0.114689223    0.236252308    0.000000024
    0.989689231    0.069585621    0.110683747
    0.864689231    0.902918875    0.221367463
    0.739689231    0.736252189    0.332051218
    0.614689231    0.569585562    0.442734897
    0.489689231    0.402918875    0.553418577
    0.114689223    0.569585681    0.000000024
    0.989689231    0.402918994    0.110683747
    0.864689231    0.236252293    0.221367463
    0.739689231    0.069585614    0.332051218
    0.614689231    0.902918935    0.442734897
    0.489689231    0.736252189    0.553418577
    0.114689223    0.902918994    0.000000024
    0.989689231    0.736252308    0.110683747
    0.864689231    0.569585562    0.221367463
    0.739689231    0.402918905    0.332051218
    0.614689231    0.236252263    0.442734897
    0.489689231    0.069585547    0.553418577
    0.614689231    0.236252308    0.000000006
    0.489689231    0.069585621    0.110683747
    0.364689231    0.902918875    0.221367463
    0.239689231    0.736252189    0.332051218
    0.114689253    0.569585562    0.442734867
    0.989689231    0.402918875    0.553418577
    0.614689231    0.569585681    0.000000006
    0.489689231    0.402918994    0.110683747
    0.364689231    0.236252293    0.221367463
    0.239689231    0.069585614    0.332051218
    0.114689253    0.902918935    0.442734867
    0.989689231    0.736252189    0.553418577
    0.614689231    0.902918994    0.000000006
    0.489689231    0.736252308    0.110683747
    0.364689231    0.569585562    0.221367463
    0.239689231    0.402918905    0.332051218
    0.114689253    0.236252263    0.442734867
    0.989689231    0.069585547    0.553418577
    0.727863193    0.406086326    0.895497143
    0.561196804    0.656085610    0.657921731
    0.394530058    0.006085634    0.705436766
    0.227863312    0.356085777    0.752951860
    0.061196566    0.706086159    0.800467014
    0.894529819    0.056086302    0.847982109
    0.061196566    0.406086326    0.895497143
    0.894530058    0.656085610    0.657921731
    0.727863371    0.006085634    0.705436766
    0.561196685    0.356085777    0.752951860
    0.394529819    0.706086159    0.800467014
    0.227863073    0.056086302    0.847982109
    0.394529819    0.406086326    0.895497143
    0.227863431    0.656085610    0.657921731
    0.061196685    0.006085634    0.705436766
    0.894530058    0.356085777    0.752951860
    0.727863252    0.706086159    0.800467014
    0.561196566    0.056086302    0.847982109
    0.811196506    0.156086445    0.895497143
    0.644530058    0.406085730    0.657921672
    0.477863312    0.756085873    0.705436766
    0.311196566    0.106086135    0.752951801
    0.144529819    0.456086278    0.800466955
    0.977863252    0.806086302    0.847982049
    0.144529819    0.156086445    0.895497143
    0.977863371    0.406085730    0.657921672
    0.811196685    0.756085873    0.705436766
    0.644529998    0.106086135    0.752951801
    0.477863312    0.456086278    0.800466955
    0.311196566    0.806086302    0.847982049
    0.477863193    0.156086445    0.895497143
    0.311196685    0.406085730    0.657921672
    0.144530058    0.756085873    0.705436766
    0.977863312    0.106086135    0.752951801
    0.811196506    0.456086278    0.800466955
    0.644529879    0.806086302    0.847982049
    0.727863193    0.906086445    0.895497143
    0.561196685    0.156085730    0.657921672
    0.394530058    0.506085873    0.705436766
    0.227863312    0.856085896    0.752951801
    0.061196566    0.206086159    0.800467014
    0.894529939    0.556086302    0.847982049
    0.061196566    0.906086445    0.895497143
    0.894530058    0.156085730    0.657921672
    0.727863312    0.506085873    0.705436766
    0.561196685    0.856085896    0.752951801
    0.394529819    0.206086159    0.800467014
    0.227863312    0.556086302    0.847982049
    0.394529819    0.906086445    0.895497143
    0.227863431    0.156085730    0.657921672
    0.061196685    0.506085873    0.705436766
    0.894530058    0.856085896    0.752951801
    0.727863252    0.206086159    0.800467014
    0.561196566    0.556086302    0.847982049
    0.811196506    0.656086445    0.895497143
    0.644530058    0.906085610    0.657921731
    0.477863312    0.256085634    0.705436766
    0.311196685    0.606085896    0.752951801
    0.144529819    0.956086159    0.800466955
    0.977863133    0.306086421    0.847982049
    0.144529819    0.656086445    0.895497143
    0.977863431    0.906085610    0.657921731
    0.811196685    0.256085634    0.705436766
    0.644529998    0.606085896    0.752951801
    0.477863312    0.956086159    0.800466955
    0.311196566    0.306086421    0.847982049
    0.477863312    0.656086445    0.895497143
    0.311196804    0.906085610    0.657921731
    0.144530058    0.256085634    0.705436766
    0.977863371    0.606085896    0.752951801
    0.811196566    0.956086159    0.800466955
    0.644529819    0.306086421    0.847982049
