Si+Ge
    1.000000000
   16.293001175    0.000000000    0.000000000
    0.000000000   16.293001175    0.000000000
    0.000000000    0.000000000   13.888529778
Si  Ge 
108     48
Direct
    0.000000000    0.994067729    0.000000000
    0.000000000    0.827401042    0.195521072
    0.000000000    0.660734296    0.391042173
    0.333333343    0.994067729    0.000000000
    0.333333343    0.827401042    0.195521072
    0.333333343    0.660734296    0.391042173
    0.666666687    0.994067729    0.000000000
    0.666666687    0.827401042    0.195521072
    0.666666687    0.660734296    0.391042173
    0.000000000    0.327401042    0.000000000
    0.000000000    0.160734370    0.195521072
    0.000000000    0.994067669    0.391042173
    0.333333343    0.327401042    0.000000000
    0.333333343    0.160734370    0.195521072
    0.333333343    0.994067669    0.391042173
    0.666666687    0.327401042    0.000000000
    0.666666687    0.160734370    0.195521072
    0.666666687    0.994067669    0.391042173
    0.000000000    0.660734415    0.000000000
    0.000000000    0.494067699    0.195521072
    0.000000000    0.327401042    0.391042173
    0.333333343    0.660734415    0.000000000
    0.333333343    0.494067699    0.195521072
    0.333333343    0.327401042    0.391042173
    0.666666687    0.660734415    0.000000000
    0.666666687    0.494067699    0.195521072
    0.666666687    0.327401042    0.391042173
    0.083333336    0.077401049    0.097760543
    0.083333336    0.910734355    0.293281555
    0.083333336    0.744067669    0.488802701
    0.416666687    0.077401049    0.097760543
    0.416666687    0.910734355    0.293281555
    0.416666687    0.744067669    0.488802701
    0.750000000    0.077401049    0.097760543
    0.750000000    0.910734355    0.293281555
    0.750000000    0.744067669    0.488802701
    0.083333336    0.410734355    0.097760543
    0.083333336    0.244067669    0.293281555
    0.083333336    0.077400982    0.488802701
    0.416666687    0.410734355    0.097760543
    0.416666687    0.244067669    0.293281555
    0.416666687    0.077400982    0.488802701
    0.750000000    0.410734355    0.097760543
    0.750000000    0.244067669    0.293281555
    0.750000000    0.077400982    0.488802701
    0.083333336    0.744067729    0.097760543
    0.083333336    0.577401042    0.293281555
    0.083333336    0.410734355    0.488802701
    0.416666687    0.744067729    0.097760543
    0.416666687    0.577401042    0.293281555
    0.416666687    0.410734355    0.488802701
    0.750000000    0.744067729    0.097760543
    0.750000000    0.577401042    0.293281555
    0.750000000    0.410734355    0.488802701
    0.166666672    0.160734385    0.000000000
    0.166666672    0.994067669    0.195521072
    0.166666672    0.827400982    0.391042173
    0.500000000    0.160734385    0.000000000
    0.500000000    0.994067669    0.195521072
    0.500000000    0.827400982    0.391042173
    0.833333373    0.160734385    0.000000000
    0.833333373    0.994067669    0.195521072
    0.833333373    0.827400982    0.391042173
    0.166666672    0.494067699    0.000000000
    0.166666672    0.327401042    0.195521072
    0.166666672    0.160734311    0.391042173
    0.500000000    0.494067699    0.000000000
    0.500000000    0.327401042    0.195521072
    0.500000000    0.160734311    0.391042173
    0.833333373    0.494067699    0.000000000
    0.833333373    0.327401042    0.195521072
    0.833333373    0.160734311    0.391042173
    0.166666672    0.827401042    0.000000000
    0.166666672    0.660734355    0.195521072
    0.166666672    0.494067639    0.391042173
    0.500000000    0.827401042    0.000000000
    0.500000000    0.660734355    0.195521072
    0.500000000    0.494067639    0.391042173
    0.833333373    0.827401042    0.000000000
    0.833333373    0.660734355    0.195521072
    0.833333373    0.494067639    0.391042173
    0.250000000    0.244067714    0.097760543
    0.250000000    0.077401027    0.293281555
    0.250000000    0.910734355    0.488802701
    0.583333373    0.244067714    0.097760543
    0.583333373    0.077401027    0.293281555
    0.583333373    0.910734355    0.488802701
    0.916666687    0.244067714    0.097760543
    0.916666687    0.077401027    0.293281555
    0.916666687    0.910734355    0.488802701
    0.250000000    0.577401161    0.097760543
    0.250000000    0.410734445    0.293281555
    0.250000000    0.244067743    0.488802701
    0.583333373    0.577401161    0.097760543
    0.583333373    0.410734445    0.293281555
    0.583333373    0.244067743    0.488802701
    0.916666687    0.577401161    0.097760543
    0.916666687    0.410734445    0.293281555
    0.916666687    0.244067743    0.488802701
    0.250000000    0.910734355    0.097760543
    0.250000000    0.744067669    0.293281555
    0.250000000    0.577401042    0.488802701
    0.583333373    0.910734355    0.097760543
    0.583333373    0.744067669    0.293281555
    0.583333373    0.577401042    0.488802701
    0.916666687    0.910734355    0.097760543
    0.916666687    0.744067669    0.293281555
    0.916666687    0.577401042    0.488802701
    0.910024285    0.993484676    0.624377966
    0.521135330    0.618484616    0.672387362
    0.132246375    0.243484661    0.720396698
    0.743357301    0.868484735    0.768406093
    0.354468465    0.493484735    0.816415370
    0.965579510    0.118484601    0.864424765
    0.910024285    0.493484557    0.624377966
    0.521135330    0.118484557    0.672387362
    0.132246375    0.743484616    0.720396757
    0.743357301    0.368484616    0.768406093
    0.354468465    0.993484735    0.816415370
    0.965579510    0.618484616    0.864424706
    0.660024166    0.118484601    0.624377966
    0.271135211    0.743484616    0.672387362
    0.882246315    0.368484676    0.720396698
    0.493357360    0.993484735    0.768406034
    0.104468405    0.618484735    0.816415429
    0.715579271    0.243484721    0.864424706
    0.660024226    0.618484557    0.624377966
    0.271135241    0.243484527    0.672387362
    0.882246315    0.868484557    0.720396698
    0.493357360    0.493484557    0.768406034
    0.104468405    0.118484661    0.816415429
    0.715579391    0.743484497    0.864424706
    0.660024226    0.368484616    0.624378026
    0.271135241    0.993484616    0.672387362
    0.882246315    0.618484676    0.720396698
    0.493357301    0.243484661    0.768406034
    0.104468465    0.868484735    0.816415429
    0.715579391    0.493484735    0.864424765
    0.660024226    0.868484557    0.624377966
    0.271135241    0.493484497    0.672387362
    0.882246315    0.118484572    0.720396698
    0.493357360    0.743484616    0.768406034
    0.104468465    0.368484676    0.816415429
    0.715579271    0.993484497    0.864424706
    0.910024285    0.243484601    0.624377966
    0.521135330    0.868484616    0.672387362
    0.132246375    0.493484735    0.720396757
    0.743357301    0.118484661    0.768406093
    0.354468703    0.743484855    0.816415429
    0.965579510    0.368484616    0.864424765
    0.910024285    0.743484557    0.624377966
    0.521135330    0.368484557    0.672387362
    0.132246375    0.993484676    0.720396757
    0.743357420    0.618484676    0.768406093
    0.354468584    0.243484721    0.816415370
    0.965579271    0.868484497    0.864424706
