Ge+Sn                                   
   1.00000000000000     
    16.0026760099999983    0.0000000000000000    0.0000000000000000
   -16.0026760099999983   11.3156013489999996    0.0000000000000000
     0.0000000000000000    0.0000000000000000   21.4730682369999997
   Ge   Sn
    96    72
Direct
  0.9690676929999995  0.4793784920000022  0.0000000089999972
  0.5940676929999995  0.2293784769999974  0.0931555180000032
  0.2190676330000016  0.9793784020000018  0.1863110660000018
  0.8440676929999995  0.7293784619999997  0.2794665400000014
  0.4690678119999987  0.4793785210000010  0.3726220730000023
  0.0940676929999995  0.2293784619999997  0.4657775459999982
  0.9690676929999995  0.9793784619999997  0.0000000140000012
  0.5940676929999995  0.7293784619999997  0.0931555259999968
  0.2190676330000016  0.4793784020000018  0.1863110509999970
  0.8440676929999995  0.2293784619999997  0.2794665400000014
  0.4690678119999987  0.9793785809999989  0.3726219830000019
  0.0940676929999995  0.7293784619999997  0.4657775459999982
  0.4690677230000020  0.4793784920000022  0.0000000140000012
  0.0940677079999972  0.2293784769999974  0.0931555259999968
  0.7190676330000016  0.9793784020000018  0.1863110509999970
  0.3440677520000008  0.7293784619999997  0.2794665400000014
  0.9690678119999987  0.4793785210000010  0.3726219830000019
  0.5940676929999995  0.2293784619999997  0.4657775459999982
  0.4690676929999995  0.9793784619999997  0.0000000020000002
  0.0940676999999965  0.7293784619999997  0.0931555180000032
  0.7190676330000016  0.4793784020000018  0.1863110509999970
  0.3440676929999995  0.2293784619999997  0.2794665400000014
  0.9690678119999987  0.9793785809999989  0.3726220730000023
  0.5940676929999995  0.7293784619999997  0.4657775160000028
  0.2190677079999972  0.4793784920000022  0.0000000149999977
  0.8440676929999995  0.2293784769999974  0.0931555330000009
  0.4690676330000016  0.9793784020000018  0.1863110509999970
  0.0940676929999995  0.7293784619999997  0.2794665400000014
  0.7190678119999987  0.4793785210000010  0.3726220730000023
  0.3440676929999995  0.2293784619999997  0.4657775160000028
  0.2190676780000018  0.9793784619999997  0.0000000109999974
  0.8440676929999995  0.7293784619999997  0.0931555259999968
  0.4690676330000016  0.4793784020000018  0.1863110509999970
  0.0940676929999995  0.2293784619999997  0.2794665400000014
  0.7190678119999987  0.9793785809999989  0.3726220730000023
  0.3440676929999995  0.7293784619999997  0.4657775459999982
  0.7190676929999995  0.4793784920000022  0.0000000109999974
  0.3440677230000020  0.2293784769999974  0.0931555259999968
  0.9690676330000016  0.9793784020000018  0.1863110509999970
  0.5940676929999995  0.7293784619999997  0.2794665400000014
  0.2190677520000008  0.4793785210000010  0.3726220730000023
  0.8440676929999995  0.2293784619999997  0.4657775160000028
  0.7190676330000016  0.9793784619999997  0.0000000160000013
  0.3440676929999995  0.7293784619999997  0.0931555410000016
  0.9690676330000016  0.4793784020000018  0.1863110509999970
  0.5940676929999995  0.2293784619999997  0.2794665400000014
  0.2190678719999966  0.9793785809999989  0.3726221020000011
  0.8440676929999995  0.7293784619999997  0.4657775459999982
  0.2190677370000031  0.8543785210000010  0.0000000020000002
  0.8440676929999995  0.6043784619999997  0.0931555259999968
  0.4690676929999995  0.3543784619999997  0.1863110509999970
  0.0940677520000008  0.1043784989999992  0.2794665400000014
  0.7190678119999987  0.8543785210000010  0.3726219830000019
  0.3440676929999995  0.6043785210000010  0.4657775459999982
  0.2190676780000018  0.3543784619999997  0.0000000140000012
  0.8440676929999995  0.1043784619999997  0.0931555180000032
  0.4690676330000016  0.8543784020000018  0.1863110509999970
  0.0940676330000016  0.6043784619999997  0.2794665400000014
  0.7190676929999995  0.3543784619999997  0.3726220730000023
  0.3440675740000003  0.1043784020000018  0.4657775160000028
  0.7190677520000008  0.8543785210000010  0.0000000140000012
  0.3440676629999970  0.6043784619999997  0.0931555259999968
  0.9690676330000016  0.3543784619999997  0.1863110359999993
  0.5940676929999995  0.1043784989999992  0.2794665400000014
  0.2190678119999987  0.8543785210000010  0.3726220730000023
  0.8440676929999995  0.6043785210000010  0.4657775160000028
  0.7190676929999995  0.3543784619999997  0.0000000100000008
  0.3440676929999995  0.1043784619999997  0.0931555259999968
  0.9690676330000016  0.8543784020000018  0.1863110660000018
  0.5940676929999995  0.6043784619999997  0.2794665400000014
  0.2190677520000008  0.3543784619999997  0.3726220730000023
  0.8440675740000003  0.1043784020000018  0.4657775459999982
  0.9690676929999995  0.8543785210000010  0.0000000200000017
  0.5940676330000016  0.6043784619999997  0.0931555410000016
  0.2190676330000016  0.3543784619999997  0.1863110509999970
  0.8440675740000003  0.1043784989999992  0.2794665690000002
  0.4690678119999987  0.8543785210000010  0.3726221020000011
  0.0940676929999995  0.6043785210000010  0.4657775459999982
  0.9690676929999995  0.3543784619999997  0.0000000000000000
  0.5940676929999995  0.1043784619999997  0.0931555259999968
  0.2190676330000016  0.8543784020000018  0.1863110509999970
  0.8440676929999995  0.6043784619999997  0.2794665400000014
  0.4690676929999995  0.3543784619999997  0.3726219830000019
  0.0940676929999995  0.1043784020000018  0.4657775160000028
  0.4690677520000008  0.8543785210000010  0.0000000000000000
  0.0940676849999988  0.6043784619999997  0.0931555259999968
  0.7190676929999995  0.3543784619999997  0.1863110509999970
  0.3440677520000008  0.1043784989999992  0.2794665400000014
  0.9690678119999987  0.8543785210000010  0.3726219830000019
  0.5940678119999987  0.6043785210000010  0.4657775160000028
  0.4690676929999995  0.3543784619999997  0.0000000120000010
  0.0940676929999995  0.1043784619999997  0.0931555259999968
  0.7190676330000016  0.8543784020000018  0.1863110359999993
  0.3440676929999995  0.6043784619999997  0.2794665400000014
  0.9690676929999995  0.3543784619999997  0.3726220730000023
  0.5940676929999995  0.1043784020000018  0.4657775160000028
  0.9820204970000006  0.6666666870000029  0.4657775459999982
  0.7320204970000006  0.6666666870000029  0.5726219419999978
  0.4820203780000014  0.6666665079999987  0.6794666050000018
  0.2320203190000001  0.6666665670000000  0.7863110300000002
  0.9820202590000022  0.6666663889999995  0.8931554560000023
  0.7320202590000022  0.6666663889999995  0.0000000000000000
  0.9820204970000006  0.3333333429999996  0.4657775459999982
  0.7320204970000006  0.3333333129999971  0.5726219419999978
  0.4820203780000014  0.3333331939999979  0.6794666050000018
  0.2320203190000001  0.3333331349999966  0.7863110300000002
  0.9820202590000022  0.3333330150000009  0.8931554560000023
  0.7320202590000022  0.3333330150000009  0.0000000000000000
  0.9820204970000006  0.0000000000000000  0.4657775459999982
  0.7320204970000006  0.9999999400000021  0.5726219419999978
  0.4820203780000014  0.9999998210000030  0.6794666050000018
  0.2320203190000001  0.9999998210000030  0.7863110300000002
  0.9820202590000022  0.9999997019999967  0.8931554560000023
  0.7320202590000022  0.9999995829999975  0.0000000000000000
  0.4820204970000006  0.6666666870000029  0.4657775459999982
  0.2320204820000029  0.6666666870000029  0.5726219419999978
  0.9820203780000014  0.6666665670000000  0.6794666050000018
  0.7320203780000014  0.6666665079999987  0.7863110300000002
  0.4820203190000001  0.6666663290000017  0.8931554560000023
  0.2320202590000022  0.6666663290000017  0.0000000000000000
  0.4820204970000006  0.3333333429999996  0.4657775459999982
  0.2320204820000029  0.3333332839999983  0.5726219419999978
  0.9820203780000014  0.3333331939999979  0.6794666050000018
  0.7320203780000014  0.3333331640000026  0.7863110300000002
  0.4820203190000001  0.3333330749999988  0.8931554560000023
  0.2320202590000022  0.3333329559999996  0.0000000000000000
  0.4820204970000006  0.0000000000000000  0.4657775459999982
  0.2320204820000029  0.9999999400000021  0.5726219419999978
  0.9820203780000014  0.9999998810000008  0.6794666050000018
  0.7320203780000014  0.9999998210000030  0.7863110300000002
  0.4820203190000001  0.9999997019999967  0.8931554560000023
  0.2320202590000022  0.9999996419999988  0.0000000000000000
  0.7320204970000006  0.9166667459999971  0.4657775459999982
  0.4820204680000018  0.9166666870000029  0.5726220609999970
  0.2320203929999991  0.9166666269999979  0.6794666050000018
  0.9820203190000001  0.9166665670000000  0.7863110300000002
  0.7320202590000022  0.9166663889999995  0.8931555750000015
  0.4820202590000022  0.9166664480000009  0.0000000000000000
  0.7320204970000006  0.5833333730000021  0.4657775459999982
  0.4820204680000018  0.5833333129999971  0.5726220609999970
  0.2320203929999991  0.5833331939999979  0.6794666050000018
  0.9820203190000001  0.5833331939999979  0.7863110300000002
  0.7320202590000022  0.5833331349999966  0.8931555750000015
  0.4820202590000022  0.5833330749999988  0.0000000000000000
  0.7320204970000006  0.2500000000000000  0.4657775459999982
  0.4820204680000018  0.2499999249999973  0.5726220609999970
  0.2320203929999991  0.2499998660000031  0.6794666050000018
  0.9820203190000001  0.2499997910000005  0.7863110300000002
  0.7320202590000022  0.2499997319999991  0.8931555750000015
  0.4820202590000022  0.2499996720000013  0.0000000000000000
  0.2320204970000006  0.9166667459999971  0.4657775459999982
  0.9820204970000006  0.9166666870000029  0.5726220609999970
  0.7320203780000014  0.9166665670000000  0.6794666050000018
  0.4820202590000022  0.9166666269999979  0.7863110300000002
  0.2320203190000001  0.9166664480000009  0.8931554560000023
  0.9820202590000022  0.9166665079999987  0.0000000000000000
  0.2320204970000006  0.5833333730000021  0.4657775459999982
  0.9820204970000006  0.5833333129999971  0.5726220609999970
  0.7320203780000014  0.5833331939999979  0.6794666050000018
  0.4820202590000022  0.5833331349999966  0.7863110300000002
  0.2320203190000001  0.5833330749999988  0.8931554560000023
  0.9820202590000022  0.5833331349999966  0.0000000000000000
  0.2320204970000006  0.2500000300000025  0.4657775459999982
  0.9820204970000006  0.2499999699999975  0.5726220609999970
  0.7320203780000014  0.2499998509999983  0.6794666050000018
  0.4820202590000022  0.2499997319999991  0.7863110300000002
  0.2320203190000001  0.2499997910000005  0.8931554560000023
  0.9820202590000022  0.2499997319999991  0.0000000000000000
 
  0.00000000E+00  0.00000000E+00  0.00000000E+00
  0.00000000E+00  0.00000000E+00  0.00000000E+00
  0.00000000E+00  0.00000000E+00  0.00000000E+00
  0.00000000E+00  0.00000000E+00  0.00000000E+00
  0.00000000E+00  0.00000000E+00  0.00000000E+00
  0.00000000E+00  0.00000000E+00  0.00000000E+00
  0.00000000E+00  0.00000000E+00  0.00000000E+00
  0.00000000E+00  0.00000000E+00  0.00000000E+00
  0.00000000E+00  0.00000000E+00  0.00000000E+00
  0.00000000E+00  0.00000000E+00  0.00000000E+00
  0.00000000E+00  0.00000000E+00  0.00000000E+00
  0.00000000E+00  0.00000000E+00  0.00000000E+00
  0.00000000E+00  0.00000000E+00  0.00000000E+00
  0.00000000E+00  0.00000000E+00  0.00000000E+00
  0.00000000E+00  0.00000000E+00  0.00000000E+00
  0.00000000E+00  0.00000000E+00  0.00000000E+00
  0.00000000E+00  0.00000000E+00  0.00000000E+00
  0.00000000E+00  0.00000000E+00  0.00000000E+00
  0.00000000E+00  0.00000000E+00  0.00000000E+00
  0.00000000E+00  0.00000000E+00  0.00000000E+00
  0.00000000E+00  0.00000000E+00  0.00000000E+00
  0.00000000E+00  0.00000000E+00  0.00000000E+00
  0.00000000E+00  0.00000000E+00  0.00000000E+00
  0.00000000E+00  0.00000000E+00  0.00000000E+00
  0.00000000E+00  0.00000000E+00  0.00000000E+00
  0.00000000E+00  0.00000000E+00  0.00000000E+00
  0.00000000E+00  0.00000000E+00  0.00000000E+00
  0.00000000E+00  0.00000000E+00  0.00000000E+00
  0.00000000E+00  0.00000000E+00  0.00000000E+00
  0.00000000E+00  0.00000000E+00  0.00000000E+00
  0.00000000E+00  0.00000000E+00  0.00000000E+00
  0.00000000E+00  0.00000000E+00  0.00000000E+00
  0.00000000E+00  0.00000000E+00  0.00000000E+00
  0.00000000E+00  0.00000000E+00  0.00000000E+00
  0.00000000E+00  0.00000000E+00  0.00000000E+00
  0.00000000E+00  0.00000000E+00  0.00000000E+00
  0.00000000E+00  0.00000000E+00  0.00000000E+00
  0.00000000E+00  0.00000000E+00  0.00000000E+00
  0.00000000E+00  0.00000000E+00  0.00000000E+00
  0.00000000E+00  0.00000000E+00  0.00000000E+00
  0.00000000E+00  0.00000000E+00  0.00000000E+00
  0.00000000E+00  0.00000000E+00  0.00000000E+00
  0.00000000E+00  0.00000000E+00  0.00000000E+00
  0.00000000E+00  0.00000000E+00  0.00000000E+00
  0.00000000E+00  0.00000000E+00  0.00000000E+00
  0.00000000E+00  0.00000000E+00  0.00000000E+00
  0.00000000E+00  0.00000000E+00  0.00000000E+00
  0.00000000E+00  0.00000000E+00  0.00000000E+00
  0.00000000E+00  0.00000000E+00  0.00000000E+00
  0.00000000E+00  0.00000000E+00  0.00000000E+00
  0.00000000E+00  0.00000000E+00  0.00000000E+00
  0.00000000E+00  0.00000000E+00  0.00000000E+00
  0.00000000E+00  0.00000000E+00  0.00000000E+00
  0.00000000E+00  0.00000000E+00  0.00000000E+00
  0.00000000E+00  0.00000000E+00  0.00000000E+00
  0.00000000E+00  0.00000000E+00  0.00000000E+00
  0.00000000E+00  0.00000000E+00  0.00000000E+00
  0.00000000E+00  0.00000000E+00  0.00000000E+00
  0.00000000E+00  0.00000000E+00  0.00000000E+00
  0.00000000E+00  0.00000000E+00  0.00000000E+00
  0.00000000E+00  0.00000000E+00  0.00000000E+00
  0.00000000E+00  0.00000000E+00  0.00000000E+00
  0.00000000E+00  0.00000000E+00  0.00000000E+00
  0.00000000E+00  0.00000000E+00  0.00000000E+00
  0.00000000E+00  0.00000000E+00  0.00000000E+00
  0.00000000E+00  0.00000000E+00  0.00000000E+00
  0.00000000E+00  0.00000000E+00  0.00000000E+00
  0.00000000E+00  0.00000000E+00  0.00000000E+00
  0.00000000E+00  0.00000000E+00  0.00000000E+00
  0.00000000E+00  0.00000000E+00  0.00000000E+00
  0.00000000E+00  0.00000000E+00  0.00000000E+00
  0.00000000E+00  0.00000000E+00  0.00000000E+00
  0.00000000E+00  0.00000000E+00  0.00000000E+00
  0.00000000E+00  0.00000000E+00  0.00000000E+00
  0.00000000E+00  0.00000000E+00  0.00000000E+00
  0.00000000E+00  0.00000000E+00  0.00000000E+00
  0.00000000E+00  0.00000000E+00  0.00000000E+00
  0.00000000E+00  0.00000000E+00  0.00000000E+00
  0.00000000E+00  0.00000000E+00  0.00000000E+00
  0.00000000E+00  0.00000000E+00  0.00000000E+00
  0.00000000E+00  0.00000000E+00  0.00000000E+00
  0.00000000E+00  0.00000000E+00  0.00000000E+00
  0.00000000E+00  0.00000000E+00  0.00000000E+00
  0.00000000E+00  0.00000000E+00  0.00000000E+00
  0.00000000E+00  0.00000000E+00  0.00000000E+00
  0.00000000E+00  0.00000000E+00  0.00000000E+00
  0.00000000E+00  0.00000000E+00  0.00000000E+00
  0.00000000E+00  0.00000000E+00  0.00000000E+00
  0.00000000E+00  0.00000000E+00  0.00000000E+00
  0.00000000E+00  0.00000000E+00  0.00000000E+00
  0.00000000E+00  0.00000000E+00  0.00000000E+00
  0.00000000E+00  0.00000000E+00  0.00000000E+00
  0.00000000E+00  0.00000000E+00  0.00000000E+00
  0.00000000E+00  0.00000000E+00  0.00000000E+00
  0.00000000E+00  0.00000000E+00  0.00000000E+00
  0.00000000E+00  0.00000000E+00  0.00000000E+00
  0.00000000E+00  0.00000000E+00  0.00000000E+00
  0.00000000E+00  0.00000000E+00  0.00000000E+00
  0.00000000E+00  0.00000000E+00  0.00000000E+00
  0.00000000E+00  0.00000000E+00  0.00000000E+00
  0.00000000E+00  0.00000000E+00  0.00000000E+00
  0.00000000E+00  0.00000000E+00  0.00000000E+00
  0.00000000E+00  0.00000000E+00  0.00000000E+00
  0.00000000E+00  0.00000000E+00  0.00000000E+00
  0.00000000E+00  0.00000000E+00  0.00000000E+00
  0.00000000E+00  0.00000000E+00  0.00000000E+00
  0.00000000E+00  0.00000000E+00  0.00000000E+00
  0.00000000E+00  0.00000000E+00  0.00000000E+00
  0.00000000E+00  0.00000000E+00  0.00000000E+00
  0.00000000E+00  0.00000000E+00  0.00000000E+00
  0.00000000E+00  0.00000000E+00  0.00000000E+00
  0.00000000E+00  0.00000000E+00  0.00000000E+00
  0.00000000E+00  0.00000000E+00  0.00000000E+00
  0.00000000E+00  0.00000000E+00  0.00000000E+00
  0.00000000E+00  0.00000000E+00  0.00000000E+00
  0.00000000E+00  0.00000000E+00  0.00000000E+00
  0.00000000E+00  0.00000000E+00  0.00000000E+00
  0.00000000E+00  0.00000000E+00  0.00000000E+00
  0.00000000E+00  0.00000000E+00  0.00000000E+00
  0.00000000E+00  0.00000000E+00  0.00000000E+00
  0.00000000E+00  0.00000000E+00  0.00000000E+00
  0.00000000E+00  0.00000000E+00  0.00000000E+00
  0.00000000E+00  0.00000000E+00  0.00000000E+00
  0.00000000E+00  0.00000000E+00  0.00000000E+00
  0.00000000E+00  0.00000000E+00  0.00000000E+00
  0.00000000E+00  0.00000000E+00  0.00000000E+00
  0.00000000E+00  0.00000000E+00  0.00000000E+00
  0.00000000E+00  0.00000000E+00  0.00000000E+00
  0.00000000E+00  0.00000000E+00  0.00000000E+00
  0.00000000E+00  0.00000000E+00  0.00000000E+00
  0.00000000E+00  0.00000000E+00  0.00000000E+00
  0.00000000E+00  0.00000000E+00  0.00000000E+00
  0.00000000E+00  0.00000000E+00  0.00000000E+00
  0.00000000E+00  0.00000000E+00  0.00000000E+00
  0.00000000E+00  0.00000000E+00  0.00000000E+00
  0.00000000E+00  0.00000000E+00  0.00000000E+00
  0.00000000E+00  0.00000000E+00  0.00000000E+00
  0.00000000E+00  0.00000000E+00  0.00000000E+00
  0.00000000E+00  0.00000000E+00  0.00000000E+00
  0.00000000E+00  0.00000000E+00  0.00000000E+00
  0.00000000E+00  0.00000000E+00  0.00000000E+00
  0.00000000E+00  0.00000000E+00  0.00000000E+00
  0.00000000E+00  0.00000000E+00  0.00000000E+00
  0.00000000E+00  0.00000000E+00  0.00000000E+00
  0.00000000E+00  0.00000000E+00  0.00000000E+00
  0.00000000E+00  0.00000000E+00  0.00000000E+00
  0.00000000E+00  0.00000000E+00  0.00000000E+00
  0.00000000E+00  0.00000000E+00  0.00000000E+00
  0.00000000E+00  0.00000000E+00  0.00000000E+00
  0.00000000E+00  0.00000000E+00  0.00000000E+00
  0.00000000E+00  0.00000000E+00  0.00000000E+00
  0.00000000E+00  0.00000000E+00  0.00000000E+00
  0.00000000E+00  0.00000000E+00  0.00000000E+00
  0.00000000E+00  0.00000000E+00  0.00000000E+00
  0.00000000E+00  0.00000000E+00  0.00000000E+00
  0.00000000E+00  0.00000000E+00  0.00000000E+00
  0.00000000E+00  0.00000000E+00  0.00000000E+00
  0.00000000E+00  0.00000000E+00  0.00000000E+00
  0.00000000E+00  0.00000000E+00  0.00000000E+00
  0.00000000E+00  0.00000000E+00  0.00000000E+00
  0.00000000E+00  0.00000000E+00  0.00000000E+00
  0.00000000E+00  0.00000000E+00  0.00000000E+00
  0.00000000E+00  0.00000000E+00  0.00000000E+00
  0.00000000E+00  0.00000000E+00  0.00000000E+00
  0.00000000E+00  0.00000000E+00  0.00000000E+00
  0.00000000E+00  0.00000000E+00  0.00000000E+00
  0.00000000E+00  0.00000000E+00  0.00000000E+00
  0.00000000E+00  0.00000000E+00  0.00000000E+00
