Ge Sn Ge Sn Ge Sn Ge Sn
 1.0000000000000000
     6.0750000000000002    0.0000000000000000    0.0000000000000000
     0.0000000000000000    6.0750000000000002    0.0000000000000000
     0.0000000000000000    0.0000000000000000    6.0750000000000002
 Ge  Sn  Ge  Sn  Ge  Sn  Ge  Sn 
   1   1   1   1   1   1   1   1
Direct
  0.0000000000000000  0.0000000000000000  0.0000000000000000
  0.2500000000000000  0.2500000000000000  0.2500000000000000
  0.0000000000000000  0.5000000000000000  0.5000000000000000
  0.2500000000000000  0.7500000000000001  0.7500000000000001
  0.5000000000000000  0.0000000000000000  0.5000000000000000
  0.7500000000000001  0.2500000000000000  0.7500000000000001
  0.5000000000000000  0.5000000000000000  0.0000000000000000
  0.7500000000000001  0.7500000000000001  0.2500000000000000
