Ge+Si
    1.000000000
   16.973400116    0.000000000    0.000000000
    0.000000000   16.973400116    0.000000000
    0.000000000    0.000000000   17.861000061
Ge  Si 
108     120
Direct
    0.994305491    0.666666567    0.000000000
    0.827638865    0.666666567    0.158384174
    0.660972118    0.666666567    0.316768378
    0.994305491    0.333333284    0.000000000
    0.827638865    0.333333284    0.158384174
    0.660972118    0.333333284    0.316768378
    0.994305491    0.000000000    0.000000000
    0.827638865    0.000000000    0.158384174
    0.660972118    0.000000000    0.316768378
    0.327638805    0.666666567    0.000000000
    0.160972148    0.666666567    0.158384174
    0.994305432    0.666666567    0.316768378
    0.327638805    0.333333284    0.000000000
    0.160972148    0.333333284    0.158384174
    0.994305432    0.333333284    0.316768378
    0.327638805    0.000000000    0.000000000
    0.160972148    0.000000000    0.158384174
    0.994305432    0.000000000    0.316768378
    0.660972118    0.666666567    0.000000000
    0.494305432    0.666666567    0.158384174
    0.327638745    0.666666567    0.316768378
    0.660972118    0.333333284    0.000000000
    0.494305432    0.333333284    0.158384174
    0.327638745    0.333333284    0.316768378
    0.660972118    0.000000000    0.000000000
    0.494305432    0.000000000    0.158384174
    0.327638745    0.000000000    0.316768378
    0.077638842    0.916666567    0.079192095
    0.910972118    0.916666567    0.237576291
    0.744305491    0.916666567    0.395960480
    0.077638842    0.583333313    0.079192095
    0.910972118    0.583333313    0.237576291
    0.744305491    0.583333313    0.395960480
    0.077638842    0.249999955    0.079192095
    0.910972118    0.249999955    0.237576291
    0.744305491    0.249999955    0.395960480
    0.410972089    0.916666567    0.079192095
    0.244305417    0.916666567    0.237576291
    0.077638723    0.916666567    0.395960480
    0.410972089    0.583333313    0.079192095
    0.244305417    0.583333313    0.237576291
    0.077638723    0.583333313    0.395960480
    0.410972089    0.249999955    0.079192095
    0.244305417    0.249999955    0.237576291
    0.077638723    0.249999955    0.395960480
    0.744305491    0.916666567    0.079192095
    0.577638745    0.916666567    0.237576291
    0.410972059    0.916666567    0.395960480
    0.744305491    0.583333313    0.079192095
    0.577638745    0.583333313    0.237576291
    0.410972059    0.583333313    0.395960480
    0.744305491    0.249999955    0.079192095
    0.577638745    0.249999955    0.237576291
    0.410972059    0.249999955    0.395960480
    0.160972163    0.833333194    0.000000000
    0.994305491    0.833333194    0.158384174
    0.827638805    0.833333194    0.316768378
    0.160972163    0.499999911    0.000000000
    0.994305491    0.499999911    0.158384174
    0.827638805    0.499999911    0.316768378
    0.160972163    0.166666642    0.000000000
    0.994305491    0.166666642    0.158384174
    0.827638805    0.166666642    0.316768378
    0.494305432    0.833333194    0.000000000
    0.327638745    0.833333194    0.158384174
    0.160972074    0.833333194    0.316768378
    0.494305432    0.499999911    0.000000000
    0.327638745    0.499999911    0.158384174
    0.160972074    0.499999911    0.316768378
    0.494305432    0.166666642    0.000000000
    0.327638745    0.166666642    0.158384174
    0.160972074    0.166666642    0.316768378
    0.827638805    0.833333194    0.000000000
    0.660972118    0.833333194    0.158384174
    0.494305432    0.833333194    0.316768378
    0.827638805    0.499999911    0.000000000
    0.660972118    0.499999911    0.158384174
    0.494305432    0.499999911    0.316768378
    0.827638805    0.166666642    0.000000000
    0.660972118    0.166666642    0.158384174
    0.494305432    0.166666642    0.316768378
    0.244305462    0.749999881    0.079192095
    0.077638783    0.749999881    0.237576291
    0.910972118    0.749999881    0.395960480
    0.244305462    0.416666627    0.079192095
    0.077638783    0.416666627    0.237576291
    0.910972118    0.416666627    0.395960480
    0.244305462    0.083333328    0.079192095
    0.077638783    0.083333328    0.237576291
    0.910972118    0.083333328    0.395960480
    0.577638865    0.749999881    0.079192095
    0.410972148    0.749999881    0.237576291
    0.244305447    0.749999881    0.395960480
    0.577638865    0.416666627    0.079192095
    0.410972148    0.416666627    0.237576291
    0.244305447    0.416666627    0.395960480
    0.577638865    0.083333328    0.079192095
    0.410972148    0.083333328    0.237576291
    0.244305447    0.083333328    0.395960480
    0.910972178    0.749999881    0.079192095
    0.744305491    0.749999881    0.237576291
    0.577638745    0.749999881    0.395960480
    0.910972178    0.416666627    0.079192095
    0.744305491    0.416666627    0.237576291
    0.577638745    0.416666627    0.395960480
    0.910972178    0.083333328    0.079192095
    0.744305491    0.083333328    0.237576291
    0.577638745    0.083333328    0.395960480
    0.937264562    0.184619963    0.507936299
    0.787264466    0.234620020    0.659971476
    0.637264431    0.284620047    0.812006652
    0.037264466    0.484620005    0.507936299
    0.887264431    0.534620106    0.659971476
    0.737264395    0.584620118    0.812006652
    0.137264490    0.784619927    0.507936299
    0.987264395    0.834619999    0.659971476
    0.837264419    0.884620070    0.812006652
    0.637264490    0.284619987    0.507936299
    0.487264454    0.334620029    0.659971476
    0.337264359    0.384620070    0.812006652
    0.737264514    0.584619999    0.507936299
    0.587264419    0.634620070    0.659971476
    0.437264383    0.684620142    0.812006652
    0.837264478    0.884619951    0.507936299
    0.687264383    0.934620023    0.659971476
    0.537264347    0.984620094    0.812006652
    0.237264514    0.084619924    0.507936299
    0.087264419    0.134619996    0.659971476
    0.937264323    0.184620053    0.812006652
    0.337264478    0.384619951    0.507936299
    0.187264442    0.434620023    0.659971476
    0.037264347    0.484620064    0.812006652
    0.437264502    0.684620023    0.507936299
    0.287264436    0.734620094    0.659971476
    0.137264371    0.784620166    0.812006652
    0.537264466    0.984619975    0.507936299
    0.387264371    0.034619927    0.659971476
    0.237264395    0.084620148    0.812006652
    0.187264442    0.184619933    0.583953917
    0.037264347    0.234620005    0.735989094
    0.887264252    0.284620106    0.888024211
    0.887264550    0.284619987    0.583953917
    0.737264514    0.334620029    0.735989094
    0.587264419    0.384620100    0.888024211
    0.987264514    0.584619999    0.583953917
    0.837264419    0.634620070    0.735989094
    0.687264383    0.684620142    0.888024211
    0.087264538    0.884619951    0.583953917
    0.937264442    0.934620142    0.735989094
    0.787264347    0.984620094    0.888024211
    0.487264514    0.084619910    0.583953917
    0.337264448    0.134620100    0.735989094
    0.187264323    0.184620172    0.888024211
    0.587264478    0.384619951    0.583953917
    0.437264413    0.434620053    0.735989094
    0.287264317    0.484620064    0.888024211
    0.687264502    0.684619904    0.583953917
    0.537264407    0.734619975    0.735989094
    0.387264341    0.784620166    0.888024211
    0.787264466    0.984619975    0.583953917
    0.637264431    0.034620047    0.735989094
    0.487264335    0.084620148    0.888024211
    0.287264496    0.484619945    0.583953917
    0.137264371    0.534620047    0.735989094
    0.987264276    0.584620118    0.888024211
    0.387264490    0.784620047    0.583953917
    0.237264395    0.834620118    0.735989094
    0.087264299    0.884620070    0.888024211
    0.137264490    0.284619927    0.507936299
    0.987264454    0.334620029    0.659971476
    0.837264359    0.384620130    0.812006652
    0.737264514    0.084619932    0.507936299
    0.587264478    0.134619996    0.659971476
    0.437264353    0.184620082    0.812006652
    0.837264478    0.384619951    0.507936299
    0.687264442    0.434620023    0.659971476
    0.537264347    0.484620124    0.812006652
    0.937264502    0.684620023    0.507936299
    0.787264466    0.734620094    0.659971476
    0.637264371    0.784620166    0.812006652
    0.037264585    0.984620094    0.507936299
    0.887264431    0.034620166    0.659971476
    0.737264395    0.084620148    0.812006652
    0.437264502    0.184619948    0.507936299
    0.287264436    0.234620020    0.659971476
    0.137264371    0.284620106    0.812006652
    0.537264526    0.484620005    0.507936299
    0.387264431    0.534620047    0.659971476
    0.237264395    0.584620118    0.812006652
    0.637264490    0.784619927    0.507936299
    0.487264395    0.834619999    0.659971476
    0.337264329    0.884620070    0.812006652
    0.237264514    0.584619880    0.507936299
    0.087264419    0.634620070    0.659971476
    0.937264323    0.684620142    0.812006652
    0.337264478    0.884619951    0.507936299
    0.187264442    0.934620023    0.659971476
    0.037264347    0.984620094    0.812006652
    0.987264454    0.084619910    0.583953917
    0.837264419    0.134620100    0.735989094
    0.687264383    0.184620053    0.888024211
    0.087264538    0.384619951    0.583953917
    0.937264442    0.434620053    0.735989094
    0.787264347    0.484620064    0.888024211
    0.187264562    0.684619904    0.583953917
    0.037264466    0.734619975    0.735989094
    0.887264371    0.784620047    0.888024211
    0.687264502    0.184619933    0.583953917
    0.537264466    0.234620020    0.735989094
    0.387264371    0.284620047    0.888024211
    0.787264585    0.484620005    0.583953917
    0.637264490    0.534620047    0.735989094
    0.487264425    0.584620118    0.888024211
    0.887264490    0.784619927    0.583953917
    0.737264454    0.834619999    0.735989094
    0.587264359    0.884620190    0.888024211
    0.387264520    0.284619957    0.583953917
    0.237264514    0.334620029    0.735989094
    0.087264299    0.384620100    0.888024211
    0.487264514    0.584619999    0.583953917
    0.337264419    0.634620070    0.735989094
    0.187264323    0.684620023    0.888024211
    0.587264478    0.884619951    0.583953917
    0.437264383    0.934620023    0.735989094
    0.287264287    0.984620094    0.888024211
    0.287264496    0.984619975    0.583953917
    0.137264371    0.034620047    0.735989094
    0.987264276    0.084620148    0.888024211
