Sn+Si                                   
   1.00000000000000     
    19.4675998690000007    0.0000000000000000    0.0000000000000000
     0.0000000000000000   19.4675998690000007    0.0000000000000000
     0.0000000000000000    0.0000000000000000   19.1002521509999994
   Sn   Si
   108   156
Direct
  0.3616739510000002  0.6377500890000007  0.8900538680000025
  0.8283684250000007  0.6666666870000029  0.1698721050000032
  0.6617017390000015  0.6666666870000029  0.3397441799999967
  0.0924431609999985  0.9839038849999966  0.8900538680000025
  0.8283684250000007  0.3333333429999996  0.1698721050000032
  0.6617017390000015  0.3333333429999996  0.3397441799999967
  0.2847508489999981  0.0223654509999989  0.8900538680000025
  0.8283684250000007  0.0000000000000000  0.1698721050000032
  0.3424434069999975  0.7339038249999987  0.5346264840000003
  0.7462893129999983  0.7146731019999990  0.8900538680000025
  0.2655201549999973  0.1185192689999965  0.8189682960000013
  0.9950351119999965  0.6666666870000029  0.3397441799999967
  0.2462894020000022  0.2146732510000007  0.8900538680000025
  0.1617017390000015  0.3333333429999996  0.1698721050000032
  0.9950351119999965  0.3333333429999996  0.3397441799999967
  0.3283684550000032  0.0000000000000000  0.0000000000000000
  0.1617017390000015  0.0000000000000000  0.1698721050000032
  0.9950351119999965  0.0000000000000000  0.3397441799999967
  0.6617017980000028  0.6666666870000029  0.0000000000000000
  0.4950351119999965  0.6666666870000029  0.1698721050000032
  0.3283684550000032  0.6666666870000029  0.3397441799999967
  0.6617017980000028  0.3333333429999996  0.0000000000000000
  0.4950351119999965  0.3333333429999996  0.1698721050000032
  0.3283684550000032  0.3333333429999996  0.3397441799999967
  0.6617017980000028  0.0000000000000000  0.0000000000000000
  0.6693662409999988  0.0992885459999968  0.8900538680000025
  0.1885972319999993  0.5031345490000021  0.5346264840000003
  0.0783684330000014  0.9166667459999971  0.0849360529999998
  0.0155202150000022  0.3685191269999990  0.6057119370000024
  0.1116741299999973  0.8877499099999966  0.5346264840000003
  0.0783684330000014  0.5833334330000000  0.0849360529999998
  0.9117017980000028  0.5833334330000000  0.2548080979999980
  0.8424434659999989  0.2339037360000020  0.5346264840000003
  0.4770586189999975  0.0608270170000011  0.8900538680000025
  0.9117017980000028  0.2500000000000000  0.2548080979999980
  0.0347510579999977  0.2723653319999997  0.5346264840000003
  0.8616738919999989  0.1377499999999969  0.8900538680000025
  0.2450350969999988  0.9166667459999971  0.2548080979999980
  0.4962895809999992  0.9646730420000011  0.5346264840000003
  0.9001354580000012  0.9454423190000014  0.8900538680000025
  0.2450350969999988  0.5833334330000000  0.2548080979999980
  0.9962896110000017  0.4646729529999973  0.5346264840000003
  0.4117017689999969  0.2500000000000000  0.0849360529999998
  0.4193665089999996  0.3492884039999993  0.5346264840000003
  0.0783683809999971  0.2500000000000000  0.4246802329999966
  0.7450351720000015  0.9166667459999971  0.0849360529999998
  0.5783685450000036  0.9166667459999971  0.2548080979999980
  0.4117017980000028  0.9166667459999971  0.4246802329999966
  0.7450351720000015  0.5833334330000000  0.0849360529999998
  0.5783685450000036  0.5833334330000000  0.2548080979999980
  0.4117017980000028  0.5833334330000000  0.4246802329999966
  0.9385969639999985  0.7531346080000034  0.8900538680000025
  0.5783685450000036  0.2500000000000000  0.2548080979999980
  0.4117017980000028  0.2500000000000000  0.4246802329999966
  0.1617017689999969  0.8333333129999971  0.0000000000000000
  0.9950350519999986  0.8333333129999971  0.1698721050000032
  0.8283684250000007  0.8333333129999971  0.3397441799999967
  0.1617017689999969  0.5000000000000000  0.0000000000000000
  0.7847507600000014  0.5223653910000010  0.8900538680000025
  0.2270587679999991  0.3108268379999970  0.5346264840000003
  0.1309047040000024  0.7915962339999965  0.8900538680000025
  0.8232123259999966  0.3300577400000009  0.8900538680000025
  0.8283684250000007  0.1666666719999981  0.3397441799999967
  0.4950351119999965  0.8333333129999971  0.0000000000000000
  0.3283684250000007  0.8333333129999971  0.1698721050000032
  0.6501356360000017  0.1954422299999976  0.5346264840000003
  0.4950351119999965  0.5000000000000000  0.0000000000000000
  0.3283684250000007  0.5000000000000000  0.1698721050000032
  0.1617017539999992  0.5000000000000000  0.3397441799999967
  0.4950351119999965  0.1666666719999981  0.0000000000000000
  0.0155200960000030  0.3685192169999993  0.8900538680000025
  0.6116741900000022  0.3877499399999991  0.5346264840000003
  0.8283685450000036  0.8333333129999971  0.0000000000000000
  0.2078278359999999  0.4069807830000016  0.8900538680000025
  0.4950352010000003  0.8333333129999971  0.3397441799999967
  0.7270585890000021  0.8108270170000011  0.8189682960000013
  0.6617018580000007  0.5000000000000000  0.1698721050000032
  0.6885972019999969  0.0031346080000034  0.5346264840000003
  0.8283685450000036  0.1666666719999981  0.0000000000000000
  0.6617018580000007  0.1666666719999981  0.1698721050000032
  0.4950352010000003  0.1666666719999981  0.3397441799999967
  0.2450350969999988  0.7500000599999979  0.0849360529999998
  0.0783684330000014  0.7500000599999979  0.2548080979999980
  0.9117017390000015  0.7500000599999979  0.4246802329999966
  0.2450350969999988  0.4166667160000017  0.0849360529999998
  0.7655202750000001  0.6185191269999990  0.5346264840000003
  0.8809049130000020  0.0415961739999986  0.5346264840000003
  0.2450350969999988  0.0833333429999996  0.0849360529999998
  0.0783684330000014  0.0833333429999996  0.2548080979999980
  0.9117017390000015  0.0833333429999996  0.4246802329999966
  0.4385970229999998  0.2531346979999967  0.8900538680000025
  0.4117018580000007  0.7500000599999979  0.2548080979999980
  0.2450351270000013  0.7500000599999979  0.4246802329999966
  0.5783684849999986  0.4166667160000017  0.0849360529999998
  0.4117018580000007  0.4166667160000017  0.2548080979999980
  0.2450351270000013  0.4166667160000017  0.4246802329999966
  0.5783684849999986  0.0833333429999996  0.0849360529999998
  0.9578280449999994  0.6569807529999991  0.5346264840000003
  0.2450351270000013  0.0833333429999996  0.4246802329999966
  0.5924432870000018  0.4839038849999966  0.8900538680000025
  0.5347511169999990  0.7723652119999969  0.5346264840000003
  0.4770588279999970  0.0608268980000020  0.6057119370000024
  0.9117017390000015  0.4166667160000017  0.0849360529999998
  0.5732126239999999  0.5800576809999995  0.5346264840000003
  0.5783683659999994  0.4166667160000017  0.4246802329999966
  0.9117017390000015  0.0833333429999996  0.0849360529999998
  0.7450350519999986  0.0833333429999996  0.2548080979999980
  0.5783683659999994  0.0833333429999996  0.4246802329999966
  0.7450350519999986  0.5833334330000000  0.4246802329999966
  0.7270587679999991  0.3108268679999995  0.6767973299999994
  0.6116740699999994  0.3877500299999994  0.8189682960000013
  0.0783683809999971  0.5833334330000000  0.4246802329999966
  0.8809049130000020  0.5415960549999994  0.6767973299999994
  0.7655202150000022  0.6185191869999969  0.8189682960000013
  0.4578280449999994  0.1569806640000024  0.5346264840000003
  0.3424433469999997  0.2339037950000034  0.6767973299999994
  0.2270586489999999  0.3108269270000008  0.8189682960000013
  0.1617017539999992  0.1666666719999981  0.3397441799999967
  0.4962894920000025  0.4646730719999965  0.6767973299999994
  0.3809047940000028  0.5415961739999986  0.8189682960000013
  0.0783684330000014  0.4166667160000017  0.2548080979999980
  0.6501355770000004  0.6954422590000036  0.6767973299999994
  0.5347508790000006  0.7723653910000010  0.8189682960000013
  0.9193664189999993  0.8492884639999971  0.5346264840000003
  0.8039817209999995  0.9262115960000017  0.6767973299999994
  0.6885970229999998  0.0031347270000026  0.8189682960000013
  0.0732126239999999  0.0800575689999974  0.5346264840000003
  0.9578278660000024  0.1569806930000013  0.6767973299999994
  0.8424431680000026  0.2339038249999987  0.8189682960000013
  0.8283684250000007  0.5000000000000000  0.3397441799999967
  0.1116740699999994  0.3877499700000016  0.6767973299999994
  0.9962893129999983  0.4646731019999990  0.8189682960000013
  0.3809049429999973  0.5415961149999973  0.5346264840000003
  0.2655202150000022  0.6185191869999969  0.6767973299999994
  0.1501355170000025  0.6954423190000014  0.8189682960000013
  0.7450350519999986  0.7500000599999979  0.2548080979999980
  0.4193664189999993  0.8492883440000014  0.6767973299999994
  0.3039816920000007  0.9262114759999989  0.8189682960000013
  0.4950352010000003  0.5000000000000000  0.3397441799999967
  0.5732125039999971  0.0800577030000014  0.6767973299999994
  0.4578278359999999  0.1569808420000030  0.8189682960000013
  0.1501356659999971  0.6954422000000022  0.5346264840000003
  0.0347509380000020  0.7723653319999997  0.6767973299999994
  0.9193662409999988  0.8492885229999985  0.8189682960000013
  0.3039818700000012  0.9262114169999975  0.5346264840000003
  0.1885971720000015  0.0031344889999971  0.6767973299999994
  0.0732123849999979  0.0800577030000014  0.8189682960000013
  0.0539817809999974  0.1762114470000000  0.6057119370000024
  0.9385970829999977  0.2531345780000009  0.7478827830000014
  0.9950350519999986  0.1666666719999981  0.1698721050000032
  0.6693664189999993  0.0992884260000011  0.6057119370000024
  0.5539817809999974  0.1762115659999992  0.7478827830000014
  0.5783684849999986  0.7500000599999979  0.0849360529999998
  0.8232126830000013  0.3300575909999992  0.6057119370000024
  0.7078279850000015  0.4069807529999991  0.7478827830000014
  0.9117017390000015  0.7500000599999979  0.0849360529999998
  0.9770587679999991  0.5608268379999970  0.6057119370000024
  0.8616740699999994  0.6377499700000016  0.7478827830000014
  0.3283684550000032  0.6666666870000029  0.0000000000000000
  0.4385972620000018  0.2531345189999996  0.6057119370000024
  0.3232125640000021  0.3300576509999971  0.7478827830000014
  0.6617018580000007  0.8333333129999971  0.1698721050000032
  0.5924433469999997  0.4839038249999987  0.6057119370000024
  0.4770586790000024  0.5608269570000033  0.7478827830000014
  0.9950351119999965  0.6666666870000029  0.0000000000000000
  0.7462894920000025  0.7146729829999998  0.6057119370000024
  0.6309047940000028  0.7915961149999973  0.7478827830000014
  0.5155200960000030  0.8685192470000018  0.8900538680000025
  0.9001356360000017  0.9454422590000036  0.6057119370000024
  0.7847509380000020  0.0223654509999989  0.7478827830000014
  0.4950351119999965  0.0000000000000000  0.1698721050000032
  0.2078279850000015  0.4069806930000013  0.6057119370000024
  0.0924432950000025  0.4839037950000034  0.7478827830000014
  0.9770585300000008  0.5608269570000033  0.8900538680000025
  0.3616741299999973  0.6377499700000016  0.6057119370000024
  0.2462894319999975  0.7146730420000011  0.7478827830000014
  0.1617017689999969  0.1666666719999981  0.0000000000000000
  0.5155202750000001  0.8685191269999990  0.6057119370000024
  0.4001355770000004  0.9454422590000036  0.7478827830000014
  0.9950351119999965  0.0000000000000000  0.0000000000000000
  0.1309048979999972  0.7915960549999994  0.6057119370000024
  0.0155202150000022  0.8685192470000018  0.7478827830000014
  0.4117017689999969  0.5833334330000000  0.0849360529999998
  0.2847510579999977  0.0223653319999997  0.6057119370000024
  0.1693663300000026  0.0992884260000011  0.7478827830000014
  0.0539816619999982  0.1762115659999992  0.8900538680000025
  0.7450350519999986  0.2500000000000000  0.4246802329999966
  0.9193663599999979  0.3492884639999971  0.6767973299999994
  0.8039816619999982  0.4262116250000005  0.8189682960000013
  0.1617017539999992  0.8333333129999971  0.3397441799999967
  0.5347509380000020  0.2723653609999985  0.6767973299999994
  0.4193662699999976  0.3492884930000031  0.8189682960000013
  0.8039818999999966  0.4262115359999967  0.5346264840000003
  0.6885971430000026  0.5031346680000013  0.6767973299999994
  0.5732125039999971  0.5800577999999987  0.8189682960000013
  0.4117018580000007  0.0833333429999996  0.2548080979999980
  0.8424432870000018  0.7339038849999966  0.6767973299999994
  0.8283685450000036  0.5000000000000000  0.0000000000000000
  0.2655203340000014  0.1185191269999990  0.5346264840000003
  0.1501356360000017  0.1954422590000036  0.6767973299999994
  0.0347509380000020  0.2723653910000010  0.8189682960000013
  0.2450350969999988  0.2500000000000000  0.2548080979999980
  0.3039818109999999  0.4262115359999967  0.6767973299999994
  0.1885970829999977  0.5031346680000013  0.8189682960000013
  0.7450350519999986  0.4166667160000017  0.2548080979999980
  0.4578279260000002  0.6569808129999970  0.6767973299999994
  0.3424432280000005  0.7339039439999979  0.8189682960000013
  0.7270587089999978  0.8108268379999970  0.5346264840000003
  0.6116740109999981  0.8877499700000016  0.6767973299999994
  0.4962893430000008  0.9646731019999990  0.8189682960000013
  0.9117017390000015  0.4166667160000017  0.4246802329999966
  0.7655202150000022  0.1185192689999965  0.6767973299999994
  0.6501355170000025  0.1954424079999981  0.8189682960000013
  0.3283684550000032  0.0000000000000000  0.3397441799999967
  0.0732125039999971  0.5800576809999995  0.6767973299999994
  0.9578278059999974  0.6569808129999970  0.8189682960000013
  0.6617017390000015  0.0000000000000000  0.3397441799999967
  0.2270587089999978  0.8108269570000033  0.6767973299999994
  0.1116740029999974  0.8877500890000007  0.8189682960000013
  0.0783683809999971  0.9166667459999971  0.4246802329999966
  0.3809048529999970  0.0415961739999986  0.6767973299999994
  0.1617017390000015  0.6666666870000029  0.1698721050000032
  0.7450350519999986  0.9166667459999971  0.4246802329999966
  0.9962894319999975  0.9646730420000011  0.6767973299999994
  0.8809046749999965  0.0415961739999986  0.8189682960000013
  0.8616742490000036  0.1377498949999989  0.6057119370000024
  0.7462894920000025  0.2146730420000011  0.7478827830000014
  0.6309047940000028  0.2915961739999986  0.8900538680000025
  0.9117017980000028  0.9166667459999971  0.2548080979999980
  0.9001355170000025  0.4454422889999989  0.7478827830000014
  0.9950350519999986  0.5000000000000000  0.1698721050000032
  0.6309049729999998  0.2915960549999994  0.6057119370000024
  0.5155202750000001  0.3685191869999969  0.7478827830000014
  0.4001355770000004  0.4454423489999968  0.8900538680000025
  0.7847511769999969  0.5223652720000018  0.6057119370000024
  0.6693664789999971  0.5992884039999993  0.7478827830000014
  0.5539817809999974  0.6762115359999967  0.8900538680000025
  0.9385973810000010  0.7531345490000021  0.6057119370000024
  0.8232126830000013  0.8300576809999995  0.7478827830000014
  0.7078279260000002  0.9069808129999970  0.8900538680000025
  0.2462895509999967  0.2146729230000020  0.6057119370000024
  0.1309048379999993  0.2915960549999994  0.7478827830000014
  0.3283684250000007  0.1666666719999981  0.1698721050000032
  0.4001357260000020  0.4454422299999976  0.6057119370000024
  0.2847510280000023  0.5223653319999997  0.7478827830000014
  0.1693663000000001  0.5992884639999971  0.8900538680000025
  0.5539818410000024  0.6762114169999975  0.6057119370000024
  0.4385971720000015  0.7531345490000021  0.7478827830000014
  0.3232124150000004  0.8300576809999995  0.8900538680000025
  0.7078280449999994  0.9069807529999991  0.6057119370000024
  0.5924433469999997  0.9839038849999966  0.7478827830000014
  0.0783684330000014  0.2500000000000000  0.0849360529999998
  0.1693664189999993  0.5992883440000014  0.6057119370000024
  0.0539817809999974  0.6762114759999989  0.7478827830000014
  0.7450351720000015  0.2500000000000000  0.0849360529999998
  0.3232125939999975  0.8300575609999967  0.6057119370000024
  0.2078278959999977  0.9069806930000013  0.7478827830000014
  0.9950351119999965  0.3333333429999996  0.0000000000000000
  0.5783683659999994  0.7500000599999979  0.4246802329999966
  0.3616741299999973  0.1377501190000032  0.7478827830000014
  0.3283684550000032  0.3333333429999996  0.0000000000000000
  0.0924433619999974  0.9839037059999995  0.6057119370000024
  0.9770585890000021  0.0608268980000020  0.7478827830000014
  0.4117017689999969  0.9166667459999971  0.0849360529999998
 
  0.00000000E+00  0.00000000E+00  0.00000000E+00
  0.00000000E+00  0.00000000E+00  0.00000000E+00
  0.00000000E+00  0.00000000E+00  0.00000000E+00
  0.00000000E+00  0.00000000E+00  0.00000000E+00
  0.00000000E+00  0.00000000E+00  0.00000000E+00
  0.00000000E+00  0.00000000E+00  0.00000000E+00
  0.00000000E+00  0.00000000E+00  0.00000000E+00
  0.00000000E+00  0.00000000E+00  0.00000000E+00
  0.00000000E+00  0.00000000E+00  0.00000000E+00
  0.00000000E+00  0.00000000E+00  0.00000000E+00
  0.00000000E+00  0.00000000E+00  0.00000000E+00
  0.00000000E+00  0.00000000E+00  0.00000000E+00
  0.00000000E+00  0.00000000E+00  0.00000000E+00
  0.00000000E+00  0.00000000E+00  0.00000000E+00
  0.00000000E+00  0.00000000E+00  0.00000000E+00
  0.00000000E+00  0.00000000E+00  0.00000000E+00
  0.00000000E+00  0.00000000E+00  0.00000000E+00
  0.00000000E+00  0.00000000E+00  0.00000000E+00
  0.00000000E+00  0.00000000E+00  0.00000000E+00
  0.00000000E+00  0.00000000E+00  0.00000000E+00
  0.00000000E+00  0.00000000E+00  0.00000000E+00
  0.00000000E+00  0.00000000E+00  0.00000000E+00
  0.00000000E+00  0.00000000E+00  0.00000000E+00
  0.00000000E+00  0.00000000E+00  0.00000000E+00
  0.00000000E+00  0.00000000E+00  0.00000000E+00
  0.00000000E+00  0.00000000E+00  0.00000000E+00
  0.00000000E+00  0.00000000E+00  0.00000000E+00
  0.00000000E+00  0.00000000E+00  0.00000000E+00
  0.00000000E+00  0.00000000E+00  0.00000000E+00
  0.00000000E+00  0.00000000E+00  0.00000000E+00
  0.00000000E+00  0.00000000E+00  0.00000000E+00
  0.00000000E+00  0.00000000E+00  0.00000000E+00
  0.00000000E+00  0.00000000E+00  0.00000000E+00
  0.00000000E+00  0.00000000E+00  0.00000000E+00
  0.00000000E+00  0.00000000E+00  0.00000000E+00
  0.00000000E+00  0.00000000E+00  0.00000000E+00
  0.00000000E+00  0.00000000E+00  0.00000000E+00
  0.00000000E+00  0.00000000E+00  0.00000000E+00
  0.00000000E+00  0.00000000E+00  0.00000000E+00
  0.00000000E+00  0.00000000E+00  0.00000000E+00
  0.00000000E+00  0.00000000E+00  0.00000000E+00
  0.00000000E+00  0.00000000E+00  0.00000000E+00
  0.00000000E+00  0.00000000E+00  0.00000000E+00
  0.00000000E+00  0.00000000E+00  0.00000000E+00
  0.00000000E+00  0.00000000E+00  0.00000000E+00
  0.00000000E+00  0.00000000E+00  0.00000000E+00
  0.00000000E+00  0.00000000E+00  0.00000000E+00
  0.00000000E+00  0.00000000E+00  0.00000000E+00
  0.00000000E+00  0.00000000E+00  0.00000000E+00
  0.00000000E+00  0.00000000E+00  0.00000000E+00
  0.00000000E+00  0.00000000E+00  0.00000000E+00
  0.00000000E+00  0.00000000E+00  0.00000000E+00
  0.00000000E+00  0.00000000E+00  0.00000000E+00
  0.00000000E+00  0.00000000E+00  0.00000000E+00
  0.00000000E+00  0.00000000E+00  0.00000000E+00
  0.00000000E+00  0.00000000E+00  0.00000000E+00
  0.00000000E+00  0.00000000E+00  0.00000000E+00
  0.00000000E+00  0.00000000E+00  0.00000000E+00
  0.00000000E+00  0.00000000E+00  0.00000000E+00
  0.00000000E+00  0.00000000E+00  0.00000000E+00
  0.00000000E+00  0.00000000E+00  0.00000000E+00
  0.00000000E+00  0.00000000E+00  0.00000000E+00
  0.00000000E+00  0.00000000E+00  0.00000000E+00
  0.00000000E+00  0.00000000E+00  0.00000000E+00
  0.00000000E+00  0.00000000E+00  0.00000000E+00
  0.00000000E+00  0.00000000E+00  0.00000000E+00
  0.00000000E+00  0.00000000E+00  0.00000000E+00
  0.00000000E+00  0.00000000E+00  0.00000000E+00
  0.00000000E+00  0.00000000E+00  0.00000000E+00
  0.00000000E+00  0.00000000E+00  0.00000000E+00
  0.00000000E+00  0.00000000E+00  0.00000000E+00
  0.00000000E+00  0.00000000E+00  0.00000000E+00
  0.00000000E+00  0.00000000E+00  0.00000000E+00
  0.00000000E+00  0.00000000E+00  0.00000000E+00
  0.00000000E+00  0.00000000E+00  0.00000000E+00
  0.00000000E+00  0.00000000E+00  0.00000000E+00
  0.00000000E+00  0.00000000E+00  0.00000000E+00
  0.00000000E+00  0.00000000E+00  0.00000000E+00
  0.00000000E+00  0.00000000E+00  0.00000000E+00
  0.00000000E+00  0.00000000E+00  0.00000000E+00
  0.00000000E+00  0.00000000E+00  0.00000000E+00
  0.00000000E+00  0.00000000E+00  0.00000000E+00
  0.00000000E+00  0.00000000E+00  0.00000000E+00
  0.00000000E+00  0.00000000E+00  0.00000000E+00
  0.00000000E+00  0.00000000E+00  0.00000000E+00
  0.00000000E+00  0.00000000E+00  0.00000000E+00
  0.00000000E+00  0.00000000E+00  0.00000000E+00
  0.00000000E+00  0.00000000E+00  0.00000000E+00
  0.00000000E+00  0.00000000E+00  0.00000000E+00
  0.00000000E+00  0.00000000E+00  0.00000000E+00
  0.00000000E+00  0.00000000E+00  0.00000000E+00
  0.00000000E+00  0.00000000E+00  0.00000000E+00
  0.00000000E+00  0.00000000E+00  0.00000000E+00
  0.00000000E+00  0.00000000E+00  0.00000000E+00
  0.00000000E+00  0.00000000E+00  0.00000000E+00
  0.00000000E+00  0.00000000E+00  0.00000000E+00
  0.00000000E+00  0.00000000E+00  0.00000000E+00
  0.00000000E+00  0.00000000E+00  0.00000000E+00
  0.00000000E+00  0.00000000E+00  0.00000000E+00
  0.00000000E+00  0.00000000E+00  0.00000000E+00
  0.00000000E+00  0.00000000E+00  0.00000000E+00
  0.00000000E+00  0.00000000E+00  0.00000000E+00
  0.00000000E+00  0.00000000E+00  0.00000000E+00
  0.00000000E+00  0.00000000E+00  0.00000000E+00
  0.00000000E+00  0.00000000E+00  0.00000000E+00
  0.00000000E+00  0.00000000E+00  0.00000000E+00
  0.00000000E+00  0.00000000E+00  0.00000000E+00
  0.00000000E+00  0.00000000E+00  0.00000000E+00
  0.00000000E+00  0.00000000E+00  0.00000000E+00
  0.00000000E+00  0.00000000E+00  0.00000000E+00
  0.00000000E+00  0.00000000E+00  0.00000000E+00
  0.00000000E+00  0.00000000E+00  0.00000000E+00
  0.00000000E+00  0.00000000E+00  0.00000000E+00
  0.00000000E+00  0.00000000E+00  0.00000000E+00
  0.00000000E+00  0.00000000E+00  0.00000000E+00
  0.00000000E+00  0.00000000E+00  0.00000000E+00
  0.00000000E+00  0.00000000E+00  0.00000000E+00
  0.00000000E+00  0.00000000E+00  0.00000000E+00
  0.00000000E+00  0.00000000E+00  0.00000000E+00
  0.00000000E+00  0.00000000E+00  0.00000000E+00
  0.00000000E+00  0.00000000E+00  0.00000000E+00
  0.00000000E+00  0.00000000E+00  0.00000000E+00
  0.00000000E+00  0.00000000E+00  0.00000000E+00
  0.00000000E+00  0.00000000E+00  0.00000000E+00
  0.00000000E+00  0.00000000E+00  0.00000000E+00
  0.00000000E+00  0.00000000E+00  0.00000000E+00
  0.00000000E+00  0.00000000E+00  0.00000000E+00
  0.00000000E+00  0.00000000E+00  0.00000000E+00
  0.00000000E+00  0.00000000E+00  0.00000000E+00
  0.00000000E+00  0.00000000E+00  0.00000000E+00
  0.00000000E+00  0.00000000E+00  0.00000000E+00
  0.00000000E+00  0.00000000E+00  0.00000000E+00
  0.00000000E+00  0.00000000E+00  0.00000000E+00
  0.00000000E+00  0.00000000E+00  0.00000000E+00
  0.00000000E+00  0.00000000E+00  0.00000000E+00
  0.00000000E+00  0.00000000E+00  0.00000000E+00
  0.00000000E+00  0.00000000E+00  0.00000000E+00
  0.00000000E+00  0.00000000E+00  0.00000000E+00
  0.00000000E+00  0.00000000E+00  0.00000000E+00
  0.00000000E+00  0.00000000E+00  0.00000000E+00
  0.00000000E+00  0.00000000E+00  0.00000000E+00
  0.00000000E+00  0.00000000E+00  0.00000000E+00
  0.00000000E+00  0.00000000E+00  0.00000000E+00
  0.00000000E+00  0.00000000E+00  0.00000000E+00
  0.00000000E+00  0.00000000E+00  0.00000000E+00
  0.00000000E+00  0.00000000E+00  0.00000000E+00
  0.00000000E+00  0.00000000E+00  0.00000000E+00
  0.00000000E+00  0.00000000E+00  0.00000000E+00
  0.00000000E+00  0.00000000E+00  0.00000000E+00
  0.00000000E+00  0.00000000E+00  0.00000000E+00
  0.00000000E+00  0.00000000E+00  0.00000000E+00
  0.00000000E+00  0.00000000E+00  0.00000000E+00
  0.00000000E+00  0.00000000E+00  0.00000000E+00
  0.00000000E+00  0.00000000E+00  0.00000000E+00
  0.00000000E+00  0.00000000E+00  0.00000000E+00
  0.00000000E+00  0.00000000E+00  0.00000000E+00
  0.00000000E+00  0.00000000E+00  0.00000000E+00
  0.00000000E+00  0.00000000E+00  0.00000000E+00
  0.00000000E+00  0.00000000E+00  0.00000000E+00
  0.00000000E+00  0.00000000E+00  0.00000000E+00
  0.00000000E+00  0.00000000E+00  0.00000000E+00
  0.00000000E+00  0.00000000E+00  0.00000000E+00
  0.00000000E+00  0.00000000E+00  0.00000000E+00
  0.00000000E+00  0.00000000E+00  0.00000000E+00
  0.00000000E+00  0.00000000E+00  0.00000000E+00
  0.00000000E+00  0.00000000E+00  0.00000000E+00
  0.00000000E+00  0.00000000E+00  0.00000000E+00
  0.00000000E+00  0.00000000E+00  0.00000000E+00
  0.00000000E+00  0.00000000E+00  0.00000000E+00
  0.00000000E+00  0.00000000E+00  0.00000000E+00
  0.00000000E+00  0.00000000E+00  0.00000000E+00
  0.00000000E+00  0.00000000E+00  0.00000000E+00
  0.00000000E+00  0.00000000E+00  0.00000000E+00
  0.00000000E+00  0.00000000E+00  0.00000000E+00
  0.00000000E+00  0.00000000E+00  0.00000000E+00
  0.00000000E+00  0.00000000E+00  0.00000000E+00
  0.00000000E+00  0.00000000E+00  0.00000000E+00
  0.00000000E+00  0.00000000E+00  0.00000000E+00
  0.00000000E+00  0.00000000E+00  0.00000000E+00
  0.00000000E+00  0.00000000E+00  0.00000000E+00
  0.00000000E+00  0.00000000E+00  0.00000000E+00
  0.00000000E+00  0.00000000E+00  0.00000000E+00
  0.00000000E+00  0.00000000E+00  0.00000000E+00
  0.00000000E+00  0.00000000E+00  0.00000000E+00
  0.00000000E+00  0.00000000E+00  0.00000000E+00
  0.00000000E+00  0.00000000E+00  0.00000000E+00
  0.00000000E+00  0.00000000E+00  0.00000000E+00
  0.00000000E+00  0.00000000E+00  0.00000000E+00
  0.00000000E+00  0.00000000E+00  0.00000000E+00
  0.00000000E+00  0.00000000E+00  0.00000000E+00
  0.00000000E+00  0.00000000E+00  0.00000000E+00
  0.00000000E+00  0.00000000E+00  0.00000000E+00
  0.00000000E+00  0.00000000E+00  0.00000000E+00
  0.00000000E+00  0.00000000E+00  0.00000000E+00
  0.00000000E+00  0.00000000E+00  0.00000000E+00
  0.00000000E+00  0.00000000E+00  0.00000000E+00
  0.00000000E+00  0.00000000E+00  0.00000000E+00
  0.00000000E+00  0.00000000E+00  0.00000000E+00
  0.00000000E+00  0.00000000E+00  0.00000000E+00
  0.00000000E+00  0.00000000E+00  0.00000000E+00
  0.00000000E+00  0.00000000E+00  0.00000000E+00
  0.00000000E+00  0.00000000E+00  0.00000000E+00
  0.00000000E+00  0.00000000E+00  0.00000000E+00
  0.00000000E+00  0.00000000E+00  0.00000000E+00
  0.00000000E+00  0.00000000E+00  0.00000000E+00
  0.00000000E+00  0.00000000E+00  0.00000000E+00
  0.00000000E+00  0.00000000E+00  0.00000000E+00
  0.00000000E+00  0.00000000E+00  0.00000000E+00
  0.00000000E+00  0.00000000E+00  0.00000000E+00
  0.00000000E+00  0.00000000E+00  0.00000000E+00
  0.00000000E+00  0.00000000E+00  0.00000000E+00
  0.00000000E+00  0.00000000E+00  0.00000000E+00
  0.00000000E+00  0.00000000E+00  0.00000000E+00
  0.00000000E+00  0.00000000E+00  0.00000000E+00
  0.00000000E+00  0.00000000E+00  0.00000000E+00
  0.00000000E+00  0.00000000E+00  0.00000000E+00
  0.00000000E+00  0.00000000E+00  0.00000000E+00
  0.00000000E+00  0.00000000E+00  0.00000000E+00
  0.00000000E+00  0.00000000E+00  0.00000000E+00
  0.00000000E+00  0.00000000E+00  0.00000000E+00
  0.00000000E+00  0.00000000E+00  0.00000000E+00
  0.00000000E+00  0.00000000E+00  0.00000000E+00
  0.00000000E+00  0.00000000E+00  0.00000000E+00
  0.00000000E+00  0.00000000E+00  0.00000000E+00
  0.00000000E+00  0.00000000E+00  0.00000000E+00
  0.00000000E+00  0.00000000E+00  0.00000000E+00
  0.00000000E+00  0.00000000E+00  0.00000000E+00
  0.00000000E+00  0.00000000E+00  0.00000000E+00
  0.00000000E+00  0.00000000E+00  0.00000000E+00
  0.00000000E+00  0.00000000E+00  0.00000000E+00
  0.00000000E+00  0.00000000E+00  0.00000000E+00
  0.00000000E+00  0.00000000E+00  0.00000000E+00
  0.00000000E+00  0.00000000E+00  0.00000000E+00
  0.00000000E+00  0.00000000E+00  0.00000000E+00
  0.00000000E+00  0.00000000E+00  0.00000000E+00
  0.00000000E+00  0.00000000E+00  0.00000000E+00
  0.00000000E+00  0.00000000E+00  0.00000000E+00
  0.00000000E+00  0.00000000E+00  0.00000000E+00
  0.00000000E+00  0.00000000E+00  0.00000000E+00
  0.00000000E+00  0.00000000E+00  0.00000000E+00
  0.00000000E+00  0.00000000E+00  0.00000000E+00
  0.00000000E+00  0.00000000E+00  0.00000000E+00
  0.00000000E+00  0.00000000E+00  0.00000000E+00
  0.00000000E+00  0.00000000E+00  0.00000000E+00
  0.00000000E+00  0.00000000E+00  0.00000000E+00
  0.00000000E+00  0.00000000E+00  0.00000000E+00
  0.00000000E+00  0.00000000E+00  0.00000000E+00
  0.00000000E+00  0.00000000E+00  0.00000000E+00
  0.00000000E+00  0.00000000E+00  0.00000000E+00
  0.00000000E+00  0.00000000E+00  0.00000000E+00
  0.00000000E+00  0.00000000E+00  0.00000000E+00
  0.00000000E+00  0.00000000E+00  0.00000000E+00
  0.00000000E+00  0.00000000E+00  0.00000000E+00
  0.00000000E+00  0.00000000E+00  0.00000000E+00
  0.00000000E+00  0.00000000E+00  0.00000000E+00
  0.00000000E+00  0.00000000E+00  0.00000000E+00
  0.00000000E+00  0.00000000E+00  0.00000000E+00
  0.00000000E+00  0.00000000E+00  0.00000000E+00
  0.00000000E+00  0.00000000E+00  0.00000000E+00
  0.00000000E+00  0.00000000E+00  0.00000000E+00
  0.00000000E+00  0.00000000E+00  0.00000000E+00
  0.00000000E+00  0.00000000E+00  0.00000000E+00
  0.00000000E+00  0.00000000E+00  0.00000000E+00
  0.00000000E+00  0.00000000E+00  0.00000000E+00
