Si+Ge
    1.000000000
    5.431000233    0.000000000    0.000000000
    0.000000000   16.293001175    0.000000000
    0.000000000    0.000000000   16.790424347
Si  Ge 
36     48
Direct
    0.017796859    0.666666746    0.000000000
    0.517796874    0.666666746    0.161729112
    0.017796874    0.666666746    0.323458225
    0.017796859    0.333333373    0.000000000
    0.517796874    0.333333373    0.161729112
    0.017796874    0.333333373    0.323458225
    0.017796859    0.000000000    0.000000000
    0.517796874    0.000000000    0.161729112
    0.017796874    0.000000000    0.323458225
    0.267796874    0.916666746    0.080864556
    0.767796934    0.916666746    0.242593691
    0.267796993    0.916666746    0.404322743
    0.267796874    0.583333433    0.080864556
    0.767796934    0.583333433    0.242593691
    0.267796993    0.583333433    0.404322743
    0.267796874    0.250000000    0.080864556
    0.767796934    0.250000000    0.242593691
    0.267796993    0.250000000    0.404322743
    0.517796874    0.833333313    0.000000000
    0.017796874    0.833333313    0.161729112
    0.517796993    0.833333313    0.323458225
    0.517796874    0.500000000    0.000000000
    0.017796874    0.500000000    0.161729112
    0.517796993    0.500000000    0.323458225
    0.517796874    0.166666687    0.000000000
    0.017796874    0.166666687    0.161729112
    0.517796993    0.166666687    0.323458225
    0.767796934    0.750000060    0.080864556
    0.267796874    0.750000060    0.242593691
    0.767796993    0.750000060    0.404322743
    0.767796934    0.416666687    0.080864556
    0.267796874    0.416666687    0.242593691
    0.767796993    0.416666687    0.404322743
    0.767796934    0.083333351    0.080864556
    0.267796874    0.083333351    0.242593691
    0.767796993    0.083333351    0.404322743
    0.058674481    0.455994159    0.404322773
    0.558674514    0.080994137    0.523458242
    0.058674455    0.705994129    0.642593622
    0.558674216    0.330994248    0.761729002
    0.058674574    0.955994129    0.880864501
    0.558674574    0.580994129    1.000000000
    0.058674481    0.955994129    0.404322773
    0.558674514    0.580994129    0.523458242
    0.058674455    0.205994129    0.642593622
    0.558674216    0.830994368    0.761729002
    0.058674574    0.455994129    0.880864501
    0.558674574    0.080994129    0.999999881
    0.058674481    0.705994129    0.404322773
    0.558674514    0.330994129    0.523458242
    0.058674455    0.955994129    0.642593622
    0.558674216    0.580994248    0.761729121
    0.058674574    0.205994189    0.880864501
    0.558674574    0.830994129    1.000000000
    0.058674481    0.205994144    0.404322773
    0.558674514    0.830994129    0.523458242
    0.058674455    0.455994129    0.642593622
    0.558674216    0.080994248    0.761729121
    0.058674574    0.705994248    0.880864501
    0.558674574    0.330994129    0.999999881
    0.808674455    0.580994189    0.404322773
    0.308674455    0.205994159    0.523458242
    0.808674574    0.830994129    0.642593622
    0.308674335    0.455994248    0.761729002
    0.808674574    0.080994189    0.880864501
    0.308674335    0.705994129    1.000000000
    0.808674455    0.080994137    0.404322773
    0.308674455    0.705994129    0.523458242
    0.808674574    0.330994129    0.642593622
    0.308674335    0.955994248    0.761729121
    0.808674574    0.580994248    0.880864501
    0.308674335    0.205994010    0.999999881
    0.808674455    0.830994189    0.404322773
    0.308674455    0.455994189    0.523458242
    0.808674574    0.080994174    0.642593622
    0.308674335    0.705994308    0.761729002
    0.808674574    0.330994248    0.880864501
    0.308674335    0.955994129    0.999999881
    0.808674455    0.330994129    0.404322773
    0.308674455    0.955994129    0.523458242
    0.808674574    0.580994129    0.642593622
    0.308674335    0.205994248    0.761729121
    0.808674574    0.830994129    0.880864501
    0.308674335    0.455994129    0.999999881
