Ge+Sn
    1.000000000
   19.599195480    0.000000000    0.000000000
   -6.533064842   18.478298187    0.000000000
    0.000000000    0.000000000   25.800939560
Ge  Sn 
192     144
Direct
    0.744844615    0.234533861    0.000000014
    0.682344615    0.047033865    0.077529542
    0.619844615    0.859533846    0.155059069
    0.557344615    0.672033906    0.232588559
    0.494844615    0.484533906    0.310118109
    0.432344586    0.297033846    0.387647569
    0.494844645    0.984533846    0.000000013
    0.432344615    0.797033846    0.077529527
    0.369844615    0.609533787    0.155059084
    0.307344615    0.422033846    0.232588589
    0.244844645    0.234533906    0.310118079
    0.182344645    0.047033846    0.387647629
    0.744844615    0.734533846    0.000000016
    0.682344615    0.547033846    0.077529527
    0.619844615    0.359533817    0.155059084
    0.557344615    0.172033846    0.232588559
    0.494844615    0.984533906    0.310118079
    0.432344586    0.797033846    0.387647599
    0.494844615    0.484533846    0.000000016
    0.432344615    0.297033846    0.077529527
    0.369844615    0.109533817    0.155059069
    0.307344615    0.922033846    0.232588559
    0.244844630    0.734533906    0.310118079
    0.182344630    0.547033846    0.387647599
    0.244844630    0.234533861    0.000000016
    0.182344630    0.047033854    0.077529527
    0.119844608    0.859533787    0.155059069
    0.057344612    0.672033846    0.232588559
    0.994844615    0.484533906    0.310118079
    0.932344615    0.297033846    0.387647599
    0.994844615    0.984533846    0.000000016
    0.932344615    0.797033846    0.077529527
    0.869844615    0.609533787    0.155059069
    0.807344615    0.422033846    0.232588559
    0.744844675    0.234533906    0.310118079
    0.682344615    0.047033846    0.387647599
    0.244844615    0.734533846    0.000000007
    0.182344615    0.547033846    0.077529527
    0.119844608    0.359533846    0.155059069
    0.057344619    0.172033861    0.232588559
    0.994844615    0.984533906    0.310118079
    0.932344615    0.797033846    0.387647599
    0.994844615    0.484533876    0.000000007
    0.932344615    0.297033876    0.077529527
    0.869844615    0.109533824    0.155059069
    0.807344615    0.922033846    0.232588559
    0.744844675    0.734533906    0.310118079
    0.682344615    0.547033846    0.387647599
    0.869844615    0.109533794    0.000000000
    0.807344615    0.922033787    0.077529527
    0.744844675    0.734533787    0.155059054
    0.682344675    0.547033787    0.232588589
    0.619844675    0.359533846    0.310118079
    0.557344615    0.172033787    0.387647569
    0.869844615    0.609533846    0.000000018
    0.807344615    0.422033846    0.077529535
    0.744844615    0.234533802    0.155059069
    0.682344615    0.047033843    0.232588559
    0.619844615    0.859533906    0.310118079
    0.557344615    0.672033787    0.387647569
    0.619844615    0.359533846    0.000000018
    0.557344615    0.172033831    0.077529535
    0.494844645    0.984533787    0.155059069
    0.432344645    0.797033846    0.232588559
    0.369844645    0.609533906    0.310118079
    0.307344615    0.422033846    0.387647569
    0.369844615    0.109533861    0.000000019
    0.307344615    0.922033846    0.077529542
    0.244844615    0.734533787    0.155059084
    0.182344615    0.547033846    0.232588589
    0.119844638    0.359533906    0.310118079
    0.057344612    0.172033846    0.387647599
    0.619844615    0.859533846    0.000000015
    0.557344615    0.672033846    0.077529527
    0.494844615    0.484533757    0.155059069
    0.432344615    0.297033846    0.232588589
    0.369844615    0.109533846    0.310118079
    0.307344615    0.922033846    0.387647599
    0.369844615    0.609533846    0.000000016
    0.307344615    0.422033846    0.077529527
    0.244844601    0.234533846    0.155059069
    0.182344615    0.047033861    0.232588589
    0.119844608    0.859533906    0.310118079
    0.057344619    0.672033846    0.387647599
    0.119844630    0.359533876    0.000000016
    0.057344623    0.172033861    0.077529527
    0.994844615    0.984533787    0.155059069
    0.932344615    0.797033846    0.232588559
    0.869844675    0.609533906    0.310118079
    0.807344615    0.422033846    0.387647599
    0.119844615    0.859533846    0.000000019
    0.057344623    0.672033846    0.077529550
    0.994844615    0.484533817    0.155059084
    0.932344615    0.297033846    0.232588589
    0.869844675    0.109533884    0.310118109
    0.807344615    0.922033846    0.387647599
    0.869844675    0.234533906    0.000000007
    0.807344675    0.047033865    0.077529535
    0.744844615    0.859533846    0.155059069
    0.682344675    0.672033846    0.232588559
    0.619844675    0.484533906    0.310118079
    0.557344675    0.297033846    0.387647599
    0.619844615    0.984533846    0.000000007
    0.557344615    0.797033846    0.077529535
    0.494844645    0.609533787    0.155059069
    0.432344645    0.422033846    0.232588559
    0.369844645    0.234533906    0.310118079
    0.307344645    0.047033846    0.387647599
    0.869844675    0.734533906    0.000000017
    0.807344675    0.547033906    0.077529527
    0.744844675    0.359533876    0.155059084
    0.682344675    0.172033891    0.232588559
    0.619844675    0.984533966    0.310118079
    0.557344675    0.797033906    0.387647599
    0.619844675    0.484533906    0.000000018
    0.557344675    0.297033876    0.077529535
    0.494844645    0.109533831    0.155059069
    0.432344645    0.922033846    0.232588589
    0.369844675    0.734533906    0.310118079
    0.307344645    0.547033906    0.387647599
    0.369844615    0.234533846    0.000000018
    0.307344615    0.047033846    0.077529527
    0.244844615    0.859533787    0.155059084
    0.182344630    0.672033846    0.232588589
    0.119844645    0.484533906    0.310118109
    0.057344619    0.297033846    0.387647599
    0.119844615    0.984533846    0.000000018
    0.057344615    0.797033846    0.077529527
    0.994844615    0.609533787    0.155059069
    0.932344615    0.422033846    0.232588589
    0.869844675    0.234533906    0.310118079
    0.807344615    0.047033846    0.387647599
    0.369844615    0.734533846    0.000000015
    0.307344615    0.547033846    0.077529535
    0.244844601    0.359533817    0.155059084
    0.182344615    0.172033802    0.232588589
    0.119844615    0.984533846    0.310118079
    0.057344612    0.797033787    0.387647599
    0.119844615    0.484533846    0.000000015
    0.057344615    0.297033846    0.077529535
    0.994844615    0.109533817    0.155059084
    0.932344615    0.922033846    0.232588589
    0.869844675    0.734533906    0.310118079
    0.807344615    0.547033846    0.387647599
    0.744844615    0.359533846    0.000000006
    0.682344615    0.172033846    0.077529535
    0.619844615    0.984533787    0.155059069
    0.557344556    0.797033846    0.232588559
    0.494844586    0.609533906    0.310118079
    0.432344586    0.422033846    0.387647569
    0.494844615    0.109533846    0.000000006
    0.432344615    0.922033846    0.077529535
    0.369844615    0.734533787    0.155059069
    0.307344615    0.547033906    0.232588559
    0.244844630    0.359533906    0.310118079
    0.182344601    0.172033846    0.387647569
    0.744844615    0.859533846    0.000000016
    0.682344556    0.672033787    0.077529527
    0.619844556    0.484533787    0.155059069
    0.557344615    0.297033846    0.232588559
    0.494844615    0.109533854    0.310118079
    0.432344586    0.922033846    0.387647599
    0.494844615    0.609533846    0.000000016
    0.432344615    0.422033846    0.077529527
    0.369844586    0.234533802    0.155059069
    0.307344615    0.047033828    0.232588589
    0.244844615    0.859533846    0.310118079
    0.182344601    0.672033846    0.387647599
    0.244844615    0.359533846    0.000000016
    0.182344615    0.172033846    0.077529527
    0.119844615    0.984533846    0.155059069
    0.057344627    0.797033846    0.232588589
    0.994844615    0.609533906    0.310118079
    0.932344615    0.422033846    0.387647599
    0.994844615    0.109533839    0.000000016
    0.932344615    0.922033846    0.077529527
    0.869844615    0.734533787    0.155059069
    0.807344615    0.547033846    0.232588589
    0.744844675    0.359533906    0.310118079
    0.682344615    0.172033846    0.387647599
    0.244844615    0.859533846    0.000000014
    0.182344615    0.672033846    0.077529542
    0.119844593    0.484533817    0.155059069
    0.057344593    0.297033846    0.232588589
    0.994844615    0.109533876    0.310118079
    0.932344615    0.922033846    0.387647599
    0.994844615    0.609533846    0.000000014
    0.932344615    0.422033846    0.077529542
    0.869844615    0.234533846    0.155059069
    0.807344615    0.047033865    0.232588589
    0.744844675    0.859533906    0.310118079
    0.682344615    0.672033846    0.387647599
    0.996138453    0.661940157    0.471518040
    0.871138394    0.453606635    0.560440421
    0.746138394    0.245273143    0.649362683
    0.621138394    0.036939606    0.738284945
    0.496138334    0.828606129    0.827207327
    0.371138334    0.620272636    0.916129649
    0.996138453    0.328606814    0.471518040
    0.871138394    0.120273314    0.560440421
    0.746138394    0.911939800    0.649362683
    0.621138394    0.703606248    0.738284945
    0.496138334    0.495272756    0.827207327
    0.371138334    0.286939323    0.916129649
    0.996138453    0.995273471    0.471518040
    0.871138394    0.786939979    0.560440421
    0.746138394    0.578606486    0.649362683
    0.621138394    0.370272875    0.738284945
    0.496138334    0.161939383    0.827207327
    0.371138334    0.953605890    0.916129649
    0.496138453    0.828606725    0.471518040
    0.371138424    0.620273232    0.560440421
    0.246138424    0.411939800    0.649362683
    0.121138372    0.203606233    0.738285005
    0.996138334    0.995272756    0.827207327
    0.871138334    0.786939263    0.916129589
    0.496138453    0.495273471    0.471518040
    0.371138424    0.286939949    0.560440421
    0.246138424    0.078606464    0.649362683
    0.121138372    0.870272875    0.738285005
    0.996138334    0.661939383    0.827207327
    0.871138334    0.453605950    0.916129589
    0.496138453    0.161940143    0.471518040
    0.371138424    0.953606665    0.560440421
    0.246138424    0.745273113    0.649362683
    0.121138372    0.536939561    0.738285005
    0.996138334    0.328606069    0.827207327
    0.871138334    0.120272577    0.916129589
    0.246138453    0.745273471    0.471518040
    0.121138431    0.536939979    0.560440421
    0.996138394    0.328606486    0.649362683
    0.871138394    0.120272942    0.738284945
    0.746138334    0.911939442    0.827207327
    0.621138334    0.703605950    0.916129649
    0.246138453    0.411940157    0.471518040
    0.121138431    0.203606650    0.560440421
    0.996138394    0.995273173    0.649362683
    0.871138394    0.786939621    0.738284945
    0.746138334    0.578606069    0.827207327
    0.621138334    0.370272636    0.916129649
    0.246138453    0.078606807    0.471518040
    0.121138431    0.870273292    0.560440421
    0.996138394    0.661939800    0.649362683
    0.871138394    0.453606188    0.738284945
    0.746138334    0.245272756    0.827207327
    0.621138334    0.036939263    0.916129649
    0.746138453    0.911940157    0.471518040
    0.621138453    0.703606665    0.560440421
    0.496138424    0.495273143    0.649362683
    0.371138364    0.286939591    0.738285005
    0.246138349    0.078606106    0.827207327
    0.121138334    0.870272636    0.916129589
    0.746138453    0.578606784    0.471518040
    0.621138453    0.370273292    0.560440421
    0.496138424    0.161939800    0.649362683
    0.371138364    0.953606248    0.738285005
    0.246138349    0.745272756    0.827207327
    0.121138334    0.536939263    0.916129589
    0.746138453    0.245273486    0.471518040
    0.621138453    0.036939979    0.560440421
    0.496138424    0.828606486    0.649362683
    0.371138364    0.620272875    0.738285005
    0.246138349    0.411939383    0.827207327
    0.121138334    0.203605950    0.916129589
    0.371138453    0.870273530    0.471518070
    0.246138424    0.661939979    0.560440421
    0.121138416    0.453606486    0.649362683
    0.996138334    0.245272949    0.738285005
    0.871138334    0.036939453    0.827207327
    0.746138334    0.828605950    0.916129589
    0.371138453    0.536940098    0.471518070
    0.246138424    0.328606606    0.560440421
    0.121138416    0.120273091    0.649362683
    0.996138334    0.911939502    0.738285005
    0.871138334    0.703606009    0.827207327
    0.746138334    0.495272517    0.916129589
    0.371138453    0.203606814    0.471518070
    0.246138424    0.995273292    0.560440421
    0.121138416    0.786939800    0.649362683
    0.996138334    0.578606248    0.738285005
    0.871138334    0.370272756    0.827207327
    0.746138334    0.161939263    0.916129589
    0.871138513    0.703606844    0.471518040
    0.746138453    0.495273381    0.560440421
    0.621138453    0.286939859    0.649362683
    0.496138394    0.078606293    0.738285005
    0.371138394    0.870272815    0.827207327
    0.246138379    0.661939263    0.916129589
    0.871138513    0.370273441    0.471518040
    0.746138453    0.161939934    0.560440421
    0.621138453    0.953606427    0.649362683
    0.496138394    0.745272875    0.738285005
    0.371138394    0.536939383    0.827207327
    0.246138379    0.328605831    0.916129589
    0.871138513    0.036940135    0.471518040
    0.746138453    0.828606606    0.560440421
    0.621138453    0.620273113    0.649362683
    0.496138394    0.411939561    0.738285005
    0.371138394    0.203606009    0.827207327
    0.246138379    0.995272517    0.916129589
    0.121138446    0.786940217    0.471518040
    0.996138453    0.578606665    0.560440421
    0.871138394    0.370273232    0.649362683
    0.746138334    0.161939651    0.738285005
    0.621138334    0.953606129    0.827207327
    0.496138334    0.745272636    0.916129589
    0.121138446    0.453606814    0.471518040
    0.996138453    0.245273307    0.560440421
    0.871138394    0.036939807    0.649362683
    0.746138334    0.828606248    0.738285005
    0.621138334    0.620272756    0.827207327
    0.496138334    0.411939263    0.916129589
    0.121138446    0.120273508    0.471518040
    0.996138453    0.911939979    0.560440421
    0.871138394    0.703606486    0.649362683
    0.746138334    0.495272934    0.738285005
    0.621138334    0.286939442    0.827207327
    0.496138334    0.078605890    0.916129589
    0.621138453    0.953606844    0.471518070
    0.496138424    0.745273352    0.560440421
    0.371138424    0.536939859    0.649362683
    0.246138364    0.328606278    0.738285005
    0.121138342    0.120272785    0.827207327
    0.996138334    0.911939263    0.916129589
    0.621138453    0.620273471    0.471518070
    0.496138424    0.411939949    0.560440421
    0.371138424    0.203606471    0.649362683
    0.246138364    0.995272875    0.738285005
    0.121138342    0.786939383    0.827207327
    0.996138334    0.578605890    0.916129589
    0.621138453    0.286940128    0.471518070
    0.496138424    0.078606635    0.560440421
    0.371138424    0.870273113    0.649362683
    0.246138364    0.661939502    0.738285005
    0.121138342    0.453606129    0.827207327
    0.996138334    0.245272577    0.916129589
