C+Si
    1.000000000
   13.345744133    0.000000000    0.000000000
    6.672872066   11.557753563    0.000000000
    0.000000000    0.000000584   21.497343063
C   Si 
308     72
Direct
    0.090206265    0.772551179    0.455016404
    0.852111220    0.963027716    0.071844742
    0.661635041    0.915408611    0.167637646
    0.471158683    0.867789447    0.263430625
    0.280682445    0.820170343    0.359223515
    0.233063459    0.058265526    0.455016375
    0.994968355    0.248742059    0.071844734
    0.804492116    0.201122925    0.167637646
    0.614015818    0.153503776    0.263430625
    0.423539579    0.105884634    0.359223515
    0.375920594    0.343979865    0.455016375
    0.137825489    0.534456313    0.071844734
    0.947349310    0.486837268    0.167637646
    0.756873012    0.439218104    0.263430625
    0.566396713    0.391598940    0.359223545
    0.661634922    0.915408373    0.455016375
    0.423539788    0.105884910    0.071844734
    0.233063594    0.058265779    0.167637631
    0.042587291    0.010646618    0.263430625
    0.852111042    0.963027477    0.359223515
    0.518777728    0.629694045    0.455016375
    0.280682653    0.820170641    0.071844719
    0.090206414    0.772551477    0.167637631
    0.899730265    0.724932373    0.263430536
    0.709253788    0.677313149    0.359223515
    0.804491997    0.201122656    0.455016404
    0.566396952    0.391599178    0.071844719
    0.375920743    0.343980074    0.167637661
    0.185444549    0.296360940    0.263430566
    0.994968116    0.248741776    0.359223515
    0.947349131    0.486836940    0.455016375
    0.709254026    0.677313507    0.071844727
    0.518777847    0.629694343    0.167637631
    0.328301549    0.582075238    0.263430595
    0.137825251    0.534456074    0.359223515
    0.185444355    0.296360761    0.478964627
    0.137825519    0.534456432    0.000000036
    0.947349310    0.486837268    0.095792957
    0.756873012    0.439218163    0.191585898
    0.566396713    0.391599000    0.287378818
    0.375920534    0.343979865    0.383171707
    0.471158624    0.867789328    0.478964627
    0.423539817    0.105884999    0.000000053
    0.233063594    0.058265861    0.095792957
    0.042587318    0.010646729    0.191585898
    0.852110982    0.963027537    0.287378818
    0.661634803    0.915408432    0.383171707
    0.328301430    0.582075059    0.478964627
    0.280682683    0.820170760    0.000000036
    0.090206407    0.772551596    0.095792957
    0.899730206    0.724932432    0.191585898
    0.709253848    0.677313268    0.287378818
    0.518777609    0.629694164    0.383171707
    0.614015758    0.153503582    0.478964627
    0.566397011    0.391599268    0.000000036
    0.375920743    0.343980134    0.095792972
    0.185444474    0.296361029    0.191585898
    0.994968176    0.248741850    0.287378818
    0.804491937    0.201122731    0.383171707
    0.756872892    0.439217865    0.478964627
    0.709254146    0.677313626    0.000000032
    0.518777847    0.629694402    0.095792972
    0.328301609    0.582075298    0.191585898
    0.137825310    0.534456134    0.287378818
    0.947349072    0.486837029    0.383171707
    0.042587161    0.010646407    0.478964657
    0.994968414    0.248742104    0.000000047
    0.804492116    0.201122969    0.095792964
    0.614015937    0.153503835    0.191585898
    0.423539579    0.105884671    0.287378818
    0.233063400    0.058265541    0.383171767
    0.899730027    0.724932194    0.478964627
    0.852111220    0.963027894    0.000000027
    0.661634982    0.915408731    0.095792949
    0.471158773    0.867789626    0.191585883
    0.280682474    0.820170403    0.287378788
    0.090206243    0.772551298    0.383171678
    0.161634862    0.915408373    0.455016375
    0.923539758    0.105884880    0.071844734
    0.733063579    0.058265753    0.167637661
    0.542587280    0.010646593    0.263430625
    0.352110982    0.963027477    0.359223545
    0.304491997    0.201122716    0.455016404
    0.066396914    0.391599208    0.071844734
    0.875920713    0.343980134    0.167637646
    0.685444415    0.296360940    0.263430625
    0.494968116    0.248741820    0.359223515
    0.590206265    0.772551239    0.455016404
    0.352111191    0.963027775    0.071844734
    0.161634997    0.915408611    0.167637646
    0.971158683    0.867789447    0.263430625
    0.780682385    0.820170343    0.359223545
    0.447349072    0.486836940    0.455016404
    0.209254056    0.677313507    0.071844734
    0.018777799    0.629694402    0.167637661
    0.828301668    0.582075298    0.263430566
    0.637825251    0.534456074    0.359223545
    0.733063459    0.058265507    0.455016404
    0.494968414    0.248742044    0.071844697
    0.304492176    0.201122925    0.167637646
    0.114016011    0.153503805    0.263430566
    0.923539639    0.105884627    0.359223515
    0.875920653    0.343979806    0.455016345
    0.637825549    0.534456372    0.071844712
    0.447349370    0.486837238    0.167637601
    0.256873071    0.439218074    0.263430625
    0.066396788    0.391598940    0.359223515
    0.018777808    0.629694104    0.455016375
    0.780682743    0.820170641    0.071844704
    0.590206504    0.772551477    0.167637646
    0.399730235    0.724932313    0.263430625
    0.209253937    0.677313209    0.359223515
    0.114015818    0.153503567    0.478964597
    0.066396974    0.391599238    0.000000023
    0.875920713    0.343980104    0.095792957
    0.685444534    0.296360999    0.191585854
    0.494968176    0.248741820    0.287378788
    0.304491997    0.201122701    0.383171678
    0.256872892    0.439217895    0.478964597
    0.209254116    0.677313566    0.000000004
    0.018777853    0.629694462    0.095792927
    0.828301668    0.582075298    0.191585824
    0.637825370    0.534456134    0.287378788
    0.447349131    0.486837000    0.383171678
    0.542587221    0.010646427    0.478964597
    0.494968385    0.248742118    0.000000034
    0.304492146    0.201122969    0.095792949
    0.114015952    0.153503850    0.191585839
    0.923539639    0.105884686    0.287378788
    0.733063400    0.058265567    0.383171678
    0.399730086    0.724932253    0.478964597
    0.352111250    0.963027894    0.000000038
    0.161634982    0.915408790    0.095792957
    0.971158803    0.867789686    0.191585839
    0.780682445    0.820170522    0.287378818
    0.590206265    0.772551358    0.383171707
    0.685444355    0.296360821    0.478964597
    0.637825549    0.534456491    0.000000038
    0.447349280    0.486837357    0.095792957
    0.256873071    0.439218223    0.191585839
    0.066396758    0.391599059    0.287378818
    0.875920534    0.343979925    0.383171707
    0.971158683    0.867789328    0.478964567
    0.923539937    0.105884999    0.000000012
    0.733063638    0.058265861    0.095792927
    0.542587459    0.010646712    0.191585854
    0.352111161    0.963027537    0.287378788
    0.161634922    0.915408432    0.383171678
    0.828301489    0.582075000    0.478964597
    0.780682683    0.820170701    0.000000000
    0.590206444    0.772551596    0.095792912
    0.399730265    0.724932492    0.191585839
    0.209253907    0.677313268    0.287378788
    0.018777704    0.629694164    0.383171648
    0.161634862    0.415408403    0.455016404
    0.923539758    0.605884910    0.071844719
    0.733063579    0.558265865    0.167637646
    0.542587280    0.510646641    0.263430625
    0.352110982    0.463027507    0.359223515
    0.447349131    0.986836910    0.455016404
    0.209254056    0.177313447    0.071844757
    0.018777858    0.129694343    0.167637646
    0.828301549    0.082075179    0.263430625
    0.637825251    0.034456030    0.359223545
    0.304491997    0.701122642    0.455016375
    0.066396967    0.891599178    0.071844697
    0.875920713    0.843980074    0.167637631
    0.685444534    0.796360970    0.263430536
    0.494968116    0.748741806    0.359223455
    0.590206265    0.272551209    0.455016404
    0.352111220    0.463027716    0.071844704
    0.161634952    0.415408611    0.167637661
    0.971158803    0.367789507    0.263430566
    0.780682385    0.320170313    0.359223515
    0.875920534    0.843979776    0.455016404
    0.637825489    0.034456331    0.071844719
    0.447349280    0.986837149    0.167637661
    0.256873071    0.939218044    0.263430566
    0.066396691    0.891598880    0.359223515
    0.733063459    0.558265567    0.455016345
    0.494968414    0.748742104    0.071844712
    0.304492205    0.701122999    0.167637601
    0.114015885    0.653503835    0.263430625
    0.923539639    0.605884671    0.359223515
    0.018777752    0.129694119    0.455016404
    0.780682683    0.320170641    0.071844734
    0.590206444    0.272551507    0.167637676
    0.399730176    0.224932358    0.263430625
    0.209253877    0.177313223    0.359223515
    0.256872952    0.939217865    0.478964597
    0.209254116    0.177313551    0.000000017
    0.018777851    0.129694432    0.095792949
    0.828301668    0.082075298    0.191585839
    0.637825370    0.034456134    0.287378788
    0.447349131    0.986837029    0.383171678
    0.114015758    0.653503597    0.478964597
    0.066396944    0.891599298    0.000000021
    0.875920713    0.843980193    0.095792949
    0.685444534    0.796361089    0.191585839
    0.494968176    0.748741865    0.287378818
    0.304491997    0.701122761    0.383171678
    0.399730086    0.224932194    0.478964627
    0.352111250    0.463027865    0.000000038
    0.161635011    0.415408701    0.095792949
    0.971158803    0.367789596    0.191585839
    0.780682504    0.320170432    0.287378818
    0.590206265    0.272551298    0.383171678
    0.685444355    0.796360731    0.478964597
    0.637825489    0.034456402    0.000000034
    0.447349280    0.986837268    0.095792964
    0.256873101    0.939218163    0.191585854
    0.066396765    0.891599000    0.287378788
    0.875920534    0.843979836    0.383171707
    0.542587221    0.510646522    0.478964597
    0.494968414    0.748742163    0.000000004
    0.304492146    0.701123059    0.095792957
    0.114015944    0.653503954    0.191585839
    0.923539639    0.605884731    0.287378788
    0.733063400    0.558265626    0.383171707
    0.828301489    0.082075059    0.478964597
    0.780682743    0.320170730    0.000000004
    0.590206444    0.272551596    0.095792957
    0.399730265    0.224932447    0.191585839
    0.209253922    0.177313298    0.287378788
    0.018777706    0.129694194    0.383171707
    0.971158564    0.367789358    0.478964627
    0.923539758    0.605885029    0.000000026
    0.733063519    0.558265924    0.095792942
    0.542587340    0.510646760    0.191585854
    0.352110982    0.463027596    0.287378818
    0.161634773    0.415408492    0.383171678
    0.090206265    0.272551209    0.455016404
    0.852111220    0.463027745    0.071844734
    0.661634982    0.415408641    0.167637661
    0.471158683    0.367789477    0.263430625
    0.280682385    0.320170343    0.359223545
    0.375920594    0.843979836    0.455016375
    0.137825489    0.034456320    0.071844727
    0.947349310    0.986837208    0.167637646
    0.756873012    0.939218044    0.263430625
    0.566396713    0.891598880    0.359223515
    0.233063400    0.558265448    0.455016375
    0.994968355    0.748741984    0.071844704
    0.804492116    0.701122880    0.167637646
    0.614015937    0.653503776    0.263430566
    0.423539519    0.605884552    0.359223515
    0.518777728    0.129694045    0.455016404
    0.280682683    0.320170581    0.071844682
    0.090206422    0.272551447    0.167637646
    0.899730265    0.224932343    0.263430566
    0.709253848    0.177313194    0.359223515
    0.661634922    0.415408403    0.455016345
    0.423539788    0.605884969    0.071844719
    0.233063608    0.558265805    0.167637601
    0.042587291    0.510646641    0.263430625
    0.852110982    0.463027537    0.359223515
    0.947349131    0.986836970    0.455016375
    0.709254026    0.177313477    0.071844712
    0.518777907    0.129694358    0.167637661
    0.328301549    0.082075208    0.263430625
    0.137825236    0.034456071    0.359223515
    0.804491997    0.701122642    0.455016404
    0.566396952    0.891599238    0.071844727
    0.375920713    0.843980074    0.167637661
    0.185444385    0.796360970    0.263430625
    0.994968116    0.748741746    0.359223515
    0.185444295    0.796360731    0.478964657
    0.137825549    0.034456421    0.000000047
    0.947349310    0.986837268    0.095792964
    0.756873071    0.939218163    0.191585898
    0.566396773    0.891599000    0.287378818
    0.375920594    0.843979836    0.383171707
    0.328301489    0.082075000    0.478964657
    0.280682683    0.320170701    0.000000053
    0.090206459    0.272551537    0.095792972
    0.899730206    0.224932417    0.191585913
    0.709253907    0.177313268    0.287378818
    0.518777728    0.129694134    0.383171707
    0.471158624    0.367789358    0.478964627
    0.423539817    0.605885029    0.000000036
    0.233063549    0.558265924    0.095792972
    0.042587310    0.510646760    0.191585913
    0.852110982    0.463027596    0.287378818
    0.661634803    0.415408492    0.383171707
    0.756872892    0.939217865    0.478964627
    0.709254146    0.177313551    0.000000036
    0.518777907    0.129694417    0.095792972
    0.328301638    0.082075261    0.191585913
    0.137825340    0.034456115    0.287378848
    0.947349131    0.986836970    0.383171707
    0.614015758    0.653503656    0.478964627
    0.566396952    0.891599357    0.000000032
    0.375920683    0.843980193    0.095792972
    0.185444474    0.796361029    0.191585898
    0.994968176    0.748741865    0.287378818
    0.804491937    0.701122761    0.383171767
    0.899730027    0.224932149    0.478964597
    0.852111280    0.463027835    0.000000032
    0.661634982    0.415408701    0.095792949
    0.471158773    0.367789567    0.191585854
    0.280682445    0.320170403    0.287378818
    0.090206236    0.272551298    0.383171707
    0.042587280    0.510646462    0.478964627
    0.994968474    0.748742163    0.000000044
    0.804492235    0.701122999    0.095792964
    0.614015937    0.653503895    0.191585898
    0.423539639    0.605884671    0.287378818
    0.233063459    0.558265567    0.383171707
    0.045454547    0.848160505    0.867109299
    0.045454547    0.181493729    0.575390458
    0.045454547    0.514827132    0.721249878
    0.378787875    0.181493804    0.867109299
    0.378787875    0.514827073    0.575390458
    0.378787875    0.848160505    0.721249878
    0.712121248    0.514827073    0.867109299
    0.712121248    0.848160446    0.575390458
    0.712121248    0.181493804    0.721249878
    0.045454547    0.181493923    0.903574109
    0.045454547    0.514827073    0.611855328
    0.045454547    0.848160505    0.757714748
    0.378787875    0.514827192    0.903574109
    0.378787875    0.848160505    0.611855328
    0.378787875    0.181493804    0.757714748
    0.712121308    0.848160684    0.903574109
    0.712121308    0.181493804    0.611855328
    0.712121308    0.514827192    0.757714748
    0.212121218    0.014827132    0.867109299
    0.212121218    0.348160386    0.575390458
    0.212121218    0.681493819    0.721249878
    0.545454621    0.348160446    0.867109299
    0.545454562    0.681493759    0.575390458
    0.545454562    0.014827132    0.721249878
    0.878787935    0.681493938    0.867109299
    0.878787935    0.014827132    0.575390458
    0.878787935    0.348160446    0.721249819
    0.212121233    0.348160446    0.903574049
    0.212121233    0.681493759    0.611855328
    0.212121233    0.014827132    0.757714689
    0.545454562    0.681493819    0.903574049
    0.545454562    0.014827013    0.611855328
    0.545454562    0.348160446    0.757714689
    0.878787875    0.014827132    0.903574049
    0.878787875    0.348160386    0.611855328
    0.878787875    0.681493819    0.757714748
    0.045454547    0.348160446    0.867109299
    0.045454547    0.681493759    0.575390458
    0.045454547    0.014827132    0.721249878
    0.378787875    0.681493938    0.867109299
    0.378787875    0.014827132    0.575390458
    0.378787875    0.348160565    0.721249878
    0.712121248    0.014827132    0.867109299
    0.712121248    0.348160386    0.575390458
    0.712121248    0.681493819    0.721249878
    0.045454562    0.681493938    0.903574109
    0.045454562    0.014827132    0.611855328
    0.045454562    0.348160565    0.757714748
    0.378787935    0.014827132    0.903574109
    0.378787935    0.348160386    0.611855328
    0.378787935    0.681493759    0.757714689
    0.712121308    0.348160565    0.903574109
    0.712121308    0.681493759    0.611855328
    0.712121308    0.014827132    0.757714689
    0.212121218    0.514827073    0.867109299
    0.212121218    0.848160446    0.575390458
    0.212121218    0.181493804    0.721249878
    0.545454562    0.848160446    0.867109299
    0.545454562    0.181493729    0.575390458
    0.545454562    0.514827132    0.721249878
    0.878787875    0.181493804    0.867109299
    0.878787875    0.514827073    0.575390458
    0.878787875    0.848160446    0.721249878
    0.212121233    0.848160565    0.903574109
    0.212121233    0.181493804    0.611855388
    0.212121233    0.514827073    0.757714748
    0.545454562    0.181493923    0.903574109
    0.545454562    0.514827073    0.611855328
    0.545454562    0.848160446    0.757714748
    0.878787935    0.514827192    0.903574109
    0.878787935    0.848160386    0.611855328
    0.878787935    0.181493685    0.757714748
