Si+C                                    
   1.00000000000000     
    16.2930011750000006    0.0000000000000000    0.0000000000000000
   -10.8620004649999995   12.1440858840000008    0.0000000000000000
     0.0000000000000000    0.0000000000000000    7.2041287420000000
   Si   C 
    36    84
Direct
  0.9743584989999974  0.9829056259999973  0.0000000020000002
  0.6743584279999979  0.7829055790000012  0.1685712339999981
  0.3743584159999997  0.5829055310000015  0.3371424669999996
  0.3076917830000028  0.9829056259999973  0.0000000020000002
  0.0076917259999973  0.7829055790000012  0.1685712339999981
  0.7076916689999990  0.5829055310000015  0.3371424669999996
  0.6410250659999974  0.9829056259999973  0.0000000020000002
  0.3410250250000004  0.7829055790000012  0.1685712339999981
  0.0410249870000001  0.5829055310000015  0.3371424669999996
  0.1576919700000019  0.6329056020000010  0.0842854529999997
  0.8576919440000026  0.4329055250000025  0.2528567020000025
  0.5576919319999973  0.2329055069999981  0.4214279349999970
  0.4910252090000000  0.6329056020000010  0.0842854529999997
  0.1910251529999982  0.4329055250000025  0.2528567020000025
  0.8910251860000002  0.2329055069999981  0.4214279349999970
  0.8243584630000029  0.6329056020000010  0.0842854529999997
  0.5243583920000034  0.4329055250000025  0.2528567020000025
  0.2243584989999974  0.2329055069999981  0.4214279349999970
  0.1410251559999978  0.4829055960000019  0.0000000000000000
  0.8410251139999971  0.2829054890000009  0.1685712339999981
  0.5410251019999990  0.0829054339999971  0.3371424669999996
  0.4743584389999995  0.4829055960000019  0.0000000000000000
  0.1743583829999977  0.2829054890000009  0.1685712339999981
  0.8743583560000019  0.0829054339999971  0.3371424669999996
  0.8076916930000024  0.4829055960000019  0.0000000000000000
  0.5076916809999972  0.2829054890000009  0.1685712339999981
  0.2076916250000025  0.0829054339999971  0.3371424669999996
  0.9910252090000000  0.1329056619999989  0.0842854599999967
  0.6910251380000005  0.9329056139999992  0.2528567020000025
  0.3910251860000002  0.7329055670000031  0.4214279349999970
  0.3243584630000029  0.1329056619999989  0.0842854599999967
  0.0243584139999982  0.9329056139999992  0.2528567020000025
  0.7243584389999995  0.7329055670000031  0.4214279349999970
  0.6576916579999974  0.1329056619999989  0.0842854599999967
  0.3576916159999968  0.9329056139999992  0.2528567020000025
  0.0576916520000026  0.7329055670000031  0.4214279349999970
  0.1482715610000014  0.2131299970000029  0.5723278520000008
  0.3911287780000023  0.1845585109999988  0.6830367450000026
  0.6339859959999998  0.1559870239999981  0.7937456370000007
  0.4339858290000009  0.3559871320000028  0.5723278520000008
  0.6768430469999984  0.3274156450000021  0.6830367450000026
  0.9197002650000030  0.2988441879999968  0.7937456370000007
  0.7197000379999992  0.4988442659999990  0.5723278520000008
  0.9625573160000016  0.4702727789999983  0.6830367450000026
  0.2054146079999981  0.4417012930000013  0.7937456370000007
  0.0054144859999994  0.6417014600000002  0.5723278520000008
  0.2482716589999967  0.6131299729999995  0.6830367450000026
  0.4911289810000028  0.5845584870000025  0.7937456370000007
  0.2911286949999976  0.7845585350000022  0.5723278520000008
  0.5339859130000022  0.7559871079999994  0.6830367450000026
  0.7768431309999997  0.7274156209999987  0.7937456370000007
  0.5768430230000021  0.9274157290000034  0.5723278520000008
  0.8197002409999996  0.8988442420000027  0.6830367450000026
  0.0625574589999971  0.8702727559999985  0.7937456370000007
  0.8625572320000003  0.0702729229999974  0.5723278520000008
  0.1054145100000028  0.0417013169999976  0.6830367450000026
  0.3482716680000024  0.0131299499999997  0.7937456370000007
  0.9839857219999999  0.3059871490000035  0.6276822089999996
  0.2268430740000014  0.2774156629999993  0.7383911009999977
  0.4697002770000012  0.2488441619999975  0.8490999340000016
  0.2696999309999981  0.4488442840000033  0.6276821490000017
  0.5125572090000006  0.4202728269999980  0.7383911610000027
  0.7554144260000015  0.3917012810000031  0.8490999939999995
  0.5554143190000005  0.5917014480000020  0.6276821490000017
  0.7982715369999980  0.5631299610000013  0.7383911610000027
  0.0411288740000018  0.5345584749999972  0.8490999939999995
  0.8411286469999979  0.7345585819999982  0.6276821490000017
  0.0839859250000003  0.7059870960000012  0.7383911610000027
  0.3268432019999992  0.6774156689999984  0.8490999939999995
  0.1268428119999996  0.8774157169999981  0.6276821490000017
  0.3697001339999986  0.8488442299999974  0.7383911610000027
  0.6125572320000003  0.8202727440000004  0.8490999939999995
  0.4125572439999985  0.0202728510000014  0.6276822089999996
  0.6554145220000009  0.9917013049999994  0.7383911610000027
  0.8982717390000019  0.9631298779999966  0.8490999340000016
  0.6982713940000025  0.1631299260000034  0.6276822089999996
  0.9411286120000000  0.1345585580000019  0.7383911610000027
  0.1839859039999965  0.1059870719999978  0.8490999340000016
  0.7911288139999968  0.2845585940000035  0.5723278520000008
  0.0339859720000035  0.2559870779999969  0.6830367450000026
  0.2768432499999989  0.2274156659999989  0.7937456370000007
  0.0768431429999978  0.4274157290000034  0.5723278520000008
  0.3197003009999975  0.3988442420000027  0.6830367450000026
  0.5625573989999992  0.3702727559999985  0.7937456370000007
  0.3625572919999982  0.5702728629999996  0.5723278520000008
  0.6054145100000028  0.5417013759999989  0.6830367450000026
  0.8482717280000003  0.5131298900000019  0.7937456370000007
  0.6482715009999964  0.7131299970000029  0.5723278520000008
  0.8911287780000023  0.6845585109999988  0.6830367450000026
  0.1339860710000025  0.6559870840000031  0.7937456370000007
  0.9339858290000009  0.8559871320000028  0.5723278520000008
  0.1768431220000011  0.8274157049999999  0.6830367450000026
  0.4197002049999980  0.7988441589999979  0.7937456370000007
  0.2197001279999995  0.9988443259999968  0.5723278520000008
  0.4625573750000029  0.9702728990000011  0.6830368039999968
  0.7054146529999983  0.9417014120000005  0.7937456370000007
  0.5054144260000015  0.1417014600000002  0.5723278520000008
  0.7482715849999977  0.1131300930000023  0.6830368039999968
  0.9911289220000015  0.0845586060000016  0.7937456370000007
  0.3411287070000029  0.2345585819999982  0.6276821490000017
  0.5839859840000017  0.2059870960000012  0.7383911610000027
  0.8268432619999970  0.1774156090000005  0.8490999939999995
  0.6268428560000032  0.3774157169999981  0.6276821490000017
  0.8697001339999986  0.3488442299999974  0.7383911610000027
  0.1125574109999974  0.3202727740000029  0.8490999340000016
  0.9125571249999993  0.5202728510000014  0.6276821490000017
  0.1554145369999986  0.4917014239999986  0.7383911610000027
  0.3982717390000019  0.4631299380000016  0.8490999340000016
  0.1982713490000023  0.6631299849999976  0.6276821490000017
  0.4411286710000013  0.6345585580000019  0.7383911009999977
  0.6839858889999988  0.6059870119999999  0.8490999340000016
  0.4839857819999978  0.8059870599999996  0.6276821490000017
  0.7268431190000015  0.7774155740000026  0.7383911610000027
  0.9697003360000025  0.7488441469999998  0.8490999939999995
  0.7697001100000023  0.9488442540000008  0.6276821490000017
  0.0125573870000011  0.9202727679999967  0.7383911610000027
  0.2554146650000035  0.8917014000000023  0.8490999939999995
  0.0554143190000005  0.0917013879999971  0.6276821490000017
  0.2982715959999993  0.0631300209999992  0.7383911610000027
  0.5411288139999968  0.0345585350000022  0.8490999939999995
 
  0.00000000E+00  0.00000000E+00  0.00000000E+00
  0.00000000E+00  0.00000000E+00  0.00000000E+00
  0.00000000E+00  0.00000000E+00  0.00000000E+00
  0.00000000E+00  0.00000000E+00  0.00000000E+00
  0.00000000E+00  0.00000000E+00  0.00000000E+00
  0.00000000E+00  0.00000000E+00  0.00000000E+00
  0.00000000E+00  0.00000000E+00  0.00000000E+00
  0.00000000E+00  0.00000000E+00  0.00000000E+00
  0.00000000E+00  0.00000000E+00  0.00000000E+00
  0.00000000E+00  0.00000000E+00  0.00000000E+00
  0.00000000E+00  0.00000000E+00  0.00000000E+00
  0.00000000E+00  0.00000000E+00  0.00000000E+00
  0.00000000E+00  0.00000000E+00  0.00000000E+00
  0.00000000E+00  0.00000000E+00  0.00000000E+00
  0.00000000E+00  0.00000000E+00  0.00000000E+00
  0.00000000E+00  0.00000000E+00  0.00000000E+00
  0.00000000E+00  0.00000000E+00  0.00000000E+00
  0.00000000E+00  0.00000000E+00  0.00000000E+00
  0.00000000E+00  0.00000000E+00  0.00000000E+00
  0.00000000E+00  0.00000000E+00  0.00000000E+00
  0.00000000E+00  0.00000000E+00  0.00000000E+00
  0.00000000E+00  0.00000000E+00  0.00000000E+00
  0.00000000E+00  0.00000000E+00  0.00000000E+00
  0.00000000E+00  0.00000000E+00  0.00000000E+00
  0.00000000E+00  0.00000000E+00  0.00000000E+00
  0.00000000E+00  0.00000000E+00  0.00000000E+00
  0.00000000E+00  0.00000000E+00  0.00000000E+00
  0.00000000E+00  0.00000000E+00  0.00000000E+00
  0.00000000E+00  0.00000000E+00  0.00000000E+00
  0.00000000E+00  0.00000000E+00  0.00000000E+00
  0.00000000E+00  0.00000000E+00  0.00000000E+00
  0.00000000E+00  0.00000000E+00  0.00000000E+00
  0.00000000E+00  0.00000000E+00  0.00000000E+00
  0.00000000E+00  0.00000000E+00  0.00000000E+00
  0.00000000E+00  0.00000000E+00  0.00000000E+00
  0.00000000E+00  0.00000000E+00  0.00000000E+00
  0.00000000E+00  0.00000000E+00  0.00000000E+00
  0.00000000E+00  0.00000000E+00  0.00000000E+00
  0.00000000E+00  0.00000000E+00  0.00000000E+00
  0.00000000E+00  0.00000000E+00  0.00000000E+00
  0.00000000E+00  0.00000000E+00  0.00000000E+00
  0.00000000E+00  0.00000000E+00  0.00000000E+00
  0.00000000E+00  0.00000000E+00  0.00000000E+00
  0.00000000E+00  0.00000000E+00  0.00000000E+00
  0.00000000E+00  0.00000000E+00  0.00000000E+00
  0.00000000E+00  0.00000000E+00  0.00000000E+00
  0.00000000E+00  0.00000000E+00  0.00000000E+00
  0.00000000E+00  0.00000000E+00  0.00000000E+00
  0.00000000E+00  0.00000000E+00  0.00000000E+00
  0.00000000E+00  0.00000000E+00  0.00000000E+00
  0.00000000E+00  0.00000000E+00  0.00000000E+00
  0.00000000E+00  0.00000000E+00  0.00000000E+00
  0.00000000E+00  0.00000000E+00  0.00000000E+00
  0.00000000E+00  0.00000000E+00  0.00000000E+00
  0.00000000E+00  0.00000000E+00  0.00000000E+00
  0.00000000E+00  0.00000000E+00  0.00000000E+00
  0.00000000E+00  0.00000000E+00  0.00000000E+00
  0.00000000E+00  0.00000000E+00  0.00000000E+00
  0.00000000E+00  0.00000000E+00  0.00000000E+00
  0.00000000E+00  0.00000000E+00  0.00000000E+00
  0.00000000E+00  0.00000000E+00  0.00000000E+00
  0.00000000E+00  0.00000000E+00  0.00000000E+00
  0.00000000E+00  0.00000000E+00  0.00000000E+00
  0.00000000E+00  0.00000000E+00  0.00000000E+00
  0.00000000E+00  0.00000000E+00  0.00000000E+00
  0.00000000E+00  0.00000000E+00  0.00000000E+00
  0.00000000E+00  0.00000000E+00  0.00000000E+00
  0.00000000E+00  0.00000000E+00  0.00000000E+00
  0.00000000E+00  0.00000000E+00  0.00000000E+00
  0.00000000E+00  0.00000000E+00  0.00000000E+00
  0.00000000E+00  0.00000000E+00  0.00000000E+00
  0.00000000E+00  0.00000000E+00  0.00000000E+00
  0.00000000E+00  0.00000000E+00  0.00000000E+00
  0.00000000E+00  0.00000000E+00  0.00000000E+00
  0.00000000E+00  0.00000000E+00  0.00000000E+00
  0.00000000E+00  0.00000000E+00  0.00000000E+00
  0.00000000E+00  0.00000000E+00  0.00000000E+00
  0.00000000E+00  0.00000000E+00  0.00000000E+00
  0.00000000E+00  0.00000000E+00  0.00000000E+00
  0.00000000E+00  0.00000000E+00  0.00000000E+00
  0.00000000E+00  0.00000000E+00  0.00000000E+00
  0.00000000E+00  0.00000000E+00  0.00000000E+00
  0.00000000E+00  0.00000000E+00  0.00000000E+00
  0.00000000E+00  0.00000000E+00  0.00000000E+00
  0.00000000E+00  0.00000000E+00  0.00000000E+00
  0.00000000E+00  0.00000000E+00  0.00000000E+00
  0.00000000E+00  0.00000000E+00  0.00000000E+00
  0.00000000E+00  0.00000000E+00  0.00000000E+00
  0.00000000E+00  0.00000000E+00  0.00000000E+00
  0.00000000E+00  0.00000000E+00  0.00000000E+00
  0.00000000E+00  0.00000000E+00  0.00000000E+00
  0.00000000E+00  0.00000000E+00  0.00000000E+00
  0.00000000E+00  0.00000000E+00  0.00000000E+00
  0.00000000E+00  0.00000000E+00  0.00000000E+00
  0.00000000E+00  0.00000000E+00  0.00000000E+00
  0.00000000E+00  0.00000000E+00  0.00000000E+00
  0.00000000E+00  0.00000000E+00  0.00000000E+00
  0.00000000E+00  0.00000000E+00  0.00000000E+00
  0.00000000E+00  0.00000000E+00  0.00000000E+00
  0.00000000E+00  0.00000000E+00  0.00000000E+00
  0.00000000E+00  0.00000000E+00  0.00000000E+00
  0.00000000E+00  0.00000000E+00  0.00000000E+00
  0.00000000E+00  0.00000000E+00  0.00000000E+00
  0.00000000E+00  0.00000000E+00  0.00000000E+00
  0.00000000E+00  0.00000000E+00  0.00000000E+00
  0.00000000E+00  0.00000000E+00  0.00000000E+00
  0.00000000E+00  0.00000000E+00  0.00000000E+00
  0.00000000E+00  0.00000000E+00  0.00000000E+00
  0.00000000E+00  0.00000000E+00  0.00000000E+00
  0.00000000E+00  0.00000000E+00  0.00000000E+00
  0.00000000E+00  0.00000000E+00  0.00000000E+00
  0.00000000E+00  0.00000000E+00  0.00000000E+00
  0.00000000E+00  0.00000000E+00  0.00000000E+00
  0.00000000E+00  0.00000000E+00  0.00000000E+00
  0.00000000E+00  0.00000000E+00  0.00000000E+00
  0.00000000E+00  0.00000000E+00  0.00000000E+00
  0.00000000E+00  0.00000000E+00  0.00000000E+00
  0.00000000E+00  0.00000000E+00  0.00000000E+00
  0.00000000E+00  0.00000000E+00  0.00000000E+00
  0.00000000E+00  0.00000000E+00  0.00000000E+00
