Si+C
    1.000000000
   16.293001175    0.000000000    0.000000000
  -10.862000465   12.144085884    0.000000000
    0.000000000    0.000000000    7.204128742
Si  C  
36     84
Direct
    0.974358499    0.982905626    0.000000002
    0.674358428    0.782905579    0.168571234
    0.374358416    0.582905531    0.337142467
    0.307691783    0.982905626    0.000000002
    0.007691726    0.782905579    0.168571234
    0.707691669    0.582905531    0.337142467
    0.641025066    0.982905626    0.000000002
    0.341025025    0.782905579    0.168571234
    0.041024987    0.582905531    0.337142467
    0.157691970    0.632905602    0.084285453
    0.857691944    0.432905525    0.252856702
    0.557691932    0.232905507    0.421427935
    0.491025209    0.632905602    0.084285453
    0.191025153    0.432905525    0.252856702
    0.891025186    0.232905507    0.421427935
    0.824358463    0.632905602    0.084285453
    0.524358392    0.432905525    0.252856702
    0.224358499    0.232905507    0.421427935
    0.141025156    0.482905596    0.000000000
    0.841025114    0.282905489    0.168571234
    0.541025102    0.082905434    0.337142467
    0.474358439    0.482905596    0.000000000
    0.174358383    0.282905489    0.168571234
    0.874358356    0.082905434    0.337142467
    0.807691693    0.482905596    0.000000000
    0.507691681    0.282905489    0.168571234
    0.207691625    0.082905434    0.337142467
    0.991025209    0.132905662    0.084285460
    0.691025138    0.932905614    0.252856702
    0.391025186    0.732905567    0.421427935
    0.324358463    0.132905662    0.084285460
    0.024358414    0.932905614    0.252856702
    0.724358439    0.732905567    0.421427935
    0.657691658    0.132905662    0.084285460
    0.357691616    0.932905614    0.252856702
    0.057691652    0.732905567    0.421427935
    0.148271561    0.213129997    0.572327852
    0.391128778    0.184558511    0.683036745
    0.633985996    0.155987024    0.793745637
    0.433985829    0.355987132    0.572327852
    0.676843047    0.327415645    0.683036745
    0.919700265    0.298844188    0.793745637
    0.719700038    0.498844266    0.572327852
    0.962557316    0.470272779    0.683036745
    0.205414608    0.441701293    0.793745637
    0.005414486    0.641701460    0.572327852
    0.248271659    0.613129973    0.683036745
    0.491128981    0.584558487    0.793745637
    0.291128695    0.784558535    0.572327852
    0.533985913    0.755987108    0.683036745
    0.776843131    0.727415621    0.793745637
    0.576843023    0.927415729    0.572327852
    0.819700241    0.898844242    0.683036745
    0.062557459    0.870272756    0.793745637
    0.862557232    0.070272923    0.572327852
    0.105414510    0.041701317    0.683036745
    0.348271668    0.013129950    0.793745637
    0.983985722    0.305987149    0.627682209
    0.226843074    0.277415663    0.738391101
    0.469700277    0.248844162    0.849099934
    0.269699931    0.448844284    0.627682149
    0.512557209    0.420272827    0.738391161
    0.755414426    0.391701281    0.849099994
    0.555414319    0.591701448    0.627682149
    0.798271537    0.563129961    0.738391161
    0.041128874    0.534558475    0.849099994
    0.841128647    0.734558582    0.627682149
    0.083985925    0.705987096    0.738391161
    0.326843202    0.677415669    0.849099994
    0.126842812    0.877415717    0.627682149
    0.369700134    0.848844230    0.738391161
    0.612557232    0.820272744    0.849099994
    0.412557244    0.020272851    0.627682209
    0.655414522    0.991701305    0.738391161
    0.898271739    0.963129878    0.849099934
    0.698271394    0.163129926    0.627682209
    0.941128612    0.134558558    0.738391161
    0.183985904    0.105987072    0.849099934
    0.791128814    0.284558594    0.572327852
    0.033985972    0.255987078    0.683036745
    0.276843250    0.227415666    0.793745637
    0.076843143    0.427415729    0.572327852
    0.319700301    0.398844242    0.683036745
    0.562557399    0.370272756    0.793745637
    0.362557292    0.570272863    0.572327852
    0.605414510    0.541701376    0.683036745
    0.848271728    0.513129890    0.793745637
    0.648271501    0.713129997    0.572327852
    0.891128778    0.684558511    0.683036745
    0.133986071    0.655987084    0.793745637
    0.933985829    0.855987132    0.572327852
    0.176843122    0.827415705    0.683036745
    0.419700205    0.798844159    0.793745637
    0.219700128    0.998844326    0.572327852
    0.462557375    0.970272899    0.683036804
    0.705414653    0.941701412    0.793745637
    0.505414426    0.141701460    0.572327852
    0.748271585    0.113130093    0.683036804
    0.991128922    0.084558606    0.793745637
    0.341128707    0.234558582    0.627682149
    0.583985984    0.205987096    0.738391161
    0.826843262    0.177415609    0.849099994
    0.626842856    0.377415717    0.627682149
    0.869700134    0.348844230    0.738391161
    0.112557411    0.320272774    0.849099934
    0.912557125    0.520272851    0.627682149
    0.155414537    0.491701424    0.738391161
    0.398271739    0.463129938    0.849099934
    0.198271349    0.663129985    0.627682149
    0.441128671    0.634558558    0.738391101
    0.683985889    0.605987012    0.849099934
    0.483985782    0.805987060    0.627682149
    0.726843119    0.777415574    0.738391161
    0.969700336    0.748844147    0.849099994
    0.769700110    0.948844254    0.627682149
    0.012557387    0.920272768    0.738391161
    0.255414665    0.891701400    0.849099994
    0.055414319    0.091701388    0.627682149
    0.298271596    0.063130021    0.738391161
    0.541128814    0.034558535    0.849099994
