Si+Sn                                   
   1.00000000000000     
    10.8620004649999995    0.0000000000000000    0.0000000000000000
     0.0000000000000000   16.2930011750000006    0.0000000000000000
     0.0000000000000000    0.0000000000000000   22.8601474760000016
   Si   Sn
    72    72
Direct
  0.0000000000000000  0.9940677290000011  0.0000000000000000
  0.0000000000000000  0.8274010419999982  0.1187875119999973
  0.0000000000000000  0.6607342960000011  0.2375750389999993
  0.5000000000000000  0.9940677290000011  0.0000000000000000
  0.5000000000000000  0.8274010419999982  0.1187875119999973
  0.5000000000000000  0.6607342960000011  0.2375750389999993
  0.0000000000000000  0.3274010720000007  0.0000000000000000
  0.0000000000000000  0.1607343849999978  0.1187875119999973
  0.0000000000000000  0.9940676690000032  0.2375750389999993
  0.5000000000000000  0.3274010720000007  0.0000000000000000
  0.5000000000000000  0.1607343849999978  0.1187875119999973
  0.5000000000000000  0.9940676690000032  0.2375750389999993
  0.0000000000000000  0.6607344749999982  0.0000000000000000
  0.0000000000000000  0.4940677290000011  0.1187875119999973
  0.0000000000000000  0.3274010419999982  0.2375750389999993
  0.5000000000000000  0.6607344749999982  0.0000000000000000
  0.5000000000000000  0.4940677290000011  0.1187875119999973
  0.5000000000000000  0.3274010419999982  0.2375750389999993
  0.1250000000000000  0.0774010570000030  0.0593937599999990
  0.1250000000000000  0.9107343550000024  0.1781812910000014
  0.1250000000000000  0.7440676690000032  0.2969688180000034
  0.6250000000000000  0.0774010570000030  0.0593937599999990
  0.6250000000000000  0.9107343550000024  0.1781812910000014
  0.6250000000000000  0.7440676690000032  0.2969688180000034
  0.1250000000000000  0.4107343849999978  0.0593937599999990
  0.1250000000000000  0.2440676690000032  0.1781812910000014
  0.1250000000000000  0.0774009530000015  0.2969688180000034
  0.6250000000000000  0.4107343849999978  0.0593937599999990
  0.6250000000000000  0.2440676690000032  0.1781812910000014
  0.6250000000000000  0.0774009530000015  0.2969688180000034
  0.1250000000000000  0.7440677880000024  0.0593937599999990
  0.1250000000000000  0.5774010419999982  0.1781812910000014
  0.1250000000000000  0.4107343259999965  0.2969688180000034
  0.6250000000000000  0.7440677880000024  0.0593937599999990
  0.6250000000000000  0.5774010419999982  0.1781812910000014
  0.6250000000000000  0.4107343259999965  0.2969688180000034
  0.2500000000000000  0.1607343849999978  0.0000000000000000
  0.2500000000000000  0.9940676690000032  0.1187875119999973
  0.2500000000000000  0.8274009820000003  0.2375750389999993
  0.7500000599999979  0.1607343849999978  0.0000000000000000
  0.7500000599999979  0.9940676690000032  0.1187875119999973
  0.7500000599999979  0.8274009820000003  0.2375750389999993
  0.2500000000000000  0.4940677290000011  0.0000000000000000
  0.2500000000000000  0.3274010419999982  0.1187875119999973
  0.2500000000000000  0.1607343259999965  0.2375750389999993
  0.7500000599999979  0.4940677290000011  0.0000000000000000
  0.7500000599999979  0.3274010419999982  0.1187875119999973
  0.7500000599999979  0.1607343259999965  0.2375750389999993
  0.2500000000000000  0.8274011020000032  0.0000000000000000
  0.2500000000000000  0.6607344150000003  0.1187875119999973
  0.2500000000000000  0.4940677290000011  0.2375750389999993
  0.7500000599999979  0.8274011020000032  0.0000000000000000
  0.7500000599999979  0.6607344150000003  0.1187875119999973
  0.7500000599999979  0.4940677290000011  0.2375750389999993
  0.3750000300000025  0.2440677290000011  0.0593937599999990
  0.3750000300000025  0.0774010200000035  0.1781812910000014
  0.3750000300000025  0.9107342960000011  0.2969688180000034
  0.8750000599999979  0.2440677290000011  0.0593937599999990
  0.8750000599999979  0.0774010200000035  0.1781812910000014
  0.8750000599999979  0.9107342960000011  0.2969688180000034
  0.3750000300000025  0.5774011609999974  0.0593937599999990
  0.3750000300000025  0.4107344749999982  0.1781812910000014
  0.3750000300000025  0.2440677140000034  0.2969688180000034
  0.8750000599999979  0.5774011609999974  0.0593937599999990
  0.8750000599999979  0.4107344749999982  0.1781812910000014
  0.8750000599999979  0.2440677140000034  0.2969688180000034
  0.3750000300000025  0.9107343550000024  0.0593937599999990
  0.3750000300000025  0.7440676690000032  0.1781812910000014
  0.3750000300000025  0.5774009229999990  0.2969688180000034
  0.8750000599999979  0.9107343550000024  0.0593937599999990
  0.8750000599999979  0.7440676690000032  0.1781812910000014
  0.8750000599999979  0.5774009229999990  0.2969688180000034
  0.1296296269999999  0.3327943090000005  0.3975805640000019
  0.1296296120000022  0.5827944279999997  0.4979420900000022
  0.1296294930000030  0.8327945469999989  0.5983036160000026
  0.1296294930000030  0.0827946659999981  0.6986652020000008
  0.1296294930000030  0.3327947849999973  0.7990266680000033
  0.1296293739999967  0.5827949050000001  0.8993881939999966
  0.4629629849999972  0.6661276820000026  0.3975805640000019
  0.4629629249999994  0.9161276820000026  0.4979420900000022
  0.4629629249999994  0.1661279200000010  0.5983036160000026
  0.4629628659999980  0.4161280390000002  0.6986652020000008
  0.4629628659999980  0.6661281590000030  0.7990266680000033
  0.4629628060000002  0.9161282780000022  0.8993881939999966
  0.7962963579999993  0.9994610549999976  0.3975805640000019
  0.7962962989999980  0.2494610549999976  0.4979420900000022
  0.7962964179999972  0.4994612930000031  0.5983036160000026
  0.7962961200000009  0.7494612930000031  0.6986652020000008
  0.7962961790000023  0.9994614120000023  0.7990266680000033
  0.7962961790000023  0.2494616509999972  0.8993881939999966
  0.1296296570000024  0.8327943680000018  0.3975805640000019
  0.1296296120000022  0.0827944279999997  0.4979420900000022
  0.1296294930000030  0.3327945469999989  0.5983036160000026
  0.1296294930000030  0.5827946659999981  0.6986651420000030
  0.1296294930000030  0.8327947849999973  0.7990266680000033
  0.1296293739999967  0.0827949050000001  0.8993881939999966
  0.4629629849999972  0.1661276820000026  0.3975805640000019
  0.4629629849999972  0.4161278010000018  0.4979420900000022
  0.4629629849999972  0.6661280390000002  0.5983036160000026
  0.4629628659999980  0.9161280390000002  0.6986651420000030
  0.4629629249999994  0.1661281590000030  0.7990266680000033
  0.4629627469999988  0.4161283970000014  0.8993881939999966
  0.7962964179999972  0.4994609949999997  0.3975805640000019
  0.7962962390000001  0.7494610549999976  0.4979420900000022
  0.7962962989999980  0.9994612340000018  0.5983036160000026
  0.7962962390000001  0.2494612930000031  0.6986651420000030
  0.7962961200000009  0.4994614120000023  0.7990266680000033
  0.7962961790000023  0.7494615319999980  0.8993881339999987
  0.2129629550000018  0.6661276820000026  0.3975805640000019
  0.2129628659999980  0.9161276820000026  0.4979420900000022
  0.2129629249999994  0.1661279200000010  0.5983036160000026
  0.2129627469999988  0.4161279200000010  0.6986652020000008
  0.2129627469999988  0.6661280390000002  0.7990266680000033
  0.2129627619999965  0.9161281590000030  0.8993881339999987
  0.5462963579999993  0.9994609949999997  0.3975805640000019
  0.5462962390000001  0.2494610549999976  0.4979420900000022
  0.5462962989999980  0.4994612930000031  0.5983036160000026
  0.5462962390000001  0.7494614120000023  0.6986651420000030
  0.5462959999999981  0.9994614120000023  0.7990266680000033
  0.5462961200000009  0.2494615319999980  0.8993881339999987
  0.8796296120000022  0.3327943680000018  0.3975805640000019
  0.8796296120000022  0.5827944279999997  0.4979420900000022
  0.8796295519999973  0.8327945469999989  0.5983036160000026
  0.8796294329999981  0.0827946659999981  0.6986651420000030
  0.8796294329999981  0.3327947849999973  0.7990266680000033
  0.8796294329999981  0.5827949050000001  0.8993881339999987
  0.2129629550000018  0.1661276820000026  0.3975805640000019
  0.2129628960000005  0.4161278010000018  0.4979421199999976
  0.2129628510000003  0.6661279200000010  0.5983036160000026
  0.2129628659999980  0.9161282780000022  0.6986652020000008
  0.2129627619999965  0.1661281590000030  0.7990267280000012
  0.2129627019999987  0.4161283970000014  0.8993881339999987
  0.5462963579999993  0.4994609949999997  0.3975805640000019
  0.5462962989999980  0.7494610549999976  0.4979420900000022
  0.5462961790000023  0.9994612340000018  0.5983036160000026
  0.5462961790000023  0.2494614120000023  0.6986652020000008
  0.5462961790000023  0.4994614120000023  0.7990266680000033
  0.5462960600000031  0.7494615319999980  0.8993881339999987
  0.8796296120000022  0.8327943090000005  0.3975805640000019
  0.8796295519999973  0.0827944279999997  0.4979420900000022
  0.8796296120000022  0.3327945469999989  0.5983036160000026
  0.8796294930000030  0.5827946659999981  0.6986652020000008
  0.8796294329999981  0.8327946659999981  0.7990266680000033
  0.8796293739999967  0.0827949050000001  0.8993881339999987
 
  0.00000000E+00  0.00000000E+00  0.00000000E+00
  0.00000000E+00  0.00000000E+00  0.00000000E+00
  0.00000000E+00  0.00000000E+00  0.00000000E+00
  0.00000000E+00  0.00000000E+00  0.00000000E+00
  0.00000000E+00  0.00000000E+00  0.00000000E+00
  0.00000000E+00  0.00000000E+00  0.00000000E+00
  0.00000000E+00  0.00000000E+00  0.00000000E+00
  0.00000000E+00  0.00000000E+00  0.00000000E+00
  0.00000000E+00  0.00000000E+00  0.00000000E+00
  0.00000000E+00  0.00000000E+00  0.00000000E+00
  0.00000000E+00  0.00000000E+00  0.00000000E+00
  0.00000000E+00  0.00000000E+00  0.00000000E+00
  0.00000000E+00  0.00000000E+00  0.00000000E+00
  0.00000000E+00  0.00000000E+00  0.00000000E+00
  0.00000000E+00  0.00000000E+00  0.00000000E+00
  0.00000000E+00  0.00000000E+00  0.00000000E+00
  0.00000000E+00  0.00000000E+00  0.00000000E+00
  0.00000000E+00  0.00000000E+00  0.00000000E+00
  0.00000000E+00  0.00000000E+00  0.00000000E+00
  0.00000000E+00  0.00000000E+00  0.00000000E+00
  0.00000000E+00  0.00000000E+00  0.00000000E+00
  0.00000000E+00  0.00000000E+00  0.00000000E+00
  0.00000000E+00  0.00000000E+00  0.00000000E+00
  0.00000000E+00  0.00000000E+00  0.00000000E+00
  0.00000000E+00  0.00000000E+00  0.00000000E+00
  0.00000000E+00  0.00000000E+00  0.00000000E+00
  0.00000000E+00  0.00000000E+00  0.00000000E+00
  0.00000000E+00  0.00000000E+00  0.00000000E+00
  0.00000000E+00  0.00000000E+00  0.00000000E+00
  0.00000000E+00  0.00000000E+00  0.00000000E+00
  0.00000000E+00  0.00000000E+00  0.00000000E+00
  0.00000000E+00  0.00000000E+00  0.00000000E+00
  0.00000000E+00  0.00000000E+00  0.00000000E+00
  0.00000000E+00  0.00000000E+00  0.00000000E+00
  0.00000000E+00  0.00000000E+00  0.00000000E+00
  0.00000000E+00  0.00000000E+00  0.00000000E+00
  0.00000000E+00  0.00000000E+00  0.00000000E+00
  0.00000000E+00  0.00000000E+00  0.00000000E+00
  0.00000000E+00  0.00000000E+00  0.00000000E+00
  0.00000000E+00  0.00000000E+00  0.00000000E+00
  0.00000000E+00  0.00000000E+00  0.00000000E+00
  0.00000000E+00  0.00000000E+00  0.00000000E+00
  0.00000000E+00  0.00000000E+00  0.00000000E+00
  0.00000000E+00  0.00000000E+00  0.00000000E+00
  0.00000000E+00  0.00000000E+00  0.00000000E+00
  0.00000000E+00  0.00000000E+00  0.00000000E+00
  0.00000000E+00  0.00000000E+00  0.00000000E+00
  0.00000000E+00  0.00000000E+00  0.00000000E+00
  0.00000000E+00  0.00000000E+00  0.00000000E+00
  0.00000000E+00  0.00000000E+00  0.00000000E+00
  0.00000000E+00  0.00000000E+00  0.00000000E+00
  0.00000000E+00  0.00000000E+00  0.00000000E+00
  0.00000000E+00  0.00000000E+00  0.00000000E+00
  0.00000000E+00  0.00000000E+00  0.00000000E+00
  0.00000000E+00  0.00000000E+00  0.00000000E+00
  0.00000000E+00  0.00000000E+00  0.00000000E+00
  0.00000000E+00  0.00000000E+00  0.00000000E+00
  0.00000000E+00  0.00000000E+00  0.00000000E+00
  0.00000000E+00  0.00000000E+00  0.00000000E+00
  0.00000000E+00  0.00000000E+00  0.00000000E+00
  0.00000000E+00  0.00000000E+00  0.00000000E+00
  0.00000000E+00  0.00000000E+00  0.00000000E+00
  0.00000000E+00  0.00000000E+00  0.00000000E+00
  0.00000000E+00  0.00000000E+00  0.00000000E+00
  0.00000000E+00  0.00000000E+00  0.00000000E+00
  0.00000000E+00  0.00000000E+00  0.00000000E+00
  0.00000000E+00  0.00000000E+00  0.00000000E+00
  0.00000000E+00  0.00000000E+00  0.00000000E+00
  0.00000000E+00  0.00000000E+00  0.00000000E+00
  0.00000000E+00  0.00000000E+00  0.00000000E+00
  0.00000000E+00  0.00000000E+00  0.00000000E+00
  0.00000000E+00  0.00000000E+00  0.00000000E+00
  0.00000000E+00  0.00000000E+00  0.00000000E+00
  0.00000000E+00  0.00000000E+00  0.00000000E+00
  0.00000000E+00  0.00000000E+00  0.00000000E+00
  0.00000000E+00  0.00000000E+00  0.00000000E+00
  0.00000000E+00  0.00000000E+00  0.00000000E+00
  0.00000000E+00  0.00000000E+00  0.00000000E+00
  0.00000000E+00  0.00000000E+00  0.00000000E+00
  0.00000000E+00  0.00000000E+00  0.00000000E+00
  0.00000000E+00  0.00000000E+00  0.00000000E+00
  0.00000000E+00  0.00000000E+00  0.00000000E+00
  0.00000000E+00  0.00000000E+00  0.00000000E+00
  0.00000000E+00  0.00000000E+00  0.00000000E+00
  0.00000000E+00  0.00000000E+00  0.00000000E+00
  0.00000000E+00  0.00000000E+00  0.00000000E+00
  0.00000000E+00  0.00000000E+00  0.00000000E+00
  0.00000000E+00  0.00000000E+00  0.00000000E+00
  0.00000000E+00  0.00000000E+00  0.00000000E+00
  0.00000000E+00  0.00000000E+00  0.00000000E+00
  0.00000000E+00  0.00000000E+00  0.00000000E+00
  0.00000000E+00  0.00000000E+00  0.00000000E+00
  0.00000000E+00  0.00000000E+00  0.00000000E+00
  0.00000000E+00  0.00000000E+00  0.00000000E+00
  0.00000000E+00  0.00000000E+00  0.00000000E+00
  0.00000000E+00  0.00000000E+00  0.00000000E+00
  0.00000000E+00  0.00000000E+00  0.00000000E+00
  0.00000000E+00  0.00000000E+00  0.00000000E+00
  0.00000000E+00  0.00000000E+00  0.00000000E+00
  0.00000000E+00  0.00000000E+00  0.00000000E+00
  0.00000000E+00  0.00000000E+00  0.00000000E+00
  0.00000000E+00  0.00000000E+00  0.00000000E+00
  0.00000000E+00  0.00000000E+00  0.00000000E+00
  0.00000000E+00  0.00000000E+00  0.00000000E+00
  0.00000000E+00  0.00000000E+00  0.00000000E+00
  0.00000000E+00  0.00000000E+00  0.00000000E+00
  0.00000000E+00  0.00000000E+00  0.00000000E+00
  0.00000000E+00  0.00000000E+00  0.00000000E+00
  0.00000000E+00  0.00000000E+00  0.00000000E+00
  0.00000000E+00  0.00000000E+00  0.00000000E+00
  0.00000000E+00  0.00000000E+00  0.00000000E+00
  0.00000000E+00  0.00000000E+00  0.00000000E+00
  0.00000000E+00  0.00000000E+00  0.00000000E+00
  0.00000000E+00  0.00000000E+00  0.00000000E+00
  0.00000000E+00  0.00000000E+00  0.00000000E+00
  0.00000000E+00  0.00000000E+00  0.00000000E+00
  0.00000000E+00  0.00000000E+00  0.00000000E+00
  0.00000000E+00  0.00000000E+00  0.00000000E+00
  0.00000000E+00  0.00000000E+00  0.00000000E+00
  0.00000000E+00  0.00000000E+00  0.00000000E+00
  0.00000000E+00  0.00000000E+00  0.00000000E+00
  0.00000000E+00  0.00000000E+00  0.00000000E+00
  0.00000000E+00  0.00000000E+00  0.00000000E+00
  0.00000000E+00  0.00000000E+00  0.00000000E+00
  0.00000000E+00  0.00000000E+00  0.00000000E+00
  0.00000000E+00  0.00000000E+00  0.00000000E+00
  0.00000000E+00  0.00000000E+00  0.00000000E+00
  0.00000000E+00  0.00000000E+00  0.00000000E+00
  0.00000000E+00  0.00000000E+00  0.00000000E+00
  0.00000000E+00  0.00000000E+00  0.00000000E+00
  0.00000000E+00  0.00000000E+00  0.00000000E+00
  0.00000000E+00  0.00000000E+00  0.00000000E+00
  0.00000000E+00  0.00000000E+00  0.00000000E+00
  0.00000000E+00  0.00000000E+00  0.00000000E+00
  0.00000000E+00  0.00000000E+00  0.00000000E+00
  0.00000000E+00  0.00000000E+00  0.00000000E+00
  0.00000000E+00  0.00000000E+00  0.00000000E+00
  0.00000000E+00  0.00000000E+00  0.00000000E+00
  0.00000000E+00  0.00000000E+00  0.00000000E+00
  0.00000000E+00  0.00000000E+00  0.00000000E+00
  0.00000000E+00  0.00000000E+00  0.00000000E+00
  0.00000000E+00  0.00000000E+00  0.00000000E+00
  0.00000000E+00  0.00000000E+00  0.00000000E+00
  0.00000000E+00  0.00000000E+00  0.00000000E+00
