Si+Si
    1.000000000
   12.144085884    0.000000000    0.000000000
   -9.715268135    7.286451340    0.000000000
    0.000000000    0.000000000    9.051669121
Si 
48
Direct
    0.345197916    0.672598958    0.000000000
    0.678531289    0.839265704    0.299999923
    0.011864662    0.005932450    0.599999845
    0.011864574    0.005932289    0.000000000
    0.345197946    0.172599033    0.299999923
    0.678531349    0.339265794    0.599999845
    0.678531349    0.339265674    0.000000000
    0.011864662    0.505932391    0.299999923
    0.345198035    0.672599137    0.599999845
    0.095197797    0.922598958    0.149999961
    0.428531289    0.089265704    0.449999988
    0.761864781    0.255932570    0.749999821
    0.428531289    0.589265704    0.149999961
    0.761864662    0.755932450    0.449999988
    0.095198154    0.922599256    0.749999821
    0.761864603    0.255932301    0.149999961
    0.095198035    0.422599077    0.449999988
    0.428531528    0.589265883    0.749999821
    0.178531215    0.839265585    0.000000000
    0.511864603    0.005932331    0.299999923
    0.845197976    0.172598958    0.599999845
    0.511864603    0.505932271    0.000000000
    0.845197976    0.672599077    0.299999923
    0.178531408    0.839265823    0.599999845
    0.845197976    0.172598988    0.000000000
    0.178531289    0.339265734    0.299999923
    0.511864662    0.505932450    0.599999845
    0.261864603    0.755932331    0.149999961
    0.595197976    0.922599077    0.449999988
    0.928531468    0.089265943    0.749999821
    0.595197976    0.422598988    0.149999961
    0.928531408    0.589265764    0.449999988
    0.261864901    0.755932570    0.749999821
    0.928531349    0.089265682    0.149999961
    0.261864662    0.255932391    0.449999988
    0.595198154    0.422599226    0.749999821
    0.989384770    0.962846637    0.749999821
    0.878273547    0.573957622    0.849999845
    0.767162383    0.185068607    0.949999988
    0.489384741    0.462846637    0.749999821
    0.378273547    0.073957600    0.849999845
    0.267162323    0.685068607    0.949999988
    0.683829129    0.768402100    0.799999893
    0.572717965    0.379513085    0.899999917
    0.461606741    0.990624070    0.999999940
    0.183829144    0.268402100    0.799999893
    0.072717965    0.879513085    0.899999917
    0.961606801    0.490624070    0.999999940
