Si+C
    1.000000000
   13.303179741    0.000000000    0.000000000
    6.651589394   14.873406410    0.000000000
    0.000000000    0.000000000    7.994752407
Si  C  
36     84
Direct
    0.283249497    0.641624749    0.000000047
    0.816582799    0.408291280    0.151900828
    0.349915981    0.174957767    0.303801656
    0.616582751    0.308291376    0.000000057
    0.149916053    0.074957930    0.151900828
    0.683249235    0.841624439    0.303801626
    0.949916124    0.974958062    0.000000040
    0.483249485    0.741624594    0.151900828
    0.016582668    0.508291125    0.303801626
    0.799916267    0.774958014    0.075950287
    0.333249509    0.541624546    0.227851093
    0.866582751    0.308291078    0.379751951
    0.133249685    0.441624761    0.075950302
    0.666582942    0.208291277    0.227851093
    0.199916244    0.974957764    0.379751951
    0.466582894    0.108291537    0.075950302
    0.999916136    0.874958038    0.227851093
    0.533249378    0.641624570    0.379751951
    0.783249557    0.641624749    0.000000000
    0.316582829    0.408291280    0.151900813
    0.849916041    0.174957782    0.303801656
    0.116582796    0.308291405    0.000000057
    0.649916053    0.074957952    0.151900858
    0.183249295    0.841624498    0.303801656
    0.449916124    0.974958062    0.000000057
    0.983249426    0.741624594    0.151900858
    0.516582668    0.508291125    0.303801656
    0.299916178    0.774958134    0.075950302
    0.833249450    0.541624665    0.227851152
    0.366582692    0.308291197    0.379751921
    0.633249402    0.441624731    0.075950317
    0.166582644    0.208291262    0.227851152
    0.699915946    0.974957824    0.379751891
    0.966582716    0.108291551    0.075950302
    0.499915957    0.874958038    0.227851152
    0.033249259    0.641624629    0.379751951
    0.991581619    0.932049751    0.764696479
    0.334438741    0.960621417    0.565175295
    0.663010180    0.946335614    0.664935887
    0.277295828    0.789192677    0.764696479
    0.620153010    0.817764282    0.565175295
    0.948724449    0.803478479    0.664935887
    0.563010097    0.646335542    0.764696479
    0.905867219    0.674907148    0.565175295
    0.234438673    0.660621345    0.664935887
    0.848724484    0.503478408    0.764696479
    0.191581592    0.532050014    0.565175235
    0.520153046    0.517764211    0.664935887
    0.134438768    0.360621244    0.764696479
    0.477295816    0.389192849    0.565175235
    0.805867255    0.374907076    0.664935887
    0.420153022    0.217764124    0.764696479
    0.763010085    0.246335730    0.565175235
    0.091581598    0.232049957    0.664935887
    0.705867410    0.074907064    0.764696538
    0.048724458    0.103478551    0.565175235
    0.377295911    0.089192867    0.664935887
    0.441581488    0.032049775    0.814576685
    0.784438610    0.060621381    0.615055501
    0.113010064    0.046335459    0.714816153
    0.727295756    0.889192641    0.814576685
    0.070152894    0.917764246    0.615055501
    0.398724318    0.903478384    0.714816153
    0.013010025    0.746335506    0.814576805
    0.355867207    0.774907112    0.615055442
    0.684438646    0.760621309    0.714816093
    0.298724413    0.603478432    0.814576685
    0.641581535    0.632049978    0.615055442
    0.970152915    0.617764235    0.714816153
    0.584438801    0.460621327    0.814576805
    0.927295864    0.489192903    0.615055442
    0.255867243    0.474907130    0.714816093
    0.870152950    0.317764133    0.814576805
    0.213010132    0.346335709    0.615055501
    0.541581571    0.332049906    0.714816153
    0.155867353    0.174906999    0.814576685
    0.498724461    0.203478590    0.615055501
    0.827295840    0.189192802    0.714816093
    0.491581559    0.932049811    0.764696479
    0.834438682    0.960621297    0.565175235
    0.163010016    0.946335614    0.664935946
    0.777296007    0.789192677    0.764696538
    0.120153055    0.817764282    0.565175235
    0.448724508    0.803478479    0.664935887
    0.063010350    0.646335542    0.764696538
    0.405867338    0.674907148    0.565175235
    0.734438777    0.660621345    0.664935887
    0.348724484    0.503478408    0.764696538
    0.691581547    0.532050014    0.565175235
    0.020152941    0.517764211    0.664935887
    0.634438634    0.360621363    0.764696538
    0.977295816    0.389192879    0.565175235
    0.305867314    0.374907076    0.664935887
    0.920153081    0.217764139    0.764696538
    0.263010144    0.246335700    0.565175295
    0.591581643    0.232049912    0.664935887
    0.205867305    0.074907064    0.764696538
    0.548724353    0.103478670    0.565175295
    0.877295852    0.089192867    0.664935887
    0.941581547    0.032049894    0.814576685
    0.284438670    0.060621500    0.615055501
    0.613010049    0.046335578    0.714816093
    0.227295890    0.889192700    0.814576685
    0.570152998    0.917764306    0.615055501
    0.898724377    0.903478444    0.714816093
    0.513010144    0.746335506    0.814576685
    0.855867326    0.774907112    0.615055501
    0.184438840    0.760621250    0.714816093
    0.798724294    0.603478432    0.814576626
    0.141581550    0.632049918    0.615055442
    0.470152974    0.617764175    0.714816093
    0.084438816    0.460621268    0.814576685
    0.427295983    0.489192843    0.615055442
    0.755867362    0.474907070    0.714816093
    0.370152831    0.317764103    0.814576685
    0.713010013    0.346335709    0.615055442
    0.041581407    0.332049906    0.714816093
    0.655867219    0.174907058    0.814576685
    0.998724461    0.203478575    0.615055501
    0.327295780    0.189192802    0.714816153
