C+Si
    1.000000000
   13.345744133    0.000000000    0.000000000
    6.672872066   11.557753563    0.000000000
    0.000000000    0.000000471   17.351547241
C   Si 
308     72
Direct
    0.042587280    0.760646462    0.593403459
    0.994968414    0.998742104    0.000000054
    0.804492176    0.951122999    0.118680738
    0.614015937    0.903503835    0.237361416
    0.423539698    0.855884671    0.356042117
    0.233063519    0.808265567    0.474722773
    0.185444415    0.046360724    0.593403459
    0.137825578    0.284456402    0.000000050
    0.947349310    0.236837253    0.118680753
    0.756873131    0.189218119    0.237361401
    0.566396832    0.141598985    0.356042117
    0.375920653    0.093979850    0.474722803
    0.328301549    0.332075000    0.593403459
    0.280682713    0.570170701    0.000000055
    0.090206459    0.522551537    0.118680753
    0.899730265    0.474932402    0.237361416
    0.709253907    0.427313268    0.356042117
    0.518777788    0.379694134    0.474722773
    0.614015818    0.903503597    0.593403459
    0.566396952    0.141599253    0.000000055
    0.375920743    0.093980111    0.118680730
    0.185444534    0.046360992    0.237361401
    0.994968235    0.998741806    0.356042117
    0.804492056    0.951122701    0.474722773
    0.471158624    0.617789209    0.593403459
    0.423539817    0.855884910    0.000000029
    0.233063608    0.808265805    0.118680730
    0.042587370    0.760646582    0.237361401
    0.852111220    0.713027477    0.356041998
    0.661634922    0.665408373    0.474722803
    0.756872952    0.189217836    0.593403459
    0.709254086    0.427313507    0.000000071
    0.518777907    0.379694372    0.118680730
    0.328301668    0.332075238    0.237361401
    0.137825489    0.284456104    0.356042027
    0.947349191    0.236836955    0.474722803
    0.899730027    0.474932104    0.593403459
    0.852111220    0.713027775    0.000000024
    0.661634982    0.665408671    0.118680738
    0.471158743    0.617789507    0.237361401
    0.280682445    0.570170403    0.356042117
    0.090206265    0.522551298    0.474722773
    0.090206519    0.522551596    0.029670207
    0.899730265    0.474932492    0.148350894
    0.709254026    0.427313358    0.267031580
    0.518777788    0.379694223    0.385712296
    0.328301430    0.332075030    0.504392982
    0.375920773    0.093980208    0.029670207
    0.185444549    0.046361066    0.148350894
    0.994968355    0.998741925    0.267031550
    0.804492056    0.951122820    0.385712266
    0.614015698    0.903503656    0.504392982
    0.233063638    0.808265924    0.029670224
    0.042587414    0.760646760    0.148350880
    0.852111220    0.713027596    0.267031580
    0.661634922    0.665408492    0.385712266
    0.471158624    0.617789328    0.504392982
    0.518777907    0.379694462    0.029670199
    0.328301698    0.332075357    0.148350894
    0.137825474    0.284456223    0.267031580
    0.947349191    0.236837074    0.385712266
    0.756872892    0.189217895    0.504392982
    0.661635041    0.665408731    0.029670216
    0.471158832    0.617789567    0.148350924
    0.280682594    0.570170462    0.267031580
    0.090206325    0.522551358    0.385712266
    0.899730027    0.474932194    0.504393041
    0.947349370    0.236837298    0.029670229
    0.756873131    0.189218178    0.148350894
    0.566396952    0.141599044    0.267031580
    0.375920653    0.093979895    0.385712296
    0.185444355    0.046360735    0.504392982
    0.804492176    0.951122999    0.029670212
    0.614015937    0.903503835    0.148350894
    0.423539668    0.855884731    0.267031610
    0.233063459    0.808265626    0.385712266
    0.042587217    0.760646462    0.504392982
    0.114015818    0.903503537    0.593403518
    0.066396996    0.141599238    0.000000058
    0.875920773    0.093980089    0.118680738
    0.685444534    0.046360970    0.237361401
    0.494968235    0.998741806    0.356042117
    0.304492056    0.951122701    0.474722803
    0.256872952    0.189217865    0.593403459
    0.209254131    0.427313536    0.000000058
    0.018777892    0.379694432    0.118680753
    0.828301668    0.332075268    0.237361401
    0.637825370    0.284456134    0.356042117
    0.447349191    0.236837029    0.474722773
    0.542587221    0.760646462    0.593403459
    0.494968385    0.998742104    0.000000074
    0.304492146    0.951122999    0.118680738
    0.114015944    0.903503835    0.237361416
    0.923539639    0.855884671    0.356042147
    0.733063459    0.808265567    0.474722773
    0.399730027    0.474932104    0.593403518
    0.352111220    0.713027775    0.000000068
    0.161635011    0.665408671    0.118680753
    0.971158743    0.617789567    0.237361416
    0.780682564    0.570170403    0.356042027
    0.590206265    0.522551239    0.474722803
    0.685444355    0.046360683    0.593403459
    0.637825549    0.284456372    0.000000037
    0.447349370    0.236837238    0.118680723
    0.256873101    0.189218104    0.237361401
    0.066396952    0.141598985    0.356041998
    0.875920653    0.093979828    0.474722773
    0.828301549    0.332075000    0.593403339
    0.780682743    0.570170701    0.000000000
    0.590206504    0.522551537    0.118680723
    0.399730265    0.474932402    0.237361386
    0.209253982    0.427313238    0.356042117
    0.018777804    0.379694134    0.474722773
    0.971158743    0.617789209    0.593403459
    0.923539877    0.855884969    0.000000037
    0.733063638    0.808265746    0.118680723
    0.542587459    0.760646641    0.237361401
    0.352111131    0.713027537    0.356042117
    0.161634952    0.665408432    0.474722773
    0.018777953    0.379694432    0.029670198
    0.828301668    0.332075328    0.148350894
    0.637825489    0.284456164    0.267031580
    0.447349250    0.236837044    0.385712266
    0.256873012    0.189217895    0.504392922
    0.161635101    0.665408731    0.029670188
    0.971158803    0.617789567    0.148350880
    0.780682623    0.570170462    0.267031550
    0.590206385    0.522551298    0.385712177
    0.399730146    0.474932194    0.504392922
    0.447349340    0.236837283    0.029670183
    0.256873101    0.189218163    0.148350894
    0.066396870    0.141599059    0.267031550
    0.875920653    0.093979932    0.385712266
    0.685444474    0.046360780    0.504392922
    0.304492205    0.951123059    0.029670227
    0.114015959    0.903503895    0.148350894
    0.923539758    0.855884790    0.267031550
    0.733063519    0.808265626    0.385712266
    0.542587280    0.760646522    0.504392982
    0.590206444    0.522551656    0.029670227
    0.399730235    0.474932522    0.148350894
    0.209254012    0.427313417    0.267031550
    0.018777769    0.379694253    0.385712266
    0.828301549    0.332075119    0.504392982
    0.875920832    0.093980193    0.029670149
    0.685444593    0.046361092    0.148350880
    0.494968385    0.998741925    0.267031580
    0.304492146    0.951122820    0.385712177
    0.114015877    0.903503656    0.504392922
    0.733063638    0.808265805    0.029670177
    0.542587399    0.760646701    0.148350865
    0.352111131    0.713027596    0.267031550
    0.161634907    0.665408432    0.385712177
    0.971158683    0.617789328    0.504392982
    0.114015818    0.403503537    0.593403459
    0.066396996    0.641599238    0.000000058
    0.875920773    0.593980074    0.118680730
    0.685444593    0.546360970    0.237361401
    0.494968235    0.498741835    0.356042117
    0.304492116    0.451122731    0.474722773
    0.399730086    0.974932134    0.593403459
    0.352111250    0.213027805    0.000000074
    0.161635026    0.165408671    0.118680738
    0.971158803    0.117789537    0.237361416
    0.780682504    0.070170380    0.356042147
    0.590206385    0.022551261    0.474722773
    0.256872952    0.689217806    0.593403459
    0.209254161    0.927313507    0.000000037
    0.018777944    0.879694343    0.118680701
    0.828301668    0.832075238    0.237361401
    0.637825489    0.784456074    0.356041998
    0.447349191    0.736836910    0.474722773
    0.542587161    0.260646343    0.593403459
    0.494968385    0.498742044    0.000000048
    0.304492146    0.451122910    0.118680708
    0.114015907    0.403503776    0.237361401
    0.923539758    0.355884671    0.356041998
    0.733063459    0.308265477    0.474722803
    0.828301430    0.832075000    0.593403459
    0.780682623    0.070170648    0.000000048
    0.590206444    0.022551522    0.118680708
    0.399730206    0.974932373    0.237361416
    0.209254012    0.927313268    0.356041998
    0.018777698    0.879694104    0.474722803
    0.685444415    0.546360731    0.593403339
    0.637825608    0.784456432    0.000000042
    0.447349340    0.736837268    0.118680723
    0.256873131    0.689218163    0.237361386
    0.066396832    0.641599000    0.356042117
    0.875920653    0.593979895    0.474722773
    0.971158683    0.117789298    0.593403459
    0.923539877    0.355884969    0.000000073
    0.733063579    0.308265835    0.118680753
    0.542587399    0.260646671    0.237361461
    0.352111071    0.213027552    0.356042147
    0.161634907    0.165408418    0.474722803
    0.161635071    0.165408760    0.029670198
    0.971158803    0.117789626    0.148350894
    0.780682623    0.070170492    0.267031550
    0.590206385    0.022551373    0.385712177
    0.399730146    0.974932253    0.504392922
    0.018777946    0.879694462    0.029670188
    0.828301668    0.832075298    0.148350894
    0.637825489    0.784456193    0.267031580
    0.447349250    0.736837029    0.385712266
    0.256873012    0.689217925    0.504392922
    0.304492235    0.451123029    0.029670188
    0.114015974    0.403503925    0.148350894
    0.923539758    0.355884790    0.267031580
    0.733063579    0.308265656    0.385712266
    0.542587280    0.260646522    0.504392922
    0.590206504    0.022551641    0.029670205
    0.399730206    0.974932492    0.148350894
    0.209254041    0.927313328    0.267031550
    0.018777780    0.879694223    0.385712266
    0.828301549    0.832075119    0.504392922
    0.447349340    0.736837327    0.029670183
    0.256873101    0.689218223    0.148350894
    0.066396877    0.641599059    0.267031550
    0.875920653    0.593979895    0.385712177
    0.685444355    0.546360791    0.504392982
    0.733063638    0.308265895    0.029670183
    0.542587340    0.260646790    0.148350894
    0.352111191    0.213027656    0.267031550
    0.161634922    0.165408537    0.385712177
    0.971158683    0.117789388    0.504392982
    0.875920653    0.593980193    0.029670212
    0.685444415    0.546361089    0.148350894
    0.494968206    0.498741925    0.267031610
    0.304491967    0.451122791    0.385712266
    0.114015721    0.403503686    0.504392922
    0.042587280    0.260646403    0.593403518
    0.994968414    0.498742074    0.000000048
    0.804492176    0.451122910    0.118680738
    0.614015996    0.403503805    0.237361401
    0.423539698    0.355884641    0.356042147
    0.233063519    0.308265537    0.474722773
    0.328301549    0.832075000    0.593403459
    0.280682713    0.070170686    0.000000050
    0.090206467    0.022551546    0.118680738
    0.899730265    0.974932432    0.237361401
    0.709253967    0.927313268    0.356042117
    0.518777728    0.879694164    0.474722773
    0.185444355    0.546360612    0.593403459
    0.137825549    0.784456313    0.000000050
    0.947349310    0.736837208    0.118680708
    0.756873071    0.689218044    0.237361401
    0.566396952    0.641598880    0.356042027
    0.375920594    0.593979776    0.474722803
    0.471158624    0.117789231    0.593403459
    0.423539847    0.355884910    0.000000035
    0.233063623    0.308265805    0.118680701
    0.042587381    0.260646641    0.237361386
    0.852111220    0.213027537    0.356041998
    0.661634922    0.165408358    0.474722773
    0.614015818    0.403503567    0.593403339
    0.566397011    0.641599238    0.000000039
    0.375920743    0.593980134    0.118680723
    0.185444549    0.546360970    0.237361386
    0.994968235    0.498741835    0.356042117
    0.804492056    0.451122701    0.474722773
    0.899730027    0.974932134    0.593403459
    0.852111220    0.213027805    0.000000029
    0.661634982    0.165408671    0.118680708
    0.471158803    0.117789552    0.237361401
    0.280682445    0.070170395    0.356042117
    0.090206288    0.022551289    0.474722803
    0.756872892    0.689217806    0.593403518
    0.709254086    0.927313507    0.000000066
    0.518777847    0.879694402    0.118680738
    0.328301609    0.832075179    0.237361446
    0.137825325    0.784456074    0.356042147
    0.947349131    0.736836970    0.474722773
    0.090206526    0.022551643    0.029670229
    0.899730325    0.974932492    0.148350894
    0.709254086    0.927313387    0.267031580
    0.518777847    0.879694223    0.385712266
    0.328301489    0.832075059    0.504393041
    0.233063683    0.308265865    0.029670207
    0.042587440    0.260646760    0.148350909
    0.852111220    0.213027641    0.267031610
    0.661634922    0.165408492    0.385712296
    0.471158624    0.117789328    0.504393041
    0.375920773    0.593980193    0.029670224
    0.185444534    0.546361089    0.148350894
    0.994968295    0.498741955    0.267031610
    0.804492056    0.451122791    0.385712296
    0.614015698    0.403503656    0.504392982
    0.661635041    0.165408745    0.029670199
    0.471158832    0.117789648    0.148350894
    0.280682623    0.070170492    0.267031610
    0.090206347    0.022551356    0.385712296
    0.899730027    0.974932194    0.504392982
    0.518777907    0.879694462    0.029670216
    0.328301668    0.832075298    0.148350924
    0.137825444    0.784456193    0.267031580
    0.947349191    0.736837089    0.385712296
    0.756872892    0.689217925    0.504393041
    0.804492176    0.451123029    0.029670216
    0.614015937    0.403503925    0.148350880
    0.423539728    0.355884731    0.267031550
    0.233063444    0.308265597    0.385712266
    0.042587135    0.260646462    0.504392982
    0.947349489    0.736837327    0.029670216
    0.756873250    0.689218223    0.148350894
    0.566397011    0.641599059    0.267031580
    0.375920713    0.593979895    0.385712296
    0.185444474    0.546360731    0.504393041
    0.000000000    0.681493819    0.954822600
    0.000000000    0.014827055    0.593403518
    0.000000000    0.348160446    0.774113119
    0.333333343    0.014827132    0.954822600
    0.333333343    0.348160386    0.593403518
    0.333333343    0.681493819    0.774113119
    0.666666687    0.348160386    0.954822481
    0.666666687    0.681493759    0.593403518
    0.666666687    0.014827132    0.774113119
    0.000000000    0.014827251    1.000000000
    0.000000000    0.348160416    0.638580918
    0.000000000    0.681493819    0.819290400
    0.333333343    0.348160505    0.999999940
    0.333333343    0.681493819    0.638580918
    0.333333343    0.014827132    0.819290340
    0.666666746    0.681493998    1.000000000
    0.666666746    0.014827132    0.638580918
    0.666666746    0.348160505    0.819290400
    0.166666672    0.848160446    0.954822481
    0.166666672    0.181493714    0.593403518
    0.166666672    0.514827132    0.774113119
    0.500000060    0.181493759    0.954822481
    0.500000000    0.514827073    0.593403518
    0.500000000    0.848160505    0.774113119
    0.833333373    0.514827251    0.954822600
    0.833333373    0.848160446    0.593403518
    0.833333373    0.181493759    0.774112999
    0.166666687    0.181493759    0.999999821
    0.166666687    0.514827073    0.638580918
    0.166666687    0.848160505    0.819290340
    0.500000000    0.514827132    0.999999821
    0.500000000    0.848160326    0.638580918
    0.500000000    0.181493759    0.819290340
    0.833333313    0.848160446    0.999999821
    0.833333313    0.181493714    0.638580918
    0.833333313    0.514827132    0.819290400
    0.000000000    0.181493759    0.954822481
    0.000000000    0.514827073    0.593403518
    0.000000000    0.848160446    0.774113119
    0.333333343    0.514827251    0.954822600
    0.333333343    0.848160505    0.593403518
    0.333333343    0.181493878    0.774113178
    0.666666687    0.848160446    0.954822481
    0.666666687    0.181493714    0.593403518
    0.666666687    0.514827132    0.774113119
    0.000000014    0.514827251    0.999999940
    0.000000014    0.848160446    0.638580918
    0.000000014    0.181493878    0.819290340
    0.333333373    0.848160446    0.999999940
    0.333333373    0.181493714    0.638580918
    0.333333373    0.514827073    0.819290340
    0.666666746    0.181493878    0.999999940
    0.666666746    0.514827073    0.638580918
    0.666666746    0.848160505    0.819290340
    0.166666672    0.348160386    0.954822481
    0.166666672    0.681493759    0.593403518
    0.166666672    0.014827132    0.774113178
    0.500000000    0.681493759    0.954822600
    0.500000000    0.014827051    0.593403518
    0.500000000    0.348160475    0.774113119
    0.833333313    0.014827132    0.954822481
    0.833333313    0.348160416    0.593403518
    0.833333313    0.681493759    0.774112999
    0.166666687    0.681493878    1.000000000
    0.166666687    0.014827132    0.638580978
    0.166666687    0.348160386    0.819290340
    0.500000000    0.014827251    1.000000000
    0.500000000    0.348160416    0.638580918
    0.500000000    0.681493759    0.819290340
    0.833333373    0.348160505    0.999999940
    0.833333373    0.681493700    0.638580918
    0.833333373    0.014827013    0.819290340
