Si+Sn
    1.000000000
   10.862000465    0.000000000    0.000000000
    0.000000000   16.293001175    0.000000000
    0.000000000    0.000000000   22.784736633
Si  Sn 
72     72
Direct
    0.000000000    0.994067729    0.000000000
    0.000000000    0.827401042    0.119180664
    0.000000000    0.660734296    0.238361344
    0.500000000    0.994067729    0.000000000
    0.500000000    0.827401042    0.119180664
    0.500000000    0.660734296    0.238361344
    0.000000000    0.327401072    0.000000000
    0.000000000    0.160734385    0.119180664
    0.000000000    0.994067669    0.238361344
    0.500000000    0.327401072    0.000000000
    0.500000000    0.160734385    0.119180664
    0.500000000    0.994067669    0.238361344
    0.000000000    0.660734475    0.000000000
    0.000000000    0.494067729    0.119180664
    0.000000000    0.327401042    0.238361344
    0.500000000    0.660734475    0.000000000
    0.500000000    0.494067729    0.119180664
    0.500000000    0.327401042    0.238361344
    0.125000000    0.077401057    0.059590336
    0.125000000    0.910734355    0.178771019
    0.125000000    0.744067669    0.297951698
    0.625000000    0.077401057    0.059590336
    0.625000000    0.910734355    0.178771019
    0.625000000    0.744067669    0.297951698
    0.125000000    0.410734385    0.059590336
    0.125000000    0.244067669    0.178771019
    0.125000000    0.077400953    0.297951698
    0.625000000    0.410734385    0.059590336
    0.625000000    0.244067669    0.178771019
    0.625000000    0.077400953    0.297951698
    0.125000000    0.744067788    0.059590336
    0.125000000    0.577401042    0.178771019
    0.125000000    0.410734326    0.297951698
    0.625000000    0.744067788    0.059590336
    0.625000000    0.577401042    0.178771019
    0.625000000    0.410734326    0.297951698
    0.250000000    0.160734385    0.000000000
    0.250000000    0.994067669    0.119180664
    0.250000000    0.827400982    0.238361344
    0.750000060    0.160734385    0.000000000
    0.750000060    0.994067669    0.119180664
    0.750000060    0.827400982    0.238361344
    0.250000000    0.494067729    0.000000000
    0.250000000    0.327401042    0.119180664
    0.250000000    0.160734326    0.238361344
    0.750000060    0.494067729    0.000000000
    0.750000060    0.327401042    0.119180664
    0.750000060    0.160734326    0.238361344
    0.250000000    0.827401102    0.000000000
    0.250000000    0.660734415    0.119180664
    0.250000000    0.494067729    0.238361344
    0.750000060    0.827401102    0.000000000
    0.750000060    0.660734415    0.119180664
    0.750000060    0.494067729    0.238361344
    0.375000030    0.244067729    0.059590336
    0.375000030    0.077401020    0.178771019
    0.375000030    0.910734296    0.297951698
    0.875000060    0.244067729    0.059590336
    0.875000060    0.077401020    0.178771019
    0.875000060    0.910734296    0.297951698
    0.375000030    0.577401161    0.059590336
    0.375000030    0.410734475    0.178771019
    0.375000030    0.244067714    0.297951698
    0.875000060    0.577401161    0.059590336
    0.875000060    0.410734475    0.178771019
    0.875000060    0.244067714    0.297951698
    0.375000030    0.910734355    0.059590336
    0.375000030    0.744067669    0.178771019
    0.375000030    0.577400923    0.297951698
    0.875000060    0.910734355    0.059590336
    0.875000060    0.744067669    0.178771019
    0.875000060    0.577400923    0.297951698
    0.212962970    0.994366169    0.397241652
    0.212962866    0.744366050    0.497935295
    0.212962866    0.494365931    0.598629057
    0.212962747    0.244365752    0.699322701
    0.212962747    0.994365692    0.800016344
    0.212962747    0.744365573    0.900710106
    0.546296358    0.661032856    0.397241652
    0.546296358    0.411032826    0.497935295
    0.546296239    0.161032677    0.598628998
    0.546296179    0.911032557    0.699322641
    0.546296120    0.661032498    0.800016344
    0.546296179    0.411032379    0.900710046
    0.879629731    0.327699512    0.397241652
    0.879629672    0.077699468    0.497935295
    0.879629612    0.827699304    0.598628998
    0.879629612    0.577699184    0.699322641
    0.879629552    0.327699125    0.800016344
    0.879629612    0.077699013    0.900710046
    0.212962970    0.494366169    0.397241652
    0.212962866    0.244366109    0.497935295
    0.212962866    0.994365990    0.598629057
    0.212962747    0.744365811    0.699322701
    0.212962747    0.494365811    0.800016344
    0.212962747    0.244365633    0.900710046
    0.546296358    0.161032856    0.397241652
    0.546296299    0.911032796    0.497935295
    0.546296239    0.661032677    0.598629057
    0.546296239    0.411032438    0.699322641
    0.546296179    0.161032379    0.800016344
    0.546296120    0.911032319    0.900710046
    0.879629791    0.827699602    0.397241652
    0.879629731    0.577699482    0.497935295
    0.879629672    0.327699363    0.598629057
    0.879629612    0.077699244    0.699322701
    0.879629493    0.827699184    0.800016344
    0.879629493    0.577699065    0.900710046
    0.296296239    0.661032915    0.397241682
    0.296296239    0.411032915    0.497935295
    0.296296149    0.161032766    0.598629057
    0.296296120    0.911032617    0.699322641
    0.296296030    0.661032557    0.800016344
    0.296296060    0.411032438    0.900710046
    0.629629612    0.327699512    0.397241682
    0.629629612    0.077699445    0.497935295
    0.629629552    0.827699304    0.598629057
    0.629629493    0.577699184    0.699322641
    0.629629433    0.327699125    0.800016344
    0.629629433    0.077699013    0.900710046
    0.962962985    0.994366109    0.397241682
    0.962962985    0.744366050    0.497935295
    0.962962925    0.494365931    0.598629057
    0.962962806    0.244365811    0.699322641
    0.962962806    0.994365692    0.800016344
    0.962962806    0.744365573    0.900710046
    0.296296299    0.161032826    0.397241652
    0.296296269    0.911032736    0.497935295
    0.296296239    0.661032617    0.598629057
    0.296296149    0.411032498    0.699322701
    0.296296090    0.161032438    0.800016344
    0.296296060    0.911032319    0.900710046
    0.629629672    0.827699482    0.397241652
    0.629629612    0.577699363    0.497935295
    0.629629612    0.327699274    0.598629057
    0.629629552    0.077699110    0.699322701
    0.629629493    0.827699065    0.800016344
    0.629629493    0.577698946    0.900710046
    0.962962985    0.494366169    0.397241652
    0.962962925    0.244366109    0.497935295
    0.962962925    0.994365990    0.598629057
    0.962962806    0.744365811    0.699322701
    0.962962747    0.494365752    0.800016344
    0.962962747    0.244365633    0.900710046
