Sn+Ge
    1.000000000
   12.978400230    0.000000000    0.000000000
    0.000000000   12.978400230    0.000000000
    0.000000000    0.000000000   19.583751678
Sn  Ge 
48     60
Direct
    0.992552638    0.499999970    0.000000000
    0.742552638    0.499999970    0.165678188
    0.492552757    0.499999970    0.331356287
    0.992552638    0.000000000    0.000000000
    0.742552638    0.000000000    0.165678188
    0.492552757    0.000000000    0.331356287
    0.492552608    0.499999970    0.000000000
    0.242552638    0.499999970    0.165678188
    0.992552698    0.499999970    0.331356287
    0.492552608    0.000000000    0.000000000
    0.242552638    0.000000000    0.165678188
    0.992552698    0.000000000    0.331356287
    0.117552646    0.874999940    0.082839087
    0.867552757    0.874999940    0.248517260
    0.617552698    0.874999940    0.414195418
    0.117552646    0.374999970    0.082839087
    0.867552757    0.374999970    0.248517260
    0.617552698    0.374999970    0.414195418
    0.617552578    0.874999940    0.082839087
    0.367552698    0.874999940    0.248517260
    0.117552668    0.874999940    0.414195418
    0.617552578    0.374999970    0.082839087
    0.367552698    0.374999970    0.248517260
    0.117552668    0.374999970    0.414195418
    0.242552638    0.749999940    0.000000000
    0.992552638    0.749999940    0.165678188
    0.742552757    0.749999940    0.331356287
    0.242552638    0.249999985    0.000000000
    0.992552638    0.249999985    0.165678188
    0.742552757    0.249999985    0.331356287
    0.742552578    0.749999940    0.000000000
    0.492552608    0.749999940    0.165678188
    0.242552698    0.749999940    0.331356287
    0.742552578    0.249999985    0.000000000
    0.492552608    0.249999985    0.165678188
    0.242552698    0.249999985    0.331356287
    0.367552638    0.624999940    0.082839087
    0.117552713    0.624999940    0.248517260
    0.867552698    0.624999940    0.414195418
    0.367552638    0.124999993    0.082839087
    0.117552713    0.124999993    0.248517260
    0.867552698    0.124999993    0.414195418
    0.867552638    0.624999940    0.082839087
    0.617552757    0.624999940    0.248517260
    0.367552698    0.624999940    0.414195418
    0.867552638    0.124999993    0.082839087
    0.617552757    0.124999993    0.248517260
    0.367552698    0.124999993    0.414195418
    0.976744175    0.181801662    0.526533484
    0.976744235    0.681801677    0.670984805
    0.976744235    0.181801721    0.815436304
    0.176744223    0.781801641    0.526533484
    0.176744223    0.281801641    0.670984805
    0.176744342    0.781801641    0.815436304
    0.376744151    0.381801665    0.526533484
    0.376744270    0.881801605    0.670984805
    0.376744270    0.381801665    0.815436304
    0.576744199    0.981801689    0.526533484
    0.576744199    0.481801689    0.670984805
    0.576744318    0.981801689    0.815436304
    0.776744127    0.581801653    0.526533484
    0.776744127    0.081801534    0.670984805
    0.776744127    0.581801713    0.815436304
    0.126744151    0.131801486    0.598759174
    0.126744270    0.631801665    0.743210614
    0.126744270    0.131801605    0.887661994
    0.326744199    0.731801689    0.598759174
    0.326744199    0.231801674    0.743210614
    0.326744318    0.731801689    0.887661994
    0.526744127    0.331801593    0.598759174
    0.526744127    0.831801713    0.743210614
    0.526744127    0.331801593    0.887661994
    0.726744175    0.931801677    0.598759174
    0.726744294    0.431801736    0.743210614
    0.726744294    0.931801736    0.887661994
    0.926744223    0.531801641    0.598759174
    0.926744223    0.031801581    0.743210614
    0.926744342    0.531801641    0.887661994
    0.076744199    0.481801629    0.526533484
    0.076744199    0.981801629    0.670984805
    0.076744318    0.481801569    0.815436304
    0.276744246    0.081801534    0.526533484
    0.276744246    0.581801593    0.670984805
    0.276744366    0.081801534    0.815436304
    0.476744175    0.681801677    0.526533484
    0.476744175    0.181801602    0.670984805
    0.476744294    0.681801736    0.815436304
    0.676744223    0.281801641    0.526533484
    0.676744223    0.781801641    0.670984805
    0.676744342    0.281801641    0.815436304
    0.876744151    0.881801605    0.526533484
    0.876744270    0.381801665    0.670984805
    0.876744270    0.881801546    0.815436304
    0.026744246    0.831801653    0.598759174
    0.026744246    0.331801713    0.743210614
    0.026744366    0.831801713    0.887661994
    0.226744175    0.431801677    0.598759174
    0.226744175    0.931801677    0.743210614
    0.226744294    0.431801736    0.887661994
    0.426744223    0.031801581    0.598759174
    0.426744223    0.531801641    0.743210614
    0.426744342    0.031801581    0.887661994
    0.626744151    0.631801665    0.598759174
    0.626744270    0.131801605    0.743210614
    0.626744270    0.631801784    0.887661994
    0.826744318    0.231801674    0.598759174
    0.826744318    0.731801689    0.743210614
    0.826744437    0.231801674    0.887661994
