fcc Si+fcc Ge
    1.000000000
   12.253652517    0.000000000    0.000000000
    0.000000000   12.253652517    0.000000000
    0.000000000    0.000000000   32.050000000
Si    Ge   
110     110
Direct
    0.250000000    0.500000000    0.042745710
    0.350000000    0.300000000    0.128237129
    0.450000000    0.100000000    0.213728549
    0.550000000    0.900000000    0.299219969
    0.650000000    0.700000000    0.384711388
    0.650000000    0.700000000    0.042745710
    0.750000000    0.500000000    0.128237129
    0.850000000    0.300000000    0.213728549
    0.950000000    0.100000000    0.299219969
    0.050000000    0.900000000    0.384711388
    0.050000000    0.900000000    0.042745710
    0.150000000    0.700000000    0.128237129
    0.250000000    0.500000000    0.213728549
    0.350000000    0.300000000    0.299219969
    0.450000000    0.100000000    0.384711388
    0.450000000    0.100000000    0.042745710
    0.550000000    0.900000000    0.128237129
    0.650000000    0.700000000    0.213728549
    0.750000000    0.500000000    0.299219969
    0.850000000    0.300000000    0.384711388
    0.850000000    0.300000000    0.042745710
    0.950000000    0.100000000    0.128237129
    0.050000000    0.900000000    0.213728549
    0.150000000    0.700000000    0.299219969
    0.250000000    0.500000000    0.384711388
    0.350000000    0.800000000    0.042745710
    0.450000000    0.600000000    0.128237129
    0.550000000    0.400000000    0.213728549
    0.650000000    0.200000000    0.299219969
    0.750000000    0.000000000    0.384711388
    0.150000000    0.200000000    0.042745710
    0.250000000    0.000000000    0.128237129
    0.350000000    0.800000000    0.213728549
    0.450000000    0.600000000    0.299219969
    0.550000000    0.400000000    0.384711388
    0.550000000    0.400000000    0.042745710
    0.650000000    0.200000000    0.128237129
    0.750000000    0.000000000    0.213728549
    0.850000000    0.800000000    0.299219969
    0.950000000    0.600000000    0.384711388
    0.950000000    0.600000000    0.042745710
    0.050000000    0.400000000    0.128237129
    0.150000000    0.200000000    0.213728549
    0.250000000    0.000000000    0.299219969
    0.350000000    0.800000000    0.384711388
    0.750000000    0.000000000    0.042745710
    0.850000000    0.800000000    0.128237129
    0.950000000    0.600000000    0.213728549
    0.050000000    0.400000000    0.299219969
    0.150000000    0.200000000    0.384711388
    0.100000000    0.050000000    0.000000000
    0.200000000    0.850000000    0.085491420
    0.300000000    0.650000000    0.170982839
    0.400000000    0.450000000    0.256474259
    0.500000000    0.250000000    0.341965679
    0.600000000    0.050000000    0.427457098
    0.300000000    0.650000000    0.000000000
    0.400000000    0.450000000    0.085491420
    0.500000000    0.250000000    0.170982839
    0.600000000    0.050000000    0.256474259
    0.700000000    0.850000000    0.341965679
    0.800000000    0.650000000    0.427457098
    0.700000000    0.850000000    0.000000000
    0.800000000    0.650000000    0.085491420
    0.900000000    0.450000000    0.170982839
    0.000000000    0.250000000    0.256474259
    0.100000000    0.050000000    0.341965679
    0.200000000    0.850000000    0.427457098
    0.500000000    0.250000000    0.000000000
    0.600000000    0.050000000    0.085491420
    0.700000000    0.850000000    0.170982839
    0.800000000    0.650000000    0.256474259
    0.900000000    0.450000000    0.341965679
    0.000000000    0.250000000    0.427457098
    0.900000000    0.450000000    0.000000000
    0.000000000    0.250000000    0.085491420
    0.100000000    0.050000000    0.170982839
    0.200000000    0.850000000    0.256474259
    0.300000000    0.650000000    0.341965679
    0.400000000    0.450000000    0.427457098
    0.000000000    0.750000000    0.000000000
    0.100000000    0.550000000    0.085491420
    0.200000000    0.350000000    0.170982839
    0.300000000    0.150000000    0.256474259
    0.400000000    0.950000000    0.341965679
    0.500000000    0.750000000    0.427457098
    0.400000000    0.950000000    0.000000000
    0.500000000    0.750000000    0.085491420
    0.600000000    0.550000000    0.170982839
    0.700000000    0.350000000    0.256474259
    0.800000000    0.150000000    0.341965679
    0.900000000    0.950000000    0.427457098
    0.200000000    0.350000000    0.000000000
    0.300000000    0.150000000    0.085491420
    0.400000000    0.950000000    0.170982839
    0.500000000    0.750000000    0.256474259
    0.600000000    0.550000000    0.341965679
    0.700000000    0.350000000    0.427457098
    0.600000000    0.550000000    0.000000000
    0.700000000    0.350000000    0.085491420
    0.800000000    0.150000000    0.170982839
    0.900000000    0.950000000    0.256474259
    0.000000000    0.750000000    0.341965679
    0.100000000    0.550000000    0.427457098
    0.800000000    0.150000000    0.000000000
    0.900000000    0.950000000    0.085491420
    0.000000000    0.750000000    0.170982839
    0.100000000    0.550000000    0.256474259
    0.200000000    0.350000000    0.341965679
    0.300000000    0.150000000    0.427457098
    0.155737705    0.307377049    0.537129485
    0.155737705    0.807377049    0.625429017
    0.155737705    0.307377049    0.713728549
    0.155737705    0.807377049    0.802028081
    0.155737705    0.307377049    0.890327613
    0.355737705    0.707377049    0.537129485
    0.355737705    0.207377049    0.625429017
    0.355737705    0.707377049    0.713728549
    0.355737705    0.207377049    0.802028081
    0.355737705    0.707377049    0.890327613
    0.555737705    0.107377049    0.537129485
    0.555737705    0.607377049    0.625429017
    0.555737705    0.107377049    0.713728549
    0.555737705    0.607377049    0.802028081
    0.555737705    0.107377049    0.890327613
    0.755737705    0.507377049    0.537129485
    0.755737705    0.007377049    0.625429017
    0.755737705    0.507377049    0.713728549
    0.755737705    0.007377049    0.802028081
    0.755737705    0.507377049    0.890327613
    0.955737705    0.907377049    0.537129485
    0.955737705    0.407377049    0.625429017
    0.955737705    0.907377049    0.713728549
    0.955737705    0.407377049    0.802028081
    0.955737705    0.907377049    0.890327613
    0.255737705    0.007377049    0.537129485
    0.255737705    0.507377049    0.625429017
    0.255737705    0.007377049    0.713728549
    0.255737705    0.507377049    0.802028081
    0.255737705    0.007377049    0.890327613
    0.455737705    0.407377049    0.537129485
    0.455737705    0.907377049    0.625429017
    0.455737705    0.407377049    0.713728549
    0.455737705    0.907377049    0.802028081
    0.455737705    0.407377049    0.890327613
    0.655737705    0.807377049    0.537129485
    0.655737705    0.307377049    0.625429017
    0.655737705    0.807377049    0.713728549
    0.655737705    0.307377049    0.802028081
    0.655737705    0.807377049    0.890327613
    0.855737705    0.207377049    0.537129485
    0.855737705    0.707377049    0.625429017
    0.855737705    0.207377049    0.713728549
    0.855737705    0.707377049    0.802028081
    0.855737705    0.207377049    0.890327613
    0.055737705    0.607377049    0.537129485
    0.055737705    0.107377049    0.625429017
    0.055737705    0.607377049    0.713728549
    0.055737705    0.107377049    0.802028081
    0.055737705    0.607377049    0.890327613
    0.305737705    0.857377049    0.492979719
    0.305737705    0.357377049    0.581279251
    0.305737705    0.857377049    0.669578783
    0.305737705    0.357377049    0.757878315
    0.305737705    0.857377049    0.846177847
    0.305737705    0.357377049    0.934477379
    0.505737705    0.257377049    0.492979719
    0.505737705    0.757377049    0.581279251
    0.505737705    0.257377049    0.669578783
    0.505737705    0.757377049    0.757878315
    0.505737705    0.257377049    0.846177847
    0.505737705    0.757377049    0.934477379
    0.705737705    0.657377049    0.492979719
    0.705737705    0.157377049    0.581279251
    0.705737705    0.657377049    0.669578783
    0.705737705    0.157377049    0.757878315
    0.705737705    0.657377049    0.846177847
    0.705737705    0.157377049    0.934477379
    0.905737705    0.057377049    0.492979719
    0.905737705    0.557377049    0.581279251
    0.905737705    0.057377049    0.669578783
    0.905737705    0.557377049    0.757878315
    0.905737705    0.057377049    0.846177847
    0.905737705    0.557377049    0.934477379
    0.105737705    0.457377049    0.492979719
    0.105737705    0.957377049    0.581279251
    0.105737705    0.457377049    0.669578783
    0.105737705    0.957377049    0.757878315
    0.105737705    0.457377049    0.846177847
    0.105737705    0.957377049    0.934477379
    0.205737705    0.157377049    0.492979719
    0.205737705    0.657377049    0.581279251
    0.205737705    0.157377049    0.669578783
    0.205737705    0.657377049    0.757878315
    0.205737705    0.157377049    0.846177847
    0.205737705    0.657377049    0.934477379
    0.405737705    0.557377049    0.492979719
    0.405737705    0.057377049    0.581279251
    0.405737705    0.557377049    0.669578783
    0.405737705    0.057377049    0.757878315
    0.405737705    0.557377049    0.846177847
    0.405737705    0.057377049    0.934477379
    0.605737705    0.957377049    0.492979719
    0.605737705    0.457377049    0.581279251
    0.605737705    0.957377049    0.669578783
    0.605737705    0.457377049    0.757878315
    0.605737705    0.957377049    0.846177847
    0.605737705    0.457377049    0.934477379
    0.805737705    0.357377049    0.492979719
    0.805737705    0.857377049    0.581279251
    0.805737705    0.357377049    0.669578783
    0.805737705    0.857377049    0.757878315
    0.805737705    0.357377049    0.846177847
    0.805737705    0.857377049    0.934477379
    0.005737705    0.757377049    0.492979719
    0.005737705    0.257377049    0.581279251
    0.005737705    0.757377049    0.669578783
    0.005737705    0.257377049    0.757878315
    0.005737705    0.757377049    0.846177847
    0.005737705    0.257377049    0.934477379
