Ge+Sn                                   
   1.00000000000000     
    16.0026760099999983    0.0000000000000000    0.0000000000000000
    -8.0013380049999991   13.8587245939999999    0.0000000000000000
     0.0000000000000000    0.0000000000000000   15.7794189449999998
   Ge   Sn
    96    72
Direct
  0.9857673050000031  0.4928835629999995  0.0000000060000005
  0.6524338720000031  0.3262168469999978  0.2070122510000019
  0.3191004990000010  0.1595501150000018  0.4140244720000013
  0.9857673050000031  0.9928836819999987  0.0000000149999977
  0.6524338720000031  0.8262169360000016  0.2070122510000019
  0.3191004990000010  0.6595501899999974  0.4140245019999966
  0.4857672449999981  0.4928835930000020  0.0000000000000000
  0.1524338420000007  0.3262168469999978  0.2070122510000019
  0.8191004399999997  0.1595501299999995  0.4140245019999966
  0.4857672449999981  0.9928836819999987  0.0000000200000017
  0.1524338420000007  0.8262169360000016  0.2070122510000019
  0.8191004399999997  0.6595501899999974  0.4140245019999966
  0.1524339469999987  0.8262168770000002  0.0517530930000021
  0.8191005589999989  0.6595501299999995  0.2587652799999987
  0.4857671859999968  0.4928834440000003  0.4657775760000007
  0.1524339469999987  0.3262169360000016  0.0517530930000021
  0.8191005589999989  0.1595502199999999  0.2587653100000011
  0.4857671859999968  0.9928835030000016  0.4657775760000007
  0.6524338720000031  0.8262168170000024  0.0517530930000021
  0.3191005290000035  0.6595501299999995  0.2587652799999987
  0.9857671859999968  0.4928834440000003  0.4657775760000007
  0.6524338720000031  0.3262169360000016  0.0517530930000021
  0.3191005290000035  0.1595502349999975  0.2587653100000011
  0.9857671859999968  0.9928835030000016  0.4657775760000007
  0.2357672600000029  0.7428836229999973  0.0000000040000003
  0.9024338720000031  0.5762169360000016  0.2070122510000019
  0.5691003800000018  0.4095501299999995  0.4140245019999966
  0.2357672899999983  0.2428836229999973  0.0000000140000012
  0.9024338720000031  0.0762168990000021  0.2070122510000019
  0.5691004399999997  0.9095501899999974  0.4140245019999966
  0.7357672449999981  0.7428835629999995  0.0000000140000012
  0.4024338420000007  0.5762168770000002  0.2070122510000019
  0.0691004019999966  0.4095501010000007  0.4140245019999966
  0.7357672449999981  0.2428836079999996  0.0000000140000012
  0.4024338420000007  0.0762168910000014  0.2070122359999971
  0.0691004170000014  0.9095501899999974  0.4140245019999966
  0.4024339320000010  0.5762169360000016  0.0517530179999994
  0.0691005139999987  0.4095501600000020  0.2587652799999987
  0.7357671859999968  0.2428834890000005  0.4657775160000028
  0.4024339320000010  0.0762169730000011  0.0517530179999994
  0.0691005139999987  0.9095502500000023  0.2587652799999987
  0.7357671859999968  0.7428835629999995  0.4657775160000028
  0.9024339910000023  0.5762168770000002  0.0517530219999998
  0.5691006180000002  0.4095501899999974  0.2587652799999987
  0.2357672449999981  0.2428834589999980  0.4657775160000028
  0.9024339910000023  0.0762169730000011  0.0517530289999968
  0.5691006180000002  0.9095502500000023  0.2587652799999987
  0.2357672449999981  0.7428835629999995  0.4657775160000028
  0.2357672750000006  0.4928835930000020  0.0000000140000012
  0.9024338720000031  0.3262168469999978  0.2070122359999971
  0.5691004399999997  0.1595501150000018  0.4140245019999966
  0.2357672899999983  0.9928836819999987  0.0000000240000020
  0.9024338720000031  0.8262169360000016  0.2070122510000019
  0.5691004399999997  0.6595501899999974  0.4140245019999966
  0.7357672449999981  0.4928835930000020  0.0000000140000012
  0.4024338420000007  0.3262168770000002  0.2070122359999971
  0.0691004019999966  0.1595501150000018  0.4140245019999966
  0.7357672449999981  0.9928836819999987  0.0000000349999993
  0.4024338420000007  0.8262169360000016  0.2070122510000019
  0.0691004170000014  0.6595501899999974  0.4140245019999966
  0.4024339320000010  0.8262169360000016  0.0517530440000016
  0.0691004990000010  0.6595501299999995  0.2587652799999987
  0.7357671859999968  0.4928834740000028  0.4657775160000028
  0.4024339320000010  0.3262169959999994  0.0517530440000016
  0.0691005290000035  0.1595502500000023  0.2587652799999987
  0.7357671859999968  0.9928835629999995  0.4657775160000028
  0.9024339910000023  0.8262168770000002  0.0517530110000024
  0.5691005589999989  0.6595501299999995  0.2587652500000033
  0.2357672449999981  0.4928834740000028  0.4657774570000015
  0.9024339910000023  0.3262169659999969  0.0517530480000019
  0.5691006180000002  0.1595502500000023  0.2587652799999987
  0.2357672449999981  0.9928835629999995  0.4657775160000028
  0.9857673050000031  0.7428836229999973  0.0000000089999972
  0.6524339320000010  0.5762168770000002  0.2070123109999997
  0.3191004990000010  0.4095501600000020  0.4140244720000013
  0.9857673050000031  0.2428836229999973  0.0000000109999974
  0.6524338720000031  0.0762168839999973  0.2070122510000019
  0.3191004990000010  0.9095501899999974  0.4140245019999966
  0.4857672449999981  0.7428836229999973  0.0000000000000000
  0.1524338420000007  0.5762169360000016  0.2070122510000019
  0.8191004399999997  0.4095501010000007  0.4140245019999966
  0.4857672449999981  0.2428836229999973  0.0000000200000017
  0.1524338420000007  0.0762168990000021  0.2070122510000019
  0.8191004399999997  0.9095501899999974  0.4140245019999966
  0.1524339770000012  0.5762169360000016  0.0517530850000014
  0.8191006180000002  0.4095502199999999  0.2587652799999987
  0.4857672449999981  0.2428835480000018  0.4657775760000007
  0.1524339770000012  0.0762169810000017  0.0517530850000014
  0.8191006180000002  0.9095503089999966  0.2587653100000011
  0.4857672449999981  0.7428835629999995  0.4657775760000007
  0.6524339910000023  0.5762169360000016  0.0517530959999988
  0.3191006180000002  0.4095502199999999  0.2587653100000011
  0.9857672449999981  0.2428835179999993  0.4657775760000007
  0.6524339910000023  0.0762169879999988  0.0517530810000011
  0.3191006180000002  0.9095503089999966  0.2587653100000011
  0.9857672449999981  0.7428835629999995  0.4657775760000007
  0.0000000000000000  0.0124091730000018  0.4657775160000028
  0.0000000000000000  0.3457425530000009  0.7032096980000020
  0.0000000000000000  0.6790759559999984  0.9406420589999982
  0.3333333730000021  0.6790758969999970  0.4657775160000028
  0.3333334029999975  0.0124093290000005  0.7032096980000020
  0.3333334029999975  0.3457427020000026  0.9406418200000033
  0.6666667459999971  0.3457425530000009  0.4657775160000028
  0.6666667459999971  0.6790759559999984  0.7032096980000020
  0.6666667459999971  0.0124093290000005  0.9406418200000033
  0.0000000000000000  0.3457425530000009  0.5251356360000017
  0.0000000000000000  0.6790758969999970  0.7625678180000008
  0.0000000000000000  0.0124092100000013  0.9999999400000021
  0.3333334029999975  0.0124092100000013  0.5251356360000017
  0.3333334029999975  0.3457425830000034  0.7625678180000008
  0.3333334029999975  0.6790760760000012  0.9999999400000021
  0.6666667459999971  0.6790759559999984  0.5251356360000017
  0.6666667459999971  0.0124093290000005  0.7625678180000008
  0.6666667459999971  0.3457425830000034  0.9999999400000021
  0.1666666870000029  0.3457425530000009  0.4657775160000028
  0.1666667009999969  0.6790759559999984  0.7032096980000020
  0.1666666870000029  0.0124093290000005  0.9406420589999982
  0.5000000000000000  0.0124091839999991  0.4657775160000028
  0.5000000000000000  0.3457425830000034  0.7032096980000020
  0.5000000000000000  0.6790760160000033  0.9406420589999982
  0.8333334330000000  0.6790758969999970  0.4657775160000028
  0.8333334330000000  0.0124093290000005  0.7032096390000007
  0.8333334330000000  0.3457427020000026  0.9406420589999982
  0.1666667009999969  0.6790759559999984  0.5251355770000004
  0.1666667009999969  0.0124093290000005  0.7625677589999995
  0.1666667160000017  0.3457428219999983  0.9999999400000021
  0.5000000599999979  0.3457425830000034  0.5251355770000004
  0.5000000599999979  0.6790759559999984  0.7625678180000008
  0.5000000599999979  0.0124093290000005  0.9999999400000021
  0.8333334330000000  0.0124092100000013  0.5251355770000004
  0.8333334330000000  0.3457425830000034  0.7625677589999995
  0.8333334330000000  0.6790759559999984  0.9999999400000021
  0.0000000000000000  0.5124092100000013  0.4657775160000028
  0.0000000000000000  0.8457425830000034  0.7032096390000007
  0.0000000000000000  0.1790759559999984  0.9406420589999982
  0.3333333730000021  0.1790758519999969  0.4657775160000028
  0.3333333730000021  0.5124092699999991  0.7032096980000020
  0.3333333730000021  0.8457426430000012  0.9406420589999982
  0.6666667459999971  0.8457425830000034  0.4657775160000028
  0.6666667459999971  0.1790759559999984  0.7032096390000007
  0.6666668060000021  0.5124094490000033  0.9406420589999982
  0.0000000000000000  0.8457425830000034  0.5251355770000004
  0.0000000000000000  0.1790759559999984  0.7625677589999995
  0.0000000000000000  0.5124094490000033  0.9999999400000021
  0.3333333730000021  0.5124092100000013  0.5251355770000004
  0.3333333730000021  0.8457425830000034  0.7625677589999995
  0.3333334029999975  0.1790760760000012  0.9999999400000021
  0.6666667459999971  0.1790758069999967  0.5251355770000004
  0.6666667459999971  0.5124092100000013  0.7625678180000008
  0.6666667459999971  0.8457426430000012  0.9999999400000021
  0.1666667009999969  0.8457425830000034  0.4657775160000028
  0.1666667009999969  0.1790758369999992  0.7032096390000007
  0.1666667009999969  0.5124093290000005  0.9406418200000033
  0.5000000000000000  0.5124092100000013  0.4657775160000028
  0.5000000000000000  0.8457426430000012  0.7032096980000020
  0.5000000599999979  0.1790759559999984  0.9406418200000033
  0.8333333730000021  0.1790758670000017  0.4657775160000028
  0.8333333730000021  0.5124092699999991  0.7032096980000020
  0.8333333730000021  0.8457427020000026  0.9406418200000033
  0.1666666870000029  0.1790757779999979  0.5251356360000017
  0.1666666870000029  0.5124091510000000  0.7625678180000008
  0.1666666870000029  0.8457425240000020  0.9999999400000021
  0.5000000000000000  0.8457425240000020  0.5251356360000017
  0.5000000000000000  0.1790759559999984  0.7625678180000008
  0.5000000000000000  0.5124092100000013  0.9999999400000021
  0.8333334330000000  0.5124092100000013  0.5251356360000017
  0.8333334330000000  0.8457425830000034  0.7625678180000008
  0.8333334330000000  0.1790759559999984  0.9999999400000021
 
  0.00000000E+00  0.00000000E+00  0.00000000E+00
  0.00000000E+00  0.00000000E+00  0.00000000E+00
  0.00000000E+00  0.00000000E+00  0.00000000E+00
  0.00000000E+00  0.00000000E+00  0.00000000E+00
  0.00000000E+00  0.00000000E+00  0.00000000E+00
  0.00000000E+00  0.00000000E+00  0.00000000E+00
  0.00000000E+00  0.00000000E+00  0.00000000E+00
  0.00000000E+00  0.00000000E+00  0.00000000E+00
  0.00000000E+00  0.00000000E+00  0.00000000E+00
  0.00000000E+00  0.00000000E+00  0.00000000E+00
  0.00000000E+00  0.00000000E+00  0.00000000E+00
  0.00000000E+00  0.00000000E+00  0.00000000E+00
  0.00000000E+00  0.00000000E+00  0.00000000E+00
  0.00000000E+00  0.00000000E+00  0.00000000E+00
  0.00000000E+00  0.00000000E+00  0.00000000E+00
  0.00000000E+00  0.00000000E+00  0.00000000E+00
  0.00000000E+00  0.00000000E+00  0.00000000E+00
  0.00000000E+00  0.00000000E+00  0.00000000E+00
  0.00000000E+00  0.00000000E+00  0.00000000E+00
  0.00000000E+00  0.00000000E+00  0.00000000E+00
  0.00000000E+00  0.00000000E+00  0.00000000E+00
  0.00000000E+00  0.00000000E+00  0.00000000E+00
  0.00000000E+00  0.00000000E+00  0.00000000E+00
  0.00000000E+00  0.00000000E+00  0.00000000E+00
  0.00000000E+00  0.00000000E+00  0.00000000E+00
  0.00000000E+00  0.00000000E+00  0.00000000E+00
  0.00000000E+00  0.00000000E+00  0.00000000E+00
  0.00000000E+00  0.00000000E+00  0.00000000E+00
  0.00000000E+00  0.00000000E+00  0.00000000E+00
  0.00000000E+00  0.00000000E+00  0.00000000E+00
  0.00000000E+00  0.00000000E+00  0.00000000E+00
  0.00000000E+00  0.00000000E+00  0.00000000E+00
  0.00000000E+00  0.00000000E+00  0.00000000E+00
  0.00000000E+00  0.00000000E+00  0.00000000E+00
  0.00000000E+00  0.00000000E+00  0.00000000E+00
  0.00000000E+00  0.00000000E+00  0.00000000E+00
  0.00000000E+00  0.00000000E+00  0.00000000E+00
  0.00000000E+00  0.00000000E+00  0.00000000E+00
  0.00000000E+00  0.00000000E+00  0.00000000E+00
  0.00000000E+00  0.00000000E+00  0.00000000E+00
  0.00000000E+00  0.00000000E+00  0.00000000E+00
  0.00000000E+00  0.00000000E+00  0.00000000E+00
  0.00000000E+00  0.00000000E+00  0.00000000E+00
  0.00000000E+00  0.00000000E+00  0.00000000E+00
  0.00000000E+00  0.00000000E+00  0.00000000E+00
  0.00000000E+00  0.00000000E+00  0.00000000E+00
  0.00000000E+00  0.00000000E+00  0.00000000E+00
  0.00000000E+00  0.00000000E+00  0.00000000E+00
  0.00000000E+00  0.00000000E+00  0.00000000E+00
  0.00000000E+00  0.00000000E+00  0.00000000E+00
  0.00000000E+00  0.00000000E+00  0.00000000E+00
  0.00000000E+00  0.00000000E+00  0.00000000E+00
  0.00000000E+00  0.00000000E+00  0.00000000E+00
  0.00000000E+00  0.00000000E+00  0.00000000E+00
  0.00000000E+00  0.00000000E+00  0.00000000E+00
  0.00000000E+00  0.00000000E+00  0.00000000E+00
  0.00000000E+00  0.00000000E+00  0.00000000E+00
  0.00000000E+00  0.00000000E+00  0.00000000E+00
  0.00000000E+00  0.00000000E+00  0.00000000E+00
  0.00000000E+00  0.00000000E+00  0.00000000E+00
  0.00000000E+00  0.00000000E+00  0.00000000E+00
  0.00000000E+00  0.00000000E+00  0.00000000E+00
  0.00000000E+00  0.00000000E+00  0.00000000E+00
  0.00000000E+00  0.00000000E+00  0.00000000E+00
  0.00000000E+00  0.00000000E+00  0.00000000E+00
  0.00000000E+00  0.00000000E+00  0.00000000E+00
  0.00000000E+00  0.00000000E+00  0.00000000E+00
  0.00000000E+00  0.00000000E+00  0.00000000E+00
  0.00000000E+00  0.00000000E+00  0.00000000E+00
  0.00000000E+00  0.00000000E+00  0.00000000E+00
  0.00000000E+00  0.00000000E+00  0.00000000E+00
  0.00000000E+00  0.00000000E+00  0.00000000E+00
  0.00000000E+00  0.00000000E+00  0.00000000E+00
  0.00000000E+00  0.00000000E+00  0.00000000E+00
  0.00000000E+00  0.00000000E+00  0.00000000E+00
  0.00000000E+00  0.00000000E+00  0.00000000E+00
  0.00000000E+00  0.00000000E+00  0.00000000E+00
  0.00000000E+00  0.00000000E+00  0.00000000E+00
  0.00000000E+00  0.00000000E+00  0.00000000E+00
  0.00000000E+00  0.00000000E+00  0.00000000E+00
  0.00000000E+00  0.00000000E+00  0.00000000E+00
  0.00000000E+00  0.00000000E+00  0.00000000E+00
  0.00000000E+00  0.00000000E+00  0.00000000E+00
  0.00000000E+00  0.00000000E+00  0.00000000E+00
  0.00000000E+00  0.00000000E+00  0.00000000E+00
  0.00000000E+00  0.00000000E+00  0.00000000E+00
  0.00000000E+00  0.00000000E+00  0.00000000E+00
  0.00000000E+00  0.00000000E+00  0.00000000E+00
  0.00000000E+00  0.00000000E+00  0.00000000E+00
  0.00000000E+00  0.00000000E+00  0.00000000E+00
  0.00000000E+00  0.00000000E+00  0.00000000E+00
  0.00000000E+00  0.00000000E+00  0.00000000E+00
  0.00000000E+00  0.00000000E+00  0.00000000E+00
  0.00000000E+00  0.00000000E+00  0.00000000E+00
  0.00000000E+00  0.00000000E+00  0.00000000E+00
  0.00000000E+00  0.00000000E+00  0.00000000E+00
  0.00000000E+00  0.00000000E+00  0.00000000E+00
  0.00000000E+00  0.00000000E+00  0.00000000E+00
  0.00000000E+00  0.00000000E+00  0.00000000E+00
  0.00000000E+00  0.00000000E+00  0.00000000E+00
  0.00000000E+00  0.00000000E+00  0.00000000E+00
  0.00000000E+00  0.00000000E+00  0.00000000E+00
  0.00000000E+00  0.00000000E+00  0.00000000E+00
  0.00000000E+00  0.00000000E+00  0.00000000E+00
  0.00000000E+00  0.00000000E+00  0.00000000E+00
  0.00000000E+00  0.00000000E+00  0.00000000E+00
  0.00000000E+00  0.00000000E+00  0.00000000E+00
  0.00000000E+00  0.00000000E+00  0.00000000E+00
  0.00000000E+00  0.00000000E+00  0.00000000E+00
  0.00000000E+00  0.00000000E+00  0.00000000E+00
  0.00000000E+00  0.00000000E+00  0.00000000E+00
  0.00000000E+00  0.00000000E+00  0.00000000E+00
  0.00000000E+00  0.00000000E+00  0.00000000E+00
  0.00000000E+00  0.00000000E+00  0.00000000E+00
  0.00000000E+00  0.00000000E+00  0.00000000E+00
  0.00000000E+00  0.00000000E+00  0.00000000E+00
  0.00000000E+00  0.00000000E+00  0.00000000E+00
  0.00000000E+00  0.00000000E+00  0.00000000E+00
  0.00000000E+00  0.00000000E+00  0.00000000E+00
  0.00000000E+00  0.00000000E+00  0.00000000E+00
  0.00000000E+00  0.00000000E+00  0.00000000E+00
  0.00000000E+00  0.00000000E+00  0.00000000E+00
  0.00000000E+00  0.00000000E+00  0.00000000E+00
  0.00000000E+00  0.00000000E+00  0.00000000E+00
  0.00000000E+00  0.00000000E+00  0.00000000E+00
  0.00000000E+00  0.00000000E+00  0.00000000E+00
  0.00000000E+00  0.00000000E+00  0.00000000E+00
  0.00000000E+00  0.00000000E+00  0.00000000E+00
  0.00000000E+00  0.00000000E+00  0.00000000E+00
  0.00000000E+00  0.00000000E+00  0.00000000E+00
  0.00000000E+00  0.00000000E+00  0.00000000E+00
  0.00000000E+00  0.00000000E+00  0.00000000E+00
  0.00000000E+00  0.00000000E+00  0.00000000E+00
  0.00000000E+00  0.00000000E+00  0.00000000E+00
  0.00000000E+00  0.00000000E+00  0.00000000E+00
  0.00000000E+00  0.00000000E+00  0.00000000E+00
  0.00000000E+00  0.00000000E+00  0.00000000E+00
  0.00000000E+00  0.00000000E+00  0.00000000E+00
  0.00000000E+00  0.00000000E+00  0.00000000E+00
  0.00000000E+00  0.00000000E+00  0.00000000E+00
  0.00000000E+00  0.00000000E+00  0.00000000E+00
  0.00000000E+00  0.00000000E+00  0.00000000E+00
  0.00000000E+00  0.00000000E+00  0.00000000E+00
  0.00000000E+00  0.00000000E+00  0.00000000E+00
  0.00000000E+00  0.00000000E+00  0.00000000E+00
  0.00000000E+00  0.00000000E+00  0.00000000E+00
  0.00000000E+00  0.00000000E+00  0.00000000E+00
  0.00000000E+00  0.00000000E+00  0.00000000E+00
  0.00000000E+00  0.00000000E+00  0.00000000E+00
  0.00000000E+00  0.00000000E+00  0.00000000E+00
  0.00000000E+00  0.00000000E+00  0.00000000E+00
  0.00000000E+00  0.00000000E+00  0.00000000E+00
  0.00000000E+00  0.00000000E+00  0.00000000E+00
  0.00000000E+00  0.00000000E+00  0.00000000E+00
  0.00000000E+00  0.00000000E+00  0.00000000E+00
  0.00000000E+00  0.00000000E+00  0.00000000E+00
  0.00000000E+00  0.00000000E+00  0.00000000E+00
  0.00000000E+00  0.00000000E+00  0.00000000E+00
  0.00000000E+00  0.00000000E+00  0.00000000E+00
  0.00000000E+00  0.00000000E+00  0.00000000E+00
  0.00000000E+00  0.00000000E+00  0.00000000E+00
  0.00000000E+00  0.00000000E+00  0.00000000E+00
  0.00000000E+00  0.00000000E+00  0.00000000E+00
  0.00000000E+00  0.00000000E+00  0.00000000E+00
  0.00000000E+00  0.00000000E+00  0.00000000E+00
  0.00000000E+00  0.00000000E+00  0.00000000E+00
  0.00000000E+00  0.00000000E+00  0.00000000E+00
  0.00000000E+00  0.00000000E+00  0.00000000E+00
