Si+C                                    
   1.00000000000000     
    16.2930011750000006    0.0000000000000000    0.0000000000000000
   -10.8620004649999995   12.1440858840000008    0.0000000000000000
     0.0000000000000000    0.0000000000000000    7.9947495460000004
   Si   C 
    36    84
Direct
  0.9829056259999973  0.6410251260000024  0.0000000020000002
  0.7829055790000012  0.3410250250000004  0.1519008280000023
  0.5829054120000023  0.0410249350000029  0.3038016559999974
  0.9829056259999973  0.3076917830000028  0.0000000020000002
  0.7829055790000012  0.0076917150000000  0.1519008280000023
  0.5829054120000023  0.7076916689999990  0.3038016559999974
  0.9829056259999973  0.9743584989999974  0.0000000020000002
  0.7829055790000012  0.6743583680000000  0.1519008280000023
  0.5829054120000023  0.3743582959999969  0.3038016559999974
  0.6329056619999989  0.6576917169999987  0.0759502570000024
  0.4329055850000003  0.3576916159999968  0.2278510929999982
  0.2329055220000029  0.0576915779999965  0.3797519210000004
  0.6329056619999989  0.3243584630000029  0.0759502570000024
  0.4329055850000003  0.0243583689999980  0.2278510929999982
  0.2329055220000029  0.7243583200000003  0.3797519210000004
  0.6329056619999989  0.9910252090000000  0.0759502570000024
  0.4329055850000003  0.6910251380000005  0.2278510929999982
  0.2329055220000029  0.3910250659999974  0.3797519210000004
  0.4829056259999973  0.8076917530000003  0.0000000000000000
  0.2829055489999988  0.5076916220000030  0.1519008280000023
  0.0829054419999977  0.2076916099999977  0.3038016559999974
  0.4829056259999973  0.4743584389999995  0.0000000000000000
  0.2829055489999988  0.1743583530000024  0.1519008280000023
  0.0829054419999977  0.8743582959999969  0.3038016559999974
  0.4829056259999973  0.1410251410000001  0.0000000000000000
  0.2829055489999988  0.8410250539999993  0.1519008280000023
  0.0829054419999977  0.5410249829999998  0.3038016559999974
  0.1329056769999966  0.8243585230000008  0.0759502720000000
  0.9329055549999978  0.5243583920000034  0.2278510929999982
  0.7329055069999981  0.2243583799999982  0.3797519210000004
  0.1329056769999966  0.4910252090000000  0.0759502720000000
  0.9329055549999978  0.1910251079999981  0.2278510929999982
  0.7329055069999981  0.8910251260000024  0.3797519210000004
  0.1329056769999966  0.1576919560000007  0.0759502720000000
  0.9329055549999978  0.8576918839999976  0.2278510929999982
  0.7329055069999981  0.5576919319999973  0.3797519210000004
  0.3396295909999978  0.0649818179999997  0.5651751759999968
  0.5824868079999987  0.0364103320000027  0.6649358270000008
  0.8253440260000033  0.0078388450000020  0.7646964790000013
  0.6253438589999973  0.2078389819999984  0.5651751759999968
  0.8682010770000019  0.1792674960000014  0.6649358270000008
  0.1110582350000016  0.1506960390000032  0.7646964790000013
  0.9110580680000027  0.3506960870000029  0.5651751759999968
  0.1539154049999993  0.3221246000000022  0.6649358270000008
  0.3967726229999968  0.2935531440000005  0.7646964790000013
  0.1967724559999979  0.4935532809999970  0.5651751759999968
  0.4396296740000025  0.4649817940000034  0.6649358270000008
  0.6824870109999992  0.4364103380000017  0.7646964790000013
  0.4824867250000011  0.6364104150000003  0.5651751759999968
  0.7253439429999986  0.6078389879999975  0.6649358270000008
  0.9682011599999996  0.5792675020000004  0.7646964790000013
  0.7682009939999972  0.7792676090000015  0.5651751759999968
  0.0110583310000010  0.7506961229999973  0.6649358270000008
  0.2539155480000019  0.7221246359999967  0.7646964790000013
  0.0539152619999967  0.9221247429999977  0.5651751759999968
  0.2967724800000013  0.8935531970000028  0.6649358270000008
  0.5396296979999988  0.8649817709999965  0.7646964790000013
  0.1753437520000034  0.1578390000000027  0.6150554419999992
  0.4182010890000001  0.1292675139999986  0.7148160930000031
  0.6610583069999976  0.1006960050000032  0.8145766259999974
  0.4610579610000016  0.3006961350000026  0.6150554419999992
  0.7039152380000004  0.2721246480000019  0.7148160930000031
  0.9467724559999979  0.2435531320000024  0.8145767449999965
  0.7467722889999990  0.4435532990000013  0.6150554419999992
  0.9896295670000015  0.4149818120000006  0.7148160930000031
  0.2324868440000003  0.3864103260000036  0.8145767449999965
  0.0324866770000014  0.5864104630000000  0.6150554419999992
  0.2753438949999989  0.5578389169999980  0.7148160930000031
  0.5182012320000027  0.5292675500000001  0.8145767449999965
  0.3182008269999983  0.7292675970000033  0.6150554419999992
  0.5610581640000021  0.7006961109999992  0.7148160930000031
  0.8039152619999967  0.6721246239999985  0.8145767449999965
  0.6039152740000020  0.8721247320000032  0.6150554419999992
  0.8467725519999973  0.8435531849999975  0.7148160930000031
  0.0896297689999983  0.8149817589999984  0.8145766259999974
  0.8896294239999989  0.0149817470000002  0.6150554419999992
  0.1324865819999985  0.9864103789999987  0.7148160930000031
  0.3753439190000023  0.9578388930000017  0.8145766259999974
  0.9824868440000003  0.1364104450000028  0.5651751759999968
  0.2253439429999986  0.1078389290000032  0.6649358270000008
  0.4682012800000024  0.0792675089999975  0.7646964790000013
  0.2682011130000035  0.2792675789999990  0.5651751759999968
  0.5110583310000010  0.2506960629999995  0.6649358270000008
  0.7539154290000027  0.2221245770000024  0.7646964790000013
  0.5539153220000017  0.4221247139999988  0.5651751759999968
  0.7967725399999992  0.3935532269999982  0.6649358270000008
  0.0396296979999988  0.3649817410000011  0.7646964790000013
  0.8396295309999999  0.5649818779999976  0.5651751759999968
  0.0824868679999966  0.5364103909999969  0.6649358270000008
  0.3253440860000012  0.5078389049999998  0.7646964790000013
  0.1253438000000031  0.7078390120000009  0.5651751759999968
  0.3682011369999998  0.6792675849999981  0.6649358270000008
  0.6110582350000016  0.6506960390000032  0.7646964790000013
  0.4110581280000005  0.8506962060000021  0.5651751759999968
  0.6539154049999993  0.8221247789999993  0.6649358270000008
  0.8967726830000018  0.7935532930000022  0.7646964790000013
  0.6967724559999979  0.9935533399999983  0.5651751759999968
  0.9396296139999976  0.9649819139999991  0.6649358270000008
  0.1824870109999992  0.9364104269999984  0.7646964790000013
  0.5324867369999993  0.0864104329999975  0.6150554419999992
  0.7753440139999981  0.0578389169999980  0.7148160930000031
  0.0182013510000019  0.0292674299999973  0.8145767449999965
  0.8182008859999996  0.2292675670000008  0.6150554419999992
  0.0610581640000021  0.2006960809999967  0.7148160930000031
  0.3039153810000030  0.1721246239999985  0.8145766259999974
  0.1039152150000007  0.3721246719999982  0.6150554419999992
  0.3467725519999973  0.3435532450000025  0.7148160930000031
  0.5896297689999983  0.3149817879999972  0.8145766259999974
  0.3896293640000010  0.5149818659999994  0.6150554419999992
  0.6324867009999977  0.4864103789999987  0.7148160930000031
  0.8753439190000023  0.4578388629999992  0.8145766259999974
  0.6753438120000013  0.6578389410000014  0.6150554419999992
  0.9182011489999979  0.6292674540000007  0.7148160930000031
  0.1610584259999968  0.6006960269999979  0.8145767449999965
  0.9610581399999987  0.8006961350000026  0.6150554419999992
  0.2039153580000033  0.7721246480000019  0.7148160930000031
  0.4467726949999999  0.7435532809999970  0.8145767449999965
  0.2467722889999990  0.9435532689999988  0.6150554419999992
  0.4896296260000028  0.9149818420000031  0.7148160930000031
  0.7324868440000003  0.8864103559999990  0.8145767449999965
 
  0.00000000E+00  0.00000000E+00  0.00000000E+00
  0.00000000E+00  0.00000000E+00  0.00000000E+00
  0.00000000E+00  0.00000000E+00  0.00000000E+00
  0.00000000E+00  0.00000000E+00  0.00000000E+00
  0.00000000E+00  0.00000000E+00  0.00000000E+00
  0.00000000E+00  0.00000000E+00  0.00000000E+00
  0.00000000E+00  0.00000000E+00  0.00000000E+00
  0.00000000E+00  0.00000000E+00  0.00000000E+00
  0.00000000E+00  0.00000000E+00  0.00000000E+00
  0.00000000E+00  0.00000000E+00  0.00000000E+00
  0.00000000E+00  0.00000000E+00  0.00000000E+00
  0.00000000E+00  0.00000000E+00  0.00000000E+00
  0.00000000E+00  0.00000000E+00  0.00000000E+00
  0.00000000E+00  0.00000000E+00  0.00000000E+00
  0.00000000E+00  0.00000000E+00  0.00000000E+00
  0.00000000E+00  0.00000000E+00  0.00000000E+00
  0.00000000E+00  0.00000000E+00  0.00000000E+00
  0.00000000E+00  0.00000000E+00  0.00000000E+00
  0.00000000E+00  0.00000000E+00  0.00000000E+00
  0.00000000E+00  0.00000000E+00  0.00000000E+00
  0.00000000E+00  0.00000000E+00  0.00000000E+00
  0.00000000E+00  0.00000000E+00  0.00000000E+00
  0.00000000E+00  0.00000000E+00  0.00000000E+00
  0.00000000E+00  0.00000000E+00  0.00000000E+00
  0.00000000E+00  0.00000000E+00  0.00000000E+00
  0.00000000E+00  0.00000000E+00  0.00000000E+00
  0.00000000E+00  0.00000000E+00  0.00000000E+00
  0.00000000E+00  0.00000000E+00  0.00000000E+00
  0.00000000E+00  0.00000000E+00  0.00000000E+00
  0.00000000E+00  0.00000000E+00  0.00000000E+00
  0.00000000E+00  0.00000000E+00  0.00000000E+00
  0.00000000E+00  0.00000000E+00  0.00000000E+00
  0.00000000E+00  0.00000000E+00  0.00000000E+00
  0.00000000E+00  0.00000000E+00  0.00000000E+00
  0.00000000E+00  0.00000000E+00  0.00000000E+00
  0.00000000E+00  0.00000000E+00  0.00000000E+00
  0.00000000E+00  0.00000000E+00  0.00000000E+00
  0.00000000E+00  0.00000000E+00  0.00000000E+00
  0.00000000E+00  0.00000000E+00  0.00000000E+00
  0.00000000E+00  0.00000000E+00  0.00000000E+00
  0.00000000E+00  0.00000000E+00  0.00000000E+00
  0.00000000E+00  0.00000000E+00  0.00000000E+00
  0.00000000E+00  0.00000000E+00  0.00000000E+00
  0.00000000E+00  0.00000000E+00  0.00000000E+00
  0.00000000E+00  0.00000000E+00  0.00000000E+00
  0.00000000E+00  0.00000000E+00  0.00000000E+00
  0.00000000E+00  0.00000000E+00  0.00000000E+00
  0.00000000E+00  0.00000000E+00  0.00000000E+00
  0.00000000E+00  0.00000000E+00  0.00000000E+00
  0.00000000E+00  0.00000000E+00  0.00000000E+00
  0.00000000E+00  0.00000000E+00  0.00000000E+00
  0.00000000E+00  0.00000000E+00  0.00000000E+00
  0.00000000E+00  0.00000000E+00  0.00000000E+00
  0.00000000E+00  0.00000000E+00  0.00000000E+00
  0.00000000E+00  0.00000000E+00  0.00000000E+00
  0.00000000E+00  0.00000000E+00  0.00000000E+00
  0.00000000E+00  0.00000000E+00  0.00000000E+00
  0.00000000E+00  0.00000000E+00  0.00000000E+00
  0.00000000E+00  0.00000000E+00  0.00000000E+00
  0.00000000E+00  0.00000000E+00  0.00000000E+00
  0.00000000E+00  0.00000000E+00  0.00000000E+00
  0.00000000E+00  0.00000000E+00  0.00000000E+00
  0.00000000E+00  0.00000000E+00  0.00000000E+00
  0.00000000E+00  0.00000000E+00  0.00000000E+00
  0.00000000E+00  0.00000000E+00  0.00000000E+00
  0.00000000E+00  0.00000000E+00  0.00000000E+00
  0.00000000E+00  0.00000000E+00  0.00000000E+00
  0.00000000E+00  0.00000000E+00  0.00000000E+00
  0.00000000E+00  0.00000000E+00  0.00000000E+00
  0.00000000E+00  0.00000000E+00  0.00000000E+00
  0.00000000E+00  0.00000000E+00  0.00000000E+00
  0.00000000E+00  0.00000000E+00  0.00000000E+00
  0.00000000E+00  0.00000000E+00  0.00000000E+00
  0.00000000E+00  0.00000000E+00  0.00000000E+00
  0.00000000E+00  0.00000000E+00  0.00000000E+00
  0.00000000E+00  0.00000000E+00  0.00000000E+00
  0.00000000E+00  0.00000000E+00  0.00000000E+00
  0.00000000E+00  0.00000000E+00  0.00000000E+00
  0.00000000E+00  0.00000000E+00  0.00000000E+00
  0.00000000E+00  0.00000000E+00  0.00000000E+00
  0.00000000E+00  0.00000000E+00  0.00000000E+00
  0.00000000E+00  0.00000000E+00  0.00000000E+00
  0.00000000E+00  0.00000000E+00  0.00000000E+00
  0.00000000E+00  0.00000000E+00  0.00000000E+00
  0.00000000E+00  0.00000000E+00  0.00000000E+00
  0.00000000E+00  0.00000000E+00  0.00000000E+00
  0.00000000E+00  0.00000000E+00  0.00000000E+00
  0.00000000E+00  0.00000000E+00  0.00000000E+00
  0.00000000E+00  0.00000000E+00  0.00000000E+00
  0.00000000E+00  0.00000000E+00  0.00000000E+00
  0.00000000E+00  0.00000000E+00  0.00000000E+00
  0.00000000E+00  0.00000000E+00  0.00000000E+00
  0.00000000E+00  0.00000000E+00  0.00000000E+00
  0.00000000E+00  0.00000000E+00  0.00000000E+00
  0.00000000E+00  0.00000000E+00  0.00000000E+00
  0.00000000E+00  0.00000000E+00  0.00000000E+00
  0.00000000E+00  0.00000000E+00  0.00000000E+00
  0.00000000E+00  0.00000000E+00  0.00000000E+00
  0.00000000E+00  0.00000000E+00  0.00000000E+00
  0.00000000E+00  0.00000000E+00  0.00000000E+00
  0.00000000E+00  0.00000000E+00  0.00000000E+00
  0.00000000E+00  0.00000000E+00  0.00000000E+00
  0.00000000E+00  0.00000000E+00  0.00000000E+00
  0.00000000E+00  0.00000000E+00  0.00000000E+00
  0.00000000E+00  0.00000000E+00  0.00000000E+00
  0.00000000E+00  0.00000000E+00  0.00000000E+00
  0.00000000E+00  0.00000000E+00  0.00000000E+00
  0.00000000E+00  0.00000000E+00  0.00000000E+00
  0.00000000E+00  0.00000000E+00  0.00000000E+00
  0.00000000E+00  0.00000000E+00  0.00000000E+00
  0.00000000E+00  0.00000000E+00  0.00000000E+00
  0.00000000E+00  0.00000000E+00  0.00000000E+00
  0.00000000E+00  0.00000000E+00  0.00000000E+00
  0.00000000E+00  0.00000000E+00  0.00000000E+00
  0.00000000E+00  0.00000000E+00  0.00000000E+00
  0.00000000E+00  0.00000000E+00  0.00000000E+00
  0.00000000E+00  0.00000000E+00  0.00000000E+00
  0.00000000E+00  0.00000000E+00  0.00000000E+00
  0.00000000E+00  0.00000000E+00  0.00000000E+00
  0.00000000E+00  0.00000000E+00  0.00000000E+00
