Si+C
    1.000000000
   16.293001175    0.000000000    0.000000000
  -10.862000465   12.144085884    0.000000000
    0.000000000    0.000000000    7.994749546
Si  C  
36     84
Direct
    0.982905626    0.641025126    0.000000002
    0.782905579    0.341025025    0.151900828
    0.582905412    0.041024935    0.303801656
    0.982905626    0.307691783    0.000000002
    0.782905579    0.007691715    0.151900828
    0.582905412    0.707691669    0.303801656
    0.982905626    0.974358499    0.000000002
    0.782905579    0.674358368    0.151900828
    0.582905412    0.374358296    0.303801656
    0.632905662    0.657691717    0.075950257
    0.432905585    0.357691616    0.227851093
    0.232905522    0.057691578    0.379751921
    0.632905662    0.324358463    0.075950257
    0.432905585    0.024358369    0.227851093
    0.232905522    0.724358320    0.379751921
    0.632905662    0.991025209    0.075950257
    0.432905585    0.691025138    0.227851093
    0.232905522    0.391025066    0.379751921
    0.482905626    0.807691753    0.000000000
    0.282905549    0.507691622    0.151900828
    0.082905442    0.207691610    0.303801656
    0.482905626    0.474358439    0.000000000
    0.282905549    0.174358353    0.151900828
    0.082905442    0.874358296    0.303801656
    0.482905626    0.141025141    0.000000000
    0.282905549    0.841025054    0.151900828
    0.082905442    0.541024983    0.303801656
    0.132905677    0.824358523    0.075950272
    0.932905555    0.524358392    0.227851093
    0.732905507    0.224358380    0.379751921
    0.132905677    0.491025209    0.075950272
    0.932905555    0.191025108    0.227851093
    0.732905507    0.891025126    0.379751921
    0.132905677    0.157691956    0.075950272
    0.932905555    0.857691884    0.227851093
    0.732905507    0.557691932    0.379751921
    0.339629591    0.064981818    0.565175176
    0.582486808    0.036410332    0.664935827
    0.825344026    0.007838845    0.764696479
    0.625343859    0.207838982    0.565175176
    0.868201077    0.179267496    0.664935827
    0.111058235    0.150696039    0.764696479
    0.911058068    0.350696087    0.565175176
    0.153915405    0.322124600    0.664935827
    0.396772623    0.293553144    0.764696479
    0.196772456    0.493553281    0.565175176
    0.439629674    0.464981794    0.664935827
    0.682487011    0.436410338    0.764696479
    0.482486725    0.636410415    0.565175176
    0.725343943    0.607838988    0.664935827
    0.968201160    0.579267502    0.764696479
    0.768200994    0.779267609    0.565175176
    0.011058331    0.750696123    0.664935827
    0.253915548    0.722124636    0.764696479
    0.053915262    0.922124743    0.565175176
    0.296772480    0.893553197    0.664935827
    0.539629698    0.864981771    0.764696479
    0.175343752    0.157839000    0.615055442
    0.418201089    0.129267514    0.714816093
    0.661058307    0.100696005    0.814576626
    0.461057961    0.300696135    0.615055442
    0.703915238    0.272124648    0.714816093
    0.946772456    0.243553132    0.814576745
    0.746772289    0.443553299    0.615055442
    0.989629567    0.414981812    0.714816093
    0.232486844    0.386410326    0.814576745
    0.032486677    0.586410463    0.615055442
    0.275343895    0.557838917    0.714816093
    0.518201232    0.529267550    0.814576745
    0.318200827    0.729267597    0.615055442
    0.561058164    0.700696111    0.714816093
    0.803915262    0.672124624    0.814576745
    0.603915274    0.872124732    0.615055442
    0.846772552    0.843553185    0.714816093
    0.089629769    0.814981759    0.814576626
    0.889629424    0.014981747    0.615055442
    0.132486582    0.986410379    0.714816093
    0.375343919    0.957838893    0.814576626
    0.982486844    0.136410445    0.565175176
    0.225343943    0.107838929    0.664935827
    0.468201280    0.079267509    0.764696479
    0.268201113    0.279267579    0.565175176
    0.511058331    0.250696063    0.664935827
    0.753915429    0.222124577    0.764696479
    0.553915322    0.422124714    0.565175176
    0.796772540    0.393553227    0.664935827
    0.039629698    0.364981741    0.764696479
    0.839629531    0.564981878    0.565175176
    0.082486868    0.536410391    0.664935827
    0.325344086    0.507838905    0.764696479
    0.125343800    0.707839012    0.565175176
    0.368201137    0.679267585    0.664935827
    0.611058235    0.650696039    0.764696479
    0.411058128    0.850696206    0.565175176
    0.653915405    0.822124779    0.664935827
    0.896772683    0.793553293    0.764696479
    0.696772456    0.993553340    0.565175176
    0.939629614    0.964981914    0.664935827
    0.182487011    0.936410427    0.764696479
    0.532486737    0.086410433    0.615055442
    0.775344014    0.057838917    0.714816093
    0.018201351    0.029267430    0.814576745
    0.818200886    0.229267567    0.615055442
    0.061058164    0.200696081    0.714816093
    0.303915381    0.172124624    0.814576626
    0.103915215    0.372124672    0.615055442
    0.346772552    0.343553245    0.714816093
    0.589629769    0.314981788    0.814576626
    0.389629364    0.514981866    0.615055442
    0.632486701    0.486410379    0.714816093
    0.875343919    0.457838863    0.814576626
    0.675343812    0.657838941    0.615055442
    0.918201149    0.629267454    0.714816093
    0.161058426    0.600696027    0.814576745
    0.961058140    0.800696135    0.615055442
    0.203915358    0.772124648    0.714816093
    0.446772695    0.743553281    0.814576745
    0.246772289    0.943553269    0.615055442
    0.489629626    0.914981842    0.714816093
    0.732486844    0.886410356    0.814576745
