Si
 1.0000000000000000
     7.6805938572482795    0.0000000000000000    0.0000000000000000
     3.8402969286241397    6.6515893965277204    0.0000000000000000
     0.0000000000000000    0.0000000000000000   61.1652278557897944
 Si 
  56
Direct
  0.0000000000000000  0.0000000000000000  0.3269831683968269
  0.0000000000000001  0.9999999999999998  0.3654313531975320
  0.0000000000000001  0.4999999999999998  0.3269831683968269
  0.0000000000000000  0.4999999999999998  0.3654313531975320
  0.5000000000000000  0.0000000000000000  0.3269831683968269
  0.5000000000000001  0.9999999999999998  0.3654313531975320
  0.5000000000000000  0.4999999999999998  0.3269831683968269
  0.5000000000000000  0.4999999999999998  0.3654313531975320
  0.6666666666666669  0.6666666666666664  0.3782474147977671
  0.6666666666666669  0.6666666666666664  0.4166955995984722
  0.6666666666666670  0.1666666666666664  0.3782474147977671
  0.6666666666666671  0.1666666666666664  0.4166955995984722
  0.1666666666666668  0.6666666666666664  0.3782474147977671
  0.1666666666666670  0.6666666666666664  0.4166955995984722
  0.1666666666666668  0.1666666666666664  0.3782474147977671
  0.1666666666666668  0.1666666666666664  0.4166955995984722
  0.3333333333333335  0.3333333333333331  0.4295116611987073
  0.3333333333333335  0.3333333333333329  0.4679598459994124
  0.3333333333333338  0.8333333333333329  0.4295116611987073
  0.3333333333333336  0.8333333333333329  0.4679598459994124
  0.8333333333333337  0.3333333333333331  0.4295116611987073
  0.8333333333333337  0.3333333333333330  0.4679598459994124
  0.8333333333333335  0.8333333333333329  0.4295116611987073
  0.8333333333333335  0.8333333333333329  0.4679598459994124
  0.0000000000000001  0.9999999999999997  0.4807759075996474
  0.0000000000000009  0.9999999999999996  0.5192240924003525
  0.0000000000000005  0.4999999999999996  0.4807759075996474
  0.0000000000000000  0.4999999999999995  0.5192240924003525
  0.5000000000000006  0.9999999999999997  0.4807759075996474
  0.5000000000000001  0.9999999999999997  0.5192240924003525
  0.5000000000000000  0.4999999999999995  0.4807759075996474
  0.5000000000000001  0.4999999999999996  0.5192240924003525
  0.6666666666666670  0.6666666666666663  0.5320401540005876
  0.6666666666666679  0.6666666666666661  0.5704883388012928
  0.6666666666666674  0.1666666666666662  0.5320401540005876
  0.6666666666666674  0.1666666666666661  0.5704883388012928
  0.1666666666666670  0.6666666666666663  0.5320401540005876
  0.1666666666666670  0.6666666666666663  0.5704883388012927
  0.1666666666666670  0.1666666666666662  0.5320401540005876
  0.1666666666666670  0.1666666666666662  0.5704883388012927
  0.3333333333333339  0.3333333333333328  0.5833044004015278
  0.3333333333333340  0.3333333333333325  0.6217525852022330
  0.3333333333333345  0.8333333333333325  0.5833044004015278
  0.3333333333333340  0.8333333333333325  0.6217525852022330
  0.8333333333333339  0.3333333333333328  0.5833044004015278
  0.8333333333333339  0.3333333333333328  0.6217525852022330
  0.8333333333333338  0.8333333333333325  0.5833044004015278
  0.8333333333333338  0.8333333333333325  0.6217525852022330
  0.0000000000000000  0.9999999999999996  0.6345686468024679
  0.0000000000000009  0.9999999999999996  0.6730168316031732
  0.0000000000000009  0.4999999999999995  0.6345686468024679
  0.0000000000000009  0.4999999999999991  0.6730168316031732
  0.5000000000000010  0.9999999999999996  0.6345686468024679
  0.5000000000000010  0.9999999999999996  0.6730168316031732
  0.5000000000000010  0.4999999999999991  0.6345686468024679
  0.5000000000000019  0.4999999999999991  0.6730168316031732
