fcc Si+fcc Ge
    1.000000000
   12.253652517    0.000000000    0.000000000
  -12.253652517   12.253652517    0.000000000
    0.000000000    0.000000000   32.050000000
Si    Ge   
110     110
Direct
    0.400000000    0.800000000    0.000000000
    0.500000000    0.000000000    0.085491420
    0.600000000    0.200000000    0.170982839
    0.700000000    0.400000000    0.256474259
    0.800000000    0.600000000    0.341965679
    0.900000000    0.800000000    0.427457098
    0.200000000    0.400000000    0.000000000
    0.300000000    0.600000000    0.085491420
    0.400000000    0.800000000    0.170982839
    0.500000000    0.000000000    0.256474259
    0.600000000    0.200000000    0.341965679
    0.700000000    0.400000000    0.427457098
    0.800000000    0.600000000    0.000000000
    0.900000000    0.800000000    0.085491420
    0.000000000    0.000000000    0.170982839
    0.100000000    0.200000000    0.256474259
    0.200000000    0.400000000    0.341965679
    0.300000000    0.600000000    0.427457098
    0.000000000    0.000000000    0.000000000
    0.100000000    0.200000000    0.085491420
    0.200000000    0.400000000    0.170982839
    0.300000000    0.600000000    0.256474259
    0.400000000    0.800000000    0.341965679
    0.500000000    0.000000000    0.427457098
    0.600000000    0.200000000    0.000000000
    0.700000000    0.400000000    0.085491420
    0.800000000    0.600000000    0.170982839
    0.900000000    0.800000000    0.256474259
    0.000000000    0.000000000    0.341965679
    0.100000000    0.200000000    0.427457098
    0.200000000    0.900000000    0.000000000
    0.300000000    0.100000000    0.085491420
    0.400000000    0.300000000    0.170982839
    0.500000000    0.500000000    0.256474259
    0.600000000    0.700000000    0.341965679
    0.700000000    0.900000000    0.427457098
    0.000000000    0.500000000    0.000000000
    0.100000000    0.700000000    0.085491420
    0.200000000    0.900000000    0.170982839
    0.300000000    0.100000000    0.256474259
    0.400000000    0.300000000    0.341965679
    0.500000000    0.500000000    0.427457098
    0.600000000    0.700000000    0.000000000
    0.700000000    0.900000000    0.085491420
    0.800000000    0.100000000    0.170982839
    0.900000000    0.300000000    0.256474259
    0.000000000    0.500000000    0.341965679
    0.100000000    0.700000000    0.427457098
    0.400000000    0.300000000    0.000000000
    0.500000000    0.500000000    0.085491420
    0.600000000    0.700000000    0.170982839
    0.700000000    0.900000000    0.256474259
    0.800000000    0.100000000    0.341965679
    0.900000000    0.300000000    0.427457098
    0.800000000    0.100000000    0.000000000
    0.900000000    0.300000000    0.085491420
    0.000000000    0.500000000    0.170982839
    0.100000000    0.700000000    0.256474259
    0.200000000    0.900000000    0.341965679
    0.300000000    0.100000000    0.427457098
    0.100000000    0.950000000    0.042745710
    0.200000000    0.150000000    0.128237129
    0.300000000    0.350000000    0.213728549
    0.400000000    0.550000000    0.299219969
    0.500000000    0.750000000    0.384711388
    0.500000000    0.750000000    0.042745710
    0.600000000    0.950000000    0.128237129
    0.700000000    0.150000000    0.213728549
    0.800000000    0.350000000    0.299219969
    0.900000000    0.550000000    0.384711388
    0.300000000    0.350000000    0.042745710
    0.400000000    0.550000000    0.128237129
    0.500000000    0.750000000    0.213728549
    0.600000000    0.950000000    0.299219969
    0.700000000    0.150000000    0.384711388
    0.900000000    0.550000000    0.042745710
    0.000000000    0.750000000    0.128237129
    0.100000000    0.950000000    0.213728549
    0.200000000    0.150000000    0.299219969
    0.300000000    0.350000000    0.384711388
    0.700000000    0.150000000    0.042745710
    0.800000000    0.350000000    0.128237129
    0.900000000    0.550000000    0.213728549
    0.000000000    0.750000000    0.299219969
    0.100000000    0.950000000    0.384711388
    0.300000000    0.850000000    0.042745710
    0.400000000    0.050000000    0.128237129
    0.500000000    0.250000000    0.213728549
    0.600000000    0.450000000    0.299219969
    0.700000000    0.650000000    0.384711388
    0.100000000    0.450000000    0.042745710
    0.200000000    0.650000000    0.128237129
    0.300000000    0.850000000    0.213728549
    0.400000000    0.050000000    0.299219969
    0.500000000    0.250000000    0.384711388
    0.700000000    0.650000000    0.042745710
    0.800000000    0.850000000    0.128237129
    0.900000000    0.050000000    0.213728549
    0.000000000    0.250000000    0.299219969
    0.100000000    0.450000000    0.384711388
    0.500000000    0.250000000    0.042745710
    0.600000000    0.450000000    0.128237129
    0.700000000    0.650000000    0.213728549
    0.800000000    0.850000000    0.299219969
    0.900000000    0.050000000    0.384711388
    0.900000000    0.050000000    0.042745710
    0.000000000    0.250000000    0.128237129
    0.100000000    0.450000000    0.213728549
    0.200000000    0.650000000    0.299219969
    0.300000000    0.850000000    0.384711388
    0.388524590    0.893023256    0.492979719
    0.488524590    0.793023256    0.581279251
    0.588524590    0.693023256    0.669578783
    0.688524590    0.593023256    0.757878315
    0.788524590    0.493023256    0.846177847
    0.888524590    0.393023256    0.934477379
    0.588524590    0.693023256    0.492979719
    0.688524590    0.593023256    0.581279251
    0.788524590    0.493023256    0.669578783
    0.888524590    0.393023256    0.757878315
    0.988524590    0.293023256    0.846177847
    0.088524590    0.193023256    0.934477379
    0.188524590    0.093023256    0.492979719
    0.288524590    0.993023256    0.581279251
    0.388524590    0.893023256    0.669578783
    0.488524590    0.793023256    0.757878315
    0.588524590    0.693023256    0.846177847
    0.688524590    0.593023256    0.934477379
    0.788524590    0.493023256    0.492979719
    0.888524590    0.393023256    0.581279251
    0.988524590    0.293023256    0.669578783
    0.088524590    0.193023256    0.757878315
    0.188524590    0.093023256    0.846177847
    0.288524590    0.993023256    0.934477379
    0.988524590    0.293023256    0.492979719
    0.088524590    0.193023256    0.581279251
    0.188524590    0.093023256    0.669578783
    0.288524590    0.993023256    0.757878315
    0.388524590    0.893023256    0.846177847
    0.488524590    0.793023256    0.934477379
    0.188524590    0.593023256    0.492979719
    0.288524590    0.493023256    0.581279251
    0.388524590    0.393023256    0.669578783
    0.488524590    0.293023256    0.757878315
    0.588524590    0.193023256    0.846177847
    0.688524590    0.093023256    0.934477379
    0.788524590    0.993023256    0.492979719
    0.888524590    0.893023256    0.581279251
    0.988524590    0.793023256    0.669578783
    0.088524590    0.693023256    0.757878315
    0.188524590    0.593023256    0.846177847
    0.288524590    0.493023256    0.934477379
    0.388524590    0.393023256    0.492979719
    0.488524590    0.293023256    0.581279251
    0.588524590    0.193023256    0.669578783
    0.688524590    0.093023256    0.757878315
    0.788524590    0.993023256    0.846177847
    0.888524590    0.893023256    0.934477379
    0.988524590    0.793023256    0.492979719
    0.088524590    0.693023256    0.581279251
    0.188524590    0.593023256    0.669578783
    0.288524590    0.493023256    0.757878315
    0.388524590    0.393023256    0.846177847
    0.488524590    0.293023256    0.934477379
    0.588524590    0.193023256    0.492979719
    0.688524590    0.093023256    0.581279251
    0.788524590    0.993023256    0.669578783
    0.888524590    0.893023256    0.757878315
    0.988524590    0.793023256    0.846177847
    0.088524590    0.693023256    0.934477379
    0.588524590    0.943023256    0.537129485
    0.688524590    0.843023256    0.625429017
    0.788524590    0.743023256    0.713728549
    0.888524590    0.643023256    0.802028081
    0.988524590    0.543023256    0.890327613
    0.188524590    0.343023256    0.537129485
    0.288524590    0.243023256    0.625429017
    0.388524590    0.143023256    0.713728549
    0.488524590    0.043023256    0.802028081
    0.588524590    0.943023256    0.890327613
    0.788524590    0.743023256    0.537129485
    0.888524590    0.643023256    0.625429017
    0.988524590    0.543023256    0.713728549
    0.088524590    0.443023256    0.802028081
    0.188524590    0.343023256    0.890327613
    0.388524590    0.143023256    0.537129485
    0.488524590    0.043023256    0.625429017
    0.588524590    0.943023256    0.713728549
    0.688524590    0.843023256    0.802028081
    0.788524590    0.743023256    0.890327613
    0.988524590    0.543023256    0.537129485
    0.088524590    0.443023256    0.625429017
    0.188524590    0.343023256    0.713728549
    0.288524590    0.243023256    0.802028081
    0.388524590    0.143023256    0.890327613
    0.188524590    0.843023256    0.537129485
    0.288524590    0.743023256    0.625429017
    0.388524590    0.643023256    0.713728549
    0.488524590    0.543023256    0.802028081
    0.588524590    0.443023256    0.890327613
    0.388524590    0.643023256    0.537129485
    0.488524590    0.543023256    0.625429017
    0.588524590    0.443023256    0.713728549
    0.688524590    0.343023256    0.802028081
    0.788524590    0.243023256    0.890327613
    0.988524590    0.043023256    0.537129485
    0.088524590    0.943023256    0.625429017
    0.188524590    0.843023256    0.713728549
    0.288524590    0.743023256    0.802028081
    0.388524590    0.643023256    0.890327613
    0.588524590    0.443023256    0.537129485
    0.688524590    0.343023256    0.625429017
    0.788524590    0.243023256    0.713728549
    0.888524590    0.143023256    0.802028081
    0.988524590    0.043023256    0.890327613
    0.788524590    0.243023256    0.537129485
    0.888524590    0.143023256    0.625429017
    0.988524590    0.043023256    0.713728549
    0.088524590    0.943023256    0.802028081
    0.188524590    0.843023256    0.890327613
