C+Si
    1.000000000
   13.345743179    0.000000000    0.000000000
   -6.672873020   14.920996666    0.000000000
    0.000000000    0.000000000    7.401784897
C   Si 
84     36
Direct
    0.803541958    0.827111602    0.215505064
    0.174970403    0.855683148    0.000000034
    0.489256203    0.841397464    0.107752569
    0.946399033    0.684254408    0.215505138
    0.317827493    0.712826014    0.000000006
    0.632113278    0.698540211    0.107752569
    0.089256167    0.541397333    0.215505064
    0.460684687    0.569968879    0.000000034
    0.774970472    0.555683136    0.107752569
    0.232113361    0.398540169    0.215505064
    0.603541851    0.427111745    0.000000034
    0.917827666    0.412825942    0.107752569
    0.374970436    0.255683035    0.215505064
    0.746398985    0.284254611    0.000000034
    0.060684800    0.269968837    0.107752569
    0.517827630    0.112825885    0.215505064
    0.889256120    0.141397476    0.000000034
    0.203541875    0.127111688    0.107752569
    0.660684824    0.969968736    0.215505078
    0.032113254    0.998540282    0.000000021
    0.346399039    0.984254539    0.107752569
    0.353541851    0.927111626    0.269381166
    0.724970222    0.955683172    0.053876180
    0.039256096    0.941397429    0.161628738
    0.496398926    0.784254432    0.269381225
    0.867827296    0.812825978    0.053876184
    0.182113051    0.798540175    0.161628678
    0.639256239    0.641397357    0.269381225
    0.010684609    0.669968843    0.053876176
    0.324970484    0.655683160    0.161628678
    0.782113314    0.498540282    0.269381225
    0.153541684    0.527111769    0.053876176
    0.467827559    0.512826025    0.161628678
    0.924970269    0.355683059    0.269381255
    0.296398789    0.384254605    0.053876199
    0.610684574    0.369968861    0.161628693
    0.067827582    0.212825894    0.269381255
    0.439256072    0.241397485    0.053876191
    0.753541827    0.227111697    0.161628693
    0.210684776    0.069968797    0.269381255
    0.582113147    0.098540336    0.053876195
    0.896398902    0.084254570    0.161628738
    0.303542018    0.827111602    0.215505138
    0.674970448    0.855683267    0.000000000
    0.989256203    0.841397405    0.107752569
    0.446399212    0.684254408    0.215505138
    0.817827702    0.712826073    0.000000000
    0.132113338    0.698540211    0.107752569
    0.589256406    0.541397274    0.215505138
    0.960684776    0.569968939    0.000000000
    0.274970531    0.555683136    0.107752569
    0.732113421    0.398540229    0.215505138
    0.103541844    0.427111775    0.000000014
    0.417827666    0.412825972    0.107752554
    0.874970555    0.255683005    0.215505064
    0.246398970    0.284254581    0.000000017
    0.560684800    0.269968808    0.107752554
    0.017827630    0.112825878    0.215505064
    0.389256120    0.141397446    0.000000016
    0.703541934    0.127111673    0.107752554
    0.160684824    0.969968736    0.215505064
    0.532113254    0.998540342    0.000000016
    0.846399069    0.984254539    0.107752554
    0.853541791    0.927111626    0.269381225
    0.224970296    0.955683172    0.053876199
    0.539256036    0.941397369    0.161628738
    0.996398866    0.784254551    0.269381225
    0.367827386    0.812826097    0.053876199
    0.682113111    0.798540294    0.161628738
    0.139256120    0.641397357    0.269381166
    0.510684609    0.669968843    0.053876199
    0.824970424    0.655683100    0.161628738
    0.282113314    0.498540163    0.269381225
    0.653541744    0.527111709    0.053876199
    0.967827499    0.512825906    0.161628738
    0.424970388    0.355683088    0.269381225
    0.796398759    0.384254575    0.053876210
    0.110684633    0.369968832    0.161628738
    0.567827702    0.212825909    0.269381285
    0.939256072    0.241397485    0.053876195
    0.253541827    0.227111712    0.161628738
    0.710684776    0.069968820    0.269381166
    0.082113147    0.098540328    0.053876199
    0.396399021    0.084254608    0.161628738
    0.027454019    0.035612106    0.429603517
    0.994120598    0.802278757    0.593673348
    0.960787177    0.568945408    0.757743061
    0.360787243    0.368945420    0.429603517
    0.327453822    0.135612026    0.593673348
    0.294120401    0.902278662    0.757743061
    0.694120526    0.702278733    0.429603517
    0.660787106    0.468945265    0.593673348
    0.627453685    0.235611886    0.757743061
    0.344120562    0.002278924    0.511638284
    0.310787141    0.768945575    0.675707996
    0.277453721    0.535612166    0.839777708
    0.677453876    0.335612118    0.511638284
    0.644120455    0.102278754    0.675707936
    0.610787034    0.868945360    0.839777768
    0.010787487    0.668945432    0.511638284
    0.977454066    0.435612023    0.675707936
    0.944120646    0.202278644    0.839777708
    0.194120601    0.702278674    0.429603517
    0.160787195    0.468945265    0.593673348
    0.127453774    0.235611871    0.757743061
    0.527453899    0.035612226    0.429603517
    0.494120449    0.802278757    0.593673289
    0.460787088    0.568945408    0.757743001
    0.860787153    0.368945420    0.429603517
    0.827453732    0.135612085    0.593673289
    0.794120312    0.902278662    0.757743001
    0.177453935    0.335612118    0.511638284
    0.144120514    0.102278724    0.675707996
    0.110787101    0.868945360    0.839777768
    0.510787249    0.668945491    0.511638284
    0.477453858    0.435612082    0.675707936
    0.444120437    0.202278718    0.839777768
    0.844120502    0.002278805    0.511638284
    0.810787201    0.768945456    0.675707936
    0.777453780    0.535612047    0.839777768
