Si+C
    1.000000000
   13.303179741    0.000000000    0.000000000
   -6.651589394   14.873406410    0.000000000
    0.000000000    0.000000000    7.006474972
Si  C  
36     84
Direct
    0.997150958    0.980056584    0.000000000
    0.963817537    0.746723175    0.173326731
    0.930484116    0.513389826    0.346653461
    0.330484211    0.313389868    0.000000000
    0.297150791    0.080056474    0.173326731
    0.263817370    0.846723080    0.346653461
    0.663817465    0.646723151    0.000000000
    0.630484045    0.413389713    0.173326731
    0.597150624    0.180056334    0.346653461
    0.313817531    0.946723342    0.086663187
    0.280484110    0.713389993    0.259989917
    0.247150689    0.480056584    0.433316529
    0.647150815    0.280056566    0.086663187
    0.613817394    0.046723194    0.259989887
    0.580483973    0.813389778    0.433316559
    0.980484426    0.613389850    0.086663209
    0.947151005    0.380056471    0.259989887
    0.913817585    0.146723092    0.433316529
    0.163817570    0.646723092    0.000000002
    0.130484164    0.413389713    0.173326731
    0.097150750    0.180056319    0.346653461
    0.497150898    0.980056643    0.000000006
    0.463817418    0.746723175    0.173326656
    0.430484056    0.513389826    0.346653372
    0.830484152    0.313389868    0.000000006
    0.797150731    0.080056526    0.173326656
    0.763817310    0.846723080    0.346653372
    0.147150904    0.280056566    0.086663194
    0.113817483    0.046723165    0.259989917
    0.080484070    0.813389778    0.433316559
    0.480484217    0.613389909    0.086663194
    0.447150826    0.380056530    0.259989887
    0.413817406    0.146723166    0.433316559
    0.813817501    0.946723282    0.086663187
    0.780484140    0.713389874    0.259989887
    0.747150719    0.480056465    0.433316559
    0.932329834    0.956741214    0.802032232
    0.303758264    0.985312760    0.574368238
    0.618044078    0.971027076    0.688200235
    0.075186968    0.813884020    0.802032351
    0.446615368    0.842455626    0.574368238
    0.760901153    0.828169823    0.688200235
    0.218044043    0.671026945    0.802032232
    0.589472532    0.699598491    0.574368238
    0.903758347    0.685312748    0.688200235
    0.360901237    0.528169811    0.802032232
    0.732329726    0.556741357    0.574368238
    0.046615601    0.542455554    0.688200235
    0.503758311    0.385312676    0.802032232
    0.875186861    0.413884223    0.574368238
    0.189472675    0.399598479    0.688200235
    0.646615505    0.242455512    0.802032232
    0.018043995    0.271027088    0.574368238
    0.332329750    0.256741315    0.688200235
    0.789472699    0.099598408    0.802032292
    0.160901129    0.128169894    0.574368238
    0.475186914    0.113884211    0.688200235
    0.482329726    0.056741238    0.858948112
    0.853758097    0.085312843    0.631284118
    0.168043971    0.071027040    0.745116174
    0.625186801    0.913884044    0.858948112
    0.996615171    0.942455590    0.631284118
    0.310900927    0.928169787    0.745116174
    0.768044114    0.771026969    0.858948112
    0.139472485    0.799598455    0.631284118
    0.453758359    0.785312772    0.745116174
    0.910901189    0.628169894    0.858948112
    0.282329559    0.656741381    0.631284118
    0.596615434    0.642455637    0.745116174
    0.053758144    0.485312700    0.858948112
    0.425186664    0.513884246    0.631284177
    0.739472449    0.499598503    0.745116174
    0.196615458    0.342455506    0.858948112
    0.568043947    0.371027112    0.631284118
    0.882329702    0.356741309    0.745116174
    0.339472651    0.199598432    0.858948112
    0.710901022    0.228169963    0.631284118
    0.025186777    0.213884205    0.745116174
    0.432329893    0.956741214    0.802032351
    0.803758323    0.985312879    0.574368238
    0.118044138    0.971027017    0.688200235
    0.575187087    0.813884020    0.802032351
    0.946615577    0.842455685    0.574368238
    0.260901213    0.828169823    0.688200235
    0.718044281    0.671026886    0.802032351
    0.089472651    0.699598551    0.574368238
    0.403758407    0.685312748    0.688200235
    0.860901296    0.528169870    0.802032351
    0.232329726    0.556741416    0.574368238
    0.546615541    0.542455614    0.688200235
    0.003758430    0.385312617    0.802032232
    0.375186861    0.413884223    0.574368238
    0.689472675    0.399598420    0.688200235
    0.146615505    0.242455512    0.802032232
    0.518043995    0.271027088    0.574368238
    0.832329810    0.256741285    0.688200235
    0.289472699    0.099598408    0.802032232
    0.660901129    0.128170013    0.574368238
    0.975186944    0.113884211    0.688200235
    0.982329667    0.056741238    0.858948112
    0.353758156    0.085312843    0.631284177
    0.668043911    0.071027040    0.745116174
    0.125186682    0.913884163    0.858948112
    0.496615261    0.942455709    0.631284177
    0.810900986    0.928169906    0.745116174
    0.268043995    0.771026969    0.858948112
    0.639472485    0.799598455    0.631284177
    0.953758299    0.785312712    0.745116174
    0.410901189    0.628169775    0.858948112
    0.782329619    0.656741321    0.631284177
    0.096615314    0.642455518    0.745116174
    0.553758264    0.485312700    0.858948112
    0.925186634    0.513884187    0.631284177
    0.239472508    0.499598444    0.745116174
    0.696615577    0.342455536    0.858948231
    0.068043947    0.371027112    0.631284118
    0.382329702    0.356741339    0.745116174
    0.839472651    0.199598446    0.858948112
    0.210901022    0.228169948    0.631284177
    0.525186896    0.213884234    0.745116174
