Ge+Sn
    1.000000000
   19.599195480    0.000000000    0.000000000
   -6.533064842   18.478298187    0.000000000
    0.000000000    0.000000000   25.800939560
Ge  Sn 
192     144
Direct
    0.984533846    0.494844645    0.000000015
    0.797033846    0.432344615    0.077529535
    0.609533787    0.369844615    0.155059099
    0.422033846    0.307344615    0.232588589
    0.234533906    0.244844630    0.310118109
    0.047033846    0.182344645    0.387647629
    0.234533846    0.744844615    0.000000015
    0.047033850    0.682344615    0.077529535
    0.859533787    0.619844615    0.155059099
    0.672033846    0.557344615    0.232588589
    0.484533906    0.494844615    0.310118109
    0.297033846    0.432344645    0.387647629
    0.984533846    0.994844615    0.000000019
    0.797033846    0.932344615    0.077529542
    0.609533787    0.869844615    0.155059084
    0.422033846    0.807344615    0.232588589
    0.234533906    0.744844675    0.310118079
    0.047033846    0.682344615    0.387647629
    0.234533861    0.244844630    0.000000019
    0.047033854    0.182344630    0.077529542
    0.859533787    0.119844601    0.155059084
    0.672033906    0.057344597    0.232588589
    0.484533906    0.994844615    0.310118079
    0.297033846    0.932344615    0.387647629
    0.484533846    0.494844615    0.000000019
    0.297033846    0.432344615    0.077529542
    0.109533817    0.369844615    0.155059084
    0.922033846    0.307344615    0.232588589
    0.734533906    0.244844615    0.310118079
    0.547033846    0.182344615    0.387647629
    0.734533846    0.744844615    0.000000019
    0.547033846    0.682344615    0.077529542
    0.359533787    0.619844615    0.155059084
    0.172033831    0.557344615    0.232588589
    0.984533846    0.494844645    0.310118109
    0.797033846    0.432344615    0.387647629
    0.484533876    0.994844615    0.000000009
    0.297033876    0.932344615    0.077529535
    0.109533831    0.869844615    0.155059084
    0.922033846    0.807344615    0.232588589
    0.734533906    0.744844675    0.310118109
    0.547033846    0.682344615    0.387647599
    0.734533846    0.244844615    0.000000008
    0.547033846    0.182344645    0.077529535
    0.359533817    0.119844623    0.155059084
    0.172033846    0.057344630    0.232588589
    0.984533846    0.994844615    0.310118109
    0.797033846    0.932344615    0.387647629
    0.109533846    0.869844615    0.000000003
    0.922033846    0.807344615    0.077529535
    0.734533787    0.744844615    0.155059069
    0.547033846    0.682344615    0.232588559
    0.359533906    0.619844615    0.310118079
    0.172033846    0.557344615    0.387647629
    0.109533854    0.369844645    0.000000020
    0.922033846    0.307344615    0.077529550
    0.734533787    0.244844615    0.155059084
    0.547033846    0.182344615    0.232588589
    0.359533906    0.119844623    0.310118109
    0.172033846    0.057344612    0.387647599
    0.359533846    0.619844615    0.000000019
    0.172033831    0.557344615    0.077529550
    0.984533787    0.494844645    0.155059084
    0.797033846    0.432344615    0.232588589
    0.609533906    0.369844615    0.310118079
    0.422033846    0.307344615    0.387647599
    0.609533846    0.869844615    0.000000020
    0.422033846    0.807344615    0.077529557
    0.234533802    0.744844556    0.155059099
    0.047033843    0.682344615    0.232588589
    0.859533906    0.619844615    0.310118109
    0.672033846    0.557344556    0.387647629
    0.359533846    0.119844638    0.000000016
    0.172033861    0.057344627    0.077529542
    0.984533787    0.994844615    0.155059084
    0.797033846    0.932344615    0.232588589
    0.609533906    0.869844675    0.310118109
    0.422033846    0.807344615    0.387647599
    0.609533846    0.369844615    0.000000017
    0.422033846    0.307344615    0.077529542
    0.234533846    0.244844586    0.155059084
    0.047033876    0.182344601    0.232588589
    0.859533906    0.119844601    0.310118079
    0.672033906    0.057344589    0.387647629
    0.859533846    0.619844615    0.000000017
    0.672033846    0.557344615    0.077529542
    0.484533846    0.494844586    0.155059084
    0.297033876    0.432344586    0.232588589
    0.109533899    0.369844586    0.310118079
    0.922033846    0.307344586    0.387647629
    0.859533846    0.119844563    0.000000022
    0.672033846    0.057344586    0.077529557
    0.484533846    0.994844556    0.155059084
    0.297033906    0.932344556    0.232588589
    0.109533928    0.869844556    0.310118139
    0.922033906    0.807344556    0.387647629
    0.109533869    0.744844675    0.000000009
    0.922033846    0.682344615    0.077529542
    0.734533846    0.619844615    0.155059084
    0.547033906    0.557344615    0.232588589
    0.359533906    0.494844645    0.310118079
    0.172033846    0.432344645    0.387647629
    0.109533839    0.244844615    0.000000019
    0.922033846    0.182344615    0.077529535
    0.734533787    0.119844608    0.155059084
    0.547033787    0.057344612    0.232588589
    0.359533846    0.994844615    0.310118109
    0.172033787    0.932344615    0.387647599
    0.359533846    0.494844615    0.000000019
    0.172033802    0.432344586    0.077529550
    0.984533787    0.369844586    0.155059084
    0.797033787    0.307344586    0.232588589
    0.609533846    0.244844601    0.310118109
    0.422033846    0.182344586    0.387647599
    0.609533846    0.744844615    0.000000019
    0.422033846    0.682344615    0.077529542
    0.234533831    0.619844615    0.155059084
    0.047033835    0.557344615    0.232588589
    0.859533906    0.494844615    0.310118109
    0.672033846    0.432344615    0.387647629
    0.359533846    0.994844615    0.000000016
    0.172033846    0.932344615    0.077529542
    0.984533846    0.869844615    0.155059099
    0.797033846    0.807344615    0.232588589
    0.609533906    0.744844615    0.310118109
    0.422033787    0.682344556    0.387647629
    0.609533846    0.244844645    0.000000016
    0.422033846    0.182344615    0.077529542
    0.234533831    0.119844623    0.155059099
    0.047033869    0.057344630    0.232588589
    0.859533906    0.994844615    0.310118109
    0.672033906    0.932344675    0.387647629
    0.859533846    0.494844615    0.000000017
    0.672033846    0.432344615    0.077529542
    0.484533846    0.369844586    0.155059099
    0.297033876    0.307344586    0.232588589
    0.109533891    0.244844586    0.310118109
    0.922033846    0.182344586    0.387647629
    0.859533906    0.994844615    0.000000000
    0.672033846    0.932344615    0.077529535
    0.484533846    0.869844615    0.155059054
    0.297033876    0.807344615    0.232588559
    0.109533943    0.744844556    0.310118109
    0.922033906    0.682344615    0.387647599
    0.984533846    0.869844675    0.000000024
    0.797033787    0.807344615    0.077529557
    0.609533787    0.744844615    0.155059084
    0.422033787    0.682344675    0.232588619
    0.234533906    0.619844675    0.310118139
    0.047033846    0.557344615    0.387647629
    0.984533846    0.369844615    0.000000007
    0.797033846    0.307344615    0.077529542
    0.609533787    0.244844601    0.155059084
    0.422033846    0.182344586    0.232588589
    0.234533846    0.119844586    0.310118079
    0.047033846    0.057344574    0.387647599
    0.234533876    0.619844615    0.000000007
    0.047033843    0.557344615    0.077529542
    0.859533846    0.494844615    0.155059084
    0.672033906    0.432344615    0.232588589
    0.484533906    0.369844615    0.310118079
    0.297033906    0.307344615    0.387647599
    0.484533846    0.869844615    0.000000007
    0.297033846    0.807344615    0.077529542
    0.109533831    0.744844615    0.155059084
    0.922033846    0.682344615    0.232588589
    0.734533906    0.619844615    0.310118079
    0.547033906    0.557344615    0.387647599
    0.234533846    0.119844615    0.000000017
    0.047033846    0.057344612    0.077529542
    0.859533787    0.994844615    0.155059069
    0.672033846    0.932344615    0.232588589
    0.484533846    0.869844615    0.310118109
    0.297033846    0.807344556    0.387647599
    0.484533876    0.369844645    0.000000017
    0.297033846    0.307344615    0.077529542
    0.109533839    0.244844630    0.155059069
    0.922033846    0.182344630    0.232588589
    0.734533906    0.119844630    0.310118109
    0.547033906    0.057344627    0.387647599
    0.734533846    0.619844615    0.000000017
    0.547033846    0.557344615    0.077529542
    0.359533817    0.494844645    0.155059084
    0.172033846    0.432344615    0.232588589
    0.984533846    0.369844615    0.310118079
    0.797033846    0.307344615    0.387647629
    0.734533846    0.119844615    0.000000014
    0.547033787    0.057344597    0.077529550
    0.359533787    0.994844556    0.155059084
    0.172033817    0.932344615    0.232588589
    0.984533846    0.869844615    0.310118109
    0.797033846    0.807344556    0.387647599
    0.242724657    0.369324565    0.471518010
    0.284391403    0.994324446    0.560440421
    0.326058179    0.619324446    0.649362683
    0.367724836    0.244324446    0.738284945
    0.409391612    0.869324327    0.827207327
    0.451058388    0.494324446    0.916129589
    0.576057971    0.369324565    0.471518010
    0.617724717    0.994324446    0.560440421
    0.659391463    0.619324446    0.649362683
    0.701058269    0.244324446    0.738284945
    0.742725015    0.869324327    0.827207327
    0.784391701    0.494324446    0.916129589
    0.909391284    0.369324565    0.471518010
    0.951058030    0.994324446    0.560440421
    0.992724776    0.619324446    0.649362683
    0.034391642    0.244324446    0.738284945
    0.076058276    0.869324327    0.827207327
    0.117725141    0.494324446    0.916129589
    0.076057971    0.869324446    0.471518010
    0.117724709    0.494324446    0.560440421
    0.159391478    0.119324446    0.649362683
    0.201058179    0.744324446    0.738284945
    0.242724925    0.369324327    0.827207327
    0.284391761    0.994324327    0.916129649
    0.409391314    0.869324446    0.471518010
    0.451058120    0.494324446    0.560440421
    0.492724836    0.119324446    0.649362683
    0.534391522    0.744324446    0.738284945
    0.576058269    0.369324327    0.827207327
    0.617725074    0.994324327    0.916129649
    0.742724597    0.869324446    0.471518010
    0.784391522    0.494324446    0.560440421
    0.826058090    0.119324446    0.649362683
    0.867724955    0.744324446    0.738284945
    0.909391642    0.369324327    0.827207327
    0.951058388    0.994324327    0.916129649
    0.326057971    0.619324446    0.471518040
    0.367724717    0.244324446    0.560440421
    0.409391463    0.869324446    0.649362683
    0.451058179    0.494324446    0.738284945
    0.492724955    0.119324446    0.827207327
    0.534391761    0.744324327    0.916129649
    0.659391403    0.619324446    0.471518040
    0.701058149    0.244324446    0.560440421
    0.742724836    0.869324446    0.649362683
    0.784391522    0.494324446    0.738284945
    0.826058328    0.119324446    0.827207327
    0.867725074    0.744324327    0.916129649
    0.992724597    0.619324446    0.471518040
    0.034391522    0.244324446    0.560440421
    0.076058038    0.869324446    0.649362683
    0.117725022    0.494324446    0.738284945
    0.159391642    0.119324446    0.827207327
    0.201058388    0.744324327    0.916129649
    0.159391314    0.119324446    0.471518010
    0.201058060    0.744324446    0.560440421
    0.242724806    0.369324446    0.649362683
    0.284391493    0.994324446    0.738284945
    0.326058269    0.619324327    0.827207327
    0.367725074    0.244324446    0.916129589
    0.492724687    0.119324446    0.471518010
    0.534391463    0.744324446    0.560440421
    0.576058209    0.369324446    0.649362683
    0.617724895    0.994324446    0.738284945
    0.659391642    0.619324327    0.827207327
    0.701058388    0.244324446    0.916129589
    0.826057971    0.119324446    0.471518010
    0.867724836    0.744324446    0.560440421
    0.909391463    0.369324446    0.649362683
    0.951058328    0.994324446    0.738284945
    0.992724955    0.619324327    0.827207327
    0.034391761    0.244324446    0.916129589
    0.201057971    0.494324446    0.471518010
    0.242724717    0.119324446    0.560440421
    0.284391463    0.744324446    0.649362683
    0.326058209    0.369324446    0.738284945
    0.367724925    0.994324267    0.827207327
    0.409391701    0.619324327    0.916129649
    0.534391344    0.494324446    0.471518010
    0.576058090    0.119324446    0.560440421
    0.617724836    0.744324446    0.649362683
    0.659391582    0.369324446    0.738284945
    0.701058328    0.994324267    0.827207327
    0.742725074    0.619324327    0.916129649
    0.867724717    0.494324446    0.471518010
    0.909391522    0.119324446    0.560440421
    0.951058328    0.744324446    0.649362683
    0.992724955    0.369324446    0.738284945
    0.034391761    0.994324267    0.827207327
    0.076058514    0.619324327    0.916129649
    0.367724687    0.994324505    0.471518010
    0.409391403    0.619324446    0.560440421
    0.451058120    0.244324446    0.649362683
    0.492724925    0.869324446    0.738284945
    0.534391701    0.494324327    0.827207327
    0.576058328    0.119324327    0.916129649
    0.701058030    0.994324505    0.471518010
    0.742724717    0.619324446    0.560440421
    0.784391522    0.244324446    0.649362683
    0.826058328    0.869324446    0.738284945
    0.867725015    0.494324327    0.827207327
    0.909391701    0.119324327    0.916129649
    0.034391403    0.994324505    0.471518010
    0.076058157    0.619324446    0.560440421
    0.117724903    0.244324446    0.649362683
    0.159391642    0.869324446    0.738284945
    0.201058388    0.494324327    0.827207327
    0.242725015    0.119324327    0.916129649
    0.284391314    0.744324565    0.471518040
    0.326058030    0.369324446    0.560440421
    0.367724806    0.994324446    0.649362683
    0.409391522    0.619324446    0.738284945
    0.451058239    0.244324446    0.827207327
    0.492725044    0.869324327    0.916129589
    0.617724657    0.744324565    0.471518040
    0.659391344    0.369324446    0.560440421
    0.701058090    0.994324446    0.649362683
    0.742724836    0.619324446    0.738284945
    0.784391642    0.244324446    0.827207327
    0.826058328    0.869324327    0.916129589
    0.951057971    0.744324565    0.471518040
    0.992724717    0.369324446    0.560440421
    0.034391403    0.994324446    0.649362683
    0.076058276    0.619324446    0.738284945
    0.117725022    0.244324446    0.827207327
    0.159391642    0.869324327    0.916129589
    0.117724627    0.244324446    0.471518010
    0.159391373    0.869324446    0.560440421
    0.201058120    0.494324446    0.649362683
    0.242724866    0.119324446    0.738284945
    0.284391582    0.744324327    0.827207267
    0.326058328    0.369324327    0.916129649
    0.451058000    0.244324446    0.471518010
    0.492724746    0.869324446    0.560440421
    0.534391522    0.494324446    0.649362683
    0.576058209    0.119324446    0.738284945
    0.617724895    0.744324327    0.827207267
    0.659391701    0.369324327    0.916129649
    0.784391344    0.244324446    0.471518010
    0.826058149    0.869324446    0.560440421
    0.867724836    0.494324446    0.649362683
    0.909391582    0.119324446    0.738284945
    0.951058388    0.744324327    0.827207267
    0.992725015    0.369324327    0.916129649
