Sn+Ge
    1.000000000
   12.978400230    0.000000000    0.000000000
  -12.978400230   12.978400230    0.000000000
    0.000000000    0.000000000   15.183753014
Sn  Ge 
48     60
Direct
    0.492552608    0.000000000    0.000000000
    0.242552638    0.000000000    0.213688970
    0.992552698    0.000000000    0.427377820
    0.992552638    0.000000000    0.000000000
    0.742552638    0.000000000    0.213688970
    0.492552757    0.000000000    0.427377820
    0.492552608    0.499999970    0.000000000
    0.242552638    0.499999970    0.213688970
    0.992552698    0.499999970    0.427377820
    0.992552638    0.499999970    0.000000000
    0.742552638    0.499999970    0.213688970
    0.492552698    0.499999970    0.427377820
    0.492552608    0.124999993    0.106844470
    0.242552668    0.124999993    0.320533395
    0.992552638    0.124999993    0.534222364
    0.992552638    0.124999993    0.106844470
    0.742552757    0.124999993    0.320533395
    0.492552698    0.124999993    0.534222364
    0.492552578    0.624999940    0.106844470
    0.242552638    0.624999940    0.320533395
    0.992552638    0.624999940    0.534222364
    0.992552638    0.624999940    0.106844470
    0.742552698    0.624999940    0.320533395
    0.492552698    0.624999940    0.534222364
    0.492552638    0.249999985    0.000000000
    0.242552638    0.249999985    0.213688970
    0.992552698    0.249999985    0.427377820
    0.992552638    0.249999985    0.000000000
    0.742552638    0.249999985    0.213688970
    0.492552757    0.249999985    0.427377820
    0.492552608    0.749999940    0.000000000
    0.242552593    0.749999940    0.213688970
    0.992552698    0.749999940    0.427377820
    0.992552638    0.749999940    0.000000000
    0.742552638    0.749999940    0.213688970
    0.492552698    0.749999940    0.427377820
    0.492552608    0.374999970    0.106844470
    0.242552668    0.374999970    0.320533395
    0.992552638    0.374999970    0.534222364
    0.992552638    0.374999970    0.106844470
    0.742552757    0.374999970    0.320533395
    0.492552698    0.374999970    0.534222364
    0.492552608    0.874999940    0.106844470
    0.242552698    0.874999940    0.320533395
    0.992552638    0.874999940    0.534222364
    0.992552638    0.874999940    0.106844470
    0.742552757    0.874999940    0.320533395
    0.492552757    0.874999940    0.534222364
    0.796583295    0.203416690    0.534222364
    0.696583271    0.303416699    0.720533311
    0.596583188    0.403416753    0.906844378
    0.996583283    0.003416693    0.534222364
    0.896583259    0.103416719    0.720533311
    0.796583235    0.203416750    0.906844378
    0.596583366    0.403416753    0.534222364
    0.496583313    0.503416777    0.720533311
    0.396583289    0.603416800    0.906844378
    0.396583349    0.603416741    0.534222364
    0.296583295    0.703416765    0.720533311
    0.196583271    0.803416789    0.906844378
    0.196583316    0.803416789    0.534222364
    0.096583292    0.903416812    0.720533311
    0.996583283    0.003416777    0.906844378
    0.896583378    0.353416711    0.627377868
    0.796583295    0.453416735    0.813688874
    0.696583271    0.553416789    0.999999881
    0.096583314    0.153416708    0.627377868
    0.996583283    0.253416747    0.813688874
    0.896583259    0.353416771    0.999999881
    0.696583331    0.553416729    0.627377868
    0.596583247    0.653416812    0.813688874
    0.496583223    0.753416836    0.999999881
    0.496583343    0.753416717    0.627377868
    0.396583319    0.853416741    0.813688874
    0.296583265    0.953416824    0.999999881
    0.296583265    0.953416824    0.627377868
    0.196583241    0.053416848    0.813688874
    0.096583180    0.153416872    0.999999881
    0.396583349    0.103416704    0.534222364
    0.296583325    0.203416735    0.720533311
    0.196583271    0.303416759    0.906844378
    0.196583316    0.303416729    0.534222364
    0.096583292    0.403416753    0.720533311
    0.996583223    0.503416777    0.906844378
    0.796583295    0.703416765    0.534222364
    0.696583271    0.803416789    0.720533311
    0.596583247    0.903416812    0.906844378
    0.996583343    0.503416717    0.534222364
    0.896583319    0.603416741    0.720533311
    0.796583235    0.703416824    0.906844378
    0.596583247    0.903416812    0.534222364
    0.496583223    0.003416777    0.720533311
    0.396583170    0.103416920    0.906844378
    0.696583331    0.053416718    0.627377868
    0.596583247    0.153416753    0.813688874
    0.496583223    0.253416806    0.999999881
    0.496583313    0.253416717    0.627377868
    0.396583259    0.353416771    0.813688874
    0.296583235    0.453416795    0.999999881
    0.296583295    0.453416735    0.627377868
    0.196583256    0.553416789    0.813688874
    0.096583232    0.653416812    0.999999881
    0.896583378    0.853416800    0.627377868
    0.796583354    0.953416824    0.813688874
    0.696583331    0.053416848    0.999999881
    0.096583270    0.653416753    0.627377868
    0.996583223    0.753416777    0.813688874
    0.896583200    0.853416800    0.999999881
