Sn+Sn
    1.000000000
    9.177114487    0.000000000    0.000000000
    0.000000000   19.467601776    0.000000000
    0.000000000    0.000000000   15.295198441
Sn 
96
Direct
    0.943514049    0.912132978    0.000000011
    0.693514049    0.523244023    0.050000016
    0.443514049    0.134355187    0.099999994
    0.193513930    0.745466113    0.150000036
    0.943513870    0.356577158    0.200000018
    0.693513870    0.967688084    0.250000089
    0.193514079    0.662132859    0.000000000
    0.943514049    0.273243934    0.050000012
    0.693514109    0.884355068    0.100000024
    0.443513989    0.495465994    0.150000006
    0.193513989    0.106577039    0.199999988
    0.943513870    0.717688084    0.250000030
    0.693514049    0.662132919    0.000000017
    0.443513989    0.273243964    0.050000034
    0.193514019    0.884355068    0.100000024
    0.943513930    0.495465994    0.150000051
    0.693513870    0.106577158    0.200000033
    0.443513811    0.717688084    0.250000030
    0.443514049    0.912132978    0.000000009
    0.193514034    0.523244023    0.050000004
    0.943514049    0.134355187    0.100000024
    0.693514049    0.745466113    0.150000036
    0.443513989    0.356577277    0.200000018
    0.193513930    0.967688322    0.250000089
    0.982020497    0.988013685    0.250000089
    0.732020497    0.821346939    0.400000066
    0.482020378    0.654680252    0.550000072
    0.232020319    0.488013446    0.700000048
    0.982020259    0.321346760    0.849999905
    0.732020259    0.154680014    1.000000000
    0.982020497    0.321346998    0.250000089
    0.732020497    0.154680312    0.400000066
    0.482020378    0.988013566    0.550000072
    0.232020319    0.821346819    0.700000048
    0.982020259    0.654680133    0.849999905
    0.732020259    0.488013387    1.000000000
    0.982020497    0.654680371    0.250000089
    0.732020497    0.488013625    0.400000066
    0.482020378    0.321346939    0.550000072
    0.232020319    0.154680192    0.700000048
    0.982020259    0.988013506    0.849999905
    0.732020259    0.821346760    1.000000000
    0.482020497    0.988013685    0.250000089
    0.232020482    0.821346939    0.400000066
    0.982020438    0.654680252    0.550000072
    0.732020378    0.488013446    0.700000048
    0.482020259    0.321346760    0.849999905
    0.232020259    0.154680014    1.000000000
    0.482020497    0.321346998    0.250000089
    0.232020482    0.154680312    0.400000066
    0.982020438    0.988013566    0.550000072
    0.732020378    0.821346819    0.700000048
    0.482020259    0.654680133    0.849999905
    0.232020259    0.488013387    1.000000000
    0.482020497    0.654680371    0.250000089
    0.232020482    0.488013625    0.400000066
    0.982020438    0.321346939    0.550000072
    0.732020378    0.154680192    0.700000048
    0.482020259    0.988013506    0.849999905
    0.232020259    0.821346760    1.000000000
    0.732020497    0.238013655    0.250000089
    0.482020468    0.071346961    0.400000066
    0.232020423    0.904680252    0.550000072
    0.982020319    0.738013506    0.700000048
    0.732020259    0.571346819    0.849999905
    0.482020259    0.404680073    0.999999881
    0.732020497    0.571347058    0.250000089
    0.482020468    0.404680371    0.400000066
    0.232020423    0.238013655    0.550000072
    0.982020319    0.071346886    0.700000048
    0.732020259    0.904680192    0.849999905
    0.482020259    0.738013506    0.999999881
    0.732020497    0.904680431    0.250000089
    0.482020468    0.738013685    0.400000066
    0.232020423    0.571346998    0.550000072
    0.982020319    0.404680222    0.700000048
    0.732020259    0.238013506    0.849999905
    0.482020259    0.071346812    0.999999881
    0.232020497    0.238013655    0.250000089
    0.982020497    0.071346961    0.400000066
    0.732020438    0.904680252    0.550000072
    0.482020259    0.738013506    0.700000048
    0.232020259    0.571346819    0.849999905
    0.982020259    0.404680073    0.999999881
    0.232020497    0.571347058    0.250000089
    0.982020497    0.404680371    0.400000066
    0.732020438    0.238013655    0.550000072
    0.482020259    0.071346886    0.700000048
    0.232020259    0.904680192    0.849999905
    0.982020259    0.738013506    0.999999881
    0.232020497    0.904680431    0.250000089
    0.982020497    0.738013685    0.400000066
    0.732020438    0.571346998    0.550000072
    0.482020259    0.404680222    0.700000048
    0.232020259    0.238013506    0.849999905
    0.982020259    0.071346812    0.999999881
