Automatic KPOINTS generated
0
Gamma
4 2 2
0 0 0
