Si+Si
    1.000000000
   16.293001175    0.000000000    0.000000000
   -5.431000233   15.361187935    0.000000000
    0.000000000    0.000000000   19.201486588
Si 
288
Direct
    0.171760425    0.454156429    0.000000015
    0.213427141    0.079156362    0.100000009
    0.255093873    0.704156280    0.200000003
    0.296760619    0.329156280    0.299999982
    0.338427335    0.954156280    0.399999976
    0.380094022    0.579156160    0.500000000
    0.505093753    0.454156429    0.000000015
    0.546760559    0.079156362    0.100000009
    0.588427246    0.704156280    0.200000003
    0.630093992    0.329156280    0.299999982
    0.671760619    0.954156280    0.399999976
    0.713427484    0.579156160    0.500000000
    0.838427067    0.454156429    0.000000015
    0.880093873    0.079156362    0.100000009
    0.921760559    0.704156280    0.200000003
    0.963427305    0.329156280    0.299999982
    0.005094051    0.954156280    0.399999976
    0.046760678    0.579156160    0.500000000
    0.005093738    0.954156399    0.000000021
    0.046760447    0.579156339    0.100000009
    0.088427179    0.204156280    0.199999988
    0.130093917    0.829156280    0.300000012
    0.171760619    0.454156160    0.399999946
    0.213427365    0.079156160    0.499999970
    0.338427097    0.954156399    0.000000021
    0.380093843    0.579156339    0.100000009
    0.421760589    0.204156280    0.199999988
    0.463427305    0.829156280    0.300000012
    0.505093992    0.454156160    0.399999946
    0.546760798    0.079156160    0.499999970
    0.671760440    0.954156399    0.000000021
    0.713427246    0.579156339    0.100000009
    0.755094051    0.204156280    0.199999988
    0.796760619    0.829156280    0.300000012
    0.838427305    0.454156160    0.399999946
    0.880094111    0.079156160    0.499999970
    0.255093753    0.704156458    0.000000003
    0.296760470    0.329156369    0.100000001
    0.338427216    0.954156339    0.200000003
    0.380093962    0.579156280    0.300000012
    0.421760678    0.204156160    0.399999976
    0.463427365    0.829156041    0.500000000
    0.588427126    0.704156458    0.000000003
    0.630093932    0.329156369    0.100000001
    0.671760619    0.954156339    0.200000003
    0.713427305    0.579156280    0.300000012
    0.755093992    0.204156160    0.399999976
    0.796760798    0.829156041    0.500000000
    0.921760440    0.704156458    0.000000003
    0.963427246    0.329156369    0.100000001
    0.005094051    0.954156339    0.200000003
    0.046760678    0.579156280    0.300000012
    0.088427305    0.204156160    0.399999976
    0.130094171    0.829156041    0.500000000
    0.088427082    0.204156414    0.000000021
    0.130093798    0.829156339    0.100000009
    0.171760529    0.454156280    0.200000003
    0.213427275    0.079156280    0.299999982
    0.255093992    0.704156160    0.399999917
    0.296760708    0.329156160    0.500000000
    0.421760440    0.204156414    0.000000021
    0.463427186    0.829156339    0.100000009
    0.505093873    0.454156280    0.200000003
    0.546760678    0.079156280    0.299999982
    0.588427365    0.704156160    0.399999917
    0.630094171    0.329156160    0.500000000
    0.755093753    0.204156414    0.000000021
    0.796760559    0.829156339    0.100000009
    0.838427305    0.454156280    0.200000003
    0.880093992    0.079156280    0.299999982
    0.921760738    0.704156160    0.399999917
    0.963427424    0.329156160    0.500000000
    0.130093753    0.579156458    0.000000000
    0.171760485    0.204156354    0.100000009
    0.213427216    0.829156280    0.200000003
    0.255093932    0.454156280    0.299999982
    0.296760678    0.079156220    0.399999976
    0.338427365    0.704156041    0.500000000
    0.463427097    0.579156458    0.000000000
    0.505093813    0.204156354    0.100000009
    0.546760499    0.829156280    0.200000003
    0.588427246    0.454156280    0.299999982
    0.630094051    0.079156220    0.399999976
    0.671760678    0.704156041    0.500000000
    0.796760499    0.579156458    0.000000000
    0.838427246    0.204156354    0.100000009
    0.880093992    0.829156280    0.200000003
    0.921760738    0.454156280    0.299999982
    0.963427484    0.079156220    0.399999976
    0.005094290    0.704156041    0.500000000
    0.296760440    0.079156421    0.000000023
    0.338427186    0.704156339    0.100000009
    0.380093932    0.329156280    0.199999988
    0.421760648    0.954156280    0.299999982
    0.463427335    0.579156160    0.399999976
    0.505094111    0.204156160    0.500000000
    0.630093753    0.079156421    0.000000023
    0.671760440    0.704156339    0.100000009
    0.713427246    0.329156280    0.199999988
    0.755093932    0.954156280    0.299999982
    0.796760619    0.579156160    0.399999976
    0.838427424    0.204156160    0.500000000
    0.963427186    0.079156421    0.000000023
    0.005093932    0.704156339    0.100000009
    0.046760559    0.329156280    0.199999988
    0.088427424    0.954156280    0.299999982
    0.130094171    0.579156160    0.399999976
    0.171760798    0.204156160    0.500000000
    0.213427082    0.829156458    0.000000043
    0.255093783    0.454156369    0.100000009
    0.296760529    0.079156302    0.200000003
    0.338427246    0.704156280    0.300000012
    0.380093962    0.329156160    0.399999976
    0.421760678    0.954156041    0.500000000
    0.546760380    0.829156458    0.000000043
    0.588427067    0.454156369    0.100000009
    0.630093813    0.079156302    0.200000003
    0.671760499    0.704156280    0.300000012
    0.713427246    0.329156160    0.399999976
    0.755093992    0.954156041    0.500000000
    0.880093813    0.829156458    0.000000043
    0.921760559    0.454156369    0.100000009
    0.963427305    0.079156302    0.200000003
    0.005093932    0.704156280    0.300000012
    0.046760678    0.329156160    0.399999976
    0.088427424    0.954156041    0.500000000
    0.046760399    0.329156429    0.000000019
    0.088427126    0.954156339    0.100000009
    0.130093858    0.579156280    0.200000018
    0.171760589    0.204156280    0.300000012
    0.213427305    0.829156280    0.399999946
    0.255094022    0.454156160    0.500000000
    0.380093813    0.329156429    0.000000019
    0.421760499    0.954156339    0.100000009
    0.463427246    0.579156280    0.200000018
    0.505093932    0.204156280    0.300000012
    0.546760678    0.829156280    0.399999946
    0.588427424    0.454156160    0.500000000
    0.713427126    0.329156429    0.000000019
    0.755093873    0.954156339    0.100000009
    0.796760678    0.579156280    0.200000018
    0.838427246    0.204156280    0.300000012
    0.880093992    0.829156280    0.399999946
    0.921760857    0.454156160    0.500000000
    0.989258647    0.648764431    0.500000000
    0.864258647    0.440430909    0.599999964
    0.739258647    0.232097447    0.699999988
    0.614258587    0.023763934    0.799999952
    0.489258528    0.815430403    0.899999976
    0.364258587    0.607096910    1.000000000
    0.989258647    0.315431088    0.500000000
    0.864258647    0.107097574    0.599999964
    0.739258647    0.898764074    0.699999988
    0.614258587    0.690430522    0.799999952
    0.489258528    0.482096970    0.899999976
    0.364258587    0.273763478    1.000000000
    0.989258647    0.982097745    0.500000000
    0.864258647    0.773764193    0.599999964
    0.739258647    0.565430760    0.699999988
    0.614258587    0.357097208    0.799999952
    0.489258528    0.148763597    0.899999976
    0.364258587    0.940430164    1.000000000
    0.489258647    0.815430999    0.500000000
    0.364258617    0.607097566    0.599999964
    0.239258632    0.398764074    0.699999988
    0.114258602    0.190430537    0.799999893
    0.989258587    0.982096970    0.899999976
    0.864258528    0.773763478    1.000000000
    0.489258647    0.482097775    0.500000000
    0.364258617    0.273764253    0.599999964
    0.239258632    0.065430760    0.699999988
    0.114258602    0.857097268    0.799999893
    0.989258587    0.648763657    0.899999976
    0.864258528    0.440430164    1.000000000
    0.489258647    0.148764402    0.500000000
    0.364258617    0.940430880    0.599999964
    0.239258632    0.732097387    0.699999988
    0.114258602    0.523763895    0.799999893
    0.989258587    0.315430224    0.899999976
    0.864258528    0.107096791    1.000000000
    0.239258647    0.732097745    0.500000000
    0.114258617    0.523764193    0.599999964
    0.989258647    0.315430701    0.699999988
    0.864258587    0.107097216    0.799999893
    0.739258528    0.898763657    0.899999976
    0.614258528    0.690430164    1.000000000
    0.239258647    0.398764402    0.500000000
    0.114258617    0.190430909    0.599999964
    0.989258647    0.982097447    0.699999988
    0.864258587    0.773763895    0.799999893
    0.739258528    0.565430284    0.899999976
    0.614258528    0.357096791    1.000000000
    0.239258647    0.065431058    0.500000000
    0.114258617    0.857097507    0.599999964
    0.989258647    0.648764014    0.699999988
    0.864258587    0.440430522    0.799999893
    0.739258528    0.232096910    0.899999976
    0.614258528    0.023763478    1.000000000
    0.739258707    0.898764431    0.500000000
    0.614258647    0.690430939    0.599999964
    0.489258677    0.482097447    0.699999988
    0.364258647    0.273763955    0.799999893
    0.239258587    0.065430380    0.899999976
    0.114258587    0.857096910    1.000000000
    0.739258707    0.565431058    0.500000000
    0.614258647    0.357097566    0.599999964
    0.489258677    0.148764074    0.699999988
    0.364258647    0.940430522    0.799999893
    0.239258587    0.732096970    0.899999976
    0.114258587    0.523763478    1.000000000
    0.739258707    0.232097730    0.500000000
    0.614258647    0.023764217    0.599999964
    0.489258677    0.815430760    0.699999988
    0.364258647    0.607097208    0.799999893
    0.239258587    0.398763597    0.899999976
    0.114258587    0.190430105    1.000000000
    0.364258677    0.857097745    0.500000000
    0.239258647    0.648764253    0.599999964
    0.114258647    0.440430790    0.699999988
    0.989258587    0.232097283    0.799999952
    0.864258587    0.023763707    0.899999976
    0.739258528    0.815430224    1.000000000
    0.364258677    0.523764372    0.500000000
    0.239258647    0.315430850    0.599999964
    0.114258647    0.107097365    0.699999988
    0.989258587    0.898763835    0.799999952
    0.864258587    0.690430284    0.899999976
    0.739258528    0.482096791    1.000000000
    0.364258677    0.190431073    0.500000000
    0.239258647    0.982097566    0.599999964
    0.114258647    0.773764074    0.699999988
    0.989258587    0.565430522    0.799999952
    0.864258587    0.357097030    0.899999976
    0.739258528    0.148763478    1.000000000
    0.864258707    0.690431118    0.500000000
    0.739258647    0.482097596    0.599999964
    0.614258647    0.273764133    0.699999988
    0.489258647    0.065430596    0.799999952
    0.364258587    0.857097030    0.899999976
    0.239258587    0.648763537    1.000000000
    0.864258707    0.357097715    0.500000000
    0.739258647    0.148764193    0.599999964
    0.614258647    0.940430701    0.699999988
    0.489258647    0.732097149    0.799999952
    0.364258587    0.523763657    0.899999976
    0.239258587    0.315430045    1.000000000
    0.864258707    0.023764392    0.500000000
    0.739258647    0.815430880    0.599999964
    0.614258647    0.607097387    0.699999988
    0.489258647    0.398763835    0.799999952
    0.364258587    0.190430284    0.899999976
    0.239258587    0.982096672    1.000000000
    0.114258640    0.773764431    0.500000000
    0.989258647    0.565430999    0.599999964
    0.864258647    0.357097536    0.699999988
    0.739258647    0.148763984    0.799999893
    0.614258528    0.940430403    0.899999976
    0.489258528    0.732096910    1.000000000
    0.114258640    0.440431118    0.500000000
    0.989258647    0.232097566    0.599999964
    0.864258647    0.023764087    0.699999988
    0.739258647    0.815430522    0.799999893
    0.614258528    0.607096970    0.899999976
    0.489258528    0.398763478    1.000000000
    0.114258640    0.107097752    0.500000000
    0.989258647    0.898764253    0.599999964
    0.864258647    0.690430760    0.699999988
    0.739258647    0.482097268    0.799999893
    0.614258528    0.273763657    0.899999976
    0.489258528    0.065430105    1.000000000
    0.614258647    0.940431118    0.500000000
    0.489258617    0.732097626    0.599999964
    0.364258617    0.523764133    0.699999988
    0.239258602    0.315430611    0.799999952
    0.114258558    0.107097030    0.899999976
    0.989258528    0.898763537    1.000000000
    0.614258647    0.607097805    0.500000000
    0.489258617    0.398764253    0.599999964
    0.364258617    0.190430760    0.699999988
    0.239258602    0.982097208    0.799999952
    0.114258558    0.773763657    0.899999976
    0.989258528    0.565430164    1.000000000
    0.614258647    0.273764372    0.500000000
    0.489258617    0.065430865    0.599999964
    0.364258617    0.857097387    0.699999988
    0.239258602    0.648763895    0.799999952
    0.114258558    0.440430284    0.899999976
    0.989258528    0.232096791    1.000000000
