Si+C
    1.000000000
   13.303179741    0.000000000    0.000000000
    6.651589394   14.873406410    0.000000000
    0.000000000    0.000000000    8.390059471
Si  C  
36     84
Direct
    0.982905626    0.658119500    0.000000005
    0.782905579    0.558119297    0.144743800
    0.582905412    0.458119094    0.289487600
    0.982905626    0.324786127    0.000000005
    0.782905579    0.224785969    0.144743800
    0.582905412    0.124785803    0.289487600
    0.982905626    0.991452813    0.000000005
    0.782905579    0.891452670    0.144743800
    0.582905412    0.791452527    0.289487600
    0.632905662    0.691452682    0.072371744
    0.432905585    0.591452479    0.217115551
    0.232905522    0.491452426    0.361859351
    0.632905662    0.358119428    0.072371744
    0.432905585    0.258119285    0.217115551
    0.232905522    0.158119142    0.361859351
    0.632905662    0.024786137    0.072371744
    0.432905585    0.924785972    0.217115551
    0.232905522    0.824785829    0.361859351
    0.482905626    0.658119500    0.000000000
    0.282905549    0.558119297    0.144743800
    0.082905442    0.458119094    0.289487600
    0.482905626    0.324786127    0.000000000
    0.282905549    0.224785954    0.144743800
    0.082905442    0.124785811    0.289487600
    0.482905626    0.991452813    0.000000000
    0.282905549    0.891452670    0.144743800
    0.082905442    0.791452527    0.289487600
    0.132905677    0.691452742    0.072371759
    0.932905555    0.591452479    0.217115551
    0.732905507    0.491452396    0.361859351
    0.132905677    0.358119488    0.072371759
    0.932905555    0.258119285    0.217115551
    0.732905507    0.158119127    0.361859351
    0.132905677    0.024786137    0.072371759
    0.932905555    0.924785972    0.217115551
    0.732905507    0.824785829    0.361859351
    0.936474562    0.040079828    0.562104404
    0.907902956    0.311508447    0.657164693
    0.879331350    0.582937062    0.752224922
    0.079331636    0.182936966    0.562104404
    0.050760150    0.454365581    0.657164693
    0.022188544    0.725794256    0.752224922
    0.222188830    0.325794131    0.562104404
    0.193617225    0.597222745    0.657164693
    0.165045738    0.868651450    0.752224922
    0.365046024    0.468651265    0.562104404
    0.336474419    0.740079939    0.657164693
    0.307902813    0.011508584    0.752224922
    0.507903099    0.611508429    0.562104404
    0.479331493    0.882937014    0.657164693
    0.450759888    0.154365659    0.752224922
    0.650760174    0.754365504    0.562104404
    0.622188687    0.025794156    0.657164693
    0.593617201    0.297222733    0.752224922
    0.793617487    0.897222757    0.562104404
    0.765045881    0.168651342    0.657164693
    0.736474276    0.440079927    0.752224922
    0.029331684    0.782936811    0.609634459
    0.000760198    0.054365404    0.704694688
    0.972188711    0.325794101    0.799754918
    0.172188759    0.925794065    0.609634459
    0.143617272    0.197222710    0.704694688
    0.115045667    0.468651414    0.799754918
    0.315045953    0.068651207    0.609634459
    0.286474466    0.340079904    0.704694688
    0.257902861    0.611508489    0.799754858
    0.457903147    0.211508274    0.609634459
    0.429331541    0.482936919    0.704694688
    0.400759935    0.754365444    0.799754858
    0.600760221    0.354365557    0.609634459
    0.572188616    0.625794172    0.704694688
    0.543617129    0.897222817    0.799754858
    0.743617296    0.497222662    0.609634459
    0.715045810    0.768651307    0.704694688
    0.686474323    0.040079959    0.799754918
    0.886474609    0.640079796    0.609634459
    0.857903004    0.911508441    0.704694688
    0.829331398    0.182936907    0.799754858
    0.007903099    0.611508369    0.562104404
    0.979331553    0.882937014    0.657164693
    0.950759947    0.154365659    0.752224922
    0.150760174    0.754365504    0.562104404
    0.122188687    0.025794156    0.657164693
    0.093617201    0.297222853    0.752224922
    0.293617487    0.897222638    0.562104404
    0.265045881    0.168651342    0.657164693
    0.236474276    0.440079927    0.752224863
    0.436474562    0.040079828    0.562104404
    0.407902956    0.311508447    0.657164693
    0.379331470    0.582937062    0.752224922
    0.579331636    0.182936907    0.562104404
    0.550760150    0.454365551    0.657164693
    0.522188663    0.725794196    0.752224922
    0.722188950    0.325794131    0.562104404
    0.693617344    0.597222745    0.657164693
    0.665045738    0.868651390    0.752224922
    0.865046024    0.468651235    0.562104404
    0.836474419    0.740079880    0.657164693
    0.807902813    0.011508465    0.752224922
    0.957903087    0.211508304    0.609634459
    0.929331541    0.482936919    0.704694688
    0.900759935    0.754365563    0.799754858
    0.100760221    0.354365349    0.609634459
    0.072188735    0.625793993    0.704694688
    0.043617129    0.897222579    0.799754858
    0.243617415    0.497222632    0.609634459
    0.215045810    0.768651247    0.704694688
    0.186474323    0.040079840    0.799754918
    0.386474609    0.640079737    0.609634459
    0.357903004    0.911508322    0.704694688
    0.329331398    0.182936907    0.799754918
    0.529331684    0.782936752    0.609634459
    0.500760078    0.054365404    0.704694688
    0.472188592    0.325794101    0.799754918
    0.672188759    0.925794005    0.609634459
    0.643617153    0.197222710    0.704694688
    0.615045667    0.468651175    0.799754918
    0.815045953    0.068651088    0.609634459
    0.786474347    0.340079665    0.704694688
    0.757902741    0.611508250    0.799754858
