Si+C
    1.000000000
   13.303179741    0.000000000    0.000000000
    6.651589394   14.873406410    0.000000000
    0.000000000    0.000000000    7.599441051
Si  C  
36     84
Direct
    0.982905626    0.658119500    0.000000005
    0.782905579    0.558119297    0.159802422
    0.582905412    0.458119094    0.319604844
    0.982905626    0.324786127    0.000000005
    0.782905579    0.224785969    0.159802422
    0.582905412    0.124785803    0.319604844
    0.982905626    0.991452813    0.000000005
    0.782905579    0.891452670    0.159802422
    0.582905412    0.791452527    0.319604844
    0.632905662    0.691452682    0.079901040
    0.432905585    0.591452479    0.239703476
    0.232905522    0.491452426    0.399505883
    0.632905662    0.358119428    0.079901040
    0.432905585    0.258119285    0.239703476
    0.232905522    0.158119142    0.399505883
    0.632905662    0.024786137    0.079901040
    0.432905585    0.924785972    0.239703476
    0.232905522    0.824785829    0.399505883
    0.482905626    0.658119500    0.000000000
    0.282905549    0.558119297    0.159802422
    0.082905442    0.458119094    0.319604844
    0.482905626    0.324786127    0.000000000
    0.282905549    0.224785954    0.159802422
    0.082905442    0.124785811    0.319604844
    0.482905626    0.991452813    0.000000000
    0.282905549    0.891452670    0.159802422
    0.082905442    0.791452527    0.319604844
    0.132905677    0.691452742    0.079901062
    0.932905555    0.591452479    0.239703476
    0.732905507    0.491452396    0.399505883
    0.132905677    0.358119488    0.079901062
    0.932905555    0.258119285    0.239703476
    0.732905507    0.158119127    0.399505883
    0.132905677    0.024786137    0.079901062
    0.932905555    0.924785972    0.239703476
    0.732905507    0.824785829    0.399505883
    0.711278677    0.913531244    0.778465509
    0.054135680    0.942102909    0.568565488
    0.382707119    0.927817106    0.673515439
    0.996992826    0.770674169    0.778465509
    0.339849949    0.799245775    0.568565488
    0.668421507    0.784959972    0.673515439
    0.282707095    0.627817035    0.778465509
    0.625564218    0.656388640    0.568565488
    0.954135656    0.642102838    0.673515439
    0.568421483    0.484959871    0.778465450
    0.911278605    0.513531446    0.568565428
    0.239850044    0.499245703    0.673515439
    0.854135752    0.342102736    0.778465450
    0.196992874    0.370674342    0.568565428
    0.525564194    0.356388569    0.673515439
    0.139850020    0.199245602    0.778465450
    0.482707024    0.227817208    0.568565428
    0.811278582    0.213531435    0.673515439
    0.425564408    0.056388497    0.778465509
    0.768421412    0.084959984    0.568565428
    0.096992970    0.070674300    0.673515499
    0.161278486    0.013531208    0.830940366
    0.504135609    0.042102814    0.621040404
    0.832707047    0.027817011    0.725990474
    0.446992755    0.870674133    0.830940366
    0.789849877    0.899245739    0.621040404
    0.118421316    0.884959877    0.725990474
    0.732707024    0.727816999    0.830940425
    0.075564146    0.756388605    0.621040285
    0.404135704    0.742102802    0.725990415
    0.018421412    0.584959924    0.830940306
    0.361278534    0.613531470    0.621040285
    0.689849854    0.599245727    0.725990415
    0.304135799    0.442102820    0.830940425
    0.646992922    0.470674396    0.621040285
    0.975564241    0.456388623    0.725990355
    0.589849949    0.299245626    0.830940425
    0.932707131    0.327817202    0.621040404
    0.261278629    0.313531399    0.725990415
    0.875564337    0.156388476    0.830940306
    0.218421459    0.184960067    0.621040404
    0.546992779    0.170674294    0.725990415
    0.211278558    0.913531303    0.778465450
    0.554135680    0.942102790    0.568565428
    0.882707000    0.927817106    0.673515499
    0.496993065    0.770674169    0.778465509
    0.839850068    0.799245775    0.568565428
    0.168421507    0.784959972    0.673515439
    0.782707334    0.627817035    0.778465509
    0.125564337    0.656388640    0.568565428
    0.454135776    0.642102838    0.673515439
    0.068421483    0.484959930    0.778465509
    0.411278486    0.513531506    0.568565428
    0.739849925    0.499245733    0.673515439
    0.354135633    0.342102855    0.778465509
    0.696992874    0.370674372    0.568565428
    0.025564313    0.356388569    0.673515439
    0.639850140    0.199245632    0.778465509
    0.982707143    0.227817178    0.568565488
    0.311278582    0.213531405    0.673515499
    0.925564289    0.056388497    0.778465509
    0.268421412    0.084960103    0.568565488
    0.596992850    0.070674300    0.673515499
    0.661278486    0.013531327    0.830940366
    0.004135609    0.042102933    0.621040404
    0.332707047    0.027817011    0.725990415
    0.946992874    0.870674193    0.830940366
    0.289849997    0.899245799    0.621040404
    0.618421316    0.884959936    0.725990415
    0.232707143    0.727816999    0.830940366
    0.575564384    0.756388605    0.621040404
    0.904135823    0.742102742    0.725990415
    0.518421292    0.584959924    0.830940306
    0.861278534    0.613531411    0.621040285
    0.189849973    0.599245667    0.725990415
    0.804135799    0.442102760    0.830940306
    0.146992922    0.470674336    0.621040285
    0.475564361    0.456388563    0.725990415
    0.089849830    0.299245566    0.830940366
    0.432707071    0.327817172    0.621040285
    0.761278391    0.313531399    0.725990415
    0.375564218    0.156388551    0.830940306
    0.718421459    0.184960052    0.621040404
    0.046992779    0.170674279    0.725990415
