Ge+Si                                   
   1.00000000000000     
    16.0026760099999983    0.0000000000000000    0.0000000000000000
     0.0000000000000000   16.9734020229999985    0.0000000000000000
     0.0000000000000000    0.0000000000000000   13.2939195629999993
   Ge   Si
    48   108
Direct
  0.9132377509999969  0.9100242849999987  0.0000000189999980
  0.5382377509999969  0.5211353899999978  0.0501567419999986
  0.1632378099999983  0.1322464940000003  0.1003134400000008
  0.7882378099999983  0.7433574200000024  0.1504702269999996
  0.4132378099999983  0.3544685840000028  0.2006269250000017
  0.0382376909999991  0.9655795099999978  0.2507836520000026
  0.4132376909999991  0.9100242849999987  0.0000000220000018
  0.0382377170000012  0.5211353299999999  0.0501567419999986
  0.6632377509999969  0.1322464349999990  0.1003134400000008
  0.2882376909999991  0.7433574200000024  0.1504701819999994
  0.9132378099999983  0.3544684649999965  0.2006269250000017
  0.5382378099999983  0.9655797480000032  0.2507837409999993
  0.0382377279999986  0.6600242259999973  0.0000000189999980
  0.6632377509999969  0.2711352999999974  0.0501567239999972
  0.2882378099999983  0.8822463750000011  0.1003134469999978
  0.9132378099999983  0.4933574200000024  0.1504701819999994
  0.5382376909999991  0.1044684049999987  0.2006268949999992
  0.1632376909999991  0.7155796289999969  0.2507836520000026
  0.5382376909999991  0.6600242259999973  0.0000000189999980
  0.1632377059999968  0.2711352999999974  0.0501567239999972
  0.7882377509999969  0.8822463750000011  0.1003134469999978
  0.4132376909999991  0.4933574800000002  0.1504701819999994
  0.0382377509999969  0.1044684649999965  0.2006269399999994
  0.6632376909999991  0.7155796289999969  0.2507836819999980
  0.2882377509999969  0.6600242259999973  0.0000000189999980
  0.9132377509999969  0.2711352999999974  0.0501567239999972
  0.5382378099999983  0.8822463750000011  0.1003134469999978
  0.1632378099999983  0.4933574200000024  0.1504701819999994
  0.7882378099999983  0.1044684649999965  0.2006268949999992
  0.4132378099999983  0.7155795099999978  0.2507836520000026
  0.7882376909999991  0.6600241659999995  0.0000000000000000
  0.4132377210000016  0.2711352999999974  0.0501567239999972
  0.0382377840000032  0.8822463750000011  0.1003134469999978
  0.6632377509999969  0.4933574200000024  0.1504701670000017
  0.2882376909999991  0.1044684649999965  0.2006268949999992
  0.9132378099999983  0.7155796289999969  0.2507836819999980
  0.1632377210000016  0.9100242849999987  0.0000000189999980
  0.7882376909999991  0.5211353299999999  0.0501567419999986
  0.4132378099999983  0.1322464940000003  0.1003134700000032
  0.0382377509999969  0.7433574200000024  0.1504702269999996
  0.6632378099999983  0.3544685840000028  0.2006268800000015
  0.2882376909999991  0.9655795099999978  0.2507836520000026
  0.6632376909999991  0.9100242849999987  0.0000000269999987
  0.2882377509999969  0.5211353299999999  0.0501567239999972
  0.9132377509999969  0.1322464940000003  0.1003134700000032
  0.5382378099999983  0.7433574200000024  0.1504702269999996
  0.1632376909999991  0.3544684649999965  0.2006268800000015
  0.7882378099999983  0.9655797480000032  0.2507836520000026
  0.0377358499999971  0.2189197539999981  0.3700589540000010
  0.0377358499999971  0.0522531270000002  0.5743252640000023
  0.0377358499999971  0.8855863810000031  0.7785916329999978
  0.3710691929999967  0.2189197539999981  0.3700589540000010
  0.3710691929999967  0.0522531270000002  0.5743252640000023
  0.3710691929999967  0.8855863810000031  0.7785916329999978
  0.7044025659999988  0.2189197539999981  0.3700589540000010
  0.7044025659999988  0.0522531270000002  0.5743252640000023
  0.7044025659999988  0.8855863810000031  0.7785916329999978
  0.0377358499999971  0.5522531270000002  0.3700589540000010
  0.0377358499999971  0.3855864410000009  0.5743252640000023
  0.0377358499999971  0.2189197539999981  0.7785916329999978
  0.3710691929999967  0.5522531270000002  0.3700589540000010
  0.3710691929999967  0.3855864410000009  0.5743252640000023
  0.3710691929999967  0.2189197539999981  0.7785916329999978
  0.7044025659999988  0.5522531270000002  0.3700589540000010
  0.7044025659999988  0.3855864410000009  0.5743252640000023
  0.7044025659999988  0.2189197539999981  0.7785916329999978
  0.0377358499999971  0.8855865000000023  0.3700589540000010
  0.0377358499999971  0.7189197539999981  0.5743252640000023
  0.0377358499999971  0.5522531270000002  0.7785916329999978
  0.3710691929999967  0.8855865000000023  0.3700589540000010
  0.3710691929999967  0.7189197539999981  0.5743252640000023
  0.3710691929999967  0.5522531270000002  0.7785916329999978
  0.7044025659999988  0.8855865000000023  0.3700589540000010
  0.7044025659999988  0.7189197539999981  0.5743252640000023
  0.7044025659999988  0.5522531270000002  0.7785916329999978
  0.1210691850000032  0.3022531270000002  0.4721921379999969
  0.1210691850000032  0.1355863810000031  0.6764583590000015
  0.1210691850000032  0.9689197539999981  0.8807247880000020
  0.4544025360000035  0.3022531270000002  0.4721921379999969
  0.4544025360000035  0.1355863810000031  0.6764583590000015
  0.4544025360000035  0.9689197539999981  0.8807247880000020
  0.7877358200000018  0.3022531270000002  0.4721921379999969
  0.7877358200000018  0.1355863810000031  0.6764583590000015
  0.7877358200000018  0.9689197539999981  0.8807247880000020
  0.1210691850000032  0.6355864410000009  0.4721921379999969
  0.1210691850000032  0.4689197539999981  0.6764583590000015
  0.1210691850000032  0.3022530670000023  0.8807247880000020
  0.4544025360000035  0.6355864410000009  0.4721921379999969
  0.4544025360000035  0.4689197539999981  0.6764583590000015
  0.4544025360000035  0.3022530670000023  0.8807247880000020
  0.7877358200000018  0.6355864410000009  0.4721921379999969
  0.7877358200000018  0.4689197539999981  0.6764583590000015
  0.7877358200000018  0.3022530670000023  0.8807247880000020
  0.1210691850000032  0.9689198140000030  0.4721921379999969
  0.1210691850000032  0.8022531270000002  0.6764583590000015
  0.1210691850000032  0.6355864410000009  0.8807247880000020
  0.4544025360000035  0.9689198140000030  0.4721921379999969
  0.4544025360000035  0.8022531270000002  0.6764583590000015
  0.4544025360000035  0.6355864410000009  0.8807247880000020
  0.7877358200000018  0.9689198140000030  0.4721921379999969
  0.7877358200000018  0.8022531270000002  0.6764583590000015
  0.7877358200000018  0.6355864410000009  0.8807247880000020
  0.2044025209999987  0.3855864410000009  0.3700589540000010
  0.2044025209999987  0.2189197539999981  0.5743252640000023
  0.2044025209999987  0.0522530080000010  0.7785916329999978
  0.5377358200000018  0.3855864410000009  0.3700589540000010
  0.5377358200000018  0.2189197539999981  0.5743252640000023
  0.5377358200000018  0.0522530080000010  0.7785916329999978
  0.8710691929999967  0.3855864410000009  0.3700589540000010
  0.8710691929999967  0.2189197539999981  0.5743252640000023
  0.8710691929999967  0.0522530080000010  0.7785916329999978
  0.2044025209999987  0.7189197539999981  0.3700589540000010
  0.2044025209999987  0.5522531270000002  0.5743252640000023
  0.2044025209999987  0.3855863810000031  0.7785916329999978
  0.5377358200000018  0.7189197539999981  0.3700589540000010
  0.5377358200000018  0.5522531270000002  0.5743252640000023
  0.5377358200000018  0.3855863810000031  0.7785916329999978
  0.8710691929999967  0.7189197539999981  0.3700589540000010
  0.8710691929999967  0.5522531270000002  0.5743252640000023
  0.8710691929999967  0.3855863810000031  0.7785916329999978
  0.2044025209999987  0.0522531270000002  0.3700589540000010
  0.2044025209999987  0.8855864410000009  0.5743252640000023
  0.2044025209999987  0.7189196940000002  0.7785916329999978
  0.5377358200000018  0.0522531270000002  0.3700589540000010
  0.5377358200000018  0.8855864410000009  0.5743252640000023
  0.5377358200000018  0.7189196940000002  0.7785916329999978
  0.8710691929999967  0.0522531270000002  0.3700589540000010
  0.8710691929999967  0.8855864410000009  0.5743252640000023
  0.8710691929999967  0.7189196940000002  0.7785916329999978
  0.2877358499999971  0.4689197840000006  0.4721921379999969
  0.2877358499999971  0.3022530969999977  0.6764583590000015
  0.2877358499999971  0.1355863810000031  0.8807247880000020
  0.6210691929999967  0.4689197840000006  0.4721921379999969
  0.6210691929999967  0.3022530969999977  0.6764583590000015
  0.6210691929999967  0.1355863810000031  0.8807247880000020
  0.9544025659999988  0.4689197840000006  0.4721921379999969
  0.9544025659999988  0.3022530969999977  0.6764583590000015
  0.9544025659999988  0.1355863810000031  0.8807247880000020
  0.2877358499999971  0.8022532459999994  0.4721921379999969
  0.2877358499999971  0.6355865000000023  0.6764583590000015
  0.2877358499999971  0.4689198140000030  0.8807247880000020
  0.6210691929999967  0.8022532459999994  0.4721921379999969
  0.6210691929999967  0.6355865000000023  0.6764583590000015
  0.6210691929999967  0.4689198140000030  0.8807247880000020
  0.9544025659999988  0.8022532459999994  0.4721921379999969
  0.9544025659999988  0.6355865000000023  0.6764583590000015
  0.9544025659999988  0.4689198140000030  0.8807247880000020
  0.2877358499999971  0.1355863810000031  0.4721921379999969
  0.2877358499999971  0.9689197539999981  0.6764583590000015
  0.2877358499999971  0.8022531270000002  0.8807247880000020
  0.6210691929999967  0.1355863810000031  0.4721921379999969
  0.6210691929999967  0.9689197539999981  0.6764583590000015
  0.6210691929999967  0.8022531270000002  0.8807247880000020
  0.9544025659999988  0.1355863810000031  0.4721921379999969
  0.9544025659999988  0.9689197539999981  0.6764583590000015
  0.9544025659999988  0.8022531270000002  0.8807247880000020
 
  0.00000000E+00  0.00000000E+00  0.00000000E+00
  0.00000000E+00  0.00000000E+00  0.00000000E+00
  0.00000000E+00  0.00000000E+00  0.00000000E+00
  0.00000000E+00  0.00000000E+00  0.00000000E+00
  0.00000000E+00  0.00000000E+00  0.00000000E+00
  0.00000000E+00  0.00000000E+00  0.00000000E+00
  0.00000000E+00  0.00000000E+00  0.00000000E+00
  0.00000000E+00  0.00000000E+00  0.00000000E+00
  0.00000000E+00  0.00000000E+00  0.00000000E+00
  0.00000000E+00  0.00000000E+00  0.00000000E+00
  0.00000000E+00  0.00000000E+00  0.00000000E+00
  0.00000000E+00  0.00000000E+00  0.00000000E+00
  0.00000000E+00  0.00000000E+00  0.00000000E+00
  0.00000000E+00  0.00000000E+00  0.00000000E+00
  0.00000000E+00  0.00000000E+00  0.00000000E+00
  0.00000000E+00  0.00000000E+00  0.00000000E+00
  0.00000000E+00  0.00000000E+00  0.00000000E+00
  0.00000000E+00  0.00000000E+00  0.00000000E+00
  0.00000000E+00  0.00000000E+00  0.00000000E+00
  0.00000000E+00  0.00000000E+00  0.00000000E+00
  0.00000000E+00  0.00000000E+00  0.00000000E+00
  0.00000000E+00  0.00000000E+00  0.00000000E+00
  0.00000000E+00  0.00000000E+00  0.00000000E+00
  0.00000000E+00  0.00000000E+00  0.00000000E+00
  0.00000000E+00  0.00000000E+00  0.00000000E+00
  0.00000000E+00  0.00000000E+00  0.00000000E+00
  0.00000000E+00  0.00000000E+00  0.00000000E+00
  0.00000000E+00  0.00000000E+00  0.00000000E+00
  0.00000000E+00  0.00000000E+00  0.00000000E+00
  0.00000000E+00  0.00000000E+00  0.00000000E+00
  0.00000000E+00  0.00000000E+00  0.00000000E+00
  0.00000000E+00  0.00000000E+00  0.00000000E+00
  0.00000000E+00  0.00000000E+00  0.00000000E+00
  0.00000000E+00  0.00000000E+00  0.00000000E+00
  0.00000000E+00  0.00000000E+00  0.00000000E+00
  0.00000000E+00  0.00000000E+00  0.00000000E+00
  0.00000000E+00  0.00000000E+00  0.00000000E+00
  0.00000000E+00  0.00000000E+00  0.00000000E+00
  0.00000000E+00  0.00000000E+00  0.00000000E+00
  0.00000000E+00  0.00000000E+00  0.00000000E+00
  0.00000000E+00  0.00000000E+00  0.00000000E+00
  0.00000000E+00  0.00000000E+00  0.00000000E+00
  0.00000000E+00  0.00000000E+00  0.00000000E+00
  0.00000000E+00  0.00000000E+00  0.00000000E+00
  0.00000000E+00  0.00000000E+00  0.00000000E+00
  0.00000000E+00  0.00000000E+00  0.00000000E+00
  0.00000000E+00  0.00000000E+00  0.00000000E+00
  0.00000000E+00  0.00000000E+00  0.00000000E+00
  0.00000000E+00  0.00000000E+00  0.00000000E+00
  0.00000000E+00  0.00000000E+00  0.00000000E+00
  0.00000000E+00  0.00000000E+00  0.00000000E+00
  0.00000000E+00  0.00000000E+00  0.00000000E+00
  0.00000000E+00  0.00000000E+00  0.00000000E+00
  0.00000000E+00  0.00000000E+00  0.00000000E+00
  0.00000000E+00  0.00000000E+00  0.00000000E+00
  0.00000000E+00  0.00000000E+00  0.00000000E+00
  0.00000000E+00  0.00000000E+00  0.00000000E+00
  0.00000000E+00  0.00000000E+00  0.00000000E+00
  0.00000000E+00  0.00000000E+00  0.00000000E+00
  0.00000000E+00  0.00000000E+00  0.00000000E+00
  0.00000000E+00  0.00000000E+00  0.00000000E+00
  0.00000000E+00  0.00000000E+00  0.00000000E+00
  0.00000000E+00  0.00000000E+00  0.00000000E+00
  0.00000000E+00  0.00000000E+00  0.00000000E+00
  0.00000000E+00  0.00000000E+00  0.00000000E+00
  0.00000000E+00  0.00000000E+00  0.00000000E+00
  0.00000000E+00  0.00000000E+00  0.00000000E+00
  0.00000000E+00  0.00000000E+00  0.00000000E+00
  0.00000000E+00  0.00000000E+00  0.00000000E+00
  0.00000000E+00  0.00000000E+00  0.00000000E+00
  0.00000000E+00  0.00000000E+00  0.00000000E+00
  0.00000000E+00  0.00000000E+00  0.00000000E+00
  0.00000000E+00  0.00000000E+00  0.00000000E+00
  0.00000000E+00  0.00000000E+00  0.00000000E+00
  0.00000000E+00  0.00000000E+00  0.00000000E+00
  0.00000000E+00  0.00000000E+00  0.00000000E+00
  0.00000000E+00  0.00000000E+00  0.00000000E+00
  0.00000000E+00  0.00000000E+00  0.00000000E+00
  0.00000000E+00  0.00000000E+00  0.00000000E+00
  0.00000000E+00  0.00000000E+00  0.00000000E+00
  0.00000000E+00  0.00000000E+00  0.00000000E+00
  0.00000000E+00  0.00000000E+00  0.00000000E+00
  0.00000000E+00  0.00000000E+00  0.00000000E+00
  0.00000000E+00  0.00000000E+00  0.00000000E+00
  0.00000000E+00  0.00000000E+00  0.00000000E+00
  0.00000000E+00  0.00000000E+00  0.00000000E+00
  0.00000000E+00  0.00000000E+00  0.00000000E+00
  0.00000000E+00  0.00000000E+00  0.00000000E+00
  0.00000000E+00  0.00000000E+00  0.00000000E+00
  0.00000000E+00  0.00000000E+00  0.00000000E+00
  0.00000000E+00  0.00000000E+00  0.00000000E+00
  0.00000000E+00  0.00000000E+00  0.00000000E+00
  0.00000000E+00  0.00000000E+00  0.00000000E+00
  0.00000000E+00  0.00000000E+00  0.00000000E+00
  0.00000000E+00  0.00000000E+00  0.00000000E+00
  0.00000000E+00  0.00000000E+00  0.00000000E+00
  0.00000000E+00  0.00000000E+00  0.00000000E+00
  0.00000000E+00  0.00000000E+00  0.00000000E+00
  0.00000000E+00  0.00000000E+00  0.00000000E+00
  0.00000000E+00  0.00000000E+00  0.00000000E+00
  0.00000000E+00  0.00000000E+00  0.00000000E+00
  0.00000000E+00  0.00000000E+00  0.00000000E+00
  0.00000000E+00  0.00000000E+00  0.00000000E+00
  0.00000000E+00  0.00000000E+00  0.00000000E+00
  0.00000000E+00  0.00000000E+00  0.00000000E+00
  0.00000000E+00  0.00000000E+00  0.00000000E+00
  0.00000000E+00  0.00000000E+00  0.00000000E+00
  0.00000000E+00  0.00000000E+00  0.00000000E+00
  0.00000000E+00  0.00000000E+00  0.00000000E+00
  0.00000000E+00  0.00000000E+00  0.00000000E+00
  0.00000000E+00  0.00000000E+00  0.00000000E+00
  0.00000000E+00  0.00000000E+00  0.00000000E+00
  0.00000000E+00  0.00000000E+00  0.00000000E+00
  0.00000000E+00  0.00000000E+00  0.00000000E+00
  0.00000000E+00  0.00000000E+00  0.00000000E+00
  0.00000000E+00  0.00000000E+00  0.00000000E+00
  0.00000000E+00  0.00000000E+00  0.00000000E+00
  0.00000000E+00  0.00000000E+00  0.00000000E+00
  0.00000000E+00  0.00000000E+00  0.00000000E+00
  0.00000000E+00  0.00000000E+00  0.00000000E+00
  0.00000000E+00  0.00000000E+00  0.00000000E+00
  0.00000000E+00  0.00000000E+00  0.00000000E+00
  0.00000000E+00  0.00000000E+00  0.00000000E+00
  0.00000000E+00  0.00000000E+00  0.00000000E+00
  0.00000000E+00  0.00000000E+00  0.00000000E+00
  0.00000000E+00  0.00000000E+00  0.00000000E+00
  0.00000000E+00  0.00000000E+00  0.00000000E+00
  0.00000000E+00  0.00000000E+00  0.00000000E+00
  0.00000000E+00  0.00000000E+00  0.00000000E+00
  0.00000000E+00  0.00000000E+00  0.00000000E+00
  0.00000000E+00  0.00000000E+00  0.00000000E+00
  0.00000000E+00  0.00000000E+00  0.00000000E+00
  0.00000000E+00  0.00000000E+00  0.00000000E+00
  0.00000000E+00  0.00000000E+00  0.00000000E+00
  0.00000000E+00  0.00000000E+00  0.00000000E+00
  0.00000000E+00  0.00000000E+00  0.00000000E+00
  0.00000000E+00  0.00000000E+00  0.00000000E+00
  0.00000000E+00  0.00000000E+00  0.00000000E+00
  0.00000000E+00  0.00000000E+00  0.00000000E+00
  0.00000000E+00  0.00000000E+00  0.00000000E+00
  0.00000000E+00  0.00000000E+00  0.00000000E+00
  0.00000000E+00  0.00000000E+00  0.00000000E+00
  0.00000000E+00  0.00000000E+00  0.00000000E+00
  0.00000000E+00  0.00000000E+00  0.00000000E+00
  0.00000000E+00  0.00000000E+00  0.00000000E+00
  0.00000000E+00  0.00000000E+00  0.00000000E+00
  0.00000000E+00  0.00000000E+00  0.00000000E+00
  0.00000000E+00  0.00000000E+00  0.00000000E+00
  0.00000000E+00  0.00000000E+00  0.00000000E+00
  0.00000000E+00  0.00000000E+00  0.00000000E+00
  0.00000000E+00  0.00000000E+00  0.00000000E+00
  0.00000000E+00  0.00000000E+00  0.00000000E+00
  0.00000000E+00  0.00000000E+00  0.00000000E+00
  0.00000000E+00  0.00000000E+00  0.00000000E+00
  0.00000000E+00  0.00000000E+00  0.00000000E+00
  0.00000000E+00  0.00000000E+00  0.00000000E+00
