Ge+Si
    1.000000000
   16.002676010    0.000000000    0.000000000
    0.000000000   16.973402023    0.000000000
    0.000000000    0.000000000   13.293919563
Ge  Si 
48     108
Direct
    0.913237751    0.910024285    0.000000019
    0.538237751    0.521135390    0.050156742
    0.163237810    0.132246494    0.100313440
    0.788237810    0.743357420    0.150470227
    0.413237810    0.354468584    0.200626925
    0.038237691    0.965579510    0.250783652
    0.413237691    0.910024285    0.000000022
    0.038237717    0.521135330    0.050156742
    0.663237751    0.132246435    0.100313440
    0.288237691    0.743357420    0.150470182
    0.913237810    0.354468465    0.200626925
    0.538237810    0.965579748    0.250783741
    0.038237728    0.660024226    0.000000019
    0.663237751    0.271135300    0.050156724
    0.288237810    0.882246375    0.100313447
    0.913237810    0.493357420    0.150470182
    0.538237691    0.104468405    0.200626895
    0.163237691    0.715579629    0.250783652
    0.538237691    0.660024226    0.000000019
    0.163237706    0.271135300    0.050156724
    0.788237751    0.882246375    0.100313447
    0.413237691    0.493357480    0.150470182
    0.038237751    0.104468465    0.200626940
    0.663237691    0.715579629    0.250783682
    0.288237751    0.660024226    0.000000019
    0.913237751    0.271135300    0.050156724
    0.538237810    0.882246375    0.100313447
    0.163237810    0.493357420    0.150470182
    0.788237810    0.104468465    0.200626895
    0.413237810    0.715579510    0.250783652
    0.788237691    0.660024166    0.000000000
    0.413237721    0.271135300    0.050156724
    0.038237784    0.882246375    0.100313447
    0.663237751    0.493357420    0.150470167
    0.288237691    0.104468465    0.200626895
    0.913237810    0.715579629    0.250783682
    0.163237721    0.910024285    0.000000019
    0.788237691    0.521135330    0.050156742
    0.413237810    0.132246494    0.100313470
    0.038237751    0.743357420    0.150470227
    0.663237810    0.354468584    0.200626880
    0.288237691    0.965579510    0.250783652
    0.663237691    0.910024285    0.000000027
    0.288237751    0.521135330    0.050156724
    0.913237751    0.132246494    0.100313470
    0.538237810    0.743357420    0.150470227
    0.163237691    0.354468465    0.200626880
    0.788237810    0.965579748    0.250783652
    0.037735850    0.218919754    0.370058954
    0.037735850    0.052253127    0.574325264
    0.037735850    0.885586381    0.778591633
    0.371069193    0.218919754    0.370058954
    0.371069193    0.052253127    0.574325264
    0.371069193    0.885586381    0.778591633
    0.704402566    0.218919754    0.370058954
    0.704402566    0.052253127    0.574325264
    0.704402566    0.885586381    0.778591633
    0.037735850    0.552253127    0.370058954
    0.037735850    0.385586441    0.574325264
    0.037735850    0.218919754    0.778591633
    0.371069193    0.552253127    0.370058954
    0.371069193    0.385586441    0.574325264
    0.371069193    0.218919754    0.778591633
    0.704402566    0.552253127    0.370058954
    0.704402566    0.385586441    0.574325264
    0.704402566    0.218919754    0.778591633
    0.037735850    0.885586500    0.370058954
    0.037735850    0.718919754    0.574325264
    0.037735850    0.552253127    0.778591633
    0.371069193    0.885586500    0.370058954
    0.371069193    0.718919754    0.574325264
    0.371069193    0.552253127    0.778591633
    0.704402566    0.885586500    0.370058954
    0.704402566    0.718919754    0.574325264
    0.704402566    0.552253127    0.778591633
    0.121069185    0.302253127    0.472192138
    0.121069185    0.135586381    0.676458359
    0.121069185    0.968919754    0.880724788
    0.454402536    0.302253127    0.472192138
    0.454402536    0.135586381    0.676458359
    0.454402536    0.968919754    0.880724788
    0.787735820    0.302253127    0.472192138
    0.787735820    0.135586381    0.676458359
    0.787735820    0.968919754    0.880724788
    0.121069185    0.635586441    0.472192138
    0.121069185    0.468919754    0.676458359
    0.121069185    0.302253067    0.880724788
    0.454402536    0.635586441    0.472192138
    0.454402536    0.468919754    0.676458359
    0.454402536    0.302253067    0.880724788
    0.787735820    0.635586441    0.472192138
    0.787735820    0.468919754    0.676458359
    0.787735820    0.302253067    0.880724788
    0.121069185    0.968919814    0.472192138
    0.121069185    0.802253127    0.676458359
    0.121069185    0.635586441    0.880724788
    0.454402536    0.968919814    0.472192138
    0.454402536    0.802253127    0.676458359
    0.454402536    0.635586441    0.880724788
    0.787735820    0.968919814    0.472192138
    0.787735820    0.802253127    0.676458359
    0.787735820    0.635586441    0.880724788
    0.204402521    0.385586441    0.370058954
    0.204402521    0.218919754    0.574325264
    0.204402521    0.052253008    0.778591633
    0.537735820    0.385586441    0.370058954
    0.537735820    0.218919754    0.574325264
    0.537735820    0.052253008    0.778591633
    0.871069193    0.385586441    0.370058954
    0.871069193    0.218919754    0.574325264
    0.871069193    0.052253008    0.778591633
    0.204402521    0.718919754    0.370058954
    0.204402521    0.552253127    0.574325264
    0.204402521    0.385586381    0.778591633
    0.537735820    0.718919754    0.370058954
    0.537735820    0.552253127    0.574325264
    0.537735820    0.385586381    0.778591633
    0.871069193    0.718919754    0.370058954
    0.871069193    0.552253127    0.574325264
    0.871069193    0.385586381    0.778591633
    0.204402521    0.052253127    0.370058954
    0.204402521    0.885586441    0.574325264
    0.204402521    0.718919694    0.778591633
    0.537735820    0.052253127    0.370058954
    0.537735820    0.885586441    0.574325264
    0.537735820    0.718919694    0.778591633
    0.871069193    0.052253127    0.370058954
    0.871069193    0.885586441    0.574325264
    0.871069193    0.718919694    0.778591633
    0.287735850    0.468919784    0.472192138
    0.287735850    0.302253097    0.676458359
    0.287735850    0.135586381    0.880724788
    0.621069193    0.468919784    0.472192138
    0.621069193    0.302253097    0.676458359
    0.621069193    0.135586381    0.880724788
    0.954402566    0.468919784    0.472192138
    0.954402566    0.302253097    0.676458359
    0.954402566    0.135586381    0.880724788
    0.287735850    0.802253246    0.472192138
    0.287735850    0.635586500    0.676458359
    0.287735850    0.468919814    0.880724788
    0.621069193    0.802253246    0.472192138
    0.621069193    0.635586500    0.676458359
    0.621069193    0.468919814    0.880724788
    0.954402566    0.802253246    0.472192138
    0.954402566    0.635586500    0.676458359
    0.954402566    0.468919814    0.880724788
    0.287735850    0.135586381    0.472192138
    0.287735850    0.968919754    0.676458359
    0.287735850    0.802253127    0.880724788
    0.621069193    0.135586381    0.472192138
    0.621069193    0.968919754    0.676458359
    0.621069193    0.802253127    0.880724788
    0.954402566    0.135586381    0.472192138
    0.954402566    0.968919754    0.676458359
    0.954402566    0.802253127    0.880724788
