Ge+Ge
    1.000000000
    5.657800198    0.000000000    0.000000000
    0.000000000    5.657800198    0.000000000
    0.000000000    0.000000000   16.944499969
Ge 
24
Direct
    0.017083453    0.000000000    0.000000000
    0.517083406    0.000000000    0.166950926
    0.017083406    0.000000000    0.333901882
    0.267083436    0.750000000    0.083475463
    0.767083406    0.750000000    0.250426382
    0.267083406    0.750000000    0.417377353
    0.517083406    0.499999970    0.000000000
    0.017083287    0.499999970    0.166950926
    0.517083287    0.499999970    0.333901882
    0.767083406    0.249999985    0.083475463
    0.267083406    0.249999985    0.250426382
    0.767083406    0.249999985    0.417377353
    0.481369168    0.464285702    0.500000060
    0.981369138    0.464285702    0.666950941
    0.481369108    0.464285702    0.833901882
    0.731369138    0.214285731    0.583475530
    0.231369138    0.214285731    0.750426412
    0.731369138    0.214285731    0.917377412
    0.981369138    0.964285672    0.500000060
    0.481368989    0.964285672    0.666950941
    0.981369019    0.964285672    0.833901882
    0.231369138    0.714285672    0.583475530
    0.731369138    0.714285672    0.750426412
    0.231369138    0.714285672    0.917377412
