Ge+Ge
    1.000000000
    8.001338005    0.000000000    0.000000000
   -4.000669003   12.002006531    0.000000000
    0.000000000    0.000000000    9.429668427
Ge 
48
Direct
    0.005694489    0.994305491    0.000000000
    0.172361195    0.827638865    0.299999923
    0.339027911    0.660972118    0.599999905
    0.672361076    0.327638805    0.000000000
    0.839027762    0.160972118    0.299999923
    0.005694509    0.994305432    0.599999905
    0.339027762    0.660972118    0.000000000
    0.505694449    0.494305402    0.299999923
    0.672361195    0.327638745    0.599999905
    0.089027837    0.160972148    0.149999961
    0.255694568    0.994305432    0.449999899
    0.422361284    0.827638745    0.749999940
    0.755694389    0.494305462    0.149999961
    0.922361195    0.327638805    0.449999899
    0.089027882    0.160972089    0.749999940
    0.422361046    0.827638805    0.149999961
    0.589027822    0.660972178    0.449999899
    0.755694509    0.494305462    0.749999940
    0.505694449    0.994305491    0.000000000
    0.672361135    0.827638865    0.299999923
    0.839027882    0.660972118    0.599999905
    0.172361121    0.327638805    0.000000000
    0.339027852    0.160972133    0.299999923
    0.505694568    0.994305432    0.599999905
    0.839027762    0.660972118    0.000000000
    0.005694509    0.494305432    0.299999923
    0.172361135    0.327638745    0.599999905
    0.589027822    0.160972148    0.149999961
    0.755694568    0.994305491    0.449999899
    0.922361314    0.827638805    0.749999940
    0.255694479    0.494305491    0.149999961
    0.422361255    0.327638835    0.449999899
    0.589028001    0.160972118    0.749999940
    0.922361076    0.827638865    0.149999961
    0.089027762    0.660972118    0.449999899
    0.255694509    0.494305432    0.749999940
    0.962846637    0.973461866    0.749999881
    0.573957682    0.695684075    0.849999905
    0.185068786    0.417906225    0.949999928
    0.462846607    0.973461866    0.749999881
    0.073957689    0.695684075    0.849999905
    0.685068727    0.417906225    0.949999928
    0.768402159    0.084572934    0.799999833
    0.379513204    0.806795120    0.899999976
    0.990624189    0.529017210    1.000000000
    0.268402100    0.084572934    0.799999833
    0.879513204    0.806795120    0.899999976
    0.490624189    0.529017210    1.000000000
