Si+C                                    
   1.00000000000000     
    13.3031797409999992    0.0000000000000000    0.0000000000000000
     6.6515893940000002   14.8734064099999994    0.0000000000000000
     0.0000000000000000    0.0000000000000000    8.1924057010000002
   Si   C 
    36    84
Direct
  0.9829056259999973  0.6581194999999980  0.0000000049999969
  0.7829055790000012  0.5581192969999975  0.1482359620000011
  0.5829054120000023  0.4581190939999971  0.2964719240000022
  0.9829056259999973  0.3247861270000030  0.0000000049999969
  0.7829055790000012  0.2247859690000027  0.1482359620000011
  0.5829054120000023  0.1247858030000017  0.2964719240000022
  0.9829056259999973  0.9914528130000022  0.0000000049999969
  0.7829055790000012  0.8914526699999996  0.1482359620000011
  0.5829054120000023  0.7914525269999970  0.2964719240000022
  0.6329056619999989  0.6914526819999978  0.0741178239999982
  0.4329055850000003  0.5914524789999973  0.2223538009999970
  0.2329055220000029  0.4914524260000022  0.3705897330000028
  0.6329056619999989  0.3581194280000020  0.0741178239999982
  0.4329055850000003  0.2581192849999994  0.2223538009999970
  0.2329055220000029  0.1581191419999968  0.3705897330000028
  0.6329056619999989  0.0247861369999995  0.0741178239999982
  0.4329055850000003  0.9247859720000022  0.2223538009999970
  0.2329055220000029  0.8247858289999996  0.3705897330000028
  0.4829056259999973  0.6581194999999980  0.0000000000000000
  0.2829055489999988  0.5581192969999975  0.1482359620000011
  0.0829054419999977  0.4581190939999971  0.2964719240000022
  0.4829056259999973  0.3247861270000030  0.0000000000000000
  0.2829055489999988  0.2247859539999979  0.1482359620000011
  0.0829054419999977  0.1247858110000024  0.2964719240000022
  0.4829056259999973  0.9914528130000022  0.0000000000000000
  0.2829055489999988  0.8914526699999996  0.1482359620000011
  0.0829054419999977  0.7914525269999970  0.2964719240000022
  0.1329056769999966  0.6914527420000027  0.0741178390000030
  0.9329055549999978  0.5914524789999973  0.2223538009999970
  0.7329055069999981  0.4914523959999997  0.3705897330000028
  0.1329056769999966  0.3581194879999998  0.0741178390000030
  0.9329055549999978  0.2581192849999994  0.2223538009999970
  0.7329055069999981  0.1581191269999991  0.3705897330000028
  0.1329056769999966  0.0247861369999995  0.0741178390000030
  0.9329055549999978  0.9247859720000022  0.2223538009999970
  0.7329055069999981  0.8247858289999996  0.3705897330000028
  0.7188544269999966  0.8332843179999969  0.7583102580000016
  0.0617114309999991  0.8618559840000017  0.5636027460000008
  0.3902828690000035  0.8475701810000018  0.6609564419999998
  0.0045685770000006  0.6904272439999986  0.7583102580000016
  0.3474256989999986  0.7189988490000019  0.5636027460000008
  0.6759972569999988  0.7047130469999985  0.6609564419999998
  0.2902828450000001  0.5475701089999987  0.7583102580000016
  0.6331399680000018  0.5761417149999986  0.5636027460000008
  0.9617114070000028  0.5618559119999986  0.6609564419999998
  0.5759972330000025  0.4047129450000000  0.7583101990000003
  0.9188543559999971  0.4332845509999999  0.5636026860000030
  0.2474257949999981  0.4189987780000024  0.6609564419999998
  0.8617115019999986  0.2618558109999967  0.7583101990000003
  0.2045686239999966  0.2904274169999965  0.5636026860000030
  0.5331399439999984  0.2761416439999991  0.6609564419999998
  0.1474257710000018  0.1189986910000016  0.7583101990000003
  0.4902827740000006  0.1475702970000015  0.5636026860000030
  0.8188543320000008  0.1332845239999969  0.6609564419999998
  0.4331401589999970  0.9761415720000031  0.7583102580000016
  0.7759971620000030  0.0047131780000029  0.5636026860000030
  0.1045687200000032  0.9904273750000030  0.6609565019999977
  0.1688542369999979  0.9332843420000003  0.8069870469999998
  0.5117113590000031  0.9618559480000002  0.6122795340000025
  0.8402827979999969  0.9475700859999989  0.7096332910000029
  0.4545685049999975  0.7904272079999970  0.8069870469999998
  0.7974256279999992  0.8189988139999969  0.6122795340000025
  0.1259970659999965  0.8047129509999991  0.7096332910000029
  0.7402827740000006  0.6475700740000008  0.8069871069999976
  0.0831398959999987  0.6761416789999970  0.6122794750000011
  0.4117114539999989  0.6618558759999971  0.7096332309999980
  0.0259971620000030  0.5047129989999988  0.8069869879999985
  0.3688542840000011  0.5332845450000008  0.6122794750000011
  0.6974256040000029  0.5189988019999987  0.7096332309999980
  0.3117115499999983  0.3618558940000014  0.8069871069999976
  0.6545686720000035  0.3904274699999988  0.6122794750000011
  0.9831399919999981  0.3761416970000013  0.7096331719999966
  0.5974256989999986  0.2189987000000002  0.8069871069999976
  0.9402828810000017  0.2475702910000024  0.6122795340000025
  0.2688543800000005  0.2332844880000025  0.7096332309999980
  0.8831400870000010  0.0761415659999969  0.8069869879999985
  0.2259972100000027  0.1047131569999991  0.6122795340000025
  0.5545685290000009  0.0904273689999968  0.7096332309999980
  0.2188543079999974  0.8332843780000019  0.7583101990000003
  0.5617114309999991  0.8618558650000026  0.5636026860000030
  0.8902827499999972  0.8475701810000018  0.6609565019999977
  0.5045688149999989  0.6904272439999986  0.7583102580000016
  0.8474258179999978  0.7189988490000019  0.5636026860000030
  0.1759972569999988  0.7047130469999985  0.6609564419999998
  0.7902830840000021  0.5475701089999987  0.7583102580000016
  0.1331400870000010  0.5761417149999986  0.5636026860000030
  0.4617115260000020  0.5618559119999986  0.6609564419999998
  0.0759972330000025  0.4047130049999978  0.7583102580000016
  0.4188542369999979  0.4332845810000023  0.5636026860000030
  0.7474256750000023  0.4189988079999978  0.6609564419999998
  0.3617113829999994  0.2618559300000030  0.7583102580000016
  0.7045686239999966  0.2904274460000025  0.5636026860000030
  0.0331400629999976  0.2761416439999991  0.6609564419999998
  0.6474258900000009  0.1189987209999970  0.7583102580000016
  0.9902828929999998  0.1475702669999990  0.5636027460000008
  0.3188543320000008  0.1332844789999967  0.6609565019999977
  0.9331400390000013  0.9761416320000009  0.7583102580000016
  0.2759971620000030  0.0047131780000029  0.5636027460000008
  0.6045686009999969  0.9904273750000030  0.6609565019999977
  0.6688542369999979  0.9332844609999995  0.8069870469999998
  0.0117113590000031  0.9618560079999980  0.6122795340000025
  0.3402827979999969  0.9475701450000003  0.7096332309999980
  0.9545686239999966  0.7904272680000020  0.8069870469999998
  0.2974257469999984  0.8189988729999982  0.6122795340000025
  0.6259970659999965  0.8047130109999969  0.7096332309999980
  0.2402828929999998  0.6475700740000008  0.8069870469999998
  0.5831401350000007  0.6761416789999970  0.6122795340000025
  0.9117115740000017  0.6618558170000028  0.7096332309999980
  0.5259970429999967  0.5047129989999988  0.8069869879999985
  0.8688542840000011  0.5332844850000029  0.6122794750000011
  0.1974257230000021  0.5189987420000008  0.7096332309999980
  0.8117115499999983  0.3618558350000001  0.8069869879999985
  0.1545686720000035  0.3904274109999974  0.6122794750000011
  0.4831401109999973  0.3761416380000000  0.7096332309999980
  0.0974255799999995  0.2189986559999966  0.8069870469999998
  0.4402828220000004  0.2475702609999999  0.6122794750000011
  0.7688541409999985  0.2332844880000025  0.7096332309999980
  0.3831399680000018  0.0761416409999995  0.8069869879999985
  0.7259972100000027  0.1047131420000014  0.6122795340000025
  0.0545685290000009  0.0904273689999968  0.7096332309999980
 
  0.00000000E+00  0.00000000E+00  0.00000000E+00
  0.00000000E+00  0.00000000E+00  0.00000000E+00
  0.00000000E+00  0.00000000E+00  0.00000000E+00
  0.00000000E+00  0.00000000E+00  0.00000000E+00
  0.00000000E+00  0.00000000E+00  0.00000000E+00
  0.00000000E+00  0.00000000E+00  0.00000000E+00
  0.00000000E+00  0.00000000E+00  0.00000000E+00
  0.00000000E+00  0.00000000E+00  0.00000000E+00
  0.00000000E+00  0.00000000E+00  0.00000000E+00
  0.00000000E+00  0.00000000E+00  0.00000000E+00
  0.00000000E+00  0.00000000E+00  0.00000000E+00
  0.00000000E+00  0.00000000E+00  0.00000000E+00
  0.00000000E+00  0.00000000E+00  0.00000000E+00
  0.00000000E+00  0.00000000E+00  0.00000000E+00
  0.00000000E+00  0.00000000E+00  0.00000000E+00
  0.00000000E+00  0.00000000E+00  0.00000000E+00
  0.00000000E+00  0.00000000E+00  0.00000000E+00
  0.00000000E+00  0.00000000E+00  0.00000000E+00
  0.00000000E+00  0.00000000E+00  0.00000000E+00
  0.00000000E+00  0.00000000E+00  0.00000000E+00
  0.00000000E+00  0.00000000E+00  0.00000000E+00
  0.00000000E+00  0.00000000E+00  0.00000000E+00
  0.00000000E+00  0.00000000E+00  0.00000000E+00
  0.00000000E+00  0.00000000E+00  0.00000000E+00
  0.00000000E+00  0.00000000E+00  0.00000000E+00
  0.00000000E+00  0.00000000E+00  0.00000000E+00
  0.00000000E+00  0.00000000E+00  0.00000000E+00
  0.00000000E+00  0.00000000E+00  0.00000000E+00
  0.00000000E+00  0.00000000E+00  0.00000000E+00
  0.00000000E+00  0.00000000E+00  0.00000000E+00
  0.00000000E+00  0.00000000E+00  0.00000000E+00
  0.00000000E+00  0.00000000E+00  0.00000000E+00
  0.00000000E+00  0.00000000E+00  0.00000000E+00
  0.00000000E+00  0.00000000E+00  0.00000000E+00
  0.00000000E+00  0.00000000E+00  0.00000000E+00
  0.00000000E+00  0.00000000E+00  0.00000000E+00
  0.00000000E+00  0.00000000E+00  0.00000000E+00
  0.00000000E+00  0.00000000E+00  0.00000000E+00
  0.00000000E+00  0.00000000E+00  0.00000000E+00
  0.00000000E+00  0.00000000E+00  0.00000000E+00
  0.00000000E+00  0.00000000E+00  0.00000000E+00
  0.00000000E+00  0.00000000E+00  0.00000000E+00
  0.00000000E+00  0.00000000E+00  0.00000000E+00
  0.00000000E+00  0.00000000E+00  0.00000000E+00
  0.00000000E+00  0.00000000E+00  0.00000000E+00
  0.00000000E+00  0.00000000E+00  0.00000000E+00
  0.00000000E+00  0.00000000E+00  0.00000000E+00
  0.00000000E+00  0.00000000E+00  0.00000000E+00
  0.00000000E+00  0.00000000E+00  0.00000000E+00
  0.00000000E+00  0.00000000E+00  0.00000000E+00
  0.00000000E+00  0.00000000E+00  0.00000000E+00
  0.00000000E+00  0.00000000E+00  0.00000000E+00
  0.00000000E+00  0.00000000E+00  0.00000000E+00
  0.00000000E+00  0.00000000E+00  0.00000000E+00
  0.00000000E+00  0.00000000E+00  0.00000000E+00
  0.00000000E+00  0.00000000E+00  0.00000000E+00
  0.00000000E+00  0.00000000E+00  0.00000000E+00
  0.00000000E+00  0.00000000E+00  0.00000000E+00
  0.00000000E+00  0.00000000E+00  0.00000000E+00
  0.00000000E+00  0.00000000E+00  0.00000000E+00
  0.00000000E+00  0.00000000E+00  0.00000000E+00
  0.00000000E+00  0.00000000E+00  0.00000000E+00
  0.00000000E+00  0.00000000E+00  0.00000000E+00
  0.00000000E+00  0.00000000E+00  0.00000000E+00
  0.00000000E+00  0.00000000E+00  0.00000000E+00
  0.00000000E+00  0.00000000E+00  0.00000000E+00
  0.00000000E+00  0.00000000E+00  0.00000000E+00
  0.00000000E+00  0.00000000E+00  0.00000000E+00
  0.00000000E+00  0.00000000E+00  0.00000000E+00
  0.00000000E+00  0.00000000E+00  0.00000000E+00
  0.00000000E+00  0.00000000E+00  0.00000000E+00
  0.00000000E+00  0.00000000E+00  0.00000000E+00
  0.00000000E+00  0.00000000E+00  0.00000000E+00
  0.00000000E+00  0.00000000E+00  0.00000000E+00
  0.00000000E+00  0.00000000E+00  0.00000000E+00
  0.00000000E+00  0.00000000E+00  0.00000000E+00
  0.00000000E+00  0.00000000E+00  0.00000000E+00
  0.00000000E+00  0.00000000E+00  0.00000000E+00
  0.00000000E+00  0.00000000E+00  0.00000000E+00
  0.00000000E+00  0.00000000E+00  0.00000000E+00
  0.00000000E+00  0.00000000E+00  0.00000000E+00
  0.00000000E+00  0.00000000E+00  0.00000000E+00
  0.00000000E+00  0.00000000E+00  0.00000000E+00
  0.00000000E+00  0.00000000E+00  0.00000000E+00
  0.00000000E+00  0.00000000E+00  0.00000000E+00
  0.00000000E+00  0.00000000E+00  0.00000000E+00
  0.00000000E+00  0.00000000E+00  0.00000000E+00
  0.00000000E+00  0.00000000E+00  0.00000000E+00
  0.00000000E+00  0.00000000E+00  0.00000000E+00
  0.00000000E+00  0.00000000E+00  0.00000000E+00
  0.00000000E+00  0.00000000E+00  0.00000000E+00
  0.00000000E+00  0.00000000E+00  0.00000000E+00
  0.00000000E+00  0.00000000E+00  0.00000000E+00
  0.00000000E+00  0.00000000E+00  0.00000000E+00
  0.00000000E+00  0.00000000E+00  0.00000000E+00
  0.00000000E+00  0.00000000E+00  0.00000000E+00
  0.00000000E+00  0.00000000E+00  0.00000000E+00
  0.00000000E+00  0.00000000E+00  0.00000000E+00
  0.00000000E+00  0.00000000E+00  0.00000000E+00
  0.00000000E+00  0.00000000E+00  0.00000000E+00
  0.00000000E+00  0.00000000E+00  0.00000000E+00
  0.00000000E+00  0.00000000E+00  0.00000000E+00
  0.00000000E+00  0.00000000E+00  0.00000000E+00
  0.00000000E+00  0.00000000E+00  0.00000000E+00
  0.00000000E+00  0.00000000E+00  0.00000000E+00
  0.00000000E+00  0.00000000E+00  0.00000000E+00
  0.00000000E+00  0.00000000E+00  0.00000000E+00
  0.00000000E+00  0.00000000E+00  0.00000000E+00
  0.00000000E+00  0.00000000E+00  0.00000000E+00
  0.00000000E+00  0.00000000E+00  0.00000000E+00
  0.00000000E+00  0.00000000E+00  0.00000000E+00
  0.00000000E+00  0.00000000E+00  0.00000000E+00
  0.00000000E+00  0.00000000E+00  0.00000000E+00
  0.00000000E+00  0.00000000E+00  0.00000000E+00
  0.00000000E+00  0.00000000E+00  0.00000000E+00
  0.00000000E+00  0.00000000E+00  0.00000000E+00
  0.00000000E+00  0.00000000E+00  0.00000000E+00
  0.00000000E+00  0.00000000E+00  0.00000000E+00
  0.00000000E+00  0.00000000E+00  0.00000000E+00
  0.00000000E+00  0.00000000E+00  0.00000000E+00
