Si+C
    1.000000000
   16.293001175    0.000000000    0.000000000
  -10.862000465   12.144085884    0.000000000
    0.000000000    0.000000000    7.994749546
Si  C  
36     84
Direct
    0.982905626    0.641025126    0.000000002
    0.782905579    0.341025025    0.151900828
    0.582905412    0.041024935    0.303801656
    0.982905626    0.307691783    0.000000002
    0.782905579    0.007691715    0.151900828
    0.582905412    0.707691669    0.303801656
    0.982905626    0.974358499    0.000000002
    0.782905579    0.674358368    0.151900828
    0.582905412    0.374358296    0.303801656
    0.632905662    0.657691717    0.075950257
    0.432905585    0.357691616    0.227851093
    0.232905522    0.057691578    0.379751921
    0.632905662    0.324358463    0.075950257
    0.432905585    0.024358369    0.227851093
    0.232905522    0.724358320    0.379751921
    0.632905662    0.991025209    0.075950257
    0.432905585    0.691025138    0.227851093
    0.232905522    0.391025066    0.379751921
    0.482905626    0.807691753    0.000000000
    0.282905549    0.507691622    0.151900828
    0.082905442    0.207691610    0.303801656
    0.482905626    0.474358439    0.000000000
    0.282905549    0.174358353    0.151900828
    0.082905442    0.874358296    0.303801656
    0.482905626    0.141025141    0.000000000
    0.282905549    0.841025054    0.151900828
    0.082905442    0.541024983    0.303801656
    0.132905677    0.824358523    0.075950272
    0.932905555    0.524358392    0.227851093
    0.732905507    0.224358380    0.379751921
    0.132905677    0.491025209    0.075950272
    0.932905555    0.191025108    0.227851093
    0.732905507    0.891025126    0.379751921
    0.132905677    0.157691956    0.075950272
    0.932905555    0.857691884    0.227851093
    0.732905507    0.557691932    0.379751921
    0.339629591    0.058809042    0.565175176
    0.582486808    0.030237556    0.664935827
    0.825344026    0.001666069    0.764696479
    0.625343859    0.201666147    0.565175176
    0.868201077    0.173094660    0.664935827
    0.111058235    0.144523203    0.764696479
    0.911058068    0.344523251    0.565175176
    0.153915405    0.315951765    0.664935827
    0.396772623    0.287380308    0.764696479
    0.196772456    0.487380445    0.565175176
    0.439629674    0.458808959    0.664935827
    0.682487011    0.430237502    0.764696479
    0.482486725    0.630237579    0.565175176
    0.725343943    0.601666152    0.664935827
    0.968201160    0.573094666    0.764696479
    0.768200994    0.773094773    0.565175176
    0.011058331    0.744523287    0.664935827
    0.253915548    0.715951800    0.764696479
    0.053915262    0.915951908    0.565175176
    0.296772480    0.887380362    0.664935827
    0.539629698    0.858808935    0.764696479
    0.175343752    0.151666164    0.615055442
    0.418201089    0.123094678    0.714816093
    0.661058307    0.094523169    0.814576626
    0.461057961    0.294523299    0.615055442
    0.703915238    0.265951812    0.714816093
    0.946772456    0.237380296    0.814576745
    0.746772289    0.437380463    0.615055442
    0.989629567    0.408808976    0.714816093
    0.232486844    0.380237490    0.814576745
    0.032486677    0.580237627    0.615055442
    0.275343895    0.551666081    0.714816093
    0.518201232    0.523094714    0.814576745
    0.318200827    0.723094761    0.615055442
    0.561058164    0.694523275    0.714816093
    0.803915262    0.665951788    0.814576745
    0.603915274    0.865951896    0.615055442
    0.846772552    0.837380350    0.714816093
    0.089629769    0.808808923    0.814576626
    0.889629424    0.008808970    0.615055442
    0.132486582    0.980237544    0.714816093
    0.375343919    0.951666057    0.814576626
    0.982486844    0.130237609    0.565175176
    0.225343943    0.101666093    0.664935827
    0.468201280    0.073094673    0.764696479
    0.268201113    0.273094743    0.565175176
    0.511058331    0.244523227    0.664935827
    0.753915429    0.215951741    0.764696479
    0.553915322    0.415951878    0.565175176
    0.796772540    0.387380391    0.664935827
    0.039629698    0.358808905    0.764696479
    0.839629531    0.558809042    0.565175176
    0.082486868    0.530237556    0.664935827
    0.325344086    0.501666069    0.764696479
    0.125343800    0.701666176    0.565175176
    0.368201137    0.673094749    0.664935827
    0.611058235    0.644523203    0.764696479
    0.411058128    0.844523370    0.565175176
    0.653915405    0.815951943    0.664935827
    0.896772683    0.787380457    0.764696479
    0.696772456    0.987380505    0.565175176
    0.939629614    0.958809078    0.664935827
    0.182487011    0.930237591    0.764696479
    0.532486737    0.080237597    0.615055442
    0.775344014    0.051666021    0.714816093
    0.018201351    0.023094654    0.814576745
    0.818200886    0.223094732    0.615055442
    0.061058164    0.194523245    0.714816093
    0.303915381    0.165951788    0.814576626
    0.103915215    0.365951836    0.615055442
    0.346772552    0.337380409    0.714816093
    0.589629769    0.308808953    0.814576626
    0.389629364    0.508809030    0.615055442
    0.632486701    0.480237544    0.714816093
    0.875343919    0.451666027    0.814576626
    0.675343812    0.651666105    0.615055442
    0.918201149    0.623094618    0.714816093
    0.161058426    0.594523191    0.814576745
    0.961058140    0.794523299    0.615055442
    0.203915358    0.765951812    0.714816093
    0.446772695    0.737380445    0.814576745
    0.246772289    0.937380433    0.615055442
    0.489629626    0.908809006    0.714816093
    0.732486844    0.880237520    0.814576745
