Sn+Ge
    1.000000000
   12.978400230    0.000000000    0.000000000
  -12.978400230   14.510293007    0.000000000
    0.000000000    0.000000000    9.389105797
Sn  Ge 
24     24
Direct
    0.979564309    0.030653533    0.000000009
    0.779564261    0.330653578    0.154543951
    0.579564154    0.630653620    0.309087902
    0.479564250    0.030653533    0.000000009
    0.279564202    0.330653578    0.154543951
    0.079564132    0.630653620    0.309087902
    0.254564315    0.680653512    0.077271819
    0.054564159    0.980653465    0.231815785
    0.854564130    0.280653596    0.386359692
    0.754564404    0.680653512    0.077271819
    0.554564238    0.980653465    0.231815785
    0.354564160    0.280653596    0.386359692
    0.229564279    0.530653477    0.000000000
    0.029564191    0.830653489    0.154543951
    0.829564035    0.130653620    0.309087902
    0.729564190    0.530653477    0.000000000
    0.529564142    0.830653489    0.154543951
    0.329564035    0.130653620    0.309087902
    0.004564330    0.180653512    0.077271827
    0.804564178    0.480653584    0.231815785
    0.604564250    0.780653656    0.386359692
    0.504564285    0.180653512    0.077271827
    0.304564178    0.480653584    0.231815785
    0.104564168    0.780653656    0.386359692
    0.050526619    0.841741800    0.555657268
    0.933859885    0.425075054    0.610666275
    0.817193151    0.008408308    0.665675282
    0.700526297    0.591741562    0.720684350
    0.583859622    0.175074935    0.775693297
    0.467192799    0.758407950    0.830702364
    0.550526619    0.091741800    0.555657268
    0.433859885    0.675075054    0.610666275
    0.317193121    0.258408308    0.665675282
    0.200526327    0.841741562    0.720684230
    0.083859570    0.425074816    0.775693238
    0.967192888    0.008407950    0.830702305
    0.550526619    0.341741800    0.555657327
    0.433859855    0.925075054    0.610666335
    0.317193091    0.508408308    0.665675282
    0.200526357    0.091741562    0.720684290
    0.083859630    0.675074816    0.775693297
    0.967192769    0.258407831    0.830702364
    0.050526619    0.591741800    0.555657327
    0.933859825    0.175075054    0.610666335
    0.817193091    0.758408308    0.665675282
    0.700526297    0.341741562    0.720684290
    0.583859563    0.925074816    0.775693357
    0.467192799    0.508407831    0.830702364
