Si+Sn
    1.000000000
    9.406767845    0.000000000    0.000000000
    0.000000000   15.361189842    0.000000000
    0.000000000    0.000000000   13.972714424
Si  Sn 
48     48
Direct
    0.069444448    0.921875000    0.000000005
    0.402777851    0.546875000    0.079340264
    0.736111283    0.171875000    0.158680528
    0.069444656    0.796875000    0.238020822
    0.402778029    0.421875119    0.317360997
    0.736111641    0.046874881    0.396701336
    0.069444455    0.421874970    0.000000003
    0.402777851    0.046874985    0.079340279
    0.736111283    0.671875000    0.158680528
    0.069444656    0.296875000    0.238020837
    0.402778029    0.921875000    0.317360997
    0.736111641    0.546874762    0.396701336
    0.819444478    0.171875015    0.000000000
    0.152777910    0.796875000    0.079340249
    0.486111283    0.421875000    0.158680514
    0.819444776    0.046874940    0.238020748
    0.152778149    0.671875000    0.317361027
    0.486111641    0.296874881    0.396701396
    0.819444478    0.671874940    0.000000000
    0.152777910    0.296874970    0.079340234
    0.486111283    0.921874940    0.158680514
    0.819444776    0.546874881    0.238020763
    0.152777910    0.171875000    0.317361057
    0.486111641    0.796874762    0.396701396
    0.069444448    0.171875000    0.000000008
    0.402777851    0.796875000    0.079340279
    0.736111283    0.421875000    0.158680528
    0.069444776    0.046874940    0.238020763
    0.402778029    0.671875000    0.317360997
    0.736111522    0.296874881    0.396701396
    0.069444455    0.671875000    0.000000005
    0.402777851    0.296875000    0.079340279
    0.736111283    0.921875000    0.158680528
    0.069444656    0.546874940    0.238020778
    0.402778029    0.171875000    0.317360997
    0.736111522    0.796874881    0.396701396
    0.819444478    0.921875000    0.000000000
    0.152777791    0.546875000    0.079340249
    0.486111283    0.171875000    0.158680514
    0.819444895    0.796875000    0.238020748
    0.152778149    0.421875000    0.317360997
    0.486111879    0.046874762    0.396701336
    0.819444478    0.421875000    0.000000000
    0.152777910    0.046874970    0.079340249
    0.486111283    0.671875000    0.158680514
    0.819444656    0.296875000    0.238020763
    0.152778149    0.921875119    0.317361057
    0.486111641    0.546874881    0.396701396
    0.018613756    0.993795395    0.396701425
    0.518613756    0.827128708    0.664834023
    0.018613696    0.660462022    0.932966709
    0.518613756    0.493795395    0.396701425
    0.018613696    0.327128708    0.664834023
    0.518613696    0.160461962    0.932966709
    0.018613696    0.327128738    0.463734597
    0.518613696    0.160461977    0.731867313
    0.018613577    0.993795276    0.999999881
    0.518613696    0.827128708    0.463734597
    0.018613696    0.660461962    0.731867194
    0.518613696    0.493795276    0.999999881
    0.518613756    0.993795395    0.396701425
    0.018613696    0.827128649    0.664834023
    0.518613696    0.660461962    0.932966709
    0.018613761    0.493795395    0.396701425
    0.518613756    0.327128679    0.664834023
    0.018613815    0.160461962    0.932966828
    0.518613756    0.327128768    0.463734537
    0.018613696    0.160462052    0.731867194
    0.518613815    0.993795276    0.999999881
    0.018613696    0.827128768    0.463734537
    0.518613696    0.660462022    0.731867194
    0.018613815    0.493795335    0.999999762
    0.768613696    0.243795365    0.396701425
    0.268613696    0.077128649    0.664834023
    0.768613696    0.910461962    0.932966709
    0.268613726    0.743795455    0.396701425
    0.768613756    0.577128768    0.664834023
    0.268613696    0.410462022    0.932966709
    0.268613756    0.077128746    0.463734537
    0.768613696    0.910462022    0.731867194
    0.268613815    0.743795276    0.999999881
    0.768613696    0.577128768    0.463734537
    0.268613696    0.410462022    0.731867194
    0.768613815    0.243795320    0.999999762
    0.268613756    0.243795395    0.396701425
    0.768613756    0.077128686    0.664834023
    0.268613696    0.910461962    0.932966709
    0.768613696    0.743795455    0.396701425
    0.268613696    0.577128768    0.664834023
    0.768613696    0.410461992    0.932966590
    0.768613636    0.077128761    0.463734597
    0.268613577    0.910462022    0.731867313
    0.768613577    0.743795335    0.999999881
    0.268613756    0.577128768    0.463734537
    0.768613756    0.410462022    0.731867194
    0.268613696    0.243795320    0.999999881
