Si+C                                    
   1.00000000000000     
    13.3031797409999992    0.0000000000000000    0.0000000000000000
     6.6515893940000002   14.8734064099999994    0.0000000000000000
     0.0000000000000000    0.0000000000000000    8.3900594710000007
   Si   C 
    36    84
Direct
  0.9829056259999973  0.6581194999999980  0.0000000049999969
  0.7829055790000012  0.5581192969999975  0.1447438000000005
  0.5829054120000023  0.4581190939999971  0.2894876000000011
  0.9829056259999973  0.3247861270000030  0.0000000049999969
  0.7829055790000012  0.2247859690000027  0.1447438000000005
  0.5829054120000023  0.1247858030000017  0.2894876000000011
  0.9829056259999973  0.9914528130000022  0.0000000049999969
  0.7829055790000012  0.8914526699999996  0.1447438000000005
  0.5829054120000023  0.7914525269999970  0.2894876000000011
  0.6329056619999989  0.6914526819999978  0.0723717440000016
  0.4329055850000003  0.5914524789999973  0.2171155509999991
  0.2329055220000029  0.4914524260000022  0.3618593509999997
  0.6329056619999989  0.3581194280000020  0.0723717440000016
  0.4329055850000003  0.2581192849999994  0.2171155509999991
  0.2329055220000029  0.1581191419999968  0.3618593509999997
  0.6329056619999989  0.0247861369999995  0.0723717440000016
  0.4329055850000003  0.9247859720000022  0.2171155509999991
  0.2329055220000029  0.8247858289999996  0.3618593509999997
  0.4829056259999973  0.6581194999999980  0.0000000000000000
  0.2829055489999988  0.5581192969999975  0.1447438000000005
  0.0829054419999977  0.4581190939999971  0.2894876000000011
  0.4829056259999973  0.3247861270000030  0.0000000000000000
  0.2829055489999988  0.2247859539999979  0.1447438000000005
  0.0829054419999977  0.1247858110000024  0.2894876000000011
  0.4829056259999973  0.9914528130000022  0.0000000000000000
  0.2829055489999988  0.8914526699999996  0.1447438000000005
  0.0829054419999977  0.7914525269999970  0.2894876000000011
  0.1329056769999966  0.6914527420000027  0.0723717589999993
  0.9329055549999978  0.5914524789999973  0.2171155509999991
  0.7329055069999981  0.4914523959999997  0.3618593509999997
  0.1329056769999966  0.3581194879999998  0.0723717589999993
  0.9329055549999978  0.2581192849999994  0.2171155509999991
  0.7329055069999981  0.1581191269999991  0.3618593509999997
  0.1329056769999966  0.0247861369999995  0.0723717589999993
  0.9329055549999978  0.9247859720000022  0.2171155509999991
  0.7329055069999981  0.8247858289999996  0.3618593509999997
  0.9364745620000008  0.0462526680000011  0.5621044040000029
  0.9079029560000009  0.3176812829999989  0.6571646929999986
  0.8793313500000011  0.5891098979999967  0.7522249220000035
  0.0793316359999992  0.1891098170000021  0.5621044040000029
  0.0507601500000021  0.4605384170000022  0.6571646929999986
  0.0221885440000023  0.7319670919999979  0.7522249220000035
  0.2221888300000003  0.3319669660000031  0.5621044040000029
  0.1936172249999970  0.6033955810000009  0.6571646929999986
  0.1650457380000034  0.8748242859999991  0.7522249220000035
  0.3650460240000015  0.4748241010000029  0.5621044040000029
  0.3364744189999982  0.7462527750000021  0.6571646929999986
  0.3079028129999983  0.0176814789999966  0.7522249220000035
  0.5079030990000035  0.6176812650000016  0.5621044040000029
  0.4793314929999966  0.8891098499999970  0.6571646929999986
  0.4507598880000003  0.1605385089999984  0.7522249220000035
  0.6507601739999984  0.7605383399999965  0.5621044040000029
  0.6221886869999977  0.0319669949999977  0.6571646929999986
  0.5936172010000007  0.3033955690000028  0.7522249220000035
  0.7936174869999988  0.9033955929999991  0.5621044040000029
  0.7650458809999989  0.1748241929999992  0.6571646929999986
  0.7364742760000027  0.4462527629999968  0.7522249220000035
  0.0293316839999989  0.7891096469999965  0.6096344589999987
  0.0007601980000018  0.0605382440000000  0.7046946880000036
  0.9721887110000011  0.3319669369999971  0.7997549179999979
  0.1721887590000009  0.9319669010000027  0.6096344589999987
  0.1436172720000002  0.2033955599999970  0.7046946880000036
  0.1150456669999969  0.4748242499999975  0.7997549179999979
  0.3150459530000020  0.0748240499999966  0.6096344589999987
  0.2864744660000014  0.3462527390000005  0.7046946880000036
  0.2579028609999980  0.6176813240000030  0.7997548580000000
  0.4579031470000032  0.2176811100000009  0.6096344589999987
  0.4293315410000034  0.4891097550000012  0.7046946880000036
  0.4007599350000035  0.7605382799999987  0.7997548580000000
  0.6007602210000016  0.3605383929999988  0.6096344589999987
  0.5721886159999983  0.6319670079999966  0.7046946880000036
  0.5436171289999976  0.9033956529999969  0.7997548580000000
  0.7436172959999965  0.5033954980000033  0.6096344589999987
  0.7150458099999994  0.7748241419999999  0.7046946880000036
  0.6864743229999988  0.0462527979999976  0.7997549179999979
  0.8864746089999969  0.6462526319999995  0.6096344589999987
  0.8579030040000006  0.9176812769999998  0.7046946880000036
  0.8293313980000008  0.1891097580000007  0.7997548580000000
  0.0079030990000035  0.6176812049999967  0.5621044040000029
  0.9793315530000015  0.8891098499999970  0.6571646929999986
  0.9507599470000017  0.1605385089999984  0.7522249220000035
  0.1507601739999984  0.7605383399999965  0.5621044040000029
  0.1221886869999977  0.0319669949999977  0.6571646929999986
  0.0936172010000007  0.3033956889999985  0.7522249220000035
  0.2936174869999988  0.9033954739999999  0.5621044040000029
  0.2650458809999989  0.1748241929999992  0.6571646929999986
  0.2364742760000027  0.4462527629999968  0.7522248630000021
  0.4364745620000008  0.0462526680000011  0.5621044040000029
  0.4079029560000009  0.3176812829999989  0.6571646929999986
  0.3793314699999968  0.5891098979999967  0.7522249220000035
  0.5793316359999992  0.1891097580000007  0.5621044040000029
  0.5507601500000021  0.4605383869999997  0.6571646929999986
  0.5221886630000014  0.7319670320000000  0.7522249220000035
  0.7221889500000032  0.3319669660000031  0.5621044040000029
  0.6936173440000033  0.6033955810000009  0.6571646929999986
  0.6650457380000034  0.8748242260000012  0.7522249220000035
  0.8650460240000015  0.4748240710000005  0.5621044040000029
  0.8364744189999982  0.7462527160000008  0.6571646929999986
  0.8079028129999983  0.0176813599999974  0.7522249220000035
  0.9579030869999983  0.2176811400000034  0.6096344589999987
  0.9293315410000034  0.4891097550000012  0.7046946880000036
  0.9007599349999964  0.7605383989999979  0.7997548580000000
  0.1007602210000016  0.3605381850000029  0.6096344589999987
  0.0721887349999975  0.6319668289999996  0.7046946880000036
  0.0436171289999976  0.9033954140000020  0.7997548580000000
  0.2436174150000028  0.5033954980000033  0.6096344589999987
  0.2150458099999994  0.7748240829999986  0.7046946880000036
  0.1864743229999988  0.0462526789999984  0.7997549179999979
  0.3864746089999969  0.6462525729999982  0.6096344589999987
  0.3579030040000006  0.9176811580000006  0.7046946880000036
  0.3293313980000008  0.1891097580000007  0.7997549179999979
  0.5293316839999989  0.7891095880000023  0.6096344589999987
  0.5007600779999990  0.0605382440000000  0.7046946880000036
  0.4721885920000020  0.3319669369999971  0.7997549179999979
  0.6721887590000009  0.9319668409999977  0.6096344589999987
  0.6436171530000010  0.2033955599999970  0.7046946880000036
  0.6150456669999969  0.4748240110000026  0.7997549179999979
  0.8150459530000020  0.0748239309999974  0.6096344589999987
  0.7864743470000022  0.3462525010000022  0.7046946880000036
  0.7579027410000023  0.6176810859999975  0.7997548580000000
 
  0.00000000E+00  0.00000000E+00  0.00000000E+00
  0.00000000E+00  0.00000000E+00  0.00000000E+00
  0.00000000E+00  0.00000000E+00  0.00000000E+00
  0.00000000E+00  0.00000000E+00  0.00000000E+00
  0.00000000E+00  0.00000000E+00  0.00000000E+00
  0.00000000E+00  0.00000000E+00  0.00000000E+00
  0.00000000E+00  0.00000000E+00  0.00000000E+00
  0.00000000E+00  0.00000000E+00  0.00000000E+00
  0.00000000E+00  0.00000000E+00  0.00000000E+00
  0.00000000E+00  0.00000000E+00  0.00000000E+00
  0.00000000E+00  0.00000000E+00  0.00000000E+00
  0.00000000E+00  0.00000000E+00  0.00000000E+00
  0.00000000E+00  0.00000000E+00  0.00000000E+00
  0.00000000E+00  0.00000000E+00  0.00000000E+00
  0.00000000E+00  0.00000000E+00  0.00000000E+00
  0.00000000E+00  0.00000000E+00  0.00000000E+00
  0.00000000E+00  0.00000000E+00  0.00000000E+00
  0.00000000E+00  0.00000000E+00  0.00000000E+00
  0.00000000E+00  0.00000000E+00  0.00000000E+00
  0.00000000E+00  0.00000000E+00  0.00000000E+00
  0.00000000E+00  0.00000000E+00  0.00000000E+00
  0.00000000E+00  0.00000000E+00  0.00000000E+00
  0.00000000E+00  0.00000000E+00  0.00000000E+00
  0.00000000E+00  0.00000000E+00  0.00000000E+00
  0.00000000E+00  0.00000000E+00  0.00000000E+00
  0.00000000E+00  0.00000000E+00  0.00000000E+00
  0.00000000E+00  0.00000000E+00  0.00000000E+00
  0.00000000E+00  0.00000000E+00  0.00000000E+00
  0.00000000E+00  0.00000000E+00  0.00000000E+00
  0.00000000E+00  0.00000000E+00  0.00000000E+00
  0.00000000E+00  0.00000000E+00  0.00000000E+00
  0.00000000E+00  0.00000000E+00  0.00000000E+00
  0.00000000E+00  0.00000000E+00  0.00000000E+00
  0.00000000E+00  0.00000000E+00  0.00000000E+00
  0.00000000E+00  0.00000000E+00  0.00000000E+00
  0.00000000E+00  0.00000000E+00  0.00000000E+00
  0.00000000E+00  0.00000000E+00  0.00000000E+00
  0.00000000E+00  0.00000000E+00  0.00000000E+00
  0.00000000E+00  0.00000000E+00  0.00000000E+00
  0.00000000E+00  0.00000000E+00  0.00000000E+00
  0.00000000E+00  0.00000000E+00  0.00000000E+00
  0.00000000E+00  0.00000000E+00  0.00000000E+00
  0.00000000E+00  0.00000000E+00  0.00000000E+00
  0.00000000E+00  0.00000000E+00  0.00000000E+00
  0.00000000E+00  0.00000000E+00  0.00000000E+00
  0.00000000E+00  0.00000000E+00  0.00000000E+00
  0.00000000E+00  0.00000000E+00  0.00000000E+00
  0.00000000E+00  0.00000000E+00  0.00000000E+00
  0.00000000E+00  0.00000000E+00  0.00000000E+00
  0.00000000E+00  0.00000000E+00  0.00000000E+00
  0.00000000E+00  0.00000000E+00  0.00000000E+00
  0.00000000E+00  0.00000000E+00  0.00000000E+00
  0.00000000E+00  0.00000000E+00  0.00000000E+00
  0.00000000E+00  0.00000000E+00  0.00000000E+00
  0.00000000E+00  0.00000000E+00  0.00000000E+00
  0.00000000E+00  0.00000000E+00  0.00000000E+00
  0.00000000E+00  0.00000000E+00  0.00000000E+00
  0.00000000E+00  0.00000000E+00  0.00000000E+00
  0.00000000E+00  0.00000000E+00  0.00000000E+00
  0.00000000E+00  0.00000000E+00  0.00000000E+00
  0.00000000E+00  0.00000000E+00  0.00000000E+00
  0.00000000E+00  0.00000000E+00  0.00000000E+00
  0.00000000E+00  0.00000000E+00  0.00000000E+00
  0.00000000E+00  0.00000000E+00  0.00000000E+00
  0.00000000E+00  0.00000000E+00  0.00000000E+00
  0.00000000E+00  0.00000000E+00  0.00000000E+00
  0.00000000E+00  0.00000000E+00  0.00000000E+00
  0.00000000E+00  0.00000000E+00  0.00000000E+00
  0.00000000E+00  0.00000000E+00  0.00000000E+00
  0.00000000E+00  0.00000000E+00  0.00000000E+00
  0.00000000E+00  0.00000000E+00  0.00000000E+00
  0.00000000E+00  0.00000000E+00  0.00000000E+00
  0.00000000E+00  0.00000000E+00  0.00000000E+00
  0.00000000E+00  0.00000000E+00  0.00000000E+00
  0.00000000E+00  0.00000000E+00  0.00000000E+00
  0.00000000E+00  0.00000000E+00  0.00000000E+00
  0.00000000E+00  0.00000000E+00  0.00000000E+00
  0.00000000E+00  0.00000000E+00  0.00000000E+00
  0.00000000E+00  0.00000000E+00  0.00000000E+00
  0.00000000E+00  0.00000000E+00  0.00000000E+00
  0.00000000E+00  0.00000000E+00  0.00000000E+00
  0.00000000E+00  0.00000000E+00  0.00000000E+00
  0.00000000E+00  0.00000000E+00  0.00000000E+00
  0.00000000E+00  0.00000000E+00  0.00000000E+00
  0.00000000E+00  0.00000000E+00  0.00000000E+00
  0.00000000E+00  0.00000000E+00  0.00000000E+00
  0.00000000E+00  0.00000000E+00  0.00000000E+00
  0.00000000E+00  0.00000000E+00  0.00000000E+00
  0.00000000E+00  0.00000000E+00  0.00000000E+00
  0.00000000E+00  0.00000000E+00  0.00000000E+00
  0.00000000E+00  0.00000000E+00  0.00000000E+00
  0.00000000E+00  0.00000000E+00  0.00000000E+00
  0.00000000E+00  0.00000000E+00  0.00000000E+00
  0.00000000E+00  0.00000000E+00  0.00000000E+00
  0.00000000E+00  0.00000000E+00  0.00000000E+00
  0.00000000E+00  0.00000000E+00  0.00000000E+00
  0.00000000E+00  0.00000000E+00  0.00000000E+00
  0.00000000E+00  0.00000000E+00  0.00000000E+00
  0.00000000E+00  0.00000000E+00  0.00000000E+00
  0.00000000E+00  0.00000000E+00  0.00000000E+00
  0.00000000E+00  0.00000000E+00  0.00000000E+00
  0.00000000E+00  0.00000000E+00  0.00000000E+00
  0.00000000E+00  0.00000000E+00  0.00000000E+00
  0.00000000E+00  0.00000000E+00  0.00000000E+00
  0.00000000E+00  0.00000000E+00  0.00000000E+00
  0.00000000E+00  0.00000000E+00  0.00000000E+00
  0.00000000E+00  0.00000000E+00  0.00000000E+00
  0.00000000E+00  0.00000000E+00  0.00000000E+00
  0.00000000E+00  0.00000000E+00  0.00000000E+00
  0.00000000E+00  0.00000000E+00  0.00000000E+00
  0.00000000E+00  0.00000000E+00  0.00000000E+00
  0.00000000E+00  0.00000000E+00  0.00000000E+00
  0.00000000E+00  0.00000000E+00  0.00000000E+00
  0.00000000E+00  0.00000000E+00  0.00000000E+00
  0.00000000E+00  0.00000000E+00  0.00000000E+00
  0.00000000E+00  0.00000000E+00  0.00000000E+00
  0.00000000E+00  0.00000000E+00  0.00000000E+00
  0.00000000E+00  0.00000000E+00  0.00000000E+00
  0.00000000E+00  0.00000000E+00  0.00000000E+00
  0.00000000E+00  0.00000000E+00  0.00000000E+00
