Si+C
    1.000000000
   13.303179741    0.000000000    0.000000000
    6.651589394   14.873406410    0.000000000
    0.000000000    0.000000000    8.390059471
Si  C  
36     84
Direct
    0.982905626    0.658119500    0.000000005
    0.782905579    0.558119297    0.144743800
    0.582905412    0.458119094    0.289487600
    0.982905626    0.324786127    0.000000005
    0.782905579    0.224785969    0.144743800
    0.582905412    0.124785803    0.289487600
    0.982905626    0.991452813    0.000000005
    0.782905579    0.891452670    0.144743800
    0.582905412    0.791452527    0.289487600
    0.632905662    0.691452682    0.072371744
    0.432905585    0.591452479    0.217115551
    0.232905522    0.491452426    0.361859351
    0.632905662    0.358119428    0.072371744
    0.432905585    0.258119285    0.217115551
    0.232905522    0.158119142    0.361859351
    0.632905662    0.024786137    0.072371744
    0.432905585    0.924785972    0.217115551
    0.232905522    0.824785829    0.361859351
    0.482905626    0.658119500    0.000000000
    0.282905549    0.558119297    0.144743800
    0.082905442    0.458119094    0.289487600
    0.482905626    0.324786127    0.000000000
    0.282905549    0.224785954    0.144743800
    0.082905442    0.124785811    0.289487600
    0.482905626    0.991452813    0.000000000
    0.282905549    0.891452670    0.144743800
    0.082905442    0.791452527    0.289487600
    0.132905677    0.691452742    0.072371759
    0.932905555    0.591452479    0.217115551
    0.732905507    0.491452396    0.361859351
    0.132905677    0.358119488    0.072371759
    0.932905555    0.258119285    0.217115551
    0.732905507    0.158119127    0.361859351
    0.132905677    0.024786137    0.072371759
    0.932905555    0.924785972    0.217115551
    0.732905507    0.824785829    0.361859351
    0.936474562    0.046252668    0.562104404
    0.907902956    0.317681283    0.657164693
    0.879331350    0.589109898    0.752224922
    0.079331636    0.189109817    0.562104404
    0.050760150    0.460538417    0.657164693
    0.022188544    0.731967092    0.752224922
    0.222188830    0.331966966    0.562104404
    0.193617225    0.603395581    0.657164693
    0.165045738    0.874824286    0.752224922
    0.365046024    0.474824101    0.562104404
    0.336474419    0.746252775    0.657164693
    0.307902813    0.017681479    0.752224922
    0.507903099    0.617681265    0.562104404
    0.479331493    0.889109850    0.657164693
    0.450759888    0.160538509    0.752224922
    0.650760174    0.760538340    0.562104404
    0.622188687    0.031966995    0.657164693
    0.593617201    0.303395569    0.752224922
    0.793617487    0.903395593    0.562104404
    0.765045881    0.174824193    0.657164693
    0.736474276    0.446252763    0.752224922
    0.029331684    0.789109647    0.609634459
    0.000760198    0.060538244    0.704694688
    0.972188711    0.331966937    0.799754918
    0.172188759    0.931966901    0.609634459
    0.143617272    0.203395560    0.704694688
    0.115045667    0.474824250    0.799754918
    0.315045953    0.074824050    0.609634459
    0.286474466    0.346252739    0.704694688
    0.257902861    0.617681324    0.799754858
    0.457903147    0.217681110    0.609634459
    0.429331541    0.489109755    0.704694688
    0.400759935    0.760538280    0.799754858
    0.600760221    0.360538393    0.609634459
    0.572188616    0.631967008    0.704694688
    0.543617129    0.903395653    0.799754858
    0.743617296    0.503395498    0.609634459
    0.715045810    0.774824142    0.704694688
    0.686474323    0.046252798    0.799754918
    0.886474609    0.646252632    0.609634459
    0.857903004    0.917681277    0.704694688
    0.829331398    0.189109758    0.799754858
    0.007903099    0.617681205    0.562104404
    0.979331553    0.889109850    0.657164693
    0.950759947    0.160538509    0.752224922
    0.150760174    0.760538340    0.562104404
    0.122188687    0.031966995    0.657164693
    0.093617201    0.303395689    0.752224922
    0.293617487    0.903395474    0.562104404
    0.265045881    0.174824193    0.657164693
    0.236474276    0.446252763    0.752224863
    0.436474562    0.046252668    0.562104404
    0.407902956    0.317681283    0.657164693
    0.379331470    0.589109898    0.752224922
    0.579331636    0.189109758    0.562104404
    0.550760150    0.460538387    0.657164693
    0.522188663    0.731967032    0.752224922
    0.722188950    0.331966966    0.562104404
    0.693617344    0.603395581    0.657164693
    0.665045738    0.874824226    0.752224922
    0.865046024    0.474824071    0.562104404
    0.836474419    0.746252716    0.657164693
    0.807902813    0.017681360    0.752224922
    0.957903087    0.217681140    0.609634459
    0.929331541    0.489109755    0.704694688
    0.900759935    0.760538399    0.799754858
    0.100760221    0.360538185    0.609634459
    0.072188735    0.631966829    0.704694688
    0.043617129    0.903395414    0.799754858
    0.243617415    0.503395498    0.609634459
    0.215045810    0.774824083    0.704694688
    0.186474323    0.046252679    0.799754918
    0.386474609    0.646252573    0.609634459
    0.357903004    0.917681158    0.704694688
    0.329331398    0.189109758    0.799754918
    0.529331684    0.789109588    0.609634459
    0.500760078    0.060538244    0.704694688
    0.472188592    0.331966937    0.799754918
    0.672188759    0.931966841    0.609634459
    0.643617153    0.203395560    0.704694688
    0.615045667    0.474824011    0.799754918
    0.815045953    0.074823931    0.609634459
    0.786474347    0.346252501    0.704694688
    0.757902741    0.617681086    0.799754858
