C+Si
    1.000000000
   16.345130920    0.000000000    0.000000000
  -10.896755219   12.182942390    0.000000000
    0.000000000    0.000000000    7.994748116
C   Si 
84     36
Direct
    0.615538597    0.710903406    0.199521169
    0.844110012    0.768046021    0.000000000
    0.729824305    0.239474773    0.099760607
    0.472681403    0.425189137    0.199521169
    0.701252878    0.482331723    0.000000003
    0.586967111    0.953760505    0.099760599
    0.329824239    0.139474869    0.199521169
    0.558395684    0.196617484    0.000000007
    0.444109917    0.668046236    0.099760607
    0.186967164    0.853760600    0.199521169
    0.415538609    0.910903156    0.000000020
    0.301252872    0.382331967    0.099760614
    0.044110037    0.568046331    0.199521169
    0.272681475    0.625188887    0.000000022
    0.158395737    0.096617699    0.099760614
    0.901252866    0.282332063    0.199521169
    0.129824311    0.339474618    0.000000023
    0.015538570    0.810903370    0.099760637
    0.758395791    0.996617734    0.199521169
    0.986967206    0.053760353    0.000000024
    0.872681499    0.525189102    0.099760599
    0.665538669    0.160903454    0.249401391
    0.894110084    0.218045950    0.049880236
    0.779824436    0.689474821    0.149640828
    0.522681475    0.875189185    0.249401376
    0.751252830    0.932331800    0.049880236
    0.636967123    0.403760433    0.149640828
    0.379824400    0.589474440    0.249401376
    0.608395755    0.646617174    0.049880240
    0.494110107    0.118045926    0.149640828
    0.236967221    0.303760409    0.249401391
    0.465538621    0.360903025    0.049880240
    0.351252884    0.832331717    0.149640828
    0.094110020    0.018046141    0.249401391
    0.322681487    0.075188875    0.049880233
    0.208395705    0.546617508    0.149640858
    0.951252997    0.732332110    0.249401346
    0.179824427    0.789474726    0.049880229
    0.065538712    0.260903358    0.149640828
    0.808395743    0.446617365    0.249401391
    0.036967218    0.503760099    0.049880221
    0.922681451    0.975188792    0.149640843
    0.686967075    0.353760600    0.199521184
    0.915538609    0.410903215    0.000000031
    0.801252782    0.882331908    0.099760614
    0.544109881    0.068046331    0.199521184
    0.772681355    0.125188932    0.000000036
    0.658395588    0.596617639    0.099760622
    0.401252806    0.782331944    0.199521184
    0.629824281    0.839474559    0.000000016
    0.515538573    0.310903430    0.099760614
    0.258395672    0.496617675    0.199521199
    0.486967176    0.553760350    0.000000014
    0.372681409    0.025189042    0.099760614
    0.115538605    0.210903525    0.199521199
    0.344110042    0.268046051    0.000000014
    0.229824275    0.739474773    0.099760614
    0.972681403    0.925189018    0.199521184
    0.201252878    0.982331693    0.000000039
    0.086967200    0.453760505    0.099760607
    0.829824328    0.639474750    0.199521184
    0.058395743    0.696617424    0.000000039
    0.944110155    0.168046355    0.099760607
    0.736967206    0.803760409    0.249401346
    0.965538681    0.860903084    0.049880221
    0.851252913    0.332331657    0.149640828
    0.594110072    0.518046379    0.249401376
    0.822681367    0.575188816    0.049880207
    0.708395720    0.046617627    0.149640813
    0.451252908    0.232331634    0.249401376
    0.679824293    0.289474279    0.049880192
    0.565538585    0.760902941    0.149640813
    0.308395773    0.946617484    0.249401376
    0.536967218    0.003760099    0.049880229
    0.422681540    0.475188851    0.149640828
    0.165538624    0.660903335    0.249401376
    0.394110084    0.718045950    0.049880229
    0.279824376    0.189474583    0.149640813
    0.022681480    0.375189185    0.249401376
    0.251252919    0.432331830    0.049880229
    0.136967212    0.903760552    0.149640828
    0.879824460    0.089474678    0.249401391
    0.108395860    0.146617174    0.049880214
    0.994110227    0.618046045    0.149640739
    0.023741245    0.273029089    0.434824735
    0.723741174    0.073029041    0.586725473
    0.423741132    0.873028994    0.738626361
    0.357074499    0.273029089    0.434824735
    0.057074443    0.073029041    0.586725473
    0.757074356    0.873028994    0.738626361
    0.690407753    0.273029089    0.434824735
    0.390407741    0.073029041    0.586725473
    0.090407699    0.873028994    0.738626361
    0.207074687    0.923029065    0.510774970
    0.907074690    0.723029017    0.662675738
    0.607074618    0.523028970    0.814576626
    0.540407896    0.923029065    0.510774970
    0.240407869    0.723029017    0.662675738
    0.940407872    0.523028970    0.814576626
    0.873741150    0.923029065    0.510774970
    0.573741078    0.723029017    0.662675738
    0.273741215    0.523028970    0.814576626
    0.190407872    0.773029089    0.434824735
    0.890407801    0.573028922    0.586725473
    0.590407848    0.373028904    0.738626361
    0.523741126    0.773029089    0.434824735
    0.223741099    0.573028922    0.586725473
    0.923741102    0.373028904    0.738626361
    0.857074380    0.773029089    0.434824735
    0.557074428    0.573028922    0.586725473
    0.257074356    0.373028904    0.738626361
    0.040407896    0.423029125    0.510774970
    0.740407825    0.223029137    0.662675738
    0.440407902    0.023029089    0.814576626
    0.373741180    0.423029125    0.510774970
    0.073741131    0.223029137    0.662675738
    0.773741126    0.023029089    0.814576626
    0.707074404    0.423029125    0.510774970
    0.407074332    0.223029137    0.662675738
    0.107074365    0.023029089    0.814576626
