Si+Si
    1.000000000
   16.293001175    0.000000000    0.000000000
   -5.431000233   15.361187935    0.000000000
    0.000000000    0.000000000   19.201488495
Si 
288
Direct
    0.989258647    0.982097745    0.000000004
    0.864258647    0.773764372    0.099999994
    0.739258587    0.565430999    0.199999988
    0.614258587    0.357097626    0.299999982
    0.489258528    0.148764193    0.399999976
    0.364258528    0.940430760    0.500000000
    0.989258647    0.315431088    0.000000004
    0.864258647    0.107097723    0.099999994
    0.739258587    0.898764372    0.199999988
    0.614258587    0.690430999    0.299999982
    0.489258528    0.482097566    0.399999976
    0.364258528    0.273764193    0.500000000
    0.989258647    0.648764491    0.000000004
    0.864258647    0.440431058    0.099999994
    0.739258587    0.232097715    0.199999988
    0.614258587    0.023764351    0.299999982
    0.489258528    0.815430939    0.399999976
    0.364258528    0.607097507    0.500000000
    0.489258647    0.148764417    0.000000010
    0.364258617    0.940431058    0.099999994
    0.239258617    0.732097626    0.199999988
    0.114258602    0.523764253    0.299999952
    0.989258587    0.315430820    0.399999976
    0.864258528    0.107097447    0.499999970
    0.489258647    0.482097775    0.000000010
    0.364258617    0.273764402    0.099999994
    0.239258617    0.065431021    0.199999988
    0.114258602    0.857097626    0.299999952
    0.989258587    0.648764253    0.399999976
    0.864258528    0.440430880    0.499999970
    0.489258647    0.815431058    0.000000010
    0.364258617    0.607097685    0.099999994
    0.239258617    0.398764342    0.199999988
    0.114258602    0.190430954    0.299999952
    0.989258587    0.982097566    0.399999976
    0.864258528    0.773764133    0.499999970
    0.239258647    0.065431073    0.000000002
    0.114258625    0.857097685    0.099999994
    0.989258587    0.648764253    0.199999988
    0.864258587    0.440430939    0.299999952
    0.739258528    0.232097507    0.399999976
    0.614258528    0.023764193    0.500000000
    0.239258647    0.398764402    0.000000002
    0.114258625    0.190431058    0.099999994
    0.989258587    0.982097685    0.199999988
    0.864258587    0.773764312    0.299999952
    0.739258528    0.565430880    0.399999976
    0.614258528    0.357097507    0.500000000
    0.239258647    0.732097805    0.000000002
    0.114258625    0.523764372    0.099999994
    0.989258587    0.315430969    0.199999988
    0.864258587    0.107097633    0.299999952
    0.739258528    0.898764193    0.399999976
    0.614258528    0.690430760    0.500000000
    0.739258707    0.232097745    0.000000009
    0.614258647    0.023764366    0.099999994
    0.489258647    0.815430999    0.199999988
    0.364258647    0.607097626    0.299999952
    0.239258617    0.398764193    0.399999976
    0.114258565    0.190430820    0.499999970
    0.739258707    0.565431058    0.000000009
    0.614258647    0.357097715    0.099999994
    0.489258647    0.148764327    0.199999988
    0.364258647    0.940430939    0.299999952
    0.239258617    0.732097507    0.399999976
    0.114258565    0.523764133    0.499999970
    0.739258707    0.898764491    0.000000009
    0.614258647    0.690431058    0.099999994
    0.489258647    0.482097715    0.199999988
    0.364258647    0.273764372    0.299999952
    0.239258617    0.065430947    0.399999976
    0.114258565    0.857097507    0.499999970
    0.364258677    0.023764422    0.000000002
    0.239258647    0.815431058    0.099999987
    0.114258632    0.607097626    0.199999988
    0.989258587    0.398764253    0.299999982
    0.864258587    0.190430880    0.399999976
    0.739258528    0.982097507    0.499999970
    0.364258677    0.357097775    0.000000002
    0.239258647    0.148764402    0.099999987
    0.114258632    0.940430999    0.199999988
    0.989258587    0.732097626    0.299999982
    0.864258587    0.523764253    0.399999976
    0.739258528    0.315430820    0.499999970
    0.364258677    0.690431178    0.000000002
    0.239258647    0.482097775    0.099999987
    0.114258632    0.273764402    0.199999988
    0.989258587    0.065431014    0.299999982
    0.864258587    0.857097626    0.399999976
    0.739258528    0.648764193    0.499999970
    0.864258707    0.190431103    0.000000000
    0.739258647    0.982097685    0.100000001
    0.614258647    0.773764312    0.199999988
    0.489258647    0.565430880    0.299999982
    0.364258617    0.357097507    0.399999976
    0.239258558    0.148764074    0.500000000
    0.864258707    0.523764431    0.000000000
    0.739258647    0.315431058    0.100000001
    0.614258647    0.107097685    0.199999988
    0.489258647    0.898764312    0.299999982
    0.364258617    0.690430939    0.399999976
    0.239258558    0.482097507    0.500000000
    0.864258707    0.857097745    0.000000000
    0.739258647    0.648764372    0.100000001
    0.614258647    0.440431029    0.199999988
    0.489258647    0.232097641    0.299999982
    0.364258617    0.023764219    0.399999976
    0.239258558    0.815430820    0.500000000
    0.114258647    0.273764431    0.000000003
    0.989258647    0.065431029    0.099999994
    0.864258587    0.857097626    0.199999988
    0.739258647    0.648764253    0.299999952
    0.614258528    0.440430880    0.399999976
    0.489258528    0.232097387    0.500000000
    0.114258647    0.607097745    0.000000003
    0.989258647    0.398764372    0.099999994
    0.864258587    0.190431014    0.199999988
    0.739258647    0.982097626    0.299999952
    0.614258528    0.773764193    0.399999976
    0.489258528    0.565430760    0.500000000
    0.114258647    0.940431118    0.000000003
    0.989258647    0.732097745    0.099999994
    0.864258587    0.523764372    0.199999988
    0.739258647    0.315430999    0.299999952
    0.614258528    0.107097574    0.399999976
    0.489258528    0.898764193    0.500000000
    0.614258647    0.107097730    0.000000018
    0.489258617    0.898764372    0.100000001
    0.364258617    0.690430999    0.199999988
    0.239258602    0.482097566    0.299999982
    0.114258558    0.273764193    0.399999976
    0.989258528    0.065430760    0.500000000
    0.614258647    0.440431058    0.000000018
    0.489258617    0.232097685    0.100000001
    0.364258617    0.023764316    0.199999988
    0.239258602    0.815430939    0.299999982
    0.114258558    0.607097507    0.399999976
    0.989258528    0.398764074    0.500000000
    0.614258647    0.773764491    0.000000018
    0.489258617    0.565431058    0.100000001
    0.364258617    0.357097656    0.199999988
    0.239258602    0.148764297    0.299999982
    0.114258558    0.940430880    0.399999976
    0.989258528    0.732097507    0.500000000
    0.982097745    0.989258647    0.500000000
    0.773764372    0.864258647    0.600000024
    0.565430999    0.739258587    0.699999988
    0.357097626    0.614258587    0.799999952
    0.148764193    0.489258528    0.899999976
    0.940430760    0.364258528    1.000000000
    0.315431088    0.989258647    0.500000000
    0.107097723    0.864258647    0.600000024
    0.898764372    0.739258587    0.699999988
    0.690430999    0.614258587    0.799999952
    0.482097566    0.489258528    0.899999976
    0.273764193    0.364258528    1.000000000
    0.648764491    0.989258647    0.500000000
    0.440431058    0.864258647    0.600000024
    0.232097715    0.739258587    0.699999988
    0.023764351    0.614258587    0.799999952
    0.815430939    0.489258528    0.899999976
    0.607097507    0.364258528    1.000000000
    0.148764417    0.489258647    0.500000000
    0.940431058    0.364258617    0.600000024
    0.732097626    0.239258617    0.699999988
    0.523764253    0.114258602    0.799999893
    0.315430820    0.989258587    0.899999976
    0.107097447    0.864258528    1.000000000
    0.482097775    0.489258647    0.500000000
    0.273764402    0.364258617    0.600000024
    0.065431021    0.239258617    0.699999988
    0.857097626    0.114258602    0.799999893
    0.648764253    0.989258587    0.899999976
    0.440430880    0.864258528    1.000000000
    0.815431058    0.489258647    0.500000000
    0.607097685    0.364258617    0.600000024
    0.398764342    0.239258617    0.699999988
    0.190430954    0.114258602    0.799999893
    0.982097566    0.989258587    0.899999976
    0.773764133    0.864258528    1.000000000
    0.065431081    0.239258647    0.500000000
    0.857097685    0.114258625    0.600000024
    0.648764253    0.989258587    0.699999988
    0.440430939    0.864258587    0.799999893
    0.232097507    0.739258528    0.899999976
    0.023764193    0.614258528    1.000000000
    0.398764402    0.239258647    0.500000000
    0.190431058    0.114258625    0.600000024
    0.982097685    0.989258587    0.699999988
    0.773764312    0.864258587    0.799999893
    0.565430880    0.739258528    0.899999976
    0.357097507    0.614258528    1.000000000
    0.732097864    0.239258647    0.500000000
    0.523764431    0.114258625    0.600000024
    0.315431029    0.989258587    0.699999988
    0.107097693    0.864258587    0.799999893
    0.898764253    0.739258528    0.899999976
    0.690430880    0.614258528    1.000000000
    0.232097760    0.739258707    0.500000000
    0.023764366    0.614258647    0.600000024
    0.815430999    0.489258647    0.699999988
    0.607097626    0.364258647    0.799999893
    0.398764193    0.239258617    0.899999976
    0.190430820    0.114258565    1.000000000
    0.565431058    0.739258707    0.500000000
    0.357097715    0.614258647    0.600000024
    0.148764327    0.489258647    0.699999988
    0.940430939    0.364258647    0.799999893
    0.732097507    0.239258617    0.899999976
    0.523764133    0.114258565    1.000000000
    0.898764491    0.739258707    0.500000000
    0.690431058    0.614258647    0.600000024
    0.482097715    0.489258647    0.699999988
    0.273764372    0.364258647    0.799999893
    0.065430947    0.239258617    0.899999976
    0.857097507    0.114258565    1.000000000
    0.023764430    0.364258677    0.500000000
    0.815431058    0.239258647    0.600000024
    0.607097626    0.114258632    0.699999988
    0.398764253    0.989258587    0.799999952
    0.190430880    0.864258587    0.899999976
    0.982097507    0.739258528    1.000000000
    0.357097805    0.364258677    0.500000000
    0.148764431    0.239258647    0.600000024
    0.940431058    0.114258632    0.699999988
    0.732097626    0.989258587    0.799999952
    0.523764253    0.864258587    0.899999976
    0.315430820    0.739258528    1.000000000
    0.690431178    0.364258677    0.500000000
    0.482097775    0.239258647    0.600000024
    0.273764402    0.114258632    0.699999988
    0.065431014    0.989258587    0.799999952
    0.857097626    0.864258587    0.899999976
    0.648764193    0.739258528    1.000000000
    0.190431088    0.864258707    0.500000000
    0.982097685    0.739258647    0.600000024
    0.773764312    0.614258647    0.699999988
    0.565430880    0.489258647    0.799999952
    0.357097507    0.364258617    0.899999976
    0.148764074    0.239258558    1.000000000
    0.523764431    0.864258707    0.500000000
    0.315431029    0.739258647    0.600000024
    0.107097656    0.614258647    0.699999988
    0.898764253    0.489258647    0.799999952
    0.690430880    0.364258617    0.899999976
    0.482097447    0.239258558    1.000000000
    0.857097805    0.864258707    0.500000000
    0.648764431    0.739258647    0.600000024
    0.440431088    0.614258647    0.699999988
    0.232097700    0.489258647    0.799999952
    0.023764279    0.364258617    0.899999976
    0.815430880    0.239258558    1.000000000
    0.273764431    0.114258647    0.500000000
    0.065431029    0.989258647    0.600000024
    0.857097626    0.864258587    0.699999988
    0.648764253    0.739258647    0.799999893
    0.440430880    0.614258528    0.899999976
    0.232097387    0.489258528    1.000000000
    0.607097745    0.114258647    0.500000000
    0.398764372    0.989258647    0.600000024
    0.190431014    0.864258587    0.699999988
    0.982097626    0.739258647    0.799999893
    0.773764193    0.614258528    0.899999976
    0.565430760    0.489258528    1.000000000
    0.940431118    0.114258647    0.500000000
    0.732097745    0.989258647    0.600000024
    0.523764372    0.864258587    0.699999988
    0.315430999    0.739258647    0.799999893
    0.107097574    0.614258528    0.899999976
    0.898764193    0.489258528    1.000000000
    0.107097723    0.614258647    0.500000000
    0.898764372    0.489258617    0.600000024
    0.690430939    0.364258617    0.699999988
    0.482097566    0.239258602    0.799999952
    0.273764193    0.114258558    0.899999976
    0.065430760    0.989258528    1.000000000
    0.440431058    0.614258647    0.500000000
    0.232097656    0.489258617    0.600000024
    0.023764286    0.364258617    0.699999988
    0.815430939    0.239258602    0.799999952
    0.607097507    0.114258558    0.899999976
    0.398764074    0.989258528    1.000000000
    0.773764491    0.614258647    0.500000000
    0.565431058    0.489258617    0.600000024
    0.357097656    0.364258617    0.699999988
    0.148764297    0.239258602    0.799999952
    0.940430880    0.114258558    0.899999976
    0.732097507    0.989258528    1.000000000
