Si+Sn
    1.000000000
   13.303179741    0.000000000    0.000000000
    6.651589394   14.873406410    0.000000000
    0.000000000    0.000000000    6.663596153
Si  Sn 
36     24
Direct
    0.283249497    0.641624749    0.000000056
    0.816582799    0.408291280    0.182245374
    0.349915981    0.174957767    0.364490747
    0.616582751    0.308291376    0.000000068
    0.149916053    0.074957930    0.182245374
    0.683249235    0.841624439    0.364490688
    0.949916124    0.974958062    0.000000048
    0.483249485    0.741624594    0.182245374
    0.016582668    0.508291125    0.364490688
    0.799916267    0.774958014    0.091122538
    0.333249509    0.541624546    0.273367882
    0.866582751    0.308291078    0.455613256
    0.133249685    0.441624761    0.091122553
    0.666582942    0.208291277    0.273367882
    0.199916244    0.974957764    0.455613256
    0.466582894    0.108291537    0.091122553
    0.999916136    0.874958038    0.273367882
    0.533249378    0.641624570    0.455613256
    0.783249557    0.641624749    0.000000000
    0.316582829    0.408291280    0.182245344
    0.849916041    0.174957782    0.364490747
    0.116582796    0.308291405    0.000000068
    0.649916053    0.074957952    0.182245418
    0.183249295    0.841624498    0.364490747
    0.449916124    0.974958062    0.000000068
    0.983249426    0.741624594    0.182245418
    0.516582668    0.508291125    0.364490747
    0.299916178    0.774958134    0.091122553
    0.833249450    0.541624665    0.273367912
    0.366582692    0.308291197    0.455613226
    0.633249402    0.441624731    0.091122575
    0.166582644    0.208291262    0.273367912
    0.699915946    0.974957824    0.455613166
    0.966582716    0.108291551    0.091122553
    0.499915957    0.874958038    0.273367912
    0.033249259    0.641624629    0.455613256
    0.987179220    0.025641514    0.455613285
    0.837179184    0.325641572    0.673368096
    0.687179148    0.625641644    0.891122818
    0.487179250    0.025641514    0.455613285
    0.337179154    0.325641572    0.673368096
    0.187179133    0.625641644    0.891122818
    0.287179202    0.675641477    0.564490438
    0.137179181    0.975641489    0.782245159
    0.987179101    0.275641561    1.000000000
    0.787179351    0.675641477    0.564490438
    0.637179315    0.975641489    0.782245159
    0.487179250    0.275641561    1.000000000
    0.987179279    0.525641501    0.455613345
    0.837179184    0.825641513    0.673368096
    0.687179089    0.125641704    0.891122818
    0.487179250    0.525641501    0.455613345
    0.337179244    0.825641513    0.673368096
    0.187179118    0.125641704    0.891122818
    0.287179232    0.175641507    0.564490438
    0.137179166    0.475641549    0.782245159
    0.987179160    0.775641620    1.000000000
    0.787179291    0.175641507    0.564490438
    0.637179255    0.475641549    0.782245159
    0.487179160    0.775641620    1.000000000
