Si+Ge                                   
   1.00000000000000     
    16.2930011750000006    0.0000000000000000    0.0000000000000000
     0.0000000000000000   17.1743297579999989    0.0000000000000000
     0.0000000000000000    0.0000002570000000   10.6005468369999996
   Si   Ge
    72    48
Direct
  0.1303789019999968  0.8262046580000018  0.4050347209999998
  0.9637124540000030  0.0762039119999969  0.0000000559999975
  0.7970457079999989  0.4262040260000006  0.0810069890000022
  0.6303790810000010  0.7762041690000032  0.1620138879999971
  0.4637122749999989  0.1262044910000029  0.2430208620000016
  0.2970455290000018  0.4762046339999984  0.3240278070000002
  0.4637122749999989  0.8262046580000018  0.4050347209999998
  0.2970457970000027  0.0762039119999969  0.0000000559999975
  0.1303790810000010  0.4262040260000006  0.0810069890000022
  0.9637123939999981  0.7762041690000032  0.1620138879999971
  0.7970455880000031  0.1262044910000029  0.2430208620000016
  0.6303788419999989  0.4762046339999984  0.3240278070000002
  0.7970455880000031  0.8262046580000018  0.4050347209999998
  0.6303791400000023  0.0762039119999969  0.0000000559999975
  0.4637124240000006  0.4262040260000006  0.0810069890000022
  0.2970457670000002  0.7762041690000032  0.1620138879999971
  0.1303789760000029  0.1262044910000029  0.2430208620000016
  0.9637122150000010  0.4762046339999984  0.3240278070000002
  0.2137122150000010  0.5762047770000009  0.4050346309999995
  0.0470457670000002  0.8262040019999972  0.0000000000000000
  0.8803790810000010  0.1762042049999977  0.0810069670000004
  0.7137123349999968  0.5262044669999995  0.1620138139999980
  0.5470455880000031  0.8762046100000020  0.2430207880000026
  0.3803789620000018  0.2262046339999984  0.3240276869999974
  0.5470455880000031  0.5762047770000009  0.4050346309999995
  0.3803790810000010  0.8262040019999972  0.0000000000000000
  0.2137123790000004  0.1762042049999977  0.0810069670000004
  0.0470456930000012  0.5262044669999995  0.1620138139999980
  0.8803789620000018  0.8762046100000020  0.2430207880000026
  0.7137123349999968  0.2262046339999984  0.3240276869999974
  0.8803789019999968  0.5762047770000009  0.4050346309999995
  0.7137123939999981  0.8262040019999972  0.0000000000000000
  0.5470457079999989  0.1762042049999977  0.0810069670000004
  0.3803789910000006  0.5262044669999995  0.1620138139999980
  0.2137122299999987  0.8762046100000020  0.2430207880000026
  0.0470455809999990  0.2262046339999984  0.3240276869999974
  0.1303789019999968  0.3262047770000009  0.4050347209999998
  0.9637123939999981  0.5762040019999972  0.0000000229999984
  0.7970457079999989  0.9262041449999998  0.0810069440000021
  0.6303790210000031  0.2762042279999974  0.1620138139999980
  0.4637122749999989  0.6262044910000029  0.2430208620000016
  0.2970456480000010  0.9762046339999984  0.3240276869999974
  0.4637122749999989  0.3262047770000009  0.4050347209999998
  0.2970457670000002  0.5762040019999972  0.0000000229999984
  0.1303790509999985  0.9262041449999998  0.0810069440000021
  0.9637123939999981  0.2762042279999974  0.1620138139999980
  0.7970455880000031  0.6262044910000029  0.2430208620000016
  0.6303789620000018  0.9762046339999984  0.3240276869999974
  0.7970455880000031  0.3262047770000009  0.4050347209999998
  0.6303791400000023  0.5762040019999972  0.0000000229999984
  0.4637123939999981  0.9262041449999998  0.0810069440000021
  0.2970457380000013  0.2762042279999974  0.1620138139999980
  0.1303789760000029  0.6262044910000029  0.2430208620000016
  0.9637123349999968  0.9762046339999984  0.3240276869999974
  0.2137122150000010  0.0762047770000009  0.4050346020000006
  0.0470457670000002  0.3262039119999969  0.0000000559999975
  0.8803790810000010  0.6762040260000006  0.0810069520000027
  0.7137123939999981  0.0262042279999974  0.1620138440000005
  0.5470455880000031  0.3762044910000029  0.2430207880000026
  0.3803788419999989  0.7262047529999975  0.3240276869999974
  0.5470455880000031  0.0762047770000009  0.4050346020000006
  0.3803791110000034  0.3262039119999969  0.0000000559999975
  0.2137124090000029  0.6762040260000006  0.0810069520000027
  0.0470457260000003  0.0262042279999974  0.1620138440000005
  0.8803789620000018  0.3762044910000029  0.2430207880000026
  0.7137122150000010  0.7262047529999975  0.3240276869999974
  0.8803789620000018  0.0762047770000009  0.4050346020000006
  0.7137124540000030  0.3262039119999969  0.0000000559999975
  0.5470457670000002  0.6762040260000006  0.0810069520000027
  0.3803790810000010  0.0262042279999974  0.1620138440000005
  0.2137122899999966  0.3762044910000029  0.2430207880000026
  0.0470455399999992  0.7262047529999975  0.3240276869999974
  0.4687932430000004  0.9860476850000026  0.5452663900000019
  0.0937932730000028  0.5971587299999968  0.6081667540000026
  0.7187933330000007  0.2082698350000030  0.6710671189999999
  0.3437933619999995  0.8193809389999984  0.7339675429999986
  0.9687933920000020  0.4304919839999997  0.7968678470000015
  0.5937932730000028  0.0416028499999967  0.8597682710000001
  0.9687933330000007  0.9860476850000026  0.5452663900000019
  0.5937933920000020  0.5971587299999968  0.6081667540000026
  0.2187933029999982  0.2082697749999980  0.6710671189999999
  0.8437933920000020  0.8193809389999984  0.7339675429999986
  0.4687934820000024  0.4304919839999997  0.7968678470000015
  0.0937933619999995  0.0416028499999967  0.8597683309999979
  0.8437932730000028  0.7360476260000013  0.5452663900000019
  0.4687933029999982  0.3471587299999968  0.6081668140000005
  0.0937933330000007  0.9582697749999980  0.6710671780000013
  0.7187934519999999  0.5693809389999984  0.7339676019999999
  0.3437935409999966  0.1804920430000010  0.7968679069999993
  0.9687932730000028  0.7916029100000017  0.8597682710000001
  0.3437932430000004  0.7360476260000013  0.5452663900000019
  0.9687933330000007  0.3471586699999989  0.6081667540000026
  0.5937933330000007  0.9582697150000001  0.6710671189999999
  0.2187933619999995  0.5693808790000006  0.7339676019999999
  0.8437935110000012  0.1804919240000018  0.7968678470000015
  0.4687932430000004  0.7916027899999989  0.8597682710000001
  0.5937932730000028  0.7360476260000013  0.5452663900000019
  0.2187932579999980  0.3471587000000014  0.6081667540000026
  0.8437933330000007  0.9582697150000001  0.6710671189999999
  0.4687933619999995  0.5693808790000006  0.7339676019999999
  0.0937934820000024  0.1804919839999997  0.7968678470000015
  0.7187932730000028  0.7916027899999989  0.8597682710000001
  0.0937932579999980  0.7360476260000013  0.5452663900000019
  0.7187933330000007  0.3471587299999968  0.6081667540000026
  0.3437933029999982  0.9582697749999980  0.6710671189999999
  0.9687933920000020  0.5693808790000006  0.7339676019999999
  0.5937935110000012  0.1804919839999997  0.7968678470000015
  0.2187933619999995  0.7916029100000017  0.8597683309999979
  0.7187932129999979  0.9860476850000026  0.5452663900000019
  0.3437932430000004  0.5971587299999968  0.6081667540000026
  0.9687932730000028  0.2082698350000030  0.6710671189999999
  0.5937933920000020  0.8193808199999992  0.7339675429999986
  0.2187934820000024  0.4304919839999997  0.7968678470000015
  0.8437932730000028  0.0416028499999967  0.8597682710000001
  0.2187932579999980  0.9860476850000026  0.5452663900000019
  0.8437933330000007  0.5971587299999968  0.6081667540000026
  0.4687933619999995  0.2082698350000030  0.6710671780000013
  0.0937934219999974  0.8193809389999984  0.7339676019999999
  0.7187935110000012  0.4304919839999997  0.7968678470000015
  0.3437932430000004  0.0416028499999967  0.8597683309999979
 
  0.00000000E+00  0.00000000E+00  0.00000000E+00
  0.00000000E+00  0.00000000E+00  0.00000000E+00
  0.00000000E+00  0.00000000E+00  0.00000000E+00
  0.00000000E+00  0.00000000E+00  0.00000000E+00
  0.00000000E+00  0.00000000E+00  0.00000000E+00
  0.00000000E+00  0.00000000E+00  0.00000000E+00
  0.00000000E+00  0.00000000E+00  0.00000000E+00
  0.00000000E+00  0.00000000E+00  0.00000000E+00
  0.00000000E+00  0.00000000E+00  0.00000000E+00
  0.00000000E+00  0.00000000E+00  0.00000000E+00
  0.00000000E+00  0.00000000E+00  0.00000000E+00
  0.00000000E+00  0.00000000E+00  0.00000000E+00
  0.00000000E+00  0.00000000E+00  0.00000000E+00
  0.00000000E+00  0.00000000E+00  0.00000000E+00
  0.00000000E+00  0.00000000E+00  0.00000000E+00
  0.00000000E+00  0.00000000E+00  0.00000000E+00
  0.00000000E+00  0.00000000E+00  0.00000000E+00
  0.00000000E+00  0.00000000E+00  0.00000000E+00
  0.00000000E+00  0.00000000E+00  0.00000000E+00
  0.00000000E+00  0.00000000E+00  0.00000000E+00
  0.00000000E+00  0.00000000E+00  0.00000000E+00
  0.00000000E+00  0.00000000E+00  0.00000000E+00
  0.00000000E+00  0.00000000E+00  0.00000000E+00
  0.00000000E+00  0.00000000E+00  0.00000000E+00
  0.00000000E+00  0.00000000E+00  0.00000000E+00
  0.00000000E+00  0.00000000E+00  0.00000000E+00
  0.00000000E+00  0.00000000E+00  0.00000000E+00
  0.00000000E+00  0.00000000E+00  0.00000000E+00
  0.00000000E+00  0.00000000E+00  0.00000000E+00
  0.00000000E+00  0.00000000E+00  0.00000000E+00
  0.00000000E+00  0.00000000E+00  0.00000000E+00
  0.00000000E+00  0.00000000E+00  0.00000000E+00
  0.00000000E+00  0.00000000E+00  0.00000000E+00
  0.00000000E+00  0.00000000E+00  0.00000000E+00
  0.00000000E+00  0.00000000E+00  0.00000000E+00
  0.00000000E+00  0.00000000E+00  0.00000000E+00
  0.00000000E+00  0.00000000E+00  0.00000000E+00
  0.00000000E+00  0.00000000E+00  0.00000000E+00
  0.00000000E+00  0.00000000E+00  0.00000000E+00
  0.00000000E+00  0.00000000E+00  0.00000000E+00
  0.00000000E+00  0.00000000E+00  0.00000000E+00
  0.00000000E+00  0.00000000E+00  0.00000000E+00
  0.00000000E+00  0.00000000E+00  0.00000000E+00
  0.00000000E+00  0.00000000E+00  0.00000000E+00
  0.00000000E+00  0.00000000E+00  0.00000000E+00
  0.00000000E+00  0.00000000E+00  0.00000000E+00
  0.00000000E+00  0.00000000E+00  0.00000000E+00
  0.00000000E+00  0.00000000E+00  0.00000000E+00
  0.00000000E+00  0.00000000E+00  0.00000000E+00
  0.00000000E+00  0.00000000E+00  0.00000000E+00
  0.00000000E+00  0.00000000E+00  0.00000000E+00
  0.00000000E+00  0.00000000E+00  0.00000000E+00
  0.00000000E+00  0.00000000E+00  0.00000000E+00
  0.00000000E+00  0.00000000E+00  0.00000000E+00
  0.00000000E+00  0.00000000E+00  0.00000000E+00
  0.00000000E+00  0.00000000E+00  0.00000000E+00
  0.00000000E+00  0.00000000E+00  0.00000000E+00
  0.00000000E+00  0.00000000E+00  0.00000000E+00
  0.00000000E+00  0.00000000E+00  0.00000000E+00
  0.00000000E+00  0.00000000E+00  0.00000000E+00
  0.00000000E+00  0.00000000E+00  0.00000000E+00
  0.00000000E+00  0.00000000E+00  0.00000000E+00
  0.00000000E+00  0.00000000E+00  0.00000000E+00
  0.00000000E+00  0.00000000E+00  0.00000000E+00
  0.00000000E+00  0.00000000E+00  0.00000000E+00
  0.00000000E+00  0.00000000E+00  0.00000000E+00
  0.00000000E+00  0.00000000E+00  0.00000000E+00
  0.00000000E+00  0.00000000E+00  0.00000000E+00
  0.00000000E+00  0.00000000E+00  0.00000000E+00
  0.00000000E+00  0.00000000E+00  0.00000000E+00
  0.00000000E+00  0.00000000E+00  0.00000000E+00
  0.00000000E+00  0.00000000E+00  0.00000000E+00
  0.00000000E+00  0.00000000E+00  0.00000000E+00
  0.00000000E+00  0.00000000E+00  0.00000000E+00
  0.00000000E+00  0.00000000E+00  0.00000000E+00
  0.00000000E+00  0.00000000E+00  0.00000000E+00
  0.00000000E+00  0.00000000E+00  0.00000000E+00
  0.00000000E+00  0.00000000E+00  0.00000000E+00
  0.00000000E+00  0.00000000E+00  0.00000000E+00
  0.00000000E+00  0.00000000E+00  0.00000000E+00
  0.00000000E+00  0.00000000E+00  0.00000000E+00
  0.00000000E+00  0.00000000E+00  0.00000000E+00
  0.00000000E+00  0.00000000E+00  0.00000000E+00
  0.00000000E+00  0.00000000E+00  0.00000000E+00
  0.00000000E+00  0.00000000E+00  0.00000000E+00
  0.00000000E+00  0.00000000E+00  0.00000000E+00
  0.00000000E+00  0.00000000E+00  0.00000000E+00
  0.00000000E+00  0.00000000E+00  0.00000000E+00
  0.00000000E+00  0.00000000E+00  0.00000000E+00
  0.00000000E+00  0.00000000E+00  0.00000000E+00
  0.00000000E+00  0.00000000E+00  0.00000000E+00
  0.00000000E+00  0.00000000E+00  0.00000000E+00
  0.00000000E+00  0.00000000E+00  0.00000000E+00
  0.00000000E+00  0.00000000E+00  0.00000000E+00
  0.00000000E+00  0.00000000E+00  0.00000000E+00
  0.00000000E+00  0.00000000E+00  0.00000000E+00
  0.00000000E+00  0.00000000E+00  0.00000000E+00
  0.00000000E+00  0.00000000E+00  0.00000000E+00
  0.00000000E+00  0.00000000E+00  0.00000000E+00
  0.00000000E+00  0.00000000E+00  0.00000000E+00
  0.00000000E+00  0.00000000E+00  0.00000000E+00
  0.00000000E+00  0.00000000E+00  0.00000000E+00
  0.00000000E+00  0.00000000E+00  0.00000000E+00
  0.00000000E+00  0.00000000E+00  0.00000000E+00
  0.00000000E+00  0.00000000E+00  0.00000000E+00
  0.00000000E+00  0.00000000E+00  0.00000000E+00
  0.00000000E+00  0.00000000E+00  0.00000000E+00
  0.00000000E+00  0.00000000E+00  0.00000000E+00
  0.00000000E+00  0.00000000E+00  0.00000000E+00
  0.00000000E+00  0.00000000E+00  0.00000000E+00
  0.00000000E+00  0.00000000E+00  0.00000000E+00
  0.00000000E+00  0.00000000E+00  0.00000000E+00
  0.00000000E+00  0.00000000E+00  0.00000000E+00
  0.00000000E+00  0.00000000E+00  0.00000000E+00
  0.00000000E+00  0.00000000E+00  0.00000000E+00
  0.00000000E+00  0.00000000E+00  0.00000000E+00
  0.00000000E+00  0.00000000E+00  0.00000000E+00
  0.00000000E+00  0.00000000E+00  0.00000000E+00
  0.00000000E+00  0.00000000E+00  0.00000000E+00
  0.00000000E+00  0.00000000E+00  0.00000000E+00
