Ge+Ge                                   
   1.00000000000000     
     8.0013380049999991    0.0000000000000000    0.0000000000000000
    -4.0006690029999996   12.0020065309999993    0.0000000000000000
     0.0000000000000000    0.0000000000000000   11.4133739470000002
   Ge
    48
Direct
  0.0056944889999997  0.9943054909999987  0.0000000000000000
  0.1723611950000006  0.8276388649999973  0.2478583159999985
  0.3390279110000023  0.6609721179999966  0.4957166610000030
  0.6723610760000014  0.3276388049999994  0.0000000000000000
  0.8390277620000006  0.1609721179999966  0.2478583159999985
  0.0056945090000013  0.9943054319999973  0.4957166610000030
  0.3390277620000006  0.6609721179999966  0.0000000000000000
  0.5056944490000035  0.4943054020000019  0.2478583159999985
  0.6723611950000006  0.3276387450000016  0.4957166610000030
  0.0890278370000033  0.1609721479999990  0.1239291580000028
  0.2556945680000027  0.9943054319999973  0.3717875179999979
  0.4223612839999973  0.8276387450000016  0.6196459530000027
  0.7556943889999985  0.4943054619999998  0.1239291580000028
  0.9223611950000006  0.3276388049999994  0.3717875179999979
  0.0890278820000034  0.1609720889999977  0.6196459530000027
  0.4223610459999989  0.8276388049999994  0.1239291580000028
  0.5890278219999985  0.6609721780000015  0.3717875179999979
  0.7556945090000013  0.4943054619999998  0.6196459530000027
  0.5056944490000035  0.9943054909999987  0.0000000000000000
  0.6723611350000027  0.8276388649999973  0.2478583159999985
  0.8390278820000034  0.6609721179999966  0.4957166610000030
  0.1723611210000016  0.3276388049999994  0.0000000000000000
  0.3390278520000010  0.1609721330000013  0.2478583159999985
  0.5056945680000027  0.9943054319999973  0.4957166610000030
  0.8390277620000006  0.6609721179999966  0.0000000000000000
  0.0056945090000013  0.4943054319999973  0.2478583159999985
  0.1723611350000027  0.3276387450000016  0.4957166610000030
  0.5890278219999985  0.1609721479999990  0.1239291580000028
  0.7556945680000027  0.9943054909999987  0.3717875179999979
  0.9223613139999998  0.8276388049999994  0.6196459530000027
  0.2556944789999989  0.4943054909999987  0.1239291580000028
  0.4223612549999984  0.3276388350000019  0.3717875179999979
  0.5890280010000026  0.1609721179999966  0.6196459530000027
  0.9223610760000014  0.8276388649999973  0.1239291580000028
  0.0890277620000006  0.6609721179999966  0.3717875179999979
  0.2556945090000013  0.4943054319999973  0.6196459530000027
  0.3184987309999983  0.0979666929999965  0.7065486309999969
  0.2073875669999978  0.3757444920000026  0.7891680600000015
  0.0962764020000009  0.6535223130000034  0.8717875480000004
  0.8184986110000025  0.0979666929999965  0.7065486309999969
  0.7073875070000000  0.3757444920000026  0.7891680600000015
  0.5962763429999995  0.6535223130000034  0.8717875480000004
  0.0129430289999988  0.9868555070000014  0.7478582860000031
  0.9018318649999983  0.2646333280000022  0.8304778339999999
  0.7907206419999966  0.5424111490000030  0.9130973219999987
  0.5129430289999988  0.9868555669999992  0.7478584050000023
  0.4018319549999987  0.2646333280000022  0.8304778339999999
  0.2907208199999971  0.5424111490000030  0.9130973219999987
 
  0.00000000E+00  0.00000000E+00  0.00000000E+00
  0.00000000E+00  0.00000000E+00  0.00000000E+00
  0.00000000E+00  0.00000000E+00  0.00000000E+00
  0.00000000E+00  0.00000000E+00  0.00000000E+00
  0.00000000E+00  0.00000000E+00  0.00000000E+00
  0.00000000E+00  0.00000000E+00  0.00000000E+00
  0.00000000E+00  0.00000000E+00  0.00000000E+00
  0.00000000E+00  0.00000000E+00  0.00000000E+00
  0.00000000E+00  0.00000000E+00  0.00000000E+00
  0.00000000E+00  0.00000000E+00  0.00000000E+00
  0.00000000E+00  0.00000000E+00  0.00000000E+00
  0.00000000E+00  0.00000000E+00  0.00000000E+00
  0.00000000E+00  0.00000000E+00  0.00000000E+00
  0.00000000E+00  0.00000000E+00  0.00000000E+00
  0.00000000E+00  0.00000000E+00  0.00000000E+00
  0.00000000E+00  0.00000000E+00  0.00000000E+00
  0.00000000E+00  0.00000000E+00  0.00000000E+00
  0.00000000E+00  0.00000000E+00  0.00000000E+00
  0.00000000E+00  0.00000000E+00  0.00000000E+00
  0.00000000E+00  0.00000000E+00  0.00000000E+00
  0.00000000E+00  0.00000000E+00  0.00000000E+00
  0.00000000E+00  0.00000000E+00  0.00000000E+00
  0.00000000E+00  0.00000000E+00  0.00000000E+00
  0.00000000E+00  0.00000000E+00  0.00000000E+00
  0.00000000E+00  0.00000000E+00  0.00000000E+00
  0.00000000E+00  0.00000000E+00  0.00000000E+00
  0.00000000E+00  0.00000000E+00  0.00000000E+00
  0.00000000E+00  0.00000000E+00  0.00000000E+00
  0.00000000E+00  0.00000000E+00  0.00000000E+00
  0.00000000E+00  0.00000000E+00  0.00000000E+00
  0.00000000E+00  0.00000000E+00  0.00000000E+00
  0.00000000E+00  0.00000000E+00  0.00000000E+00
  0.00000000E+00  0.00000000E+00  0.00000000E+00
  0.00000000E+00  0.00000000E+00  0.00000000E+00
  0.00000000E+00  0.00000000E+00  0.00000000E+00
  0.00000000E+00  0.00000000E+00  0.00000000E+00
  0.00000000E+00  0.00000000E+00  0.00000000E+00
  0.00000000E+00  0.00000000E+00  0.00000000E+00
  0.00000000E+00  0.00000000E+00  0.00000000E+00
  0.00000000E+00  0.00000000E+00  0.00000000E+00
  0.00000000E+00  0.00000000E+00  0.00000000E+00
  0.00000000E+00  0.00000000E+00  0.00000000E+00
  0.00000000E+00  0.00000000E+00  0.00000000E+00
  0.00000000E+00  0.00000000E+00  0.00000000E+00
  0.00000000E+00  0.00000000E+00  0.00000000E+00
  0.00000000E+00  0.00000000E+00  0.00000000E+00
  0.00000000E+00  0.00000000E+00  0.00000000E+00
  0.00000000E+00  0.00000000E+00  0.00000000E+00
