Ge+Si
    1.000000000
   16.973400116    0.000000000    0.000000000
    0.000000000   16.973400116    0.000000000
    0.000000000    0.000000000   17.861000061
Ge  Si 
108     120
Direct
    0.994305491    0.666666567    0.000000000
    0.827638865    0.666666567    0.158384174
    0.660972118    0.666666567    0.316768378
    0.994305491    0.333333284    0.000000000
    0.827638865    0.333333284    0.158384174
    0.660972118    0.333333284    0.316768378
    0.994305491    0.000000000    0.000000000
    0.827638865    0.000000000    0.158384174
    0.660972118    0.000000000    0.316768378
    0.327638805    0.666666567    0.000000000
    0.160972148    0.666666567    0.158384174
    0.994305432    0.666666567    0.316768378
    0.327638805    0.333333284    0.000000000
    0.160972148    0.333333284    0.158384174
    0.994305432    0.333333284    0.316768378
    0.327638805    0.000000000    0.000000000
    0.160972148    0.000000000    0.158384174
    0.994305432    0.000000000    0.316768378
    0.660972118    0.666666567    0.000000000
    0.494305432    0.666666567    0.158384174
    0.327638745    0.666666567    0.316768378
    0.660972118    0.333333284    0.000000000
    0.494305432    0.333333284    0.158384174
    0.327638745    0.333333284    0.316768378
    0.660972118    0.000000000    0.000000000
    0.494305432    0.000000000    0.158384174
    0.327638745    0.000000000    0.316768378
    0.077638842    0.916666567    0.079192095
    0.910972118    0.916666567    0.237576291
    0.744305491    0.916666567    0.395960480
    0.077638842    0.583333313    0.079192095
    0.910972118    0.583333313    0.237576291
    0.744305491    0.583333313    0.395960480
    0.077638842    0.249999955    0.079192095
    0.910972118    0.249999955    0.237576291
    0.744305491    0.249999955    0.395960480
    0.410972089    0.916666567    0.079192095
    0.244305417    0.916666567    0.237576291
    0.077638723    0.916666567    0.395960480
    0.410972089    0.583333313    0.079192095
    0.244305417    0.583333313    0.237576291
    0.077638723    0.583333313    0.395960480
    0.410972089    0.249999955    0.079192095
    0.244305417    0.249999955    0.237576291
    0.077638723    0.249999955    0.395960480
    0.744305491    0.916666567    0.079192095
    0.577638745    0.916666567    0.237576291
    0.410972059    0.916666567    0.395960480
    0.744305491    0.583333313    0.079192095
    0.577638745    0.583333313    0.237576291
    0.410972059    0.583333313    0.395960480
    0.744305491    0.249999955    0.079192095
    0.577638745    0.249999955    0.237576291
    0.410972059    0.249999955    0.395960480
    0.160972163    0.833333194    0.000000000
    0.994305491    0.833333194    0.158384174
    0.827638805    0.833333194    0.316768378
    0.160972163    0.499999911    0.000000000
    0.994305491    0.499999911    0.158384174
    0.827638805    0.499999911    0.316768378
    0.160972163    0.166666642    0.000000000
    0.994305491    0.166666642    0.158384174
    0.827638805    0.166666642    0.316768378
    0.494305432    0.833333194    0.000000000
    0.327638745    0.833333194    0.158384174
    0.160972074    0.833333194    0.316768378
    0.494305432    0.499999911    0.000000000
    0.327638745    0.499999911    0.158384174
    0.160972074    0.499999911    0.316768378
    0.494305432    0.166666642    0.000000000
    0.327638745    0.166666642    0.158384174
    0.160972074    0.166666642    0.316768378
    0.827638805    0.833333194    0.000000000
    0.660972118    0.833333194    0.158384174
    0.494305432    0.833333194    0.316768378
    0.827638805    0.499999911    0.000000000
    0.660972118    0.499999911    0.158384174
    0.494305432    0.499999911    0.316768378
    0.827638805    0.166666642    0.000000000
    0.660972118    0.166666642    0.158384174
    0.494305432    0.166666642    0.316768378
    0.244305462    0.749999881    0.079192095
    0.077638783    0.749999881    0.237576291
    0.910972118    0.749999881    0.395960480
    0.244305462    0.416666627    0.079192095
    0.077638783    0.416666627    0.237576291
    0.910972118    0.416666627    0.395960480
    0.244305462    0.083333328    0.079192095
    0.077638783    0.083333328    0.237576291
    0.910972118    0.083333328    0.395960480
    0.577638865    0.749999881    0.079192095
    0.410972148    0.749999881    0.237576291
    0.244305447    0.749999881    0.395960480
    0.577638865    0.416666627    0.079192095
    0.410972148    0.416666627    0.237576291
    0.244305447    0.416666627    0.395960480
    0.577638865    0.083333328    0.079192095
    0.410972148    0.083333328    0.237576291
    0.244305447    0.083333328    0.395960480
    0.910972178    0.749999881    0.079192095
    0.744305491    0.749999881    0.237576291
    0.577638745    0.749999881    0.395960480
    0.910972178    0.416666627    0.079192095
    0.744305491    0.416666627    0.237576291
    0.577638745    0.416666627    0.395960480
    0.910972178    0.083333328    0.079192095
    0.744305491    0.083333328    0.237576291
    0.577638745    0.083333328    0.395960480
    0.741966486    0.081339598    0.507936299
    0.691966534    0.731339455    0.659971476
    0.641966343    0.381339341    0.812006712
    0.841966510    0.781339586    0.507936299
    0.791966498    0.431339532    0.659971476
    0.741966367    0.081339359    0.812006712
    0.941966534    0.481339544    0.507936299
    0.891966462    0.131339476    0.659971476
    0.841966391    0.781339288    0.812006712
    0.041966558    0.181339532    0.507936299
    0.991966426    0.831339478    0.659971476
    0.941966355    0.481339306    0.812006712
    0.141966581    0.881339550    0.507936299
    0.091966510    0.531339467    0.659971476
    0.041966438    0.181339324    0.812006712
    0.241966486    0.581339538    0.507936299
    0.191966414    0.231339484    0.659971476
    0.141966343    0.881339312    0.812006712
    0.341966510    0.281339526    0.507936299
    0.291966438    0.931339443    0.659971476
    0.241966367    0.581339300    0.812006712
    0.441966653    0.981339633    0.507936299
    0.391966581    0.631339490    0.659971476
    0.341966510    0.281339407    0.812006712
    0.541966558    0.681339562    0.507936299
    0.491966486    0.331339478    0.659971476
    0.441966414    0.981339335    0.812006712
    0.641966581    0.381339580    0.507936299
    0.591966629    0.031339526    0.659971476
    0.541966438    0.681339324    0.812006712
    0.741966486    0.331339538    0.583953917
    0.691966414    0.981339395    0.735989094
    0.641966343    0.631339312    0.888024211
    0.841966510    0.031339526    0.583953917
    0.791966438    0.681339383    0.735989094
    0.741966367    0.331339270    0.888024211
    0.941966534    0.731339514    0.583953917
    0.891966462    0.381339431    0.735989094
    0.841966391    0.031339407    0.888024211
    0.041966558    0.431339502    0.583953917
    0.991966486    0.081339359    0.735989094
    0.941966414    0.731339335    0.888024211
    0.141966581    0.131339520    0.583953917
    0.091966391    0.781339407    0.735989094
    0.041966438    0.431339353    0.888024211
    0.241966605    0.831339538    0.583953917
    0.191966534    0.481339455    0.735989094
    0.141966462    0.131339401    0.888024211
    0.341966510    0.531339467    0.583953917
    0.291966438    0.181339368    0.735989094
    0.241966367    0.831339300    0.888024211
    0.441966653    0.231339544    0.583953917
    0.391966581    0.881339431    0.735989094
    0.341966510    0.531339347    0.888024211
    0.541966677    0.931339562    0.583953917
    0.491966486    0.581339419    0.735989094
    0.441966534    0.231339365    0.888024211
    0.641966581    0.631339490    0.583953917
    0.591966510    0.281339407    0.735989094
    0.541966438    0.931339324    0.888024211
    0.741966486    0.581339538    0.507936299
    0.691966534    0.231339484    0.659971476
    0.641966343    0.881339312    0.812006712
    0.841966510    0.281339526    0.507936299
    0.791966438    0.931339443    0.659971476
    0.741966367    0.581339300    0.812006712
    0.941966534    0.981339514    0.507936299
    0.891966462    0.631339431    0.659971476
    0.841966391    0.281339318    0.812006712
    0.041966558    0.681339502    0.507936299
    0.991966486    0.331339478    0.659971476
    0.941966414    0.981339335    0.812006712
    0.141966581    0.381339550    0.507936299
    0.091966510    0.031339526    0.659971476
    0.041966438    0.681339324    0.812006712
    0.241966486    0.081339478    0.507936299
    0.191966534    0.731339395    0.659971476
    0.141966343    0.381339282    0.812006712
    0.341966510    0.781339526    0.507936299
    0.291966438    0.431339473    0.659971476
    0.241966367    0.081339359    0.812006712
    0.441966534    0.481339514    0.507936299
    0.391966462    0.131339431    0.659971476
    0.341966391    0.781339288    0.812006712
    0.541966558    0.181339502    0.507936299
    0.491966486    0.831339359    0.659971476
    0.441966414    0.481339306    0.812006712
    0.641966581    0.881339550    0.507936299
    0.591966629    0.531339467    0.659971476
    0.541966438    0.181339353    0.812006712
    0.741966486    0.831339598    0.583953917
    0.691966414    0.481339484    0.735989094
    0.641966343    0.131339416    0.888024211
    0.841966510    0.531339526    0.583953917
    0.791966438    0.181339443    0.735989094
    0.741966367    0.831339359    0.888024211
    0.941966534    0.231339529    0.583953917
    0.891966462    0.881339431    0.735989094
    0.841966391    0.531339347    0.888024211
    0.041966558    0.931339562    0.583953917
    0.991966486    0.581339419    0.735989094
    0.941966414    0.231339365    0.888024211
    0.141966581    0.631339610    0.583953917
    0.091966510    0.281339526    0.735989094
    0.041966438    0.931339443    0.888024211
    0.241966486    0.331339508    0.583953917
    0.191966534    0.981339395    0.735989094
    0.141966343    0.631339312    0.888024211
    0.341966629    0.031339526    0.583953917
    0.291966438    0.681339443    0.735989094
    0.241966486    0.331339389    0.888024211
    0.441966534    0.731339574    0.583953917
    0.391966581    0.381339461    0.735989094
    0.341966391    0.031339407    0.888024211
    0.541966438    0.431339502    0.583953917
    0.491966486    0.081339359    0.735989094
    0.441966295    0.731339335    0.888024211
    0.641966581    0.131339505    0.583953917
    0.591966391    0.781339407    0.735989094
    0.541966438    0.431339294    0.888024211
