SYSTEM = Si and Ge interface calculation
##SYSTEM
ISTART = 0
ICHARG = 2
LWAVE = .FALSE.
LREAL = AUTO
ENCUT = 700
ENAUG = 900
ADDGRID = .TRUE.
LMAXMIX = 6
LASPH = .TRUE.
LMIXTAU = .TRUE.


##MPI
NCORE = 16


##ELECTRONIC
NELM = 100
NBANDS = 432
EDIFF = 1d-7
AMIX = 0.6
ISMEAR = 0
SIGMA = 0.01
NELECT = 720


##MAGNETIC
ISPIN = 2
NUPDOWN = 1


##WORK FUNCTION
LVTOT = .FALSE.
LVHAR = .TRUE.