Si+C
    1.000000000
   13.303179741    0.000000000    0.000000000
    6.651589394   11.520891190    0.000000000
    0.000000000    0.000000000   21.679418564
Si  C  
72     308
Direct
    0.000000000    0.318506181    0.289268762
    0.000000000    0.985172927    0.000000014
    0.000000000    0.651839554    0.144634396
    0.333333343    0.651839614    0.289268732
    0.333333343    0.318506300    0.000000009
    0.333333343    0.985172868    0.144634381
    0.666666687    0.985172927    0.289268732
    0.666666687    0.651839614    0.000000006
    0.666666687    0.318506241    0.144634381
    0.333333343    0.318506062    0.325427443
    0.333333343    0.985172868    0.036158618
    0.333333343    0.651839495    0.180793002
    1.000000000    0.985172808    0.325427443
    1.000000000    0.651839614    0.036158614
    1.000000000    0.318506271    0.180793002
    0.666666746    0.651839375    0.325427443
    0.666666746    0.318506211    0.036158625
    0.666666746    0.985172868    0.180793002
    0.500000000    0.318506241    0.289268732
    0.500000000    0.985172927    0.000000010
    0.500000000    0.651839554    0.144634381
    0.166666672    0.985172927    0.289268732
    0.166666672    0.651839674    0.000000001
    0.166666672    0.318506241    0.144634381
    0.833333373    0.651839614    0.289268732
    0.833333373    0.318506300    0.000000001
    0.833333373    0.985172927    0.144634381
    0.166666657    0.651839554    0.325427353
    0.166666657    0.318506300    0.036158573
    0.166666657    0.985172868    0.180792958
    0.833333433    0.318506181    0.325427383
    0.833333433    0.985172927    0.036158588
    0.833333433    0.651839495    0.180792972
    0.500000060    0.985172868    0.325427383
    0.500000060    0.651839614    0.036158592
    0.500000060    0.318506211    0.180793002
    0.166666672    0.485172927    0.289268732
    0.166666672    0.151839614    0.000000010
    0.166666672    0.818506241    0.144634381
    0.500000000    0.818506241    0.289268762
    0.500000000    0.485172987    0.000000016
    0.500000000    0.151839584    0.144634396
    0.833333373    0.151839629    0.289268732
    0.833333373    0.818506360    0.000000000
    0.833333373    0.485173017    0.144634351
    0.500000000    0.485172868    0.325427383
    0.500000000    0.151839614    0.036158588
    0.500000000    0.818506241    0.180792972
    0.166666672    0.151839569    0.325427353
    0.166666672    0.818506360    0.036158565
    0.166666672    0.485172927    0.180792958
    0.833333373    0.818506181    0.325427353
    0.833333373    0.485172927    0.036158565
    0.833333373    0.151839525    0.180792958
    0.000000000    0.818506241    0.289268732
    0.000000000    0.485172957    0.000000009
    0.000000000    0.151839554    0.144634381
    0.666666687    0.485172868    0.289268732
    0.666666687    0.151839599    0.000000009
    0.666666687    0.818506181    0.144634381
    0.333333313    0.151839495    0.289268732
    0.333333313    0.818506241    0.000000002
    0.333333313    0.485172868    0.144634351
    0.000000000    0.485172808    0.325427443
    0.000000000    0.151839659    0.036158610
    0.000000000    0.818506300    0.180793002
    0.333333343    0.818506122    0.325427443
    0.333333343    0.485172957    0.036158614
    0.333333343    0.151839599    0.180793002
    0.666666687    0.151839525    0.325427413
    0.666666687    0.818506300    0.036158610
    0.666666687    0.485172957    0.180792972
    0.408787698    0.439091086    0.900184691
    0.075454831    0.105757952    0.425242662
    0.742121458    0.772424519    0.520231068
    0.408787996    0.439091146    0.615219474
    0.075454473    0.105757594    0.710207939
    0.742121100    0.772424221    0.805196404
    0.694501996    0.581948161    0.900184751
    0.361169189    0.248615041    0.425242662
    0.027835727    0.915281653    0.520231068
    0.694502354    0.581948280    0.615219533
    0.361168712    0.248614728    0.710207939
    0.027835369    0.915281415    0.805196345
    0.551644921    0.010519505    0.900184751
    0.218312025    0.677186430    0.425242662
    0.884978652    0.343853056    0.520231068
    0.551645160    0.010519743    0.615219474
    0.218311518    0.677186131    0.710207939
    0.884978294    0.343852818    0.805196404
    0.980216384    0.724805236    0.900184751
    0.646883488    0.391472191    0.425242662
    0.313550025    0.058138847    0.520231068
    0.980216622    0.724805415    0.615219533
    0.646883011    0.391471863    0.710207939
    0.313549668    0.058138490    0.805196464
    0.837359071    0.153376639    0.900184751
    0.504026294    0.820043623    0.425242633
    0.170692876    0.486710250    0.520231009
    0.837359428    0.153376818    0.615219474
    0.504026055    0.820043445    0.710207880
    0.170692474    0.486709893    0.805196404
    0.265930504    0.867662311    0.900184751
    0.932597637    0.534329295    0.425242633
    0.599264264    0.200995937    0.520231009
    0.265930831    0.867662549    0.615219474
    0.932597518    0.534329176    0.710207880
    0.599263906    0.200995624    0.805196404
    0.123073369    0.296233773    0.900184751
    0.789740562    0.962900698    0.425242662
    0.456407130    0.629567325    0.520231068
    0.123073705    0.296233952    0.615219474
    0.789740086    0.962900400    0.710207939
    0.456406742    0.629567087    0.805196345
    0.170692921    0.486710221    0.448989749
    0.837359548    0.153376818    0.543978214
    0.504026055    0.820043445    0.638966620
    0.170692533    0.486710012    0.733955026
    0.837359071    0.153376520    0.828943491
    0.599264383    0.200995952    0.448989749
    0.265930921    0.867662549    0.543978214
    0.932597518    0.534329236    0.638966560
    0.599264026    0.200995743    0.733955026
    0.265930444    0.867662191    0.828943491
    0.456407189    0.629567325    0.448989749
    0.123073764    0.296233952    0.543978214
    0.789740324    0.962900579    0.638966560
    0.456406802    0.629567146    0.733955026
    0.123073310    0.296233714    0.828943431
    0.884978533    0.343853056    0.448989749
    0.551645160    0.010519743    0.543978214
    0.218311727    0.677186310    0.638966620
    0.884978175    0.343852818    0.733955026
    0.551644683    0.010519385    0.828943431
    0.313550055    0.058138847    0.448989749
    0.980216622    0.724805415    0.543978214
    0.646883249    0.391472042    0.638966620
    0.313549668    0.058138490    0.733955026
    0.980216265    0.724805117    0.828943431
    0.742121577    0.772424519    0.448989749
    0.408788115    0.439091116    0.543978214
    0.075454712    0.105757713    0.638966620
    0.742121220    0.772424221    0.733955026
    0.408787638    0.439090788    0.828943491
    0.027835846    0.915281653    0.448989719
    0.694502354    0.581948280    0.543978155
    0.361168951    0.248614877    0.638966560
    0.027835488    0.915281475    0.733955026
    0.694501996    0.581947982    0.828943431
    0.623073459    0.796233773    0.900184691
    0.289740562    0.462900758    0.425242662
    0.956407189    0.129567355    0.520231068
    0.623073697    0.796233952    0.615219474
    0.289740115    0.462900400    0.710207939
    0.956406832    0.129567146    0.805196345
    0.051644921    0.510519505    0.900184691
    0.718312025    0.177186474    0.425242633
    0.384978563    0.843853116    0.520231009
    0.051645160    0.510519743    0.615219474
    0.718311548    0.177186131    0.710207939
    0.384978205    0.843852878    0.805196345
    0.480216235    0.224805176    0.900184751
    0.146883473    0.891472161    0.425242633
    0.813550115    0.558138788    0.520231068
    0.480216593    0.224805355    0.615219474
    0.146883219    0.891472042    0.710207939
    0.813549757    0.558138490    0.805196404
    0.908787727    0.939090967    0.900184751
    0.575454891    0.605757892    0.425242633
    0.242121443    0.272424519    0.520231068
    0.908787966    0.939091086    0.615219474
    0.575454593    0.605757713    0.710207939
    0.242121071    0.272424221    0.805196345
    0.337359101    0.653376579    0.900184751
    0.004026294    0.320043623    0.425242603
    0.670692921    0.986710250    0.520231009
    0.337359428    0.653376818    0.615219474
    0.004026055    0.320043504    0.710207880
    0.670692444    0.986709952    0.805196404
    0.765930533    0.367662430    0.900184751
    0.432597756    0.034329414    0.425242662
    0.099264272    0.700995922    0.520231068
    0.765930891    0.367662549    0.615219474
    0.432597250    0.034328938    0.710207939
    0.099263936    0.700995684    0.805196345
    0.194502026    0.081948161    0.900184751
    0.861169219    0.748615026    0.425242692
    0.527835727    0.415281624    0.520231068
    0.194502324    0.081948280    0.615219533
    0.861168742    0.748614669    0.710207939
    0.527835369    0.415281415    0.805196404
    0.242121488    0.272424519    0.448989719
    0.908788085    0.939091086    0.543978214
    0.575454593    0.605757773    0.638966560
    0.242121130    0.272424340    0.733955026
    0.908787727    0.939090848    0.828943491
    0.099264368    0.700995922    0.448989719
    0.765930891    0.367662519    0.543978214
    0.432597548    0.034329176    0.638966560
    0.099263996    0.700995743    0.733955026
    0.765930653    0.367662251    0.828943372
    0.527835786    0.415281653    0.448989719
    0.194502309    0.081948280    0.543978155
    0.861168861    0.748614907    0.638966560
    0.527835369    0.415281475    0.733955026
    0.194501847    0.081948042    0.828943372
    0.956407070    0.129567340    0.448989719
    0.623073697    0.796233952    0.543978155
    0.289740324    0.462900579    0.638966560
    0.956406832    0.129567146    0.733955026
    0.623073339    0.796233654    0.828943372
    0.384978652    0.843853116    0.448989719
    0.051645160    0.510519624    0.543978155
    0.718311787    0.177186251    0.638966560
    0.384978324    0.843852878    0.733955026
    0.051644802    0.510519385    0.828943431
    0.813550115    0.558138847    0.448989719
    0.480216652    0.224805355    0.543978214
    0.146883249    0.891471982    0.638966620
    0.813549757    0.558138549    0.733955026
    0.480216295    0.224805057    0.828943491
    0.670692921    0.986710191    0.448989719
    0.337359428    0.653376758    0.543978214
    0.004026055    0.320043325    0.638966560
    0.670692563    0.986709952    0.733955026
    0.337359101    0.653376520    0.828943431
    0.551644921    0.510519505    0.900184810
    0.218312010    0.177186474    0.425242662
    0.884978533    0.843853116    0.520231068
    0.551645160    0.510519743    0.615219474
    0.218311578    0.177186191    0.710207939
    0.884978175    0.843852758    0.805196404
    0.408787817    0.939090967    0.900184751
    0.075454950    0.605757892    0.425242662
    0.742121458    0.272424489    0.520231068
    0.408788055    0.939091086    0.615219533
    0.075454473    0.605757535    0.710207939
    0.742121100    0.272424281    0.805196404
    0.837359190    0.653376698    0.900184751
    0.504026294    0.320043623    0.425242633
    0.170692891    0.986710250    0.520231068
    0.837359428    0.653376818    0.615219474
    0.504025817    0.320043266    0.710207939
    0.170692533    0.986709952    0.805196404
    0.694501996    0.081948042    0.900184810
    0.361169159    0.748615086    0.425242633
    0.027835727    0.415281713    0.520231009
    0.694502234    0.081948280    0.615219474
    0.361168891    0.748614967    0.710207880
    0.027835369    0.415281355    0.805196404
    0.123073429    0.796233773    0.900184751
    0.789740562    0.462900788    0.425242633
    0.456407189    0.129567400    0.520231009
    0.123073742    0.796233952    0.615219474
    0.789740324    0.462900639    0.710207880
    0.456406802    0.129567087    0.805196404
    0.980216265    0.224805236    0.900184691
    0.646883488    0.891472161    0.425242662
    0.313549995    0.558138788    0.520231068
    0.980216622    0.224805415    0.615219474
    0.646883011    0.891471863    0.710207939
    0.313549668    0.558138549    0.805196345
    0.265930563    0.367662311    0.900184751
    0.932597756    0.034329295    0.425242662
    0.599264264    0.700995922    0.520231068
    0.265930861    0.367662549    0.615219474
    0.932597280    0.034328938    0.710207939
    0.599263906    0.700995684    0.805196345
    0.456407189    0.129567370    0.448989749
    0.123073705    0.796233952    0.543978214
    0.789740324    0.462900579    0.638966620
    0.456406802    0.129567206    0.733955026
    0.123073310    0.796233654    0.828943491
    0.313550115    0.558138728    0.448989749
    0.980216622    0.224805355    0.543978214
    0.646883249    0.891471982    0.638966560
    0.313549727    0.558138549    0.733955026
    0.980216265    0.224805176    0.828943372
    0.742121458    0.272424519    0.448989749
    0.408788055    0.939091086    0.543978214
    0.075454593    0.605757773    0.638966560
    0.742121100    0.272424281    0.733955026
    0.408787698    0.939090848    0.828943431
    0.170692950    0.986710250    0.448989749
    0.837359428    0.653376818    0.543978214
    0.504026055    0.320043445    0.638966620
    0.170692593    0.986710072    0.733955026
    0.837359071    0.653376579    0.828943491
    0.599264383    0.700995922    0.448989719
    0.265930891    0.367662489    0.543978155
    0.932597399    0.034329176    0.638966560
    0.599264026    0.700995684    0.733954966
    0.265930504    0.367662251    0.828943431
    0.027835846    0.415281653    0.448989719
    0.694502473    0.081948280    0.543978214
    0.361169010    0.748614848    0.638966560
    0.027835488    0.415281415    0.733955026
    0.694501996    0.081948042    0.828943372
    0.884978652    0.843853116    0.448989749
    0.551645160    0.510519624    0.543978214
    0.218311802    0.177186280    0.638966620
    0.884978294    0.843852878    0.733955026
    0.551644802    0.510519445    0.828943431
    0.480216473    0.724805236    0.900184751
    0.146883458    0.391472191    0.425242633
    0.813549995    0.058138847    0.520231068
    0.480216593    0.724805415    0.615219474
    0.146882981    0.391471863    0.710207939
    0.813549638    0.058138609    0.805196345
    0.908787727    0.439090967    0.900184691
    0.575454831    0.105757952    0.425242633
    0.242121413    0.772424519    0.520231068
    0.908787966    0.439091146    0.615219474
    0.575454354    0.105757594    0.710207939
    0.242121011    0.772424340    0.805196345
    0.765930533    0.867662430    0.900184751
    0.432597727    0.534329295    0.425242662
    0.099264294    0.200995982    0.520231009
    0.765930891    0.867662549    0.615219474
    0.432597429    0.534329236    0.710207880
    0.099263877    0.200995684    0.805196404
    0.194501907    0.581948042    0.900184810
    0.861169100    0.248615012    0.425242633
    0.527835727    0.915281653    0.520231009
    0.194502205    0.581948221    0.615219474
    0.861168861    0.248614907    0.710207880
    0.527835250    0.915281415    0.805196345
    0.623073339    0.296233773    0.900184751
    0.289740592    0.962900698    0.425242662
    0.956407189    0.629567325    0.520231068
    0.623073816    0.296233952    0.615219474
    0.289740115    0.962900400    0.710207939
    0.956406713    0.629567027    0.805196404
    0.051644921    0.010519505    0.900184691
    0.718312025    0.677186489    0.425242633
    0.384978592    0.343853056    0.520231009
    0.051645160    0.010519743    0.615219474
    0.718311548    0.677186131    0.710207939
    0.384978205    0.343852818    0.805196345
    0.337359101    0.153376639    0.900184751
    0.004026294    0.820043564    0.425242662
    0.670692921    0.486710161    0.520231068
    0.337359428    0.153376788    0.615219474
    0.004025817    0.820043206    0.710207939
    0.670692563    0.486709952    0.805196404
    0.099264376    0.200996026    0.448989749
    0.765931010    0.867662668    0.543978214
    0.432597488    0.534329236    0.638966620
    0.099263996    0.200995803    0.733955026
    0.765930533    0.867662311    0.828943491
    0.384978682    0.343853146    0.448989749
    0.051645279    0.010519743    0.543978214
    0.718311787    0.677186370    0.638966620
    0.384978265    0.343852878    0.733955026
    0.051644802    0.010519505    0.828943491
    0.242121562    0.772424519    0.448989749
    0.908788085    0.439091176    0.543978214
    0.575454712    0.105757713    0.638966560
    0.242121130    0.772424340    0.733955026
    0.908787727    0.439090848    0.828943491
    0.670692921    0.486710280    0.448989749
    0.337359488    0.153376892    0.543978214
    0.004026055    0.820043504    0.638966620
    0.670692563    0.486710012    0.733955026
    0.337359041    0.153376579    0.828943491
    0.527835727    0.915281653    0.448989749
    0.194502309    0.581948280    0.543978155
    0.861168861    0.248614892    0.638966560
    0.527835369    0.915281415    0.733955026
    0.194501847    0.581947923    0.828943431
    0.956407189    0.629567325    0.448989719
    0.623073697    0.296233952    0.543978214
    0.289740294    0.962900579    0.638966620
    0.956406713    0.629567087    0.733955026
    0.623073220    0.296233654    0.828943431
    0.813550115    0.058138847    0.448989779
    0.480216652    0.724805534    0.543978214
    0.146883249    0.391472161    0.638966620
    0.813549757    0.058138609    0.733955026
    0.480216235    0.724805236    0.828943491
