Si+Sn                                   
   1.00000000000000     
    13.3031797409999992    0.0000000000000000    0.0000000000000000
   -13.3031787870000002    9.4067678449999992    0.0000000000000000
     0.0000000000000000    0.0000000000000000   21.0721397400000008
   Si   Sn
    72    48
Direct
  0.9785172939999995  0.0000000000000000  0.0000000020000002
  0.7285172340000017  0.9999999400000021  0.0911226349999978
  0.4785171750000003  0.9999998810000008  0.1822452549999980
  0.2285172340000017  0.9999998210000030  0.2733678219999973
  0.9785171750000003  0.9999997620000016  0.3644904789999970
  0.7285171750000003  0.9999997019999967  0.4556131060000013
  0.9785172939999995  0.3333333730000021  0.0000000020000002
  0.7285172340000017  0.3333332839999983  0.0911226349999978
  0.4785171750000003  0.3333332240000004  0.1822452549999980
  0.2285172340000017  0.3333331640000026  0.2733678219999973
  0.9785171750000003  0.3333330150000009  0.3644904789999970
  0.7285171750000003  0.3333330450000034  0.4556131060000013
  0.9785172939999995  0.6666667459999971  0.0000000020000002
  0.7285172340000017  0.6666666870000029  0.0911226349999978
  0.4785171750000003  0.6666666269999979  0.1822452549999980
  0.2285172340000017  0.6666666269999979  0.2733678219999973
  0.9785171750000003  0.6666665079999987  0.3644904789999970
  0.7285171750000003  0.6666664480000009  0.4556131060000013
  0.4785172939999995  0.0000000000000000  0.0000000029999967
  0.2285172489999994  0.9999999400000021  0.0911226349999978
  0.9785172340000017  0.9999998810000008  0.1822452549999980
  0.7285172939999995  0.9999998210000030  0.2733678219999973
  0.4785171750000003  0.9999997620000016  0.3644904789999970
  0.2285171150000025  0.9999996419999988  0.4556131060000013
  0.4785172939999995  0.3333333429999996  0.0000000029999967
  0.2285172489999994  0.3333332839999983  0.0911226349999978
  0.9785172340000017  0.3333332240000004  0.1822452549999980
  0.7285172939999995  0.3333331640000026  0.2733678219999973
  0.4785171750000003  0.3333331050000012  0.3644904789999970
  0.2285171150000025  0.3333329559999996  0.4556131060000013
  0.4785172939999995  0.6666667459999971  0.0000000029999967
  0.2285172489999994  0.6666666269999979  0.0911226349999978
  0.9785172340000017  0.6666665670000000  0.1822452549999980
  0.7285172939999995  0.6666665670000000  0.2733678219999973
  0.4785171750000003  0.6666663290000017  0.3644904789999970
  0.2285171150000025  0.6666663290000017  0.4556131060000013
  0.7285173539999974  0.0833333060000001  0.0000000029999967
  0.4785172939999995  0.0833332690000006  0.0911226200000002
  0.2285172639999971  0.0833332090000027  0.1822452549999980
  0.9785172939999995  0.0833331270000031  0.2733678219999973
  0.7285172340000017  0.0833330970000006  0.3644904789999970
  0.4785172340000017  0.0833330379999992  0.4556130770000024
  0.7285173539999974  0.4166666570000004  0.0000000029999967
  0.4785172939999995  0.4166666269999979  0.0911226200000002
  0.2285172639999971  0.4166665670000000  0.1822452549999980
  0.9785172939999995  0.4166665079999987  0.2733678219999973
  0.7285172340000017  0.4166664179999984  0.3644904789999970
  0.4785172340000017  0.4166663589999970  0.4556130770000024
  0.7285173539999974  0.7500000000000000  0.0000000029999967
  0.4785172939999995  0.7500000000000000  0.0911226200000002
  0.2285172639999971  0.7499999400000021  0.1822452549999980
  0.9785172939999995  0.7499998810000008  0.2733678219999973
  0.7285172340000017  0.7499997620000016  0.3644904789999970
  0.4785172340000017  0.7499997019999967  0.4556130770000024
  0.2285172939999995  0.0833333360000026  0.0000000000000000
  0.9785172340000017  0.0833332759999976  0.0911226349999978
  0.7285171750000003  0.0833331870000009  0.1822452549999980
  0.4785172939999995  0.0833331569999984  0.2733678219999973
  0.2285171750000003  0.0833330970000006  0.3644904789999970
  0.9785170560000012  0.0833330150000009  0.4556131060000013
  0.2285172939999995  0.4166667160000017  0.0000000000000000
  0.9785172340000017  0.4166666269999979  0.0911226349999978
  0.7285171750000003  0.4166665670000000  0.1822452549999980
  0.4785172939999995  0.4166665380000012  0.2733678219999973
  0.2285171750000003  0.4166664780000033  0.3644904789999970
  0.9785170560000012  0.4166663889999995  0.4556131060000013
  0.2285172939999995  0.7500000000000000  0.0000000000000000
  0.9785172340000017  0.7499999400000021  0.0911226349999978
  0.7285171750000003  0.7499999400000021  0.1822452549999980
  0.4785172939999995  0.7499998210000030  0.2733678219999973
  0.2285171750000003  0.7499997019999967  0.3644904789999970
  0.9785170560000012  0.7499997620000016  0.4556131060000013
  0.0000000000000000  0.9820204970000006  0.4556131359999966
  0.0000000000000000  0.7320204970000006  0.5644904380000000
  0.0000000000000000  0.4820204379999993  0.6733677980000010
  0.0000000000000000  0.2320204379999993  0.7822450999999973
  0.0000000269999987  0.9820203780000014  0.8911225200000032
  0.9999999400000021  0.7320203780000014  0.0000000000000000
  0.4999999400000021  0.9820204970000006  0.4556131359999966
  0.5000000000000000  0.7320204970000006  0.5644904380000000
  0.4999999110000033  0.4820204379999993  0.6733677980000010
  0.4999999110000033  0.2320204379999993  0.7822450999999973
  0.4999999110000033  0.9820203780000014  0.8911225200000032
  0.5000000599999979  0.7320203780000014  0.0000000000000000
  0.9999999400000021  0.4820204680000018  0.4556131359999966
  0.0000000000000000  0.2320204680000018  0.5644904380000000
  0.0000000000000000  0.9820204379999993  0.6733677980000010
  0.0000000000000000  0.7320203780000014  0.7822450999999973
  0.0000000349999993  0.4820203780000014  0.8911225200000032
  0.9999999400000021  0.2320203190000001  0.0000000000000000
  0.4999999699999975  0.4820204680000018  0.4556131359999966
  0.5000000000000000  0.2320204680000018  0.5644904380000000
  0.5000000000000000  0.9820204379999993  0.6733677980000010
  0.4999998810000008  0.7320203780000014  0.7822450999999973
  0.5000000599999979  0.4820203780000014  0.8911225200000032
  0.4999999400000021  0.2320203190000001  0.0000000000000000
  0.1250000149999977  0.7320204379999993  0.4556131359999966
  0.1250000000000000  0.4820204379999993  0.5644904380000000
  0.1250000000000000  0.2320203780000014  0.6733677980000010
  0.1250000300000025  0.9820203190000001  0.7822450999999973
  0.1249999630000005  0.7320203190000001  0.8911225800000011
  0.1250000750000027  0.4820203190000001  0.0000000000000000
  0.6249999400000021  0.7320204379999993  0.4556131359999966
  0.6249999400000021  0.4820204379999993  0.5644904380000000
  0.6249999400000021  0.2320203780000014  0.6733677980000010
  0.6249998810000008  0.9820203190000001  0.7822450999999973
  0.6249998210000030  0.7320203190000001  0.8911225800000011
  0.6249999400000021  0.4820203190000001  0.0000000000000000
  0.1250000000000000  0.2320204820000029  0.4556131359999966
  0.1249999930000030  0.9820204970000006  0.5644904380000000
  0.1249999850000023  0.7320203780000014  0.6733677980000010
  0.1250000300000025  0.4820203190000001  0.7822450999999973
  0.1249999110000033  0.2320203780000014  0.8911225200000032
  0.1249999480000028  0.9820203780000014  0.0000000000000000
  0.6249999400000021  0.2320204820000029  0.4556131359999966
  0.6249999400000021  0.9820204970000006  0.5644904380000000
  0.6249999400000021  0.7320203780000014  0.6733677980000010
  0.6249998210000030  0.4820203190000001  0.7822450999999973
  0.6250000599999979  0.2320203780000014  0.8911225200000032
  0.6249999400000021  0.9820203780000014  0.0000000000000000
 
  0.00000000E+00  0.00000000E+00  0.00000000E+00
  0.00000000E+00  0.00000000E+00  0.00000000E+00
  0.00000000E+00  0.00000000E+00  0.00000000E+00
  0.00000000E+00  0.00000000E+00  0.00000000E+00
  0.00000000E+00  0.00000000E+00  0.00000000E+00
  0.00000000E+00  0.00000000E+00  0.00000000E+00
  0.00000000E+00  0.00000000E+00  0.00000000E+00
  0.00000000E+00  0.00000000E+00  0.00000000E+00
  0.00000000E+00  0.00000000E+00  0.00000000E+00
  0.00000000E+00  0.00000000E+00  0.00000000E+00
  0.00000000E+00  0.00000000E+00  0.00000000E+00
  0.00000000E+00  0.00000000E+00  0.00000000E+00
  0.00000000E+00  0.00000000E+00  0.00000000E+00
  0.00000000E+00  0.00000000E+00  0.00000000E+00
  0.00000000E+00  0.00000000E+00  0.00000000E+00
  0.00000000E+00  0.00000000E+00  0.00000000E+00
  0.00000000E+00  0.00000000E+00  0.00000000E+00
  0.00000000E+00  0.00000000E+00  0.00000000E+00
  0.00000000E+00  0.00000000E+00  0.00000000E+00
  0.00000000E+00  0.00000000E+00  0.00000000E+00
  0.00000000E+00  0.00000000E+00  0.00000000E+00
  0.00000000E+00  0.00000000E+00  0.00000000E+00
  0.00000000E+00  0.00000000E+00  0.00000000E+00
  0.00000000E+00  0.00000000E+00  0.00000000E+00
  0.00000000E+00  0.00000000E+00  0.00000000E+00
  0.00000000E+00  0.00000000E+00  0.00000000E+00
  0.00000000E+00  0.00000000E+00  0.00000000E+00
  0.00000000E+00  0.00000000E+00  0.00000000E+00
  0.00000000E+00  0.00000000E+00  0.00000000E+00
  0.00000000E+00  0.00000000E+00  0.00000000E+00
  0.00000000E+00  0.00000000E+00  0.00000000E+00
  0.00000000E+00  0.00000000E+00  0.00000000E+00
  0.00000000E+00  0.00000000E+00  0.00000000E+00
  0.00000000E+00  0.00000000E+00  0.00000000E+00
  0.00000000E+00  0.00000000E+00  0.00000000E+00
  0.00000000E+00  0.00000000E+00  0.00000000E+00
  0.00000000E+00  0.00000000E+00  0.00000000E+00
  0.00000000E+00  0.00000000E+00  0.00000000E+00
  0.00000000E+00  0.00000000E+00  0.00000000E+00
  0.00000000E+00  0.00000000E+00  0.00000000E+00
  0.00000000E+00  0.00000000E+00  0.00000000E+00
  0.00000000E+00  0.00000000E+00  0.00000000E+00
  0.00000000E+00  0.00000000E+00  0.00000000E+00
  0.00000000E+00  0.00000000E+00  0.00000000E+00
  0.00000000E+00  0.00000000E+00  0.00000000E+00
  0.00000000E+00  0.00000000E+00  0.00000000E+00
  0.00000000E+00  0.00000000E+00  0.00000000E+00
  0.00000000E+00  0.00000000E+00  0.00000000E+00
  0.00000000E+00  0.00000000E+00  0.00000000E+00
  0.00000000E+00  0.00000000E+00  0.00000000E+00
  0.00000000E+00  0.00000000E+00  0.00000000E+00
  0.00000000E+00  0.00000000E+00  0.00000000E+00
  0.00000000E+00  0.00000000E+00  0.00000000E+00
  0.00000000E+00  0.00000000E+00  0.00000000E+00
  0.00000000E+00  0.00000000E+00  0.00000000E+00
  0.00000000E+00  0.00000000E+00  0.00000000E+00
  0.00000000E+00  0.00000000E+00  0.00000000E+00
  0.00000000E+00  0.00000000E+00  0.00000000E+00
  0.00000000E+00  0.00000000E+00  0.00000000E+00
  0.00000000E+00  0.00000000E+00  0.00000000E+00
  0.00000000E+00  0.00000000E+00  0.00000000E+00
  0.00000000E+00  0.00000000E+00  0.00000000E+00
  0.00000000E+00  0.00000000E+00  0.00000000E+00
  0.00000000E+00  0.00000000E+00  0.00000000E+00
  0.00000000E+00  0.00000000E+00  0.00000000E+00
  0.00000000E+00  0.00000000E+00  0.00000000E+00
  0.00000000E+00  0.00000000E+00  0.00000000E+00
  0.00000000E+00  0.00000000E+00  0.00000000E+00
  0.00000000E+00  0.00000000E+00  0.00000000E+00
  0.00000000E+00  0.00000000E+00  0.00000000E+00
  0.00000000E+00  0.00000000E+00  0.00000000E+00
  0.00000000E+00  0.00000000E+00  0.00000000E+00
  0.00000000E+00  0.00000000E+00  0.00000000E+00
  0.00000000E+00  0.00000000E+00  0.00000000E+00
  0.00000000E+00  0.00000000E+00  0.00000000E+00
  0.00000000E+00  0.00000000E+00  0.00000000E+00
  0.00000000E+00  0.00000000E+00  0.00000000E+00
  0.00000000E+00  0.00000000E+00  0.00000000E+00
  0.00000000E+00  0.00000000E+00  0.00000000E+00
  0.00000000E+00  0.00000000E+00  0.00000000E+00
  0.00000000E+00  0.00000000E+00  0.00000000E+00
  0.00000000E+00  0.00000000E+00  0.00000000E+00
  0.00000000E+00  0.00000000E+00  0.00000000E+00
  0.00000000E+00  0.00000000E+00  0.00000000E+00
  0.00000000E+00  0.00000000E+00  0.00000000E+00
  0.00000000E+00  0.00000000E+00  0.00000000E+00
  0.00000000E+00  0.00000000E+00  0.00000000E+00
  0.00000000E+00  0.00000000E+00  0.00000000E+00
  0.00000000E+00  0.00000000E+00  0.00000000E+00
  0.00000000E+00  0.00000000E+00  0.00000000E+00
  0.00000000E+00  0.00000000E+00  0.00000000E+00
  0.00000000E+00  0.00000000E+00  0.00000000E+00
  0.00000000E+00  0.00000000E+00  0.00000000E+00
  0.00000000E+00  0.00000000E+00  0.00000000E+00
  0.00000000E+00  0.00000000E+00  0.00000000E+00
  0.00000000E+00  0.00000000E+00  0.00000000E+00
  0.00000000E+00  0.00000000E+00  0.00000000E+00
  0.00000000E+00  0.00000000E+00  0.00000000E+00
  0.00000000E+00  0.00000000E+00  0.00000000E+00
  0.00000000E+00  0.00000000E+00  0.00000000E+00
  0.00000000E+00  0.00000000E+00  0.00000000E+00
  0.00000000E+00  0.00000000E+00  0.00000000E+00
  0.00000000E+00  0.00000000E+00  0.00000000E+00
  0.00000000E+00  0.00000000E+00  0.00000000E+00
  0.00000000E+00  0.00000000E+00  0.00000000E+00
  0.00000000E+00  0.00000000E+00  0.00000000E+00
  0.00000000E+00  0.00000000E+00  0.00000000E+00
  0.00000000E+00  0.00000000E+00  0.00000000E+00
  0.00000000E+00  0.00000000E+00  0.00000000E+00
  0.00000000E+00  0.00000000E+00  0.00000000E+00
  0.00000000E+00  0.00000000E+00  0.00000000E+00
  0.00000000E+00  0.00000000E+00  0.00000000E+00
  0.00000000E+00  0.00000000E+00  0.00000000E+00
  0.00000000E+00  0.00000000E+00  0.00000000E+00
  0.00000000E+00  0.00000000E+00  0.00000000E+00
  0.00000000E+00  0.00000000E+00  0.00000000E+00
  0.00000000E+00  0.00000000E+00  0.00000000E+00
  0.00000000E+00  0.00000000E+00  0.00000000E+00
  0.00000000E+00  0.00000000E+00  0.00000000E+00
  0.00000000E+00  0.00000000E+00  0.00000000E+00
