Ge+Sn                                   
   1.00000000000000     
    11.3156003950000006    0.0000000000000000    0.0000000000000000
   -11.3156003950000006   16.0026760099999983    0.0000000000000000
     0.0000000000000000    0.0000000000000000   25.8009395599999998
   Ge   Sn
    96    72
Direct
  0.9853314160000011  0.4559941589999994  0.0000000180000015
  0.8603314160000011  0.0809941369999976  0.0775295349999965
  0.7353314160000011  0.7059941289999969  0.1550590690000035
  0.6103314160000011  0.3309942480000032  0.2325885300000010
  0.4853313569999997  0.9559941289999969  0.3101180789999987
  0.3603313569999997  0.5809941289999969  0.3876476289999999
  0.4853313859999986  0.4559941589999994  0.0000000180000015
  0.3603314160000011  0.0809941369999976  0.0775295349999965
  0.2353313569999997  0.7059941289999969  0.1550590690000035
  0.1103313790000016  0.3309942480000032  0.2325885300000010
  0.9853314759999989  0.9559941289999969  0.3101180789999987
  0.8603314160000011  0.5809941289999969  0.3876476289999999
  0.9853313569999997  0.9559941289999969  0.0000000160000013
  0.8603314160000011  0.5809941289999969  0.0775295420000006
  0.7353314160000011  0.2059941289999969  0.1550590539999988
  0.6103314160000011  0.8309943679999989  0.2325885300000010
  0.4853314160000011  0.4559941289999969  0.3101181090000011
  0.3603313569999997  0.0809941289999969  0.3876475989999975
  0.4853313859999986  0.9559941289999969  0.0000000160000013
  0.3603313569999997  0.5809941289999969  0.0775295420000006
  0.2353314460000036  0.2059941289999969  0.1550590539999988
  0.1103314909999966  0.8309943679999989  0.2325885300000010
  0.9853312970000019  0.4559941289999969  0.3101181090000011
  0.8603313569999997  0.0809941289999969  0.3876475989999975
  0.2353313710000009  0.7059941289999969  0.0000000209999982
  0.1103313710000009  0.3309941289999969  0.0775295349999965
  0.9853313569999997  0.9559941289999969  0.1550590539999988
  0.8603313569999997  0.5809942480000032  0.2325885589999999
  0.7353313569999997  0.2059941890000019  0.3101181090000011
  0.6103312970000019  0.8309941289999969  0.3876476289999999
  0.7353313569999997  0.7059941289999969  0.0000000209999982
  0.6103313569999997  0.3309941289999969  0.0775295349999965
  0.4853313269999973  0.9559941289999969  0.1550590539999988
  0.3603313569999997  0.5809942480000032  0.2325885589999999
  0.2353313710000009  0.2059941890000019  0.3101181090000011
  0.1103313639999968  0.8309941289999969  0.3876476289999999
  0.2353313859999986  0.2059941440000017  0.0000000169999979
  0.1103313939999992  0.8309941289999969  0.0775295349999965
  0.9853313569999997  0.4559941289999969  0.1550590539999988
  0.8603313569999997  0.0809942480000032  0.2325885589999999
  0.7353314759999989  0.7059942480000032  0.3101180789999987
  0.6103313569999997  0.3309941289999969  0.3876475989999975
  0.7353312970000019  0.2059941440000017  0.0000000169999979
  0.6103313569999997  0.8309941289999969  0.0775295349999965
  0.4853313859999986  0.4559941289999969  0.1550590539999988
  0.3603312970000019  0.0809942480000032  0.2325885589999999
  0.2353313859999986  0.7059942480000032  0.3101180789999987
  0.1103312600000024  0.3309941289999969  0.3876475989999975
  0.9853314160000011  0.5809941890000019  0.0000000260000022
  0.8603314160000011  0.2059941589999994  0.0775295349999965
  0.7353313569999997  0.8309941289999969  0.1550590539999988
  0.6103314160000011  0.4559942480000032  0.2325885300000010
  0.4853313569999997  0.0809941890000019  0.3101181090000011
  0.3603313569999997  0.7059941289999969  0.3876476289999999
  0.4853314160000011  0.5809941890000019  0.0000000260000022
  0.3603314160000011  0.2059941589999994  0.0775295349999965
  0.2353314010000034  0.8309941289999969  0.1550590539999988
  0.1103314309999988  0.4559942480000032  0.2325885300000010
  0.9853313569999997  0.0809941890000019  0.3101181090000011
  0.8603314160000011  0.7059941289999969  0.3876476289999999
  0.9853313569999997  0.0809941369999976  0.0000000129999975
  0.8603314160000011  0.7059941289999969  0.0775295349999965
  0.7353314160000011  0.3309941289999969  0.1550590539999988
  0.6103314160000011  0.9559942480000032  0.2325885589999999
  0.4853314160000011  0.5809942480000032  0.3101180789999987
  0.3603313569999997  0.2059940099999977  0.3876475989999975
  0.4853313859999986  0.0809941369999976  0.0000000129999975
  0.3603313569999997  0.7059941289999969  0.0775295349999965
  0.2353314010000034  0.3309941289999969  0.1550590539999988
  0.1103314460000036  0.9559942480000032  0.2325885589999999
  0.9853315350000003  0.5809942480000032  0.3101180789999987
  0.8603312369999969  0.2059940099999977  0.3876475989999975
  0.2353314460000036  0.8309941890000019  0.0000000000000000
  0.1103314160000011  0.4559941890000019  0.0775295349999965
  0.9853314160000011  0.0809941739999971  0.1550590539999988
  0.8603314160000011  0.7059943080000011  0.2325885300000010
  0.7353314160000011  0.3309942480000032  0.3101180789999987
  0.6103314160000011  0.9559941289999969  0.3876475690000021
  0.7353314160000011  0.8309941890000019  0.0000000000000000
  0.6103314160000011  0.4559941890000019  0.0775295349999965
  0.4853313859999986  0.0809941739999971  0.1550590539999988
  0.3603314160000011  0.7059943080000011  0.2325885300000010
  0.2353314160000011  0.3309942480000032  0.3101180789999987
  0.1103313569999997  0.9559941289999969  0.3876475690000021
  0.2353313710000009  0.3309941289999969  0.0000000180000015
  0.1103313790000016  0.9559941289999969  0.0775295420000006
  0.9853313569999997  0.5809941289999969  0.1550590539999988
  0.8603314160000011  0.2059942480000032  0.2325885589999999
  0.7353313569999997  0.8309941289999969  0.3101180789999987
  0.6103314160000011  0.4559941289999969  0.3876475989999975
  0.7353313569999997  0.3309941289999969  0.0000000180000015
  0.6103313569999997  0.9559941289999969  0.0775295420000006
  0.4853313859999986  0.5809941289999969  0.1550590539999988
  0.3603314160000011  0.2059942480000032  0.2325885589999999
  0.2353314610000012  0.8309941289999969  0.3101180789999987
  0.1103313039999989  0.4559941289999969  0.3876475989999975
  0.2409490349999999  0.7409948709999981  0.4715180099999969
  0.9909490349999999  0.4909948110000002  0.5604403609999977
  0.7409489149999970  0.2409946920000010  0.6493626829999997
  0.4909488859999982  0.9909945730000018  0.7382849449999966
  0.2409487959999979  0.7409945730000018  0.8272072079999973
  0.9909487959999979  0.4909944529999990  0.9161295890000005
  0.2409490349999999  0.4076615270000019  0.4715180099999969
  0.9909490349999999  0.1576614829999983  0.5604403609999977
  0.7409489149999970  0.9076613189999989  0.6493626829999997
  0.4909488859999982  0.6576611999999997  0.7382849449999966
  0.2409487959999979  0.4076611999999997  0.8272072079999973
  0.9909487959999979  0.1576610799999969  0.9161295890000005
  0.2409490349999999  0.0743281840000023  0.4715180099999969
  0.9909490349999999  0.8243281250000010  0.5604403609999977
  0.7409489149999970  0.5743279459999968  0.6493626829999997
  0.4909488859999982  0.3243278260000011  0.7382849449999966
  0.2409487959999979  0.0743278260000011  0.8272072079999973
  0.9909487959999979  0.8243277070000019  0.9161295890000005
  0.7409490349999999  0.9076615569999973  0.4715180099999969
  0.4909490349999999  0.6576614379999981  0.5604403609999977
  0.2409489149999970  0.4076613780000002  0.6493626239999983
  0.9909489149999970  0.1576612890000035  0.7382849449999966
  0.7409489149999970  0.9076611999999997  0.8272072079999973
  0.4909488260000003  0.6576610799999969  0.9161295890000005
  0.7409490349999999  0.5743281840000023  0.4715180099999969
  0.4909490349999999  0.3243281250000010  0.5604403609999977
  0.2409489149999970  0.0743280650000031  0.6493626239999983
  0.9909489149999970  0.8243278859999990  0.7382849449999966
  0.7409489149999970  0.5743278260000011  0.8272072079999973
  0.4909488260000003  0.3243277669999998  0.9161295890000005
  0.7409490349999999  0.2409948709999981  0.4715180099999969
  0.4909490349999999  0.9909948110000002  0.5604403609999977
  0.2409489149999970  0.7409946920000010  0.6493626239999983
  0.9909489149999970  0.4909945129999969  0.7382849449999966
  0.7409489149999970  0.2409944529999990  0.8272072079999973
  0.4909488260000003  0.9909943339999998  0.9161295890000005
  0.9909490349999999  0.7409949299999994  0.4715180099999969
  0.7409490349999999  0.4909948999999969  0.5604404210000027
  0.4909489750000020  0.2409947809999977  0.6493626829999997
  0.2409489149999970  0.9909946320000032  0.7382849449999966
  0.9909487959999979  0.7409946320000032  0.8272072669999986
  0.7409487959999979  0.4909945129999969  0.9161295890000005
  0.9909490349999999  0.4076615270000019  0.4715180099999969
  0.7409490349999999  0.1576614680000006  0.5604404210000027
  0.4909489750000020  0.9076613189999989  0.6493626829999997
  0.2409489149999970  0.6576611999999997  0.7382849449999966
  0.9909487959999979  0.4076611999999997  0.8272072669999986
  0.7409487959999979  0.1576610799999969  0.9161295890000005
  0.9909490349999999  0.0743281840000023  0.4715180099999969
  0.7409490349999999  0.8243281250000010  0.5604404210000027
  0.4909489750000020  0.5743280049999981  0.6493626829999997
  0.2409489149999970  0.3243278859999990  0.7382849449999966
  0.9909487959999979  0.0743278260000011  0.8272072669999986
  0.7409487959999979  0.8243278260000011  0.9161295890000005
  0.4909490639999987  0.9076614980000031  0.4715180099999969
  0.2409490349999999  0.6576614379999981  0.5604404210000027
  0.9909489149999970  0.4076612590000011  0.6493626829999997
  0.7409487959999979  0.1576611699999972  0.7382849449999966
  0.4909488859999982  0.9076611400000019  0.8272072079999973
  0.2409487959999979  0.6576610210000027  0.9161295890000005
  0.4909490639999987  0.5743281840000023  0.4715180099999969
  0.2409490349999999  0.3243281250000010  0.5604404210000027
  0.9909489149999970  0.0743280650000031  0.6493626829999997
  0.7409487959999979  0.8243278859999990  0.7382849449999966
  0.4909488859999982  0.5743278260000011  0.8272072079999973
  0.2409487959999979  0.3243277669999998  0.9161295890000005
  0.4909490639999987  0.2409948410000027  0.4715180099999969
  0.2409490349999999  0.9909948110000002  0.5604404210000027
  0.9909489149999970  0.7409946920000010  0.6493626829999997
  0.7409487959999979  0.4909945129999969  0.7382849449999966
  0.4909488859999982  0.2409945730000018  0.8272072079999973
  0.2409487959999979  0.9909943339999998  0.9161295890000005
 
  0.00000000E+00  0.00000000E+00  0.00000000E+00
  0.00000000E+00  0.00000000E+00  0.00000000E+00
  0.00000000E+00  0.00000000E+00  0.00000000E+00
  0.00000000E+00  0.00000000E+00  0.00000000E+00
  0.00000000E+00  0.00000000E+00  0.00000000E+00
  0.00000000E+00  0.00000000E+00  0.00000000E+00
  0.00000000E+00  0.00000000E+00  0.00000000E+00
  0.00000000E+00  0.00000000E+00  0.00000000E+00
  0.00000000E+00  0.00000000E+00  0.00000000E+00
  0.00000000E+00  0.00000000E+00  0.00000000E+00
  0.00000000E+00  0.00000000E+00  0.00000000E+00
  0.00000000E+00  0.00000000E+00  0.00000000E+00
  0.00000000E+00  0.00000000E+00  0.00000000E+00
  0.00000000E+00  0.00000000E+00  0.00000000E+00
  0.00000000E+00  0.00000000E+00  0.00000000E+00
  0.00000000E+00  0.00000000E+00  0.00000000E+00
  0.00000000E+00  0.00000000E+00  0.00000000E+00
  0.00000000E+00  0.00000000E+00  0.00000000E+00
  0.00000000E+00  0.00000000E+00  0.00000000E+00
  0.00000000E+00  0.00000000E+00  0.00000000E+00
  0.00000000E+00  0.00000000E+00  0.00000000E+00
  0.00000000E+00  0.00000000E+00  0.00000000E+00
  0.00000000E+00  0.00000000E+00  0.00000000E+00
  0.00000000E+00  0.00000000E+00  0.00000000E+00
  0.00000000E+00  0.00000000E+00  0.00000000E+00
  0.00000000E+00  0.00000000E+00  0.00000000E+00
  0.00000000E+00  0.00000000E+00  0.00000000E+00
  0.00000000E+00  0.00000000E+00  0.00000000E+00
  0.00000000E+00  0.00000000E+00  0.00000000E+00
  0.00000000E+00  0.00000000E+00  0.00000000E+00
  0.00000000E+00  0.00000000E+00  0.00000000E+00
  0.00000000E+00  0.00000000E+00  0.00000000E+00
  0.00000000E+00  0.00000000E+00  0.00000000E+00
  0.00000000E+00  0.00000000E+00  0.00000000E+00
  0.00000000E+00  0.00000000E+00  0.00000000E+00
  0.00000000E+00  0.00000000E+00  0.00000000E+00
  0.00000000E+00  0.00000000E+00  0.00000000E+00
  0.00000000E+00  0.00000000E+00  0.00000000E+00
  0.00000000E+00  0.00000000E+00  0.00000000E+00
  0.00000000E+00  0.00000000E+00  0.00000000E+00
  0.00000000E+00  0.00000000E+00  0.00000000E+00
  0.00000000E+00  0.00000000E+00  0.00000000E+00
  0.00000000E+00  0.00000000E+00  0.00000000E+00
  0.00000000E+00  0.00000000E+00  0.00000000E+00
  0.00000000E+00  0.00000000E+00  0.00000000E+00
  0.00000000E+00  0.00000000E+00  0.00000000E+00
  0.00000000E+00  0.00000000E+00  0.00000000E+00
  0.00000000E+00  0.00000000E+00  0.00000000E+00
  0.00000000E+00  0.00000000E+00  0.00000000E+00
  0.00000000E+00  0.00000000E+00  0.00000000E+00
  0.00000000E+00  0.00000000E+00  0.00000000E+00
  0.00000000E+00  0.00000000E+00  0.00000000E+00
  0.00000000E+00  0.00000000E+00  0.00000000E+00
  0.00000000E+00  0.00000000E+00  0.00000000E+00
  0.00000000E+00  0.00000000E+00  0.00000000E+00
  0.00000000E+00  0.00000000E+00  0.00000000E+00
  0.00000000E+00  0.00000000E+00  0.00000000E+00
  0.00000000E+00  0.00000000E+00  0.00000000E+00
  0.00000000E+00  0.00000000E+00  0.00000000E+00
  0.00000000E+00  0.00000000E+00  0.00000000E+00
  0.00000000E+00  0.00000000E+00  0.00000000E+00
  0.00000000E+00  0.00000000E+00  0.00000000E+00
  0.00000000E+00  0.00000000E+00  0.00000000E+00
  0.00000000E+00  0.00000000E+00  0.00000000E+00
  0.00000000E+00  0.00000000E+00  0.00000000E+00
  0.00000000E+00  0.00000000E+00  0.00000000E+00
  0.00000000E+00  0.00000000E+00  0.00000000E+00
  0.00000000E+00  0.00000000E+00  0.00000000E+00
  0.00000000E+00  0.00000000E+00  0.00000000E+00
  0.00000000E+00  0.00000000E+00  0.00000000E+00
  0.00000000E+00  0.00000000E+00  0.00000000E+00
  0.00000000E+00  0.00000000E+00  0.00000000E+00
  0.00000000E+00  0.00000000E+00  0.00000000E+00
  0.00000000E+00  0.00000000E+00  0.00000000E+00
  0.00000000E+00  0.00000000E+00  0.00000000E+00
  0.00000000E+00  0.00000000E+00  0.00000000E+00
  0.00000000E+00  0.00000000E+00  0.00000000E+00
  0.00000000E+00  0.00000000E+00  0.00000000E+00
  0.00000000E+00  0.00000000E+00  0.00000000E+00
  0.00000000E+00  0.00000000E+00  0.00000000E+00
  0.00000000E+00  0.00000000E+00  0.00000000E+00
  0.00000000E+00  0.00000000E+00  0.00000000E+00
  0.00000000E+00  0.00000000E+00  0.00000000E+00
  0.00000000E+00  0.00000000E+00  0.00000000E+00
  0.00000000E+00  0.00000000E+00  0.00000000E+00
  0.00000000E+00  0.00000000E+00  0.00000000E+00
  0.00000000E+00  0.00000000E+00  0.00000000E+00
  0.00000000E+00  0.00000000E+00  0.00000000E+00
  0.00000000E+00  0.00000000E+00  0.00000000E+00
  0.00000000E+00  0.00000000E+00  0.00000000E+00
  0.00000000E+00  0.00000000E+00  0.00000000E+00
  0.00000000E+00  0.00000000E+00  0.00000000E+00
  0.00000000E+00  0.00000000E+00  0.00000000E+00
  0.00000000E+00  0.00000000E+00  0.00000000E+00
  0.00000000E+00  0.00000000E+00  0.00000000E+00
  0.00000000E+00  0.00000000E+00  0.00000000E+00
  0.00000000E+00  0.00000000E+00  0.00000000E+00
  0.00000000E+00  0.00000000E+00  0.00000000E+00
  0.00000000E+00  0.00000000E+00  0.00000000E+00
  0.00000000E+00  0.00000000E+00  0.00000000E+00
  0.00000000E+00  0.00000000E+00  0.00000000E+00
  0.00000000E+00  0.00000000E+00  0.00000000E+00
  0.00000000E+00  0.00000000E+00  0.00000000E+00
  0.00000000E+00  0.00000000E+00  0.00000000E+00
  0.00000000E+00  0.00000000E+00  0.00000000E+00
  0.00000000E+00  0.00000000E+00  0.00000000E+00
  0.00000000E+00  0.00000000E+00  0.00000000E+00
  0.00000000E+00  0.00000000E+00  0.00000000E+00
  0.00000000E+00  0.00000000E+00  0.00000000E+00
  0.00000000E+00  0.00000000E+00  0.00000000E+00
  0.00000000E+00  0.00000000E+00  0.00000000E+00
  0.00000000E+00  0.00000000E+00  0.00000000E+00
  0.00000000E+00  0.00000000E+00  0.00000000E+00
  0.00000000E+00  0.00000000E+00  0.00000000E+00
  0.00000000E+00  0.00000000E+00  0.00000000E+00
  0.00000000E+00  0.00000000E+00  0.00000000E+00
  0.00000000E+00  0.00000000E+00  0.00000000E+00
  0.00000000E+00  0.00000000E+00  0.00000000E+00
  0.00000000E+00  0.00000000E+00  0.00000000E+00
  0.00000000E+00  0.00000000E+00  0.00000000E+00
  0.00000000E+00  0.00000000E+00  0.00000000E+00
  0.00000000E+00  0.00000000E+00  0.00000000E+00
  0.00000000E+00  0.00000000E+00  0.00000000E+00
  0.00000000E+00  0.00000000E+00  0.00000000E+00
  0.00000000E+00  0.00000000E+00  0.00000000E+00
  0.00000000E+00  0.00000000E+00  0.00000000E+00
  0.00000000E+00  0.00000000E+00  0.00000000E+00
  0.00000000E+00  0.00000000E+00  0.00000000E+00
  0.00000000E+00  0.00000000E+00  0.00000000E+00
  0.00000000E+00  0.00000000E+00  0.00000000E+00
  0.00000000E+00  0.00000000E+00  0.00000000E+00
  0.00000000E+00  0.00000000E+00  0.00000000E+00
  0.00000000E+00  0.00000000E+00  0.00000000E+00
  0.00000000E+00  0.00000000E+00  0.00000000E+00
  0.00000000E+00  0.00000000E+00  0.00000000E+00
  0.00000000E+00  0.00000000E+00  0.00000000E+00
  0.00000000E+00  0.00000000E+00  0.00000000E+00
  0.00000000E+00  0.00000000E+00  0.00000000E+00
  0.00000000E+00  0.00000000E+00  0.00000000E+00
  0.00000000E+00  0.00000000E+00  0.00000000E+00
  0.00000000E+00  0.00000000E+00  0.00000000E+00
  0.00000000E+00  0.00000000E+00  0.00000000E+00
  0.00000000E+00  0.00000000E+00  0.00000000E+00
  0.00000000E+00  0.00000000E+00  0.00000000E+00
  0.00000000E+00  0.00000000E+00  0.00000000E+00
  0.00000000E+00  0.00000000E+00  0.00000000E+00
  0.00000000E+00  0.00000000E+00  0.00000000E+00
  0.00000000E+00  0.00000000E+00  0.00000000E+00
  0.00000000E+00  0.00000000E+00  0.00000000E+00
  0.00000000E+00  0.00000000E+00  0.00000000E+00
  0.00000000E+00  0.00000000E+00  0.00000000E+00
  0.00000000E+00  0.00000000E+00  0.00000000E+00
  0.00000000E+00  0.00000000E+00  0.00000000E+00
  0.00000000E+00  0.00000000E+00  0.00000000E+00
  0.00000000E+00  0.00000000E+00  0.00000000E+00
  0.00000000E+00  0.00000000E+00  0.00000000E+00
  0.00000000E+00  0.00000000E+00  0.00000000E+00
  0.00000000E+00  0.00000000E+00  0.00000000E+00
  0.00000000E+00  0.00000000E+00  0.00000000E+00
  0.00000000E+00  0.00000000E+00  0.00000000E+00
  0.00000000E+00  0.00000000E+00  0.00000000E+00
  0.00000000E+00  0.00000000E+00  0.00000000E+00
  0.00000000E+00  0.00000000E+00  0.00000000E+00
  0.00000000E+00  0.00000000E+00  0.00000000E+00
  0.00000000E+00  0.00000000E+00  0.00000000E+00
  0.00000000E+00  0.00000000E+00  0.00000000E+00
  0.00000000E+00  0.00000000E+00  0.00000000E+00
  0.00000000E+00  0.00000000E+00  0.00000000E+00
