Ge+Si
    1.000000000
    8.001338005    0.000000000    0.000000000
    0.000000000   16.002676010    0.000000000
    0.000000000    0.000000000   13.264324188
Ge  Si 
48     24
Direct
    0.991458297    0.995729148    0.000000000
    0.741458297    0.870729148    0.213271320
    0.491458297    0.745729148    0.426542670
    0.991458237    0.495729089    0.000000000
    0.741458297    0.370729119    0.213271320
    0.491458297    0.245729119    0.426542670
    0.491458237    0.245729119    0.000000000
    0.241458267    0.120729133    0.213271320
    0.991458297    0.995729148    0.426542670
    0.491458237    0.745729089    0.000000000
    0.241458282    0.620729089    0.213271320
    0.991458237    0.495729089    0.426542670
    0.241458282    0.995729148    0.106635660
    0.991458297    0.870729148    0.319907010
    0.741458297    0.745729148    0.533178329
    0.241458237    0.495729089    0.106635660
    0.991458237    0.370729089    0.319907010
    0.741458237    0.245729089    0.533178329
    0.741458297    0.245729148    0.106635660
    0.491458297    0.120729148    0.319907010
    0.241458282    0.995729148    0.533178329
    0.741458297    0.745729089    0.106635660
    0.491458267    0.620729089    0.319907010
    0.241458267    0.495729119    0.533178329
    0.991458297    0.245729133    0.000000000
    0.741458297    0.120729133    0.213271320
    0.491458297    0.995729148    0.426542670
    0.491458267    0.995729148    0.000000000
    0.241458267    0.870729148    0.213271320
    0.991458297    0.745729148    0.426542670
    0.991458237    0.745729148    0.000000000
    0.741458297    0.620729148    0.213271320
    0.491458297    0.495729148    0.426542670
    0.491458267    0.495729119    0.000000000
    0.241458312    0.370729148    0.213271320
    0.991458297    0.245729148    0.426542670
    0.241458282    0.245729119    0.106635660
    0.991458297    0.120729133    0.319907010
    0.741458297    0.995729148    0.533178329
    0.741458237    0.995729148    0.106635660
    0.491458267    0.870729148    0.319907010
    0.241458252    0.745729089    0.533178329
    0.241458282    0.745729089    0.106635660
    0.991458297    0.620729089    0.319907010
    0.741458297    0.495729089    0.533178329
    0.741458237    0.495729089    0.106635660
    0.491458267    0.370729119    0.319907010
    0.241458252    0.245729089    0.533178329
    0.880222917    0.352384567    0.645955384
    0.630222797    0.963495612    0.694208860
    0.380222797    0.574606657    0.742462397
    0.130222797    0.185717702    0.790715814
    0.880222797    0.796828747    0.838969350
    0.630222559    0.407939434    0.887222767
    0.130222917    0.102384567    0.645955384
    0.880222917    0.713495612    0.694208860
    0.630222917    0.324606657    0.742462397
    0.380222797    0.935717583    0.790715873
    0.130222678    0.546828628    0.838969290
    0.880222559    0.157939553    0.887222886
    0.630223036    0.102384567    0.645955384
    0.380222917    0.713495553    0.694208860
    0.130222917    0.324606657    0.742462397
    0.880222797    0.935717583    0.790715873
    0.630222797    0.546828628    0.838969290
    0.380222678    0.157939553    0.887222826
    0.380222917    0.352384567    0.645955384
    0.130222797    0.963495612    0.694208860
    0.880222797    0.574606657    0.742462397
    0.630222797    0.185717702    0.790715814
    0.380222797    0.796828628    0.838969350
    0.130222559    0.407939672    0.887222886
