Si+C
    1.000000000
   13.303179741    0.000000000    0.000000000
   -6.651589394   14.873406410    0.000000000
    0.000000000    0.000000000    7.204130173
Si  C  
36     84
Direct
    0.997150958    0.980056584    0.000000000
    0.963817537    0.746723175    0.168571264
    0.930484116    0.513389826    0.337142527
    0.330484211    0.313389868    0.000000000
    0.297150791    0.080056474    0.168571264
    0.263817370    0.846723080    0.337142527
    0.663817465    0.646723151    0.000000000
    0.630484045    0.413389713    0.168571264
    0.597150624    0.180056334    0.337142527
    0.313817531    0.946723342    0.084285460
    0.280484110    0.713389993    0.252856731
    0.247150689    0.480056584    0.421427876
    0.647150815    0.280056566    0.084285460
    0.613817394    0.046723194    0.252856672
    0.580483973    0.813389778    0.421427935
    0.980484426    0.613389850    0.084285483
    0.947151005    0.380056471    0.252856672
    0.913817585    0.146723092    0.421427876
    0.163817570    0.646723092    0.000000002
    0.130484164    0.413389713    0.168571264
    0.097150750    0.180056319    0.337142527
    0.497150898    0.980056643    0.000000006
    0.463817418    0.746723175    0.168571189
    0.430484056    0.513389826    0.337142438
    0.830484152    0.313389868    0.000000006
    0.797150731    0.080056526    0.168571189
    0.763817310    0.846723080    0.337142438
    0.147150904    0.280056566    0.084285468
    0.113817483    0.046723165    0.252856731
    0.080484070    0.813389778    0.421427935
    0.480484217    0.613389909    0.084285468
    0.447150826    0.380056530    0.252856672
    0.413817406    0.146723166    0.421427935
    0.813817501    0.946723282    0.084285460
    0.780484140    0.713389874    0.252856672
    0.747150719    0.480056465    0.421427935
    0.932329834    0.950568378    0.793745518
    0.303758264    0.979139924    0.572327852
    0.618044078    0.964854240    0.683036745
    0.075186968    0.807711184    0.793745637
    0.446615368    0.836282790    0.572327852
    0.760901153    0.821996987    0.683036745
    0.218044043    0.664854109    0.793745518
    0.589472532    0.693425655    0.572327852
    0.903758347    0.679139912    0.683036745
    0.360901237    0.521996975    0.793745518
    0.732329726    0.550568521    0.572327852
    0.046615601    0.536282718    0.683036745
    0.503758311    0.379139841    0.793745518
    0.875186861    0.407711387    0.572327852
    0.189472675    0.393425643    0.683036745
    0.646615505    0.236282676    0.793745518
    0.018043995    0.264854252    0.572327852
    0.332329750    0.250568479    0.683036745
    0.789472699    0.093425512    0.793745577
    0.160901129    0.121997118    0.572327852
    0.475186914    0.107711315    0.683036745
    0.482329726    0.050568461    0.849099815
    0.853758097    0.079139948    0.627682149
    0.168043971    0.064854264    0.738391042
    0.625186801    0.907711208    0.849099815
    0.996615171    0.936282754    0.627682149
    0.310900927    0.921996951    0.738391042
    0.768044114    0.764854133    0.849099815
    0.139472485    0.793425620    0.627682149
    0.453758359    0.779139936    0.738391042
    0.910901189    0.621997058    0.849099815
    0.282329559    0.650568545    0.627682149
    0.596615434    0.636282802    0.738391042
    0.053758144    0.479139864    0.849099874
    0.425186664    0.507711411    0.627682209
    0.739472449    0.493425667    0.738391042
    0.196615458    0.336282670    0.849099874
    0.568043947    0.364854276    0.627682149
    0.882329702    0.350568473    0.738391042
    0.339472651    0.193425596    0.849099874
    0.710901022    0.221997127    0.627682149
    0.025186777    0.207711369    0.738391042
    0.432329893    0.950568378    0.793745637
    0.803758323    0.979140043    0.572327852
    0.118044138    0.964854181    0.683036745
    0.575187087    0.807711184    0.793745637
    0.946615577    0.836282849    0.572327852
    0.260901213    0.821996987    0.683036745
    0.718044281    0.664854050    0.793745637
    0.089472651    0.693425715    0.572327852
    0.403758407    0.679139912    0.683036745
    0.860901296    0.521997035    0.793745637
    0.232329726    0.550568581    0.572327852
    0.546615541    0.536282778    0.683036745
    0.003758430    0.379139781    0.793745518
    0.375186861    0.407711387    0.572327852
    0.689472675    0.393425584    0.683036745
    0.146615505    0.236282676    0.793745518
    0.518043995    0.264854252    0.572327852
    0.832329810    0.250568449    0.683036745
    0.289472699    0.093425512    0.793745518
    0.660901129    0.121997118    0.572327852
    0.975186944    0.107711315    0.683036745
    0.982329667    0.050568461    0.849099815
    0.353758156    0.079139948    0.627682209
    0.668043911    0.064854145    0.738391042
    0.125186682    0.907711327    0.849099815
    0.496615261    0.936282873    0.627682209
    0.810900986    0.921997070    0.738391042
    0.268043995    0.764854133    0.849099815
    0.639472485    0.793425620    0.627682209
    0.953758299    0.779139876    0.738391042
    0.410901189    0.621996939    0.849099815
    0.782329619    0.650568485    0.627682209
    0.096615314    0.636282682    0.738391042
    0.553758264    0.479139864    0.849099815
    0.925186634    0.507711351    0.627682209
    0.239472508    0.493425608    0.738391042
    0.696615577    0.336282700    0.849100053
    0.068043947    0.364854276    0.627682149
    0.382329702    0.350568503    0.738391042
    0.839472651    0.193425611    0.849099815
    0.210901022    0.221997112    0.627682209
    0.525186896    0.207711399    0.738391042
