Sn+Ge                                   
   1.00000000000000     
    12.9784002300000001    0.0000000000000000    0.0000000000000000
   -12.9784002300000001   14.5102930069999996    0.0000000000000000
     0.0000000000000000    0.0000000000000000    6.2100000380000004
   Sn   Ge
    24    24
Direct
  0.9795643089999970  0.0306535329999988  0.0000000129999975
  0.7795642609999973  0.3306535780000033  0.2336601610000031
  0.5795641540000034  0.6306536199999968  0.4673203230000027
  0.4795642500000028  0.0306535329999988  0.0000000129999975
  0.2795642020000031  0.3306535780000033  0.2336601610000031
  0.0795641320000016  0.6306536199999968  0.4673203230000027
  0.2545643150000032  0.6806535119999992  0.1168298420000013
  0.0545641590000017  0.9806534650000032  0.3504900040000010
  0.8545641300000000  0.2806535960000005  0.5841500760000002
  0.7545644039999999  0.6806535119999992  0.1168298420000013
  0.5545642379999975  0.9806534650000032  0.3504900040000010
  0.3545641600000025  0.2806535960000005  0.5841500760000002
  0.2295642790000016  0.5306534770000013  0.0000000000000000
  0.0295641909999986  0.8306534889999995  0.2336601610000031
  0.8295640349999971  0.1306536199999968  0.4673203230000027
  0.7295641899999978  0.5306534770000013  0.0000000000000000
  0.5295641419999981  0.8306534889999995  0.2336601610000031
  0.3295640349999971  0.1306536199999968  0.4673203230000027
  0.0045643300000009  0.1806535119999992  0.1168298569999990
  0.8045641779999997  0.4806535840000024  0.3504900040000010
  0.6045642500000028  0.7806536559999984  0.5841500760000002
  0.5045642850000007  0.1806535119999992  0.1168298569999990
  0.3045641779999997  0.4806535840000024  0.3504900040000010
  0.1045641680000031  0.7806536559999984  0.5841500760000002
  0.9730072620000030  0.9035974740000015  0.5841501359999981
  0.8563405279999969  0.4869307279999973  0.6673200729999991
  0.7396737930000015  0.0702639820000002  0.7504900690000014
  0.6230069400000033  0.6535972360000031  0.8336601259999981
  0.5063402649999986  0.2369306089999981  0.9168300629999990
  0.3896734120000005  0.8202636239999990  0.0000000000000000
  0.4730072620000030  0.1535974439999990  0.5841501359999981
  0.3563404980000016  0.7369306679999994  0.6673200729999991
  0.2396737489999978  0.3202639820000002  0.7504900690000014
  0.1230069470000004  0.9035972360000031  0.8336600069999989
  0.0063401920000032  0.4869304899999989  0.9168299439999998
  0.8896735309999997  0.0702636239999990  0.0000000000000000
  0.4730072620000030  0.4035974439999990  0.5841501949999994
  0.3563404679999991  0.9869307279999973  0.6673201320000004
  0.2396737039999977  0.5702639820000002  0.7504900690000014
  0.1230069770000028  0.1535971759999981  0.8336600069999989
  0.0063402500000009  0.7369304899999989  0.9168300629999990
  0.8896734120000005  0.3202635049999998  0.0000000000000000
  0.9730072019999980  0.6535974740000015  0.5841501949999994
  0.8563404679999991  0.2369306829999971  0.6673201320000004
  0.7396737340000001  0.8202639220000023  0.7504900690000014
  0.6230069400000033  0.4035971759999981  0.8336600069999989
  0.5063402059999973  0.9869304899999989  0.9168300629999990
  0.3896734120000005  0.5702635049999998  0.0000000000000000
 
  0.00000000E+00  0.00000000E+00  0.00000000E+00
  0.00000000E+00  0.00000000E+00  0.00000000E+00
  0.00000000E+00  0.00000000E+00  0.00000000E+00
  0.00000000E+00  0.00000000E+00  0.00000000E+00
  0.00000000E+00  0.00000000E+00  0.00000000E+00
  0.00000000E+00  0.00000000E+00  0.00000000E+00
  0.00000000E+00  0.00000000E+00  0.00000000E+00
  0.00000000E+00  0.00000000E+00  0.00000000E+00
  0.00000000E+00  0.00000000E+00  0.00000000E+00
  0.00000000E+00  0.00000000E+00  0.00000000E+00
  0.00000000E+00  0.00000000E+00  0.00000000E+00
  0.00000000E+00  0.00000000E+00  0.00000000E+00
  0.00000000E+00  0.00000000E+00  0.00000000E+00
  0.00000000E+00  0.00000000E+00  0.00000000E+00
  0.00000000E+00  0.00000000E+00  0.00000000E+00
  0.00000000E+00  0.00000000E+00  0.00000000E+00
  0.00000000E+00  0.00000000E+00  0.00000000E+00
  0.00000000E+00  0.00000000E+00  0.00000000E+00
  0.00000000E+00  0.00000000E+00  0.00000000E+00
  0.00000000E+00  0.00000000E+00  0.00000000E+00
  0.00000000E+00  0.00000000E+00  0.00000000E+00
  0.00000000E+00  0.00000000E+00  0.00000000E+00
  0.00000000E+00  0.00000000E+00  0.00000000E+00
  0.00000000E+00  0.00000000E+00  0.00000000E+00
  0.00000000E+00  0.00000000E+00  0.00000000E+00
  0.00000000E+00  0.00000000E+00  0.00000000E+00
  0.00000000E+00  0.00000000E+00  0.00000000E+00
  0.00000000E+00  0.00000000E+00  0.00000000E+00
  0.00000000E+00  0.00000000E+00  0.00000000E+00
  0.00000000E+00  0.00000000E+00  0.00000000E+00
  0.00000000E+00  0.00000000E+00  0.00000000E+00
  0.00000000E+00  0.00000000E+00  0.00000000E+00
  0.00000000E+00  0.00000000E+00  0.00000000E+00
  0.00000000E+00  0.00000000E+00  0.00000000E+00
  0.00000000E+00  0.00000000E+00  0.00000000E+00
  0.00000000E+00  0.00000000E+00  0.00000000E+00
  0.00000000E+00  0.00000000E+00  0.00000000E+00
  0.00000000E+00  0.00000000E+00  0.00000000E+00
  0.00000000E+00  0.00000000E+00  0.00000000E+00
  0.00000000E+00  0.00000000E+00  0.00000000E+00
  0.00000000E+00  0.00000000E+00  0.00000000E+00
  0.00000000E+00  0.00000000E+00  0.00000000E+00
  0.00000000E+00  0.00000000E+00  0.00000000E+00
  0.00000000E+00  0.00000000E+00  0.00000000E+00
  0.00000000E+00  0.00000000E+00  0.00000000E+00
  0.00000000E+00  0.00000000E+00  0.00000000E+00
  0.00000000E+00  0.00000000E+00  0.00000000E+00
  0.00000000E+00  0.00000000E+00  0.00000000E+00
