Ge+Ge
    1.000000000
    5.657800198    0.000000000    0.000000000
    0.000000000    5.657800198    0.000000000
    0.000000000    0.000000000   14.144500732
Ge 
24
Direct
    0.017083453    0.000000000    0.000000000
    0.517083406    0.000000000    0.199999973
    0.017083406    0.000000000    0.400000006
    0.267083436    0.750000000    0.099999987
    0.767083406    0.750000000    0.299999982
    0.267083406    0.750000000    0.500000060
    0.517083406    0.499999970    0.000000000
    0.017083287    0.499999970    0.199999973
    0.517083287    0.499999970    0.400000006
    0.767083406    0.249999985    0.099999987
    0.267083406    0.249999985    0.299999982
    0.767083406    0.249999985    0.500000060
    0.017083453    0.000000000    0.500000060
    0.517083406    0.000000000    0.699999988
    0.017083406    0.000000000    0.899999976
    0.267083436    0.750000000    0.600000024
    0.767083406    0.750000000    0.800000012
    0.267083406    0.750000000    1.000000000
    0.517083406    0.499999970    0.500000060
    0.017083287    0.499999970    0.699999988
    0.517083287    0.499999970    0.899999976
    0.767083406    0.249999985    0.600000024
    0.267083406    0.249999985    0.800000012
    0.767083406    0.249999985    1.000000000
