Ge+Si
    1.000000000
   16.973400116    0.000000000    0.000000000
    0.000000000   16.973400116    0.000000000
    0.000000000    0.000000000   17.861000061
Ge  Si 
108     120
Direct
    0.994305491    0.666666567    0.000000000
    0.827638865    0.666666567    0.158384174
    0.660972118    0.666666567    0.316768378
    0.994305491    0.333333284    0.000000000
    0.827638865    0.333333284    0.158384174
    0.660972118    0.333333284    0.316768378
    0.994305491    0.000000000    0.000000000
    0.827638865    0.000000000    0.158384174
    0.660972118    0.000000000    0.316768378
    0.327638805    0.666666567    0.000000000
    0.160972148    0.666666567    0.158384174
    0.994305432    0.666666567    0.316768378
    0.327638805    0.333333284    0.000000000
    0.160972148    0.333333284    0.158384174
    0.994305432    0.333333284    0.316768378
    0.327638805    0.000000000    0.000000000
    0.160972148    0.000000000    0.158384174
    0.994305432    0.000000000    0.316768378
    0.660972118    0.666666567    0.000000000
    0.494305432    0.666666567    0.158384174
    0.327638745    0.666666567    0.316768378
    0.660972118    0.333333284    0.000000000
    0.494305432    0.333333284    0.158384174
    0.327638745    0.333333284    0.316768378
    0.660972118    0.000000000    0.000000000
    0.494305432    0.000000000    0.158384174
    0.327638745    0.000000000    0.316768378
    0.077638842    0.916666567    0.079192095
    0.910972118    0.916666567    0.237576291
    0.744305491    0.916666567    0.395960480
    0.077638842    0.583333313    0.079192095
    0.910972118    0.583333313    0.237576291
    0.744305491    0.583333313    0.395960480
    0.077638842    0.249999955    0.079192095
    0.910972118    0.249999955    0.237576291
    0.744305491    0.249999955    0.395960480
    0.410972089    0.916666567    0.079192095
    0.244305417    0.916666567    0.237576291
    0.077638723    0.916666567    0.395960480
    0.410972089    0.583333313    0.079192095
    0.244305417    0.583333313    0.237576291
    0.077638723    0.583333313    0.395960480
    0.410972089    0.249999955    0.079192095
    0.244305417    0.249999955    0.237576291
    0.077638723    0.249999955    0.395960480
    0.744305491    0.916666567    0.079192095
    0.577638745    0.916666567    0.237576291
    0.410972059    0.916666567    0.395960480
    0.744305491    0.583333313    0.079192095
    0.577638745    0.583333313    0.237576291
    0.410972059    0.583333313    0.395960480
    0.744305491    0.249999955    0.079192095
    0.577638745    0.249999955    0.237576291
    0.410972059    0.249999955    0.395960480
    0.160972163    0.833333194    0.000000000
    0.994305491    0.833333194    0.158384174
    0.827638805    0.833333194    0.316768378
    0.160972163    0.499999911    0.000000000
    0.994305491    0.499999911    0.158384174
    0.827638805    0.499999911    0.316768378
    0.160972163    0.166666642    0.000000000
    0.994305491    0.166666642    0.158384174
    0.827638805    0.166666642    0.316768378
    0.494305432    0.833333194    0.000000000
    0.327638745    0.833333194    0.158384174
    0.160972074    0.833333194    0.316768378
    0.494305432    0.499999911    0.000000000
    0.327638745    0.499999911    0.158384174
    0.160972074    0.499999911    0.316768378
    0.494305432    0.166666642    0.000000000
    0.327638745    0.166666642    0.158384174
    0.160972074    0.166666642    0.316768378
    0.827638805    0.833333194    0.000000000
    0.660972118    0.833333194    0.158384174
    0.494305432    0.833333194    0.316768378
    0.827638805    0.499999911    0.000000000
    0.660972118    0.499999911    0.158384174
    0.494305432    0.499999911    0.316768378
    0.827638805    0.166666642    0.000000000
    0.660972118    0.166666642    0.158384174
    0.494305432    0.166666642    0.316768378
    0.244305462    0.749999881    0.079192095
    0.077638783    0.749999881    0.237576291
    0.910972118    0.749999881    0.395960480
    0.244305462    0.416666627    0.079192095
    0.077638783    0.416666627    0.237576291
    0.910972118    0.416666627    0.395960480
    0.244305462    0.083333328    0.079192095
    0.077638783    0.083333328    0.237576291
    0.910972118    0.083333328    0.395960480
    0.577638865    0.749999881    0.079192095
    0.410972148    0.749999881    0.237576291
    0.244305447    0.749999881    0.395960480
    0.577638865    0.416666627    0.079192095
    0.410972148    0.416666627    0.237576291
    0.244305447    0.416666627    0.395960480
    0.577638865    0.083333328    0.079192095
    0.410972148    0.083333328    0.237576291
    0.244305447    0.083333328    0.395960480
    0.910972178    0.749999881    0.079192095
    0.744305491    0.749999881    0.237576291
    0.577638745    0.749999881    0.395960480
    0.910972178    0.416666627    0.079192095
    0.744305491    0.416666627    0.237576291
    0.577638745    0.416666627    0.395960480
    0.910972178    0.083333328    0.079192095
    0.744305491    0.083333328    0.237576291
    0.577638745    0.083333328    0.395960480
    0.102945089    0.184619963    0.507936299
    0.952944994    0.234620020    0.659971476
    0.802944899    0.284620047    0.812006652
    0.202944994    0.484620005    0.507936299
    0.052944899    0.534620106    0.659971476
    0.902944863    0.584620118    0.812006652
    0.302945018    0.784619927    0.507936299
    0.152944922    0.834619999    0.659971476
    0.002944946    0.884620070    0.812006652
    0.802945018    0.284619987    0.507936299
    0.652944922    0.334620029    0.659971476
    0.502944827    0.384620070    0.812006652
    0.902944982    0.584619999    0.507936299
    0.752944946    0.634620070    0.659971476
    0.602944851    0.684620142    0.812006652
    0.002944946    0.884619951    0.507936299
    0.852944851    0.934620023    0.659971476
    0.702944875    0.984620094    0.812006652
    0.402944922    0.084619924    0.507936299
    0.252944946    0.134619996    0.659971476
    0.102944851    0.184620053    0.812006652
    0.502944946    0.384619951    0.507936299
    0.352944970    0.434620023    0.659971476
    0.202944875    0.484620064    0.812006652
    0.602944970    0.684620023    0.507936299
    0.452944905    0.734620094    0.659971476
    0.302944899    0.784620166    0.812006652
    0.702944994    0.984619975    0.507936299
    0.552944899    0.034619927    0.659971476
    0.402944803    0.084620148    0.812006652
    0.352944970    0.184619933    0.583953917
    0.202944875    0.234620005    0.735989094
    0.052944779    0.284620106    0.888024211
    0.052945018    0.284619987    0.583953917
    0.902945042    0.334620029    0.735989094
    0.752944887    0.384620100    0.888024211
    0.152945042    0.584619999    0.583953917
    0.002944946    0.634620070    0.735989094
    0.852944851    0.684620142    0.888024211
    0.252944946    0.884619951    0.583953917
    0.102944970    0.934620142    0.735989094
    0.952944875    0.984620094    0.888024211
    0.652944982    0.084619910    0.583953917
    0.502944946    0.134620100    0.735989094
    0.352944851    0.184620172    0.888024211
    0.752944946    0.384619951    0.583953917
    0.602944911    0.434620053    0.735989094
    0.452944785    0.484620064    0.888024211
    0.852944970    0.684619904    0.583953917
    0.702944875    0.734619975    0.735989094
    0.552944839    0.784620166    0.888024211
    0.952944994    0.984619975    0.583953917
    0.802944899    0.034620047    0.735989094
    0.652944803    0.084620148    0.888024211
    0.452944964    0.484619945    0.583953917
    0.302944899    0.534620047    0.735989094
    0.152944803    0.584620118    0.888024211
    0.552944958    0.784620047    0.583953917
    0.402944922    0.834620118    0.735989094
    0.252944827    0.884620070    0.888024211
    0.302945018    0.284619927    0.507936299
    0.152944922    0.334620029    0.659971476
    0.002944827    0.384620130    0.812006652
    0.902944982    0.084619932    0.507936299
    0.752944946    0.134619996    0.659971476
    0.602944851    0.184620082    0.812006652
    0.002944946    0.384619951    0.507936299
    0.852944970    0.434620023    0.659971476
    0.702944875    0.484620124    0.812006652
    0.102944970    0.684620023    0.507936299
    0.952944994    0.734620094    0.659971476
    0.802944839    0.784620166    0.812006652
    0.202944994    0.984620094    0.507936299
    0.052944899    0.034620166    0.659971476
    0.902944863    0.084620148    0.812006652
    0.602944970    0.184619948    0.507936299
    0.452944905    0.234620020    0.659971476
    0.302944779    0.284620106    0.812006652
    0.702944994    0.484620005    0.507936299
    0.552944899    0.534620047    0.659971476
    0.402944803    0.584620118    0.812006652
    0.802944958    0.784619927    0.507936299
    0.652944863    0.834619999    0.659971476
    0.502944827    0.884620070    0.812006652
    0.402944922    0.584619880    0.507936299
    0.252944946    0.634620070    0.659971476
    0.102944851    0.684620142    0.812006652
    0.502944946    0.884619951    0.507936299
    0.352944970    0.934620023    0.659971476
    0.202944875    0.984620094    0.812006652
    0.152944922    0.084619910    0.583953917
    0.002944946    0.134620100    0.735989094
    0.852944851    0.184620053    0.888024211
    0.252945065    0.384619951    0.583953917
    0.102944970    0.434620053    0.735989094
    0.952944875    0.484620064    0.888024211
    0.352944970    0.684619904    0.583953917
    0.202944994    0.734619975    0.735989094
    0.052944899    0.784620047    0.888024211
    0.852944970    0.184619933    0.583953917
    0.702944934    0.234620020    0.735989094
    0.552944839    0.284620047    0.888024211
    0.952945113    0.484620005    0.583953917
    0.802945018    0.534620047    0.735989094
    0.652944922    0.584620118    0.888024211
    0.052945018    0.784619927    0.583953917
    0.902944922    0.834619999    0.735989094
    0.752944827    0.884620190    0.888024211
    0.552945018    0.284619957    0.583953917
    0.402944922    0.334620029    0.735989094
    0.252944827    0.384620100    0.888024211
    0.652944982    0.584619999    0.583953917
    0.502944887    0.634620070    0.735989094
    0.352944851    0.684620023    0.888024211
    0.752944946    0.884619951    0.583953917
    0.602944851    0.934620023    0.735989094
    0.452944756    0.984620094    0.888024211
    0.452944964    0.984619975    0.583953917
    0.302944899    0.034620047    0.735989094
    0.152944803    0.084620148    0.888024211
