Sn+Ge
    1.000000000
   12.978400230    0.000000000    0.000000000
  -12.978400230   14.510293007    0.000000000
    0.000000000    0.000000000    9.190412521
Sn  Ge 
24     24
Direct
    0.474358499    0.974358499    0.000000000
    0.174358353    0.674358428    0.157885119
    0.874358296    0.374358356    0.315770268
    0.974358499    0.974358499    0.000000000
    0.674358368    0.674358428    0.157885119
    0.374358296    0.374358356    0.315770268
    0.699358463    0.324358493    0.078942411
    0.399358362    0.024358446    0.236827537
    0.099358320    0.724358439    0.394712657
    0.199358478    0.324358493    0.078942411
    0.899358392    0.024358446    0.236827537
    0.599358320    0.724358439    0.394712657
    0.724358439    0.474358499    0.000000016
    0.424358338    0.174358398    0.157885134
    0.124358192    0.874358296    0.315770268
    0.224358469    0.474358499    0.000000016
    0.924358368    0.174358398    0.157885134
    0.624358237    0.874358296    0.315770268
    0.949358582    0.824358582    0.078942418
    0.649358511    0.524358571    0.236827508
    0.349358380    0.224358499    0.394712657
    0.449358791    0.824358582    0.078942418
    0.149358645    0.524358571    0.236827508
    0.849358559    0.224358499    0.394712657
    0.329596400    0.346896410    0.556860566
    0.212929726    0.930229664    0.613058805
    0.096262932    0.513562918    0.669257104
    0.979596078    0.096896172    0.725455582
    0.862929404    0.680229545    0.781653762
    0.746262550    0.263562560    0.837852120
    0.829596400    0.596896410    0.556860566
    0.712929606    0.180229664    0.613058805
    0.596262872    0.763562918    0.669257224
    0.479596078    0.346896172    0.725455403
    0.362929344    0.930229425    0.781653702
    0.246262670    0.513562560    0.837851942
    0.829596400    0.846896410    0.556860626
    0.712929606    0.430229664    0.613058805
    0.596262813    0.013562918    0.669257224
    0.479596108    0.596896172    0.725455523
    0.362929404    0.180229425    0.781653702
    0.246262550    0.763562441    0.837852001
    0.329596281    0.096896410    0.556860626
    0.212929606    0.680229664    0.613058925
    0.096262932    0.263562918    0.669257224
    0.979596078    0.846896172    0.725455523
    0.862929344    0.430229425    0.781653762
    0.746262550    0.013562441    0.837852120
