Si+C                                    
   1.00000000000000     
    16.2930011750000006    0.0000000000000000    0.0000000000000000
   -10.8620004649999995   12.1440858840000008    0.0000000000000000
     0.0000000000000000    0.0000000000000000    7.2041287420000000
   Si   C 
    36    84
Direct
  0.9743584989999974  0.9829056259999973  0.0000000020000002
  0.6743584279999979  0.7829055790000012  0.1685712339999981
  0.3743584159999997  0.5829055310000015  0.3371424669999996
  0.3076917830000028  0.9829056259999973  0.0000000020000002
  0.0076917259999973  0.7829055790000012  0.1685712339999981
  0.7076916689999990  0.5829055310000015  0.3371424669999996
  0.6410250659999974  0.9829056259999973  0.0000000020000002
  0.3410250250000004  0.7829055790000012  0.1685712339999981
  0.0410249870000001  0.5829055310000015  0.3371424669999996
  0.1576919700000019  0.6329056020000010  0.0842854529999997
  0.8576919440000026  0.4329055250000025  0.2528567020000025
  0.5576919319999973  0.2329055069999981  0.4214279349999970
  0.4910252090000000  0.6329056020000010  0.0842854529999997
  0.1910251529999982  0.4329055250000025  0.2528567020000025
  0.8910251860000002  0.2329055069999981  0.4214279349999970
  0.8243584630000029  0.6329056020000010  0.0842854529999997
  0.5243583920000034  0.4329055250000025  0.2528567020000025
  0.2243584989999974  0.2329055069999981  0.4214279349999970
  0.1410251559999978  0.4829055960000019  0.0000000000000000
  0.8410251139999971  0.2829054890000009  0.1685712339999981
  0.5410251019999990  0.0829054339999971  0.3371424669999996
  0.4743584389999995  0.4829055960000019  0.0000000000000000
  0.1743583829999977  0.2829054890000009  0.1685712339999981
  0.8743583560000019  0.0829054339999971  0.3371424669999996
  0.8076916930000024  0.4829055960000019  0.0000000000000000
  0.5076916809999972  0.2829054890000009  0.1685712339999981
  0.2076916250000025  0.0829054339999971  0.3371424669999996
  0.9910252090000000  0.1329056619999989  0.0842854599999967
  0.6910251380000005  0.9329056139999992  0.2528567020000025
  0.3910251860000002  0.7329055670000031  0.4214279349999970
  0.3243584630000029  0.1329056619999989  0.0842854599999967
  0.0243584139999982  0.9329056139999992  0.2528567020000025
  0.7243584389999995  0.7329055670000031  0.4214279349999970
  0.6576916579999974  0.1329056619999989  0.0842854599999967
  0.3576916159999968  0.9329056139999992  0.2528567020000025
  0.0576916520000026  0.7329055670000031  0.4214279349999970
  0.2470369939999983  0.9353522059999975  0.5723278520000008
  0.4898942109999993  0.9067807200000004  0.6830367450000026
  0.7327514289999968  0.8782092329999998  0.7937456370000007
  0.5327512619999979  0.0782093999999987  0.5723278520000008
  0.7756084800000025  0.0496377939999988  0.6830367450000026
  0.0184657570000013  0.0210664270000009  0.7937456370000007
  0.8184654710000032  0.2210664750000007  0.5723278520000008
  0.0613228079999999  0.1924949880000000  0.6830367450000026
  0.3041800259999974  0.1639235020000029  0.7937456370000007
  0.1041798589999985  0.3639236690000018  0.5723278520000008
  0.3470370770000031  0.3353521820000012  0.6830367450000026
  0.5898944139999998  0.3067806959999970  0.7937456370000007
  0.3898941280000017  0.5067807439999967  0.5723278520000008
  0.6327513459999992  0.4782092570000032  0.6830367450000026
  0.8756085630000001  0.4496378899999982  0.7937456370000007
  0.6756084559999991  0.6496379379999979  0.5723278520000008
  0.9184656739999966  0.6210664509999972  0.6830367450000026
  0.1613229510000025  0.5924949650000002  0.7937456370000007
  0.9613226649999973  0.7924950120000034  0.5723278520000008
  0.2041798830000019  0.7639235259999992  0.6830367450000026
  0.4470371009999994  0.7353520389999986  0.7937456370000007
  0.0827511549999969  0.0282093289999992  0.6276822089999996
  0.3256084920000006  0.9996378419999985  0.7383911009999977
  0.5684657099999981  0.9710663560000015  0.8490999340000016
  0.3684653640000022  0.1710665230000004  0.6276821490000017
  0.6113226410000010  0.1424950359999997  0.7383911610000027
  0.8541798589999985  0.1139235500000026  0.8490999939999995
  0.6541797519999974  0.3139235969999987  0.6276821490000017
  0.8970369700000020  0.2853522300000009  0.7383911610000027
  0.1398942470000009  0.2567806240000010  0.8490999939999995
  0.9398940800000020  0.4567807909999999  0.6276821490000017
  0.1827514169999986  0.4282093050000029  0.7383911610000027
  0.4256086350000032  0.3996379379999979  0.8490999939999995
  0.2256082449999965  0.5996379850000011  0.6276821490000017
  0.4684655670000026  0.5710663799999978  0.7383911610000027
  0.7113226649999973  0.5424950120000034  0.8490999939999995
  0.5113226770000026  0.7424950600000031  0.6276822089999996
  0.7541799549999979  0.7139234540000032  0.7383911610000027
  0.9970371719999989  0.6853520869999983  0.8490999340000016
  0.7970368269999994  0.8853521349999980  0.6276822089999996
  0.0398941039999983  0.8567807670000036  0.7383911610000027
  0.2827513220000029  0.8282091620000003  0.8490999340000016
  0.8898942470000009  0.0067807439999967  0.5723278520000008
  0.1327513459999992  0.9782092570000032  0.6830367450000026
  0.3756086830000029  0.9496378300000003  0.7937456370000007
  0.1756086350000032  0.1496379379999979  0.5723278520000008
  0.4184657340000015  0.1210664509999972  0.6830367450000026
  0.6613228320000033  0.0924949650000002  0.7937456370000007
  0.4613227250000023  0.2924950120000034  0.5723278520000008
  0.7041799429999998  0.2639236449999984  0.6830367450000026
  0.9470371600000007  0.2353520389999986  0.7937456370000007
  0.7470369340000005  0.4353522059999975  0.5723278520000008
  0.9898942109999993  0.4067807200000004  0.6830367450000026
  0.2327515039999994  0.3782092329999998  0.7937456370000007
  0.0327513220000029  0.5782093999999987  0.5723278520000008
  0.2756085400000003  0.5496379140000016  0.6830367450000026
  0.5184656380000021  0.5210664270000009  0.7937456370000007
  0.3184655609999965  0.7210664750000007  0.5723278520000008
  0.5613228079999999  0.6924951080000028  0.6830368039999968
  0.8041800860000023  0.6639236210000021  0.7937456370000007
  0.6041798589999985  0.8639236690000018  0.5723278520000008
  0.8470370169999981  0.8353521820000012  0.6830368039999968
  0.0898944139999998  0.8067808150000033  0.7937456370000007
  0.4398941399999998  0.9567807909999999  0.6276821490000017
  0.6827514169999986  0.9282093050000029  0.7383911610000027
  0.9256086950000011  0.8996378180000022  0.8490999939999995
  0.7256082890000002  0.0996379850000011  0.6276821490000017
  0.9684655670000026  0.0710663799999978  0.7383911610000027
  0.2113227839999965  0.0424950120000034  0.8490999340000016
  0.0113226180000012  0.2424950600000031  0.6276821490000017
  0.2541799549999979  0.2139235730000024  0.7383911610000027
  0.4970371719999989  0.1853520869999983  0.8490999340000016
  0.2970367670000016  0.3853521349999980  0.6276821490000017
  0.5398941039999983  0.3567807669999965  0.7383911009999977
  0.7827513220000029  0.3282091620000003  0.8490999340000016
  0.5827512150000018  0.5282092090000035  0.6276821490000017
  0.8256085519999985  0.4996378419999985  0.7383911610000027
  0.0684658289999973  0.4710663560000015  0.8490999939999995
  0.8684655429999992  0.6710665230000004  0.6276821490000017
  0.1113228800000030  0.6424949170000005  0.7383911610000027
  0.3541800980000005  0.6139235500000026  0.8490999939999995
  0.1541796919999996  0.8139235969999987  0.6276821490000017
  0.3970370290000034  0.7853522300000009  0.7383911610000027
  0.6398942470000009  0.7567806240000010  0.8490999939999995
 
  0.00000000E+00  0.00000000E+00  0.00000000E+00
  0.00000000E+00  0.00000000E+00  0.00000000E+00
  0.00000000E+00  0.00000000E+00  0.00000000E+00
  0.00000000E+00  0.00000000E+00  0.00000000E+00
  0.00000000E+00  0.00000000E+00  0.00000000E+00
  0.00000000E+00  0.00000000E+00  0.00000000E+00
  0.00000000E+00  0.00000000E+00  0.00000000E+00
  0.00000000E+00  0.00000000E+00  0.00000000E+00
  0.00000000E+00  0.00000000E+00  0.00000000E+00
  0.00000000E+00  0.00000000E+00  0.00000000E+00
  0.00000000E+00  0.00000000E+00  0.00000000E+00
  0.00000000E+00  0.00000000E+00  0.00000000E+00
  0.00000000E+00  0.00000000E+00  0.00000000E+00
  0.00000000E+00  0.00000000E+00  0.00000000E+00
  0.00000000E+00  0.00000000E+00  0.00000000E+00
  0.00000000E+00  0.00000000E+00  0.00000000E+00
  0.00000000E+00  0.00000000E+00  0.00000000E+00
  0.00000000E+00  0.00000000E+00  0.00000000E+00
  0.00000000E+00  0.00000000E+00  0.00000000E+00
  0.00000000E+00  0.00000000E+00  0.00000000E+00
  0.00000000E+00  0.00000000E+00  0.00000000E+00
  0.00000000E+00  0.00000000E+00  0.00000000E+00
  0.00000000E+00  0.00000000E+00  0.00000000E+00
  0.00000000E+00  0.00000000E+00  0.00000000E+00
  0.00000000E+00  0.00000000E+00  0.00000000E+00
  0.00000000E+00  0.00000000E+00  0.00000000E+00
  0.00000000E+00  0.00000000E+00  0.00000000E+00
  0.00000000E+00  0.00000000E+00  0.00000000E+00
  0.00000000E+00  0.00000000E+00  0.00000000E+00
  0.00000000E+00  0.00000000E+00  0.00000000E+00
  0.00000000E+00  0.00000000E+00  0.00000000E+00
  0.00000000E+00  0.00000000E+00  0.00000000E+00
  0.00000000E+00  0.00000000E+00  0.00000000E+00
  0.00000000E+00  0.00000000E+00  0.00000000E+00
  0.00000000E+00  0.00000000E+00  0.00000000E+00
  0.00000000E+00  0.00000000E+00  0.00000000E+00
  0.00000000E+00  0.00000000E+00  0.00000000E+00
  0.00000000E+00  0.00000000E+00  0.00000000E+00
  0.00000000E+00  0.00000000E+00  0.00000000E+00
  0.00000000E+00  0.00000000E+00  0.00000000E+00
  0.00000000E+00  0.00000000E+00  0.00000000E+00
  0.00000000E+00  0.00000000E+00  0.00000000E+00
  0.00000000E+00  0.00000000E+00  0.00000000E+00
  0.00000000E+00  0.00000000E+00  0.00000000E+00
  0.00000000E+00  0.00000000E+00  0.00000000E+00
  0.00000000E+00  0.00000000E+00  0.00000000E+00
  0.00000000E+00  0.00000000E+00  0.00000000E+00
  0.00000000E+00  0.00000000E+00  0.00000000E+00
  0.00000000E+00  0.00000000E+00  0.00000000E+00
  0.00000000E+00  0.00000000E+00  0.00000000E+00
  0.00000000E+00  0.00000000E+00  0.00000000E+00
  0.00000000E+00  0.00000000E+00  0.00000000E+00
  0.00000000E+00  0.00000000E+00  0.00000000E+00
  0.00000000E+00  0.00000000E+00  0.00000000E+00
  0.00000000E+00  0.00000000E+00  0.00000000E+00
  0.00000000E+00  0.00000000E+00  0.00000000E+00
  0.00000000E+00  0.00000000E+00  0.00000000E+00
  0.00000000E+00  0.00000000E+00  0.00000000E+00
  0.00000000E+00  0.00000000E+00  0.00000000E+00
  0.00000000E+00  0.00000000E+00  0.00000000E+00
  0.00000000E+00  0.00000000E+00  0.00000000E+00
  0.00000000E+00  0.00000000E+00  0.00000000E+00
  0.00000000E+00  0.00000000E+00  0.00000000E+00
  0.00000000E+00  0.00000000E+00  0.00000000E+00
  0.00000000E+00  0.00000000E+00  0.00000000E+00
  0.00000000E+00  0.00000000E+00  0.00000000E+00
  0.00000000E+00  0.00000000E+00  0.00000000E+00
  0.00000000E+00  0.00000000E+00  0.00000000E+00
  0.00000000E+00  0.00000000E+00  0.00000000E+00
  0.00000000E+00  0.00000000E+00  0.00000000E+00
  0.00000000E+00  0.00000000E+00  0.00000000E+00
  0.00000000E+00  0.00000000E+00  0.00000000E+00
  0.00000000E+00  0.00000000E+00  0.00000000E+00
  0.00000000E+00  0.00000000E+00  0.00000000E+00
  0.00000000E+00  0.00000000E+00  0.00000000E+00
  0.00000000E+00  0.00000000E+00  0.00000000E+00
  0.00000000E+00  0.00000000E+00  0.00000000E+00
  0.00000000E+00  0.00000000E+00  0.00000000E+00
  0.00000000E+00  0.00000000E+00  0.00000000E+00
  0.00000000E+00  0.00000000E+00  0.00000000E+00
  0.00000000E+00  0.00000000E+00  0.00000000E+00
  0.00000000E+00  0.00000000E+00  0.00000000E+00
  0.00000000E+00  0.00000000E+00  0.00000000E+00
  0.00000000E+00  0.00000000E+00  0.00000000E+00
  0.00000000E+00  0.00000000E+00  0.00000000E+00
  0.00000000E+00  0.00000000E+00  0.00000000E+00
  0.00000000E+00  0.00000000E+00  0.00000000E+00
  0.00000000E+00  0.00000000E+00  0.00000000E+00
  0.00000000E+00  0.00000000E+00  0.00000000E+00
  0.00000000E+00  0.00000000E+00  0.00000000E+00
  0.00000000E+00  0.00000000E+00  0.00000000E+00
  0.00000000E+00  0.00000000E+00  0.00000000E+00
  0.00000000E+00  0.00000000E+00  0.00000000E+00
  0.00000000E+00  0.00000000E+00  0.00000000E+00
  0.00000000E+00  0.00000000E+00  0.00000000E+00
  0.00000000E+00  0.00000000E+00  0.00000000E+00
  0.00000000E+00  0.00000000E+00  0.00000000E+00
  0.00000000E+00  0.00000000E+00  0.00000000E+00
  0.00000000E+00  0.00000000E+00  0.00000000E+00
  0.00000000E+00  0.00000000E+00  0.00000000E+00
  0.00000000E+00  0.00000000E+00  0.00000000E+00
  0.00000000E+00  0.00000000E+00  0.00000000E+00
  0.00000000E+00  0.00000000E+00  0.00000000E+00
  0.00000000E+00  0.00000000E+00  0.00000000E+00
  0.00000000E+00  0.00000000E+00  0.00000000E+00
  0.00000000E+00  0.00000000E+00  0.00000000E+00
  0.00000000E+00  0.00000000E+00  0.00000000E+00
  0.00000000E+00  0.00000000E+00  0.00000000E+00
  0.00000000E+00  0.00000000E+00  0.00000000E+00
  0.00000000E+00  0.00000000E+00  0.00000000E+00
  0.00000000E+00  0.00000000E+00  0.00000000E+00
  0.00000000E+00  0.00000000E+00  0.00000000E+00
  0.00000000E+00  0.00000000E+00  0.00000000E+00
  0.00000000E+00  0.00000000E+00  0.00000000E+00
  0.00000000E+00  0.00000000E+00  0.00000000E+00
  0.00000000E+00  0.00000000E+00  0.00000000E+00
  0.00000000E+00  0.00000000E+00  0.00000000E+00
  0.00000000E+00  0.00000000E+00  0.00000000E+00
  0.00000000E+00  0.00000000E+00  0.00000000E+00
  0.00000000E+00  0.00000000E+00  0.00000000E+00
