Si+C
    1.000000000
   13.303179741    0.000000000    0.000000000
   -6.651589394   11.520891190    0.000000000
    0.000000000    0.000000000   21.679416656
Si  C  
72     308
Direct
    0.348160356    0.681493700    0.000000013
    0.681493759    0.014827132    0.144634396
    0.014827251    0.348160625    0.289268821
    0.014827028    0.014827028    0.000000014
    0.348160386    0.348160386    0.144634396
    0.681493878    0.681493878    0.289268821
    0.681493700    0.348160356    0.000000000
    0.014827132    0.681493759    0.144634396
    0.348160625    0.014827251    0.289268792
    0.014827013    0.681493759    0.036158606
    0.348160386    0.014827132    0.180793017
    0.681493878    0.348160625    0.325427473
    0.348160416    0.348160416    0.036158621
    0.681493759    0.681493819    0.180793032
    0.014827251    0.014827251    0.325427473
    0.681493759    0.014827013    0.036158606
    0.014827132    0.348160386    0.180793017
    0.348160625    0.681493878    0.325427443
    0.014827028    0.514827013    0.000000017
    0.348160416    0.848160446    0.144634411
    0.681493819    0.181493878    0.289268821
    0.681493759    0.848160386    0.000000038
    0.014827132    0.181493759    0.144634396
    0.348160625    0.514827251    0.289268821
    0.348160386    0.181493685    0.000000008
    0.681493759    0.514827073    0.144634396
    0.014827132    0.848160505    0.289268792
    0.348160416    0.848160267    0.036158569
    0.681493878    0.181493759    0.180793002
    0.014827132    0.514827013    0.325427413
    0.014827132    0.181493700    0.036158592
    0.348160505    0.514827132    0.180793002
    0.681493759    0.848160446    0.325427353
    0.681493819    0.514827073    0.036158577
    0.014827251    0.848160505    0.180793017
    0.348160625    0.181493878    0.325427413
    0.181493700    0.848160386    0.000000024
    0.514827073    0.181493759    0.144634396
    0.848160565    0.514827251    0.289268821
    0.514827013    0.514827013    0.000000014
    0.848160446    0.848160386    0.144634396
    0.181493878    0.181493878    0.289268821
    0.848160386    0.181493700    0.000000005
    0.181493759    0.514827073    0.144634381
    0.514827251    0.848160565    0.289268821
    0.181493685    0.514827013    0.036158577
    0.514827132    0.848160505    0.180793017
    0.848160446    0.181493759    0.325427413
    0.848160386    0.848160386    0.036158562
    0.181493878    0.181493878    0.180793017
    0.514827251    0.514827251    0.325427413
    0.514827073    0.181493670    0.036158577
    0.848160505    0.514827132    0.180793017
    0.181493759    0.848160446    0.325427413
    0.181493700    0.348160356    0.000000013
    0.514827073    0.681493759    0.144634396
    0.848160505    0.014827132    0.289268821
    0.848160386    0.681493759    0.000000027
    0.181493759    0.014827132    0.144634396
    0.514827251    0.348160625    0.289268821
    0.514827013    0.014827021    0.000000013
    0.848160386    0.348160416    0.144634396
    0.181493878    0.681493819    0.289268821
    0.514827013    0.681493640    0.036158621
    0.848160386    0.014827013    0.180793017
    0.181493878    0.348160505    0.325427473
    0.181493655    0.014827013    0.036158614
    0.514827013    0.348160386    0.180793017
    0.848160446    0.681493878    0.325427473
    0.848160446    0.348160386    0.036158606
    0.181493878    0.681493759    0.180793017
    0.514827251    0.014827251    0.325427443
    0.925704181    0.232887849    0.876437604
    0.687609076    0.185268879    0.496484011
    0.497132868    0.947173655    0.591472447
    0.306656599    0.709078312    0.686460853
    0.116180301    0.470983028    0.781449199
    0.068561316    0.661459327    0.876437724
    0.830466211    0.613840401    0.496484041
    0.639989972    0.375745118    0.591472447
    0.449513704    0.137649775    0.686460853
    0.259037435    0.899554491    0.781449258
    0.639989853    0.375744998    0.876437724
    0.401894748    0.328126073    0.496484011
    0.211418569    0.090030789    0.591472447
    0.020942211    0.851935506    0.686460853
    0.830466032    0.613840163    0.781449258
    0.782847047    0.804316401    0.876437604
    0.544751942    0.756697536    0.496484011
    0.354275703    0.518602252    0.591472447
    0.163799405    0.280506879    0.686460853
    0.973323166    0.042411566    0.781449258
    0.211418450    0.090030789    0.876437604
    0.973323345    0.042411685    0.496484011
    0.782847106    0.804316521    0.591472447
    0.592370808    0.566221178    0.686460853
    0.401894569    0.328125894    0.781449199
    0.354275584    0.518602133    0.876437604
    0.116180420    0.470983207    0.496484011
    0.925704241    0.232887954    0.591472447
    0.735228002    0.994792640    0.686460853
    0.544751704    0.756697297    0.781449199
    0.497132719    0.947173595    0.876437604
    0.259037614    0.899554670    0.496484011
    0.068561435    0.661459386    0.591472447
    0.878085136    0.423364043    0.686460853
    0.687608838    0.185268641    0.781449199
    0.163799345    0.280506849    0.900184691
    0.116180539    0.470983207    0.425242722
    0.925704241    0.232887909    0.520231128
    0.735228062    0.994792640    0.615219593
    0.544751763    0.756697297    0.710207939
    0.354275465    0.518602014    0.805196404
    0.878085017    0.423363984    0.900184691
    0.830466270    0.613840461    0.425242692
    0.639990032    0.375745118    0.520231068
    0.449513763    0.137649775    0.615219533
    0.259037465    0.899554491    0.710207939
    0.068561316    0.661459267    0.805196345
    0.020942211    0.851935506    0.900184751
    0.973323464    0.042411923    0.425242692
    0.782847226    0.804316580    0.520231128
    0.592370987    0.566221297    0.615219533
    0.401894659    0.328125924    0.710207939
    0.211418450    0.090030670    0.805196404
    0.449513614    0.137649775    0.900184691
    0.401894808    0.328126103    0.425242722
    0.211418569    0.090030789    0.520231128
    0.020942330    0.851935506    0.615219593
    0.830466032    0.613840163    0.710207939
    0.639989734    0.375744939    0.805196464
    0.592370749    0.566221178    0.900184691
    0.544752002    0.756697536    0.425242722
    0.354275733    0.518602252    0.520231128
    0.163799480    0.280506939    0.615219593
    0.973323166    0.042411566    0.710207939
    0.782846928    0.804316342    0.805196404
    0.735227942    0.994792581    0.900184751
    0.687609136    0.185268998    0.425242722
    0.497132897    0.947173715    0.520231128
    0.306656659    0.709078431    0.615219593
    0.116180420    0.470983058    0.710207939
    0.925704122    0.232887834    0.805196404
    0.306656480    0.709078312    0.900184751
    0.259037673    0.899554670    0.425242722
    0.068561316    0.661459386    0.520231128
    0.878085136    0.423364073    0.615219593
    0.687608838    0.185268760    0.710207939
    0.497132659    0.947173476    0.805196464
    0.139989972    0.375744998    0.876437604
    0.901894867    0.328126073    0.496484011
    0.711418688    0.090030789    0.591472447
    0.520942330    0.851935506    0.686460853
    0.330466092    0.613840222    0.781449199
    0.711418450    0.090030670    0.876437604
    0.473323345    0.042411804    0.496484011
    0.282847136    0.804316521    0.591472447
    0.092370868    0.566221178    0.686460853
    0.901894569    0.328125834    0.781449258
    0.854275584    0.518602192    0.876437604
    0.616180539    0.470983207    0.496484041
    0.425704300    0.232887954    0.591472447
    0.235228032    0.994792640    0.686460853
    0.044751763    0.756697297    0.781449258
    0.997132659    0.947173595    0.876437724
    0.759037614    0.899554670    0.496484041
    0.568561435    0.661459386    0.591472447
    0.378085107    0.423364013    0.686460853
    0.187608808    0.185268641    0.781449258
    0.425704122    0.232887790    0.876437604
    0.187609047    0.185268879    0.496484011
    0.997132838    0.947173715    0.591472447
    0.806656539    0.709078252    0.686460853
    0.616180301    0.470982969    0.781449258
    0.568561256    0.661459267    0.876437604
    0.330466181    0.613840342    0.496484041
    0.139989987    0.375745118    0.591472447
    0.949513674    0.137649775    0.686460853
    0.759037435    0.899554431    0.781449258
    0.282846987    0.804316401    0.876437604
    0.044751883    0.756697476    0.496484011
    0.854275703    0.518602252    0.591472447
    0.663799405    0.280506879    0.686460853
    0.473323107    0.042411566    0.781449199
    0.949513674    0.137649655    0.900184751
    0.901894867    0.328126103    0.425242722
    0.711418688    0.090030789    0.520231128
    0.520942450    0.851935506    0.615219593
    0.330466092    0.613840163    0.710207939
    0.139989868    0.375744939    0.805196404
    0.092370749    0.566221118    0.900184751
    0.044752121    0.756697536    0.425242722
    0.854275823    0.518602252    0.520231128
    0.663799584    0.280506939    0.615219593
    0.473323226    0.042411566    0.710207939
    0.282847047    0.804316342    0.805196404
    0.663799405    0.280506849    0.900184691
    0.616180539    0.470983237    0.425242692
    0.425704300    0.232887939    0.520231068
    0.235228091    0.994792759    0.615219474
    0.044751763    0.756697357    0.710207939
    0.854275584    0.518602133    0.805196345
    0.806656539    0.709078312    0.900184691
    0.759037733    0.899554729    0.425242662
    0.568561435    0.661459386    0.520231068
    0.378085285    0.423364192    0.615219474
    0.187608957    0.185268760    0.710207939
    0.997132719    0.947173536    0.805196345
    0.378085077    0.423363984    0.900184691
    0.330466241    0.613840401    0.425242692
    0.139989987    0.375745088    0.520231068
    0.949513793    0.137649894    0.615219474
    0.759037495    0.899554491    0.710207939
    0.568561316    0.661459327    0.805196345
    0.520942271    0.851935506    0.900184691
    0.473323435    0.042411923    0.425242692
    0.282847166    0.804316580    0.520231068
    0.092370987    0.566221297    0.615219474
    0.901894629    0.328125924    0.710207939
    0.711418390    0.090030670    0.805196345
    0.235227883    0.994792640    0.900184691
    0.187609091    0.185268998    0.425242692
    0.997132838    0.947173715    0.520231068
    0.806656599    0.709078491    0.615219474
    0.616180301    0.470983088    0.710207939
    0.425704062    0.232887834    0.805196345
    0.068561316    0.161459327    0.876437724
    0.830466270    0.113840342    0.496484041
    0.639990091    0.875745118    0.591472447
    0.449513733    0.637649775    0.686460853
    0.259037495    0.399554491    0.781449258
    0.782847047    0.304316461    0.876437724
    0.544752002    0.256697506    0.496484041
    0.354275763    0.018602252    0.591472447
    0.163799465    0.780506968    0.686460853
    0.973323226    0.542411625    0.781449258
    0.925704181    0.732887864    0.876437604
    0.687609076    0.685268879    0.496484011
    0.497132868    0.447173655    0.591472447
    0.306656569    0.209078312    0.686460853
    0.116180182    0.970983028    0.781449199
    0.497132719    0.447173536    0.876437604
    0.259037614    0.399554610    0.496484011
    0.068561435    0.161459327    0.591472447
    0.878085136    0.923364043    0.686460853
    0.687608898    0.685268700    0.781449199
    0.639989853    0.875744939    0.876437604
    0.401894808    0.828126073    0.496484011
    0.211418584    0.590030789    0.591472447
    0.020942211    0.351935446    0.686460853
    0.830466032    0.113840103    0.781449199
    0.211418390    0.590030670    0.876437604
    0.973323345    0.542411745    0.496484011
    0.782847106    0.304316521    0.591472447
    0.592370808    0.066221118    0.686460853
    0.401894510    0.828125834    0.781449199
    0.354275525    0.018602133    0.876437724
    0.116180420    0.970983267    0.496483982
    0.925704241    0.732887983    0.591472447
    0.735228062    0.494792759    0.686460793
    0.544751644    0.256697297    0.781449258
    0.020942211    0.351935327    0.900184751
    0.973323464    0.542411745    0.425242722
    0.782847226    0.304316461    0.520231128
    0.592370987    0.066221118    0.615219593
    0.401894629    0.828125834    0.710207939
    0.211418450    0.590030611    0.805196404
    0.163799405    0.780506849    0.900184691
    0.116180658    0.970983267    0.425242722
    0.925704300    0.732887983    0.520231128
    0.735228062    0.494792640    0.615219593
    0.544751763    0.256697297    0.710207939
    0.354275525    0.018602014    0.805196404
    0.735227942    0.494792581    0.900184751
    0.687609136    0.685268998    0.425242692
    0.497132897    0.447173685    0.520231128
    0.306656718    0.209078431    0.615219533
    0.116180420    0.970983088    0.710207939
    0.925704122    0.732887864    0.805196404
    0.878085136    0.923364043    0.900184691
    0.830466270    0.113840342    0.425242692
    0.639990032    0.875745118    0.520231068
    0.449513853    0.637649894    0.615219474
    0.259037554    0.399554491    0.710207939
    0.068561316    0.161459208    0.805196345
    0.306656539    0.209078193    0.900184691
    0.259037673    0.399554640    0.425242692
    0.068561435    0.161459327    0.520231068
    0.878085256    0.923364103    0.615219474
    0.687608957    0.685268760    0.710207939
    0.497132719    0.447173536    0.805196345
    0.449513674    0.637649775    0.900184691
    0.401894838    0.828126192    0.425242692
    0.211418584    0.590030849    0.520231068
    0.020942450    0.351935625    0.615219474
    0.830466032    0.113840222    0.710207939
    0.639989853    0.875744939    0.805196345
    0.592370808    0.066221118    0.900184691
    0.544752002    0.256697506    0.425242692
    0.354275733    0.018602133    0.520231068
    0.163799524    0.780506968    0.615219474
    0.973323226    0.542411625    0.710207939
    0.782846987    0.304316401    0.805196345
    0.997132838    0.447173595    0.876437724
    0.759037733    0.399554610    0.496484041
    0.568561494    0.161459327    0.591472447
    0.378085226    0.923364043    0.686460853
    0.187608913    0.685268700    0.781449318
    0.139989927    0.875744998    0.876437604
    0.901894867    0.828126073    0.496483982
    0.711418629    0.590030849    0.591472447
    0.520942330    0.351935476    0.686460853
    0.330466032    0.113840103    0.781449199
    0.568561316    0.161459208    0.876437604
    0.330466211    0.113840342    0.496484011
    0.139989987    0.875745058    0.591472447
    0.949513674    0.637649715    0.686460853
    0.759037375    0.399554431    0.781449258
    0.711418509    0.590030730    0.876437604
    0.473323315    0.542411745    0.496484011
    0.282847136    0.304316521    0.591472447
    0.092370868    0.066221237    0.686460853
    0.901894569    0.828125834    0.781449258
    0.854275644    0.018602133    0.876437604
    0.616180539    0.970983267    0.496483982
    0.425704330    0.732888043    0.591472447
    0.235228032    0.494792640    0.686460853
    0.044751763    0.256697327    0.781449258
    0.282846987    0.304316461    0.876437604
    0.044751883    0.256697476    0.496484011
    0.854275703    0.018602252    0.591472447
    0.663799405    0.780506849    0.686460853
    0.473323107    0.542411566    0.781449258
    0.425704181    0.732887864    0.876437604
    0.187609047    0.685268998    0.496484011
    0.997132838    0.447173744    0.591472447
    0.806656539    0.209078431    0.686460853
    0.616180301    0.970983148    0.781449199
    0.806656480    0.209078312    0.900184751
    0.759037733    0.399554700    0.425242722
    0.568561554    0.161459446    0.520231128
    0.378085256    0.923364162    0.615219593
    0.187608957    0.685268819    0.710207939
    0.997132778    0.447173476    0.805196404
    0.949513793    0.637649715    0.900184691
    0.901894927    0.828126192    0.425242692
    0.711418688    0.590030849    0.520231068
    0.520942450    0.351935536    0.615219533
    0.330466151    0.113840222    0.710207939
    0.139989913    0.875744939    0.805196345
    0.092370749    0.066221118    0.900184691
    0.044752002    0.256697536    0.425242692
    0.854275763    0.018602252    0.520231068
    0.663799584    0.780506968    0.615219593
    0.473323196    0.542411566    0.710207939
    0.282847017    0.304316282    0.805196404
    0.520942211    0.351935387    0.900184751
    0.473323435    0.542411804    0.425242722
    0.282847166    0.304316521    0.520231128
    0.092370987    0.066221237    0.615219593
    0.901894629    0.828125954    0.710207939
    0.711418450    0.590030670    0.805196404
    0.663799286    0.780506849    0.900184691
    0.616180539    0.970983267    0.425242692
    0.425704300    0.732887983    0.520231068
    0.235228032    0.494792640    0.615219533
    0.044751763    0.256697297    0.710207939
    0.854275584    0.018602014    0.805196404
    0.235227942    0.494792640    0.900184691
    0.187609121    0.685268998    0.425242722
    0.997132897    0.447173715    0.520231128
    0.806656599    0.209078431    0.615219593
    0.616180301    0.970983028    0.710207939
    0.425704062    0.732887805    0.805196404
    0.378085077    0.923364043    0.900184691
    0.330466300    0.113840461    0.425242692
    0.139990047    0.875745118    0.520231068
    0.949513793    0.637649834    0.615219593
    0.759037495    0.399554491    0.710207939
    0.568561316    0.161459208    0.805196345
