Si+C
    1.000000000
   13.303179741    0.000000000    0.000000000
    6.651589394   14.873406410    0.000000000
    0.000000000    0.000000000    8.192405701
Si  C  
36     84
Direct
    0.982905626    0.658119500    0.000000005
    0.782905579    0.558119297    0.148235962
    0.582905412    0.458119094    0.296471924
    0.982905626    0.324786127    0.000000005
    0.782905579    0.224785969    0.148235962
    0.582905412    0.124785803    0.296471924
    0.982905626    0.991452813    0.000000005
    0.782905579    0.891452670    0.148235962
    0.582905412    0.791452527    0.296471924
    0.632905662    0.691452682    0.074117824
    0.432905585    0.591452479    0.222353801
    0.232905522    0.491452426    0.370589733
    0.632905662    0.358119428    0.074117824
    0.432905585    0.258119285    0.222353801
    0.232905522    0.158119142    0.370589733
    0.632905662    0.024786137    0.074117824
    0.432905585    0.924785972    0.222353801
    0.232905522    0.824785829    0.370589733
    0.482905626    0.658119500    0.000000000
    0.282905549    0.558119297    0.148235962
    0.082905442    0.458119094    0.296471924
    0.482905626    0.324786127    0.000000000
    0.282905549    0.224785954    0.148235962
    0.082905442    0.124785811    0.296471924
    0.482905626    0.991452813    0.000000000
    0.282905549    0.891452670    0.148235962
    0.082905442    0.791452527    0.296471924
    0.132905677    0.691452742    0.074117839
    0.932905555    0.591452479    0.222353801
    0.732905507    0.491452396    0.370589733
    0.132905677    0.358119488    0.074117839
    0.932905555    0.258119285    0.222353801
    0.732905507    0.158119127    0.370589733
    0.132905677    0.024786137    0.074117839
    0.932905555    0.924785972    0.222353801
    0.732905507    0.824785829    0.370589733
    0.718854427    0.962913930    0.758310258
    0.061711431    0.991485596    0.563602746
    0.390282869    0.977199793    0.660956442
    0.004568577    0.820056856    0.758310258
    0.347425699    0.848628461    0.563602746
    0.675997257    0.834342659    0.660956442
    0.290282845    0.677199721    0.758310258
    0.633139968    0.705771327    0.563602746
    0.961711407    0.691485524    0.660956442
    0.575997233    0.534342587    0.758310199
    0.918854356    0.562914193    0.563602686
    0.247425795    0.548628390    0.660956442
    0.861711502    0.391485453    0.758310199
    0.204568624    0.420057058    0.563602686
    0.533139944    0.405771255    0.660956442
    0.147425771    0.248628318    0.758310199
    0.490282774    0.277199924    0.563602686
    0.818854332    0.262914151    0.660956442
    0.433140159    0.105771184    0.758310258
    0.775997162    0.134342790    0.563602686
    0.104568720    0.120056987    0.660956502
    0.168854237    0.062914014    0.806987047
    0.511711359    0.091485620    0.612279534
    0.840282798    0.077199697    0.709633291
    0.454568505    0.920056820    0.806987047
    0.797425628    0.948628426    0.612279534
    0.125997066    0.934342563    0.709633291
    0.740282774    0.777199686    0.806987107
    0.083139896    0.805771291    0.612279475
    0.411711454    0.791485488    0.709633231
    0.025997162    0.634342611    0.806986988
    0.368854284    0.662914157    0.612279475
    0.697425604    0.648628414    0.709633231
    0.311711550    0.491485536    0.806987107
    0.654568672    0.520057082    0.612279475
    0.983139992    0.505771339    0.709633172
    0.597425699    0.348628342    0.806987107
    0.940282881    0.377199918    0.612279534
    0.268854380    0.362914115    0.709633231
    0.883140087    0.205771178    0.806986988
    0.225997210    0.234342784    0.612279534
    0.554568529    0.220056996    0.709633231
    0.218854308    0.962913990    0.758310199
    0.561711431    0.991485476    0.563602686
    0.890282750    0.977199793    0.660956502
    0.504568815    0.820056856    0.758310258
    0.847425818    0.848628461    0.563602686
    0.175997257    0.834342659    0.660956442
    0.790283084    0.677199721    0.758310258
    0.133140087    0.705771327    0.563602686
    0.461711526    0.691485524    0.660956442
    0.075997233    0.534342647    0.758310258
    0.418854237    0.562914193    0.563602686
    0.747425675    0.548628449    0.660956442
    0.361711383    0.391485572    0.758310258
    0.704568624    0.420057058    0.563602686
    0.033140063    0.405771255    0.660956442
    0.647425890    0.248628348    0.758310258
    0.990282893    0.277199894    0.563602746
    0.318854332    0.262914121    0.660956502
    0.933140039    0.105771303    0.758310258
    0.275997162    0.134342790    0.563602746
    0.604568601    0.120056987    0.660956502
    0.668854237    0.062914133    0.806987047
    0.011711359    0.091485620    0.612279534
    0.340282798    0.077199817    0.709633231
    0.954568624    0.920056880    0.806987047
    0.297425747    0.948628485    0.612279534
    0.625997066    0.934342623    0.709633231
    0.240282893    0.777199686    0.806987047
    0.583140135    0.805771291    0.612279534
    0.911711574    0.791485429    0.709633231
    0.525997043    0.634342611    0.806986988
    0.868854284    0.662914097    0.612279475
    0.197425723    0.648628354    0.709633231
    0.811711550    0.491485476    0.806986988
    0.154568672    0.520057023    0.612279475
    0.483140111    0.505771279    0.709633231
    0.097425580    0.348628283    0.806987047
    0.440282822    0.377199888    0.612279475
    0.768854141    0.362914115    0.709633231
    0.383139968    0.205771267    0.806986988
    0.725997210    0.234342754    0.612279534
    0.054568529    0.220056981    0.709633231
