Si+Ge
    1.000000000
   16.293001175    0.000000000    0.000000000
    0.000000000   16.293001175    0.000000000
    0.000000000    0.000000000   13.861001968
Si  Ge 
108     96
Direct
    0.994067729    0.666666687    0.000000000
    0.827401042    0.666666687    0.195909381
    0.660734296    0.666666687    0.391818792
    0.994067729    0.333333343    0.000000000
    0.827401042    0.333333343    0.195909381
    0.660734296    0.333333343    0.391818792
    0.994067729    0.000000000    0.000000000
    0.827401042    0.000000000    0.195909381
    0.660734296    0.000000000    0.391818792
    0.327401042    0.666666687    0.000000000
    0.160734370    0.666666687    0.195909381
    0.994067669    0.666666687    0.391818792
    0.327401042    0.333333343    0.000000000
    0.160734370    0.333333343    0.195909381
    0.994067669    0.333333343    0.391818792
    0.327401042    0.000000000    0.000000000
    0.160734370    0.000000000    0.195909381
    0.994067669    0.000000000    0.391818792
    0.660734415    0.666666687    0.000000000
    0.494067699    0.666666687    0.195909381
    0.327401042    0.666666687    0.391818792
    0.660734415    0.333333343    0.000000000
    0.494067699    0.333333343    0.195909381
    0.327401042    0.333333343    0.391818792
    0.660734415    0.000000000    0.000000000
    0.494067699    0.000000000    0.195909381
    0.327401042    0.000000000    0.391818792
    0.077401049    0.916666687    0.097954698
    0.910734355    0.916666687    0.293864012
    0.744067669    0.916666687    0.489773452
    0.077401049    0.583333373    0.097954698
    0.910734355    0.583333373    0.293864012
    0.744067669    0.583333373    0.489773452
    0.077401049    0.250000000    0.097954698
    0.910734355    0.250000000    0.293864012
    0.744067669    0.250000000    0.489773452
    0.410734355    0.916666687    0.097954698
    0.244067669    0.916666687    0.293864012
    0.077400982    0.916666687    0.489773452
    0.410734355    0.583333373    0.097954698
    0.244067669    0.583333373    0.293864012
    0.077400982    0.583333373    0.489773452
    0.410734355    0.250000000    0.097954698
    0.244067669    0.250000000    0.293864012
    0.077400982    0.250000000    0.489773452
    0.744067729    0.916666687    0.097954698
    0.577401042    0.916666687    0.293864012
    0.410734355    0.916666687    0.489773452
    0.744067729    0.583333373    0.097954698
    0.577401042    0.583333373    0.293864012
    0.410734355    0.583333373    0.489773452
    0.744067729    0.250000000    0.097954698
    0.577401042    0.250000000    0.293864012
    0.410734355    0.250000000    0.489773452
    0.160734385    0.833333313    0.000000000
    0.994067669    0.833333313    0.195909381
    0.827400982    0.833333313    0.391818792
    0.160734385    0.500000000    0.000000000
    0.994067669    0.500000000    0.195909381
    0.827400982    0.500000000    0.391818792
    0.160734385    0.166666672    0.000000000
    0.994067669    0.166666672    0.195909381
    0.827400982    0.166666672    0.391818792
    0.494067699    0.833333313    0.000000000
    0.327401042    0.833333313    0.195909381
    0.160734311    0.833333313    0.391818792
    0.494067699    0.500000000    0.000000000
    0.327401042    0.500000000    0.195909381
    0.160734311    0.500000000    0.391818792
    0.494067699    0.166666672    0.000000000
    0.327401042    0.166666672    0.195909381
    0.160734311    0.166666672    0.391818792
    0.827401042    0.833333313    0.000000000
    0.660734355    0.833333313    0.195909381
    0.494067639    0.833333313    0.391818792
    0.827401042    0.500000000    0.000000000
    0.660734355    0.500000000    0.195909381
    0.494067639    0.500000000    0.391818792
    0.827401042    0.166666672    0.000000000
    0.660734355    0.166666672    0.195909381
    0.494067639    0.166666672    0.391818792
    0.244067714    0.750000000    0.097954698
    0.077401027    0.750000000    0.293864012
    0.910734355    0.750000000    0.489773452
    0.244067714    0.416666687    0.097954698
    0.077401027    0.416666687    0.293864012
    0.910734355    0.416666687    0.489773452
    0.244067714    0.083333343    0.097954698
    0.077401027    0.083333343    0.293864012
    0.910734355    0.083333343    0.489773452
    0.577401161    0.750000000    0.097954698
    0.410734445    0.750000000    0.293864012
    0.244067743    0.750000000    0.489773452
    0.577401161    0.416666687    0.097954698
    0.410734445    0.416666687    0.293864012
    0.244067743    0.416666687    0.489773452
    0.577401161    0.083333343    0.097954698
    0.410734445    0.083333343    0.293864012
    0.244067743    0.083333343    0.489773452
    0.910734355    0.750000000    0.097954698
    0.744067669    0.750000000    0.293864012
    0.577401042    0.750000000    0.489773452
    0.910734355    0.416666687    0.097954698
    0.744067669    0.416666687    0.293864012
    0.577401042    0.416666687    0.489773452
    0.910734355    0.083333343    0.097954698
    0.744067669    0.083333343    0.293864012
    0.577401042    0.083333343    0.489773452
    0.995729148    0.995729148    0.489773452
    0.870729148    0.870729148    0.693863988
    0.745729148    0.745729148    0.897954702
    0.995729148    0.495729089    0.489773452
    0.870729148    0.370729119    0.693863988
    0.745729148    0.245729119    0.897954702
    0.245729119    0.245729119    0.489773452
    0.120729133    0.120729133    0.693863988
    0.995729148    0.995729148    0.897954702
    0.495729089    0.995729148    0.489773452
    0.370729119    0.870729148    0.693863988
    0.245729119    0.745729148    0.897954702
    0.245729119    0.745729089    0.489773452
    0.120729141    0.620729089    0.693863988
    0.995729148    0.495729089    0.897954702
    0.495729089    0.495729119    0.489773452
    0.370729119    0.370729148    0.693863988
    0.245729104    0.245729119    0.897954702
    0.745729148    0.245729148    0.489773452
    0.620729148    0.120729171    0.693863988
    0.495729148    0.995729148    0.897954702
    0.745729148    0.745729089    0.489773452
    0.620729148    0.620729148    0.693863988
    0.495729148    0.495729119    0.897954702
    0.120729141    0.995729148    0.591818750
    0.995729148    0.870729148    0.795909286
    0.870729148    0.745729148    1.000000000
    0.120729119    0.495729089    0.591818750
    0.995729148    0.370729089    0.795909286
    0.870729089    0.245729089    1.000000000
    0.370729148    0.245729148    0.591818750
    0.245729148    0.120729148    0.795909286
    0.120729141    0.995729148    1.000000000
    0.620729148    0.995729148    0.591818750
    0.495729148    0.870729148    0.795909286
    0.370729148    0.745729148    1.000000000
    0.370729148    0.745729089    0.591818750
    0.245729133    0.620729089    0.795909286
    0.120729133    0.495729119    1.000000000
    0.620729089    0.495729089    0.591818750
    0.495729089    0.370729059    0.795909286
    0.370729089    0.245729074    1.000000000
    0.870729148    0.245729133    0.591818750
    0.745729089    0.120729111    0.795909286
    0.620729148    0.995729148    1.000000000
    0.870729089    0.745729089    0.591818750
    0.745729089    0.620729089    0.795909286
    0.620729148    0.495729119    1.000000000
    0.995729148    0.245729133    0.489773452
    0.870729148    0.120729133    0.693863988
    0.745729148    0.995729148    0.897954702
    0.245729133    0.995729148    0.489773452
    0.120729133    0.870729148    0.693863988
    0.995729148    0.745729148    0.897954702
    0.995729148    0.745729148    0.489773452
    0.870729148    0.620729148    0.693863988
    0.745729148    0.495729148    0.897954702
    0.245729133    0.495729119    0.489773452
    0.120729156    0.370729148    0.693863988
    0.995729148    0.245729148    0.897954702
    0.495729119    0.245729133    0.489773452
    0.370729148    0.120729163    0.693863988
    0.245729148    0.995729148    0.897954702
    0.745729148    0.995729148    0.489773452
    0.620729148    0.870729148    0.693863988
    0.495729148    0.745729148    0.897954702
    0.495729119    0.745729089    0.489773452
    0.370729148    0.620729148    0.693863988
    0.245729133    0.495729119    0.897954702
    0.745729089    0.495729119    0.489773452
    0.620729148    0.370729148    0.693863988
    0.495729119    0.245729133    0.897954702
    0.120729141    0.245729119    0.591818750
    0.995729148    0.120729133    0.795909286
    0.870729148    0.995729148    1.000000000
    0.370729119    0.995729148    0.591818750
    0.245729133    0.870729148    0.795909286
    0.120729126    0.745729089    1.000000000
    0.120729141    0.745729089    0.591818750
    0.995729148    0.620729089    0.795909286
    0.870729148    0.495729089    1.000000000
    0.370729119    0.495729089    0.591818750
    0.245729133    0.370729119    0.795909286
    0.120729126    0.245729089    1.000000000
    0.620729089    0.245729119    0.591818750
    0.495729119    0.120729119    0.795909286
    0.370729119    0.995729089    1.000000000
    0.870729089    0.995729148    0.591818750
    0.745729089    0.870729148    0.795909286
    0.620729089    0.745729148    1.000000000
    0.620729148    0.745729148    0.591818750
    0.495729119    0.620729148    0.795909286
    0.370729148    0.495729148    1.000000000
    0.870729029    0.495729059    0.591818750
    0.745729029    0.370729029    0.795909286
    0.620729089    0.245729074    1.000000000
