fcc Si+fcc Ge
    1.000000000
   12.253652517    0.000000000    0.000000000
    2.450730503   18.009117691    0.000000000
    0.000000000    0.000000000   23.743001579
Si    Ge   
72     154
Direct
    0.666666667    0.666666667    0.000000000
    0.027777778    0.361111111    0.047112843
    0.388888889    0.055555556    0.094225687
    0.750000000    0.750000000    0.141338530
    0.111111111    0.444444444    0.188451374
    0.472222222    0.138888889    0.235564217
    0.333333333    0.333333333    0.000000000
    0.694444444    0.027777778    0.047112843
    0.055555556    0.722222222    0.094225687
    0.416666667    0.416666667    0.141338530
    0.777777778    0.111111111    0.188451374
    0.138888889    0.805555556    0.235564217
    0.000000000    0.000000000    0.000000000
    0.361111111    0.694444444    0.047112843
    0.722222222    0.388888889    0.094225687
    0.083333333    0.083333333    0.141338530
    0.444444444    0.777777778    0.188451374
    0.805555556    0.472222222    0.235564217
    0.833333333    0.833333333    0.000000000
    0.194444444    0.527777778    0.047112843
    0.555555556    0.222222222    0.094225687
    0.916666667    0.916666667    0.141338530
    0.277777778    0.611111111    0.188451374
    0.638888889    0.305555556    0.235564217
    0.500000000    0.500000000    0.000000000
    0.861111111    0.194444444    0.047112843
    0.222222222    0.888888889    0.094225687
    0.583333333    0.583333333    0.141338530
    0.944444444    0.277777778    0.188451374
    0.305555556    0.972222222    0.235564217
    0.166666667    0.166666667    0.000000000
    0.527777778    0.861111111    0.047112843
    0.888888889    0.555555556    0.094225687
    0.250000000    0.250000000    0.141338530
    0.611111111    0.944444444    0.188451374
    0.972222222    0.638888889    0.235564217
    0.000000000    0.750000000    0.000000000
    0.361111111    0.444444444    0.047112843
    0.722222222    0.138888889    0.094225687
    0.083333333    0.833333333    0.141338530
    0.444444444    0.527777778    0.188451374
    0.805555556    0.222222222    0.235564217
    0.666666667    0.416666667    0.000000000
    0.027777778    0.111111111    0.047112843
    0.388888889    0.805555556    0.094225687
    0.750000000    0.500000000    0.141338530
    0.111111111    0.194444444    0.188451374
    0.472222222    0.888888889    0.235564217
    0.333333333    0.083333333    0.000000000
    0.694444444    0.777777778    0.047112843
    0.055555556    0.472222222    0.094225687
    0.416666667    0.166666667    0.141338530
    0.777777778    0.861111111    0.188451374
    0.138888889    0.555555556    0.235564217
    0.166666667    0.916666667    0.000000000
    0.527777778    0.611111111    0.047112843
    0.888888889    0.305555556    0.094225687
    0.250000000    0.000000000    0.141338530
    0.611111111    0.694444444    0.188451374
    0.972222222    0.388888889    0.235564217
    0.833333333    0.583333333    0.000000000
    0.194444444    0.277777778    0.047112843
    0.555555556    0.972222222    0.094225687
    0.916666667    0.666666667    0.141338530
    0.277777778    0.361111111    0.188451374
    0.638888889    0.055555556    0.235564217
    0.500000000    0.250000000    0.000000000
    0.861111111    0.944444444    0.047112843
    0.222222222    0.638888889    0.094225687
    0.583333333    0.333333333    0.141338530
    0.944444444    0.027777778    0.188451374
    0.305555556    0.722222222    0.235564217
    0.669789227    0.253354380    0.319799565
    0.455503513    0.324782952    0.438992582
    0.241217799    0.396211523    0.558185600
    0.026932084    0.467640095    0.677378617
    0.812646370    0.539068666    0.796571635
    0.598360656    0.610497238    0.915764652
    0.812646370    0.539068666    0.319799565
    0.598360656    0.610497238    0.438992582
    0.384074941    0.681925809    0.558185600
    0.169789227    0.753354380    0.677378617
    0.955503513    0.824782952    0.796571635
    0.741217799    0.896211523    0.915764652
    0.955503513    0.824782952    0.319799565
    0.741217799    0.896211523    0.438992582
    0.526932084    0.967640095    0.558185600
    0.312646370    0.039068666    0.677378617
    0.098360656    0.110497238    0.796571635
    0.884074941    0.181925809    0.915764652
    0.098360656    0.110497238    0.319799565
    0.884074941    0.181925809    0.438992582
    0.669789227    0.253354380    0.558185600
    0.455503513    0.324782952    0.677378617
    0.241217799    0.396211523    0.796571635
    0.026932084    0.467640095    0.915764652
    0.241217799    0.396211523    0.319799565
    0.026932084    0.467640095    0.438992582
    0.812646370    0.539068666    0.558185600
    0.598360656    0.610497238    0.677378617
    0.384074941    0.681925809    0.796571635
    0.169789227    0.753354380    0.915764652
    0.384074941    0.681925809    0.319799565
    0.169789227    0.753354380    0.438992582
    0.955503513    0.824782952    0.558185600
    0.741217799    0.896211523    0.677378617
    0.526932084    0.967640095    0.796571635
    0.312646370    0.039068666    0.915764652
    0.526932084    0.967640095    0.319799565
    0.312646370    0.039068666    0.438992582
    0.098360656    0.110497238    0.558185600
    0.884074941    0.181925809    0.677378617
    0.669789227    0.253354380    0.796571635
    0.455503513    0.324782952    0.915764652
    0.955503513    0.324782952    0.319799565
    0.741217799    0.396211523    0.438992582
    0.526932084    0.467640095    0.558185600
    0.312646370    0.539068666    0.677378617
    0.098360656    0.610497238    0.796571635
    0.884074941    0.681925809    0.915764652
    0.384074941    0.181925809    0.319799565
    0.169789227    0.253354380    0.438992582
    0.955503513    0.324782952    0.558185600
    0.741217799    0.396211523    0.677378617
    0.526932084    0.467640095    0.796571635
    0.312646370    0.539068666    0.915764652
    0.526932084    0.467640095    0.319799565
    0.312646370    0.539068666    0.438992582
    0.098360656    0.610497238    0.558185600
    0.884074941    0.681925809    0.677378617
    0.669789227    0.753354380    0.796571635
    0.455503513    0.824782952    0.915764652
    0.669789227    0.753354380    0.319799565
    0.455503513    0.824782952    0.438992582
    0.241217799    0.896211523    0.558185600
    0.026932084    0.967640095    0.677378617
    0.812646370    0.039068666    0.796571635
    0.598360656    0.110497238    0.915764652
    0.812646370    0.039068666    0.319799565
    0.598360656    0.110497238    0.438992582
    0.384074941    0.181925809    0.558185600
    0.169789227    0.253354380    0.677378617
    0.955503513    0.324782952    0.796571635
    0.741217799    0.396211523    0.915764652
    0.098360656    0.610497238    0.319799565
    0.884074941    0.681925809    0.438992582
    0.669789227    0.753354380    0.558185600
    0.455503513    0.824782952    0.677378617
    0.241217799    0.896211523    0.796571635
    0.026932084    0.967640095    0.915764652
    0.241217799    0.896211523    0.319799565
    0.026932084    0.967640095    0.438992582
    0.812646370    0.039068666    0.558185600
    0.598360656    0.110497238    0.677378617
    0.384074941    0.181925809    0.796571635
    0.169789227    0.253354380    0.915764652
    0.026932084    0.217640095    0.379396074
    0.812646370    0.289068666    0.498589091
    0.598360656    0.360497238    0.617782109
    0.384074941    0.431925809    0.736975126
    0.169789227    0.503354380    0.856168143
    0.598360656    0.360497238    0.379396074
    0.384074941    0.431925809    0.498589091
    0.169789227    0.503354380    0.617782109
    0.955503513    0.574782952    0.736975126
    0.741217799    0.646211523    0.856168143
    0.741217799    0.646211523    0.379396074
    0.526932084    0.717640095    0.498589091
    0.312646370    0.789068666    0.617782109
    0.098360656    0.860497238    0.736975126
    0.884074941    0.931925809    0.856168143
    0.884074941    0.931925809    0.379396074
    0.669789227    0.003354380    0.498589091
    0.455503513    0.074782952    0.617782109
    0.241217799    0.146211523    0.736975126
    0.026932084    0.217640095    0.856168143
    0.169789227    0.503354380    0.379396074
    0.955503513    0.574782952    0.498589091
    0.741217799    0.646211523    0.617782109
    0.526932084    0.717640095    0.736975126
    0.312646370    0.789068666    0.856168143
    0.312646370    0.789068666    0.379396074
    0.098360656    0.860497238    0.498589091
    0.884074941    0.931925809    0.617782109
    0.669789227    0.003354380    0.736975126
    0.455503513    0.074782952    0.856168143
    0.455503513    0.074782952    0.379396074
    0.241217799    0.146211523    0.498589091
    0.026932084    0.217640095    0.617782109
    0.812646370    0.289068666    0.736975126
    0.598360656    0.360497238    0.856168143
    0.741217799    0.146211523    0.379396074
    0.526932084    0.217640095    0.498589091
    0.312646370    0.289068666    0.617782109
    0.098360656    0.360497238    0.736975126
    0.884074941    0.431925809    0.856168143
    0.884074941    0.431925809    0.379396074
    0.669789227    0.503354380    0.498589091
    0.455503513    0.574782952    0.617782109
    0.241217799    0.646211523    0.736975126
    0.026932084    0.717640095    0.856168143
    0.026932084    0.717640095    0.379396074
    0.812646370    0.789068666    0.498589091
    0.598360656    0.860497238    0.617782109
    0.384074941    0.931925809    0.736975126
    0.169789227    0.003354380    0.856168143
    0.312646370    0.289068666    0.379396074
    0.098360656    0.360497238    0.498589091
    0.884074941    0.431925809    0.617782109
    0.669789227    0.503354380    0.736975126
    0.455503513    0.574782952    0.856168143
    0.455503513    0.574782952    0.379396074
    0.241217799    0.646211523    0.498589091
    0.026932084    0.717640095    0.617782109
    0.812646370    0.789068666    0.736975126
    0.598360656    0.860497238    0.856168143
    0.598360656    0.860497238    0.379396074
    0.384074941    0.931925809    0.498589091
    0.169789227    0.003354380    0.617782109
    0.955503513    0.074782952    0.736975126
    0.741217799    0.146211523    0.856168143
    0.169789227    0.003354380    0.379396074
    0.955503513    0.074782952    0.498589091
    0.741217799    0.146211523    0.617782109
    0.526932084    0.217640095    0.736975126
    0.312646370    0.289068666    0.856168143
