Sn+Ge
    1.000000000
   11.239624023    0.000000000    0.000000000
    0.000000000   18.354230881    0.000000000
    0.000000000    0.000000000   13.867381096
Sn  Ge 
48     48
Direct
    0.940928936    0.477848351    0.000000001
    0.607595503    0.352848351    0.095519364
    0.274262190    0.227848351    0.191038668
    0.940928817    0.102848344    0.286558032
    0.607595325    0.977848291    0.382077426
    0.274261832    0.852848232    0.477596760
    0.940928936    0.977848351    0.000000006
    0.607595503    0.852848291    0.095519379
    0.274262190    0.727848291    0.191038668
    0.940928817    0.602848291    0.286558002
    0.607595325    0.477848291    0.382077426
    0.274261832    0.352848172    0.477596760
    0.190928906    0.727848351    0.000000006
    0.857595563    0.602848351    0.095519379
    0.524262190    0.477848351    0.191038713
    0.190928817    0.352848351    0.286558032
    0.857595444    0.227848321    0.382077426
    0.524261832    0.102848224    0.477596849
    0.190928906    0.227848351    0.000000000
    0.857595503    0.102848329    0.095519364
    0.524262190    0.977848351    0.191038683
    0.190928817    0.852848351    0.286558002
    0.857595444    0.727848291    0.382077366
    0.524261832    0.602848232    0.477596849
    0.940928876    0.727848351    0.000000000
    0.607595503    0.602848351    0.095519394
    0.274262190    0.477848351    0.191038668
    0.940928817    0.352848351    0.286558002
    0.607595325    0.227848306    0.382077426
    0.274261951    0.102848209    0.477596760
    0.940928936    0.227848351    0.000000004
    0.607595503    0.102848329    0.095519364
    0.274262190    0.977848351    0.191038668
    0.940928817    0.852848351    0.286558002
    0.607595444    0.727848291    0.382077426
    0.274261832    0.602848172    0.477596760
    0.190928966    0.477848381    0.000000019
    0.857595563    0.352848381    0.095519379
    0.524262190    0.227848381    0.191038683
    0.190928817    0.102848351    0.286558032
    0.857595444    0.977848351    0.382077426
    0.524261951    0.852848291    0.477596790
    0.190928951    0.977848351    0.000000008
    0.857595563    0.852848291    0.095519364
    0.524262190    0.727848291    0.191038683
    0.190928817    0.602848291    0.286558032
    0.857595444    0.477848291    0.382077426
    0.524261951    0.352848232    0.477596790
    0.278902054    0.988772154    0.577524602
    0.028902054    0.338772297    0.642034113
    0.778902054    0.688772321    0.706543565
    0.528901935    0.038772464    0.771053255
    0.278902054    0.388772488    0.835562706
    0.028902054    0.738772631    0.900072157
    0.778902054    0.988772154    0.577524602
    0.528902054    0.338772297    0.642034113
    0.278902054    0.688772321    0.706543565
    0.028902054    0.038772464    0.771053255
    0.778902054    0.388772488    0.835562706
    0.528901935    0.738772631    0.900072157
    0.403902054    0.738772273    0.577524602
    0.153902054    0.088772416    0.642034113
    0.903902054    0.438772440    0.706543565
    0.653901935    0.788772464    0.771053255
    0.403901964    0.138772488    0.835562766
    0.153901935    0.488772631    0.900072217
    0.903902054    0.738772273    0.577524602
    0.653902054    0.088772416    0.642034113
    0.403902054    0.438772440    0.706543565
    0.153902054    0.788772464    0.771053255
    0.903902054    0.138772488    0.835562766
    0.653901935    0.488772631    0.900072217
    0.278902054    0.488772154    0.577524602
    0.028902054    0.838772297    0.642034054
    0.778902054    0.188772321    0.706543624
    0.528901935    0.538772464    0.771053195
    0.278902054    0.888772488    0.835562706
    0.028902054    0.238772631    0.900072217
    0.778902054    0.488772154    0.577524602
    0.528902054    0.838772297    0.642034054
    0.278902054    0.188772321    0.706543624
    0.028902054    0.538772464    0.771053195
    0.778902054    0.888772488    0.835562706
    0.528901935    0.238772631    0.900072217
    0.403902054    0.238772154    0.577524602
    0.153902054    0.588772297    0.642034113
    0.903902054    0.938772321    0.706543565
    0.653901935    0.288772464    0.771053195
    0.403901964    0.638772488    0.835562706
    0.153901935    0.988772631    0.900072157
    0.903902054    0.238772154    0.577524602
    0.653902054    0.588772297    0.642034113
    0.403902054    0.938772321    0.706543565
    0.153902054    0.288772464    0.771053195
    0.903902054    0.638772488    0.835562706
    0.653901935    0.988772631    0.900072157
