Si+C
    1.000000000
   13.303179741    0.000000000    0.000000000
    6.651589394   11.520891190    0.000000000
    0.000000000    0.000000000   21.679418564
Si  C  
72     308
Direct
    0.000000000    0.318506181    0.289268762
    0.000000000    0.985172927    0.000000014
    0.000000000    0.651839554    0.144634396
    0.333333343    0.651839614    0.289268732
    0.333333343    0.318506300    0.000000009
    0.333333343    0.985172868    0.144634381
    0.666666687    0.985172927    0.289268732
    0.666666687    0.651839614    0.000000006
    0.666666687    0.318506241    0.144634381
    0.333333343    0.318506062    0.325427443
    0.333333343    0.985172868    0.036158618
    0.333333343    0.651839495    0.180793002
    1.000000000    0.985172808    0.325427443
    1.000000000    0.651839614    0.036158614
    1.000000000    0.318506271    0.180793002
    0.666666746    0.651839375    0.325427443
    0.666666746    0.318506211    0.036158625
    0.666666746    0.985172868    0.180793002
    0.500000000    0.318506241    0.289268732
    0.500000000    0.985172927    0.000000010
    0.500000000    0.651839554    0.144634381
    0.166666672    0.985172927    0.289268732
    0.166666672    0.651839674    0.000000001
    0.166666672    0.318506241    0.144634381
    0.833333373    0.651839614    0.289268732
    0.833333373    0.318506300    0.000000001
    0.833333373    0.985172927    0.144634381
    0.166666657    0.651839554    0.325427353
    0.166666657    0.318506300    0.036158573
    0.166666657    0.985172868    0.180792958
    0.833333433    0.318506181    0.325427383
    0.833333433    0.985172927    0.036158588
    0.833333433    0.651839495    0.180792972
    0.500000060    0.985172868    0.325427383
    0.500000060    0.651839614    0.036158592
    0.500000060    0.318506211    0.180793002
    0.166666672    0.485172927    0.289268732
    0.166666672    0.151839614    0.000000010
    0.166666672    0.818506241    0.144634381
    0.500000000    0.818506241    0.289268762
    0.500000000    0.485172987    0.000000016
    0.500000000    0.151839584    0.144634396
    0.833333373    0.151839629    0.289268732
    0.833333373    0.818506360    0.000000000
    0.833333373    0.485173017    0.144634351
    0.500000000    0.485172868    0.325427383
    0.500000000    0.151839614    0.036158588
    0.500000000    0.818506241    0.180792972
    0.166666672    0.151839569    0.325427353
    0.166666672    0.818506360    0.036158565
    0.166666672    0.485172927    0.180792958
    0.833333373    0.818506181    0.325427353
    0.833333373    0.485172927    0.036158565
    0.833333373    0.151839525    0.180792958
    0.000000000    0.818506241    0.289268732
    0.000000000    0.485172957    0.000000009
    0.000000000    0.151839554    0.144634381
    0.666666687    0.485172868    0.289268732
    0.666666687    0.151839599    0.000000009
    0.666666687    0.818506181    0.144634381
    0.333333313    0.151839495    0.289268732
    0.333333313    0.818506241    0.000000002
    0.333333313    0.485172868    0.144634351
    0.000000000    0.485172808    0.325427443
    0.000000000    0.151839659    0.036158610
    0.000000000    0.818506300    0.180793002
    0.333333343    0.818506122    0.325427443
    0.333333343    0.485172957    0.036158614
    0.333333343    0.151839599    0.180793002
    0.666666687    0.151839525    0.325427413
    0.666666687    0.818506300    0.036158610
    0.666666687    0.485172957    0.180792972
    0.552727103    0.340606242    0.900184691
    0.219394207    0.007273078    0.425242662
    0.886060834    0.673939645    0.520231068
    0.552727401    0.340606302    0.615219474
    0.219393849    0.007272720    0.710207939
    0.886060476    0.673939347    0.805196404
    0.838441372    0.483463317    0.900184751
    0.505108595    0.150130183    0.425242662
    0.171775103    0.816796780    0.520231068
    0.838441730    0.483463436    0.615219533
    0.505108118    0.150129884    0.710207939
    0.171774745    0.816796541    0.805196345
    0.695584297    0.912034631    0.900184751
    0.362251401    0.578701556    0.425242662
    0.028918028    0.245368212    0.520231068
    0.695584595    0.912034810    0.615219474
    0.362250924    0.578701258    0.710207939
    0.028917670    0.245367974    0.805196404
    0.124155760    0.626320362    0.900184751
    0.790822864    0.292987347    0.425242662
    0.457489431    0.959653914    0.520231068
    0.124155998    0.626320541    0.615219533
    0.790822387    0.292987019    0.710207939
    0.457489073    0.959653616    0.805196464
    0.981298447    0.054891787    0.900184751
    0.647965729    0.721558750    0.425242633
    0.314632267    0.388225406    0.520231009
    0.981298804    0.054891966    0.615219474
    0.647965431    0.721558571    0.710207880
    0.314631879    0.388225049    0.805196404
    0.409869909    0.769177437    0.900184751
    0.076537013    0.435844481    0.425242633
    0.743203700    0.102511086    0.520231009
    0.409870237    0.769177675    0.615219474
    0.076536894    0.435844332    0.710207880
    0.743203282    0.102510773    0.805196404
    0.267012775    0.197748929    0.900184751
    0.933679938    0.864415824    0.425242662
    0.600346506    0.531082451    0.520231068
    0.267013103    0.197749078    0.615219474
    0.933679521    0.864415526    0.710207939
    0.600346148    0.531082213    0.805196345
    0.314632297    0.388225377    0.448989749
    0.981298923    0.054891974    0.543978214
    0.647965491    0.721558571    0.638966620
    0.314631939    0.388225168    0.733955026
    0.981298447    0.054891668    0.828943491
    0.743203759    0.102511100    0.448989749
    0.409870327    0.769177675    0.543978214
    0.076536894    0.435844392    0.638966560
    0.743203402    0.102510892    0.733955026
    0.409869850    0.769177318    0.828943491
    0.600346565    0.531082451    0.448989749
    0.267013162    0.197749108    0.543978214
    0.933679700    0.864415705    0.638966560
    0.600346208    0.531082273    0.733955026
    0.267012715    0.197748870    0.828943431
    0.028917909    0.245368212    0.448989749
    0.695584595    0.912034810    0.543978214
    0.362251103    0.578701437    0.638966620
    0.028917551    0.245367974    0.733955026
    0.695584118    0.912034512    0.828943431
    0.457489431    0.959653974    0.448989749
    0.124155998    0.626320541    0.543978214
    0.790822625    0.292987198    0.638966620
    0.457489073    0.959653616    0.733955026
    0.124155641    0.626320243    0.828943431
    0.886060953    0.673939645    0.448989749
    0.552727520    0.340606272    0.543978214
    0.219394088    0.007272840    0.638966620
    0.886060596    0.673939347    0.733955026
    0.552727044    0.340605944    0.828943491
    0.171775222    0.816796780    0.448989719
    0.838441730    0.483463407    0.543978155
    0.505108356    0.150130033    0.638966560
    0.171774864    0.816796601    0.733955026
    0.838441372    0.483463138    0.828943431
    0.767012835    0.697748899    0.900184691
    0.433679968    0.364415914    0.425242662
    0.100346565    0.031082498    0.520231068
    0.767013133    0.697749078    0.615219474
    0.433679521    0.364415556    0.710207939
    0.100346208    0.031082295    0.805196345
    0.195584297    0.412034661    0.900184691
    0.862251461    0.078701630    0.425242633
    0.528917968    0.745368242    0.520231009
    0.195584536    0.412034899    0.615219474
    0.862250924    0.078701280    0.710207939
    0.528917611    0.745368004    0.805196345
    0.624155641    0.126320332    0.900184751
    0.290822864    0.792987287    0.425242633
    0.957489491    0.459653944    0.520231068
    0.624155998    0.126320496    0.615219474
    0.290822625    0.792987168    0.710207939
    0.957489133    0.459653646    0.805196404
    0.052727103    0.840606093    0.900184751
    0.719394267    0.507273018    0.425242633
    0.386060834    0.173939645    0.520231068
    0.052727342    0.840606213    0.615219474
    0.719394028    0.507272840    0.710207939
    0.386060476    0.173939377    0.805196345
    0.481298506    0.554891706    0.900184751
    0.147965670    0.221558779    0.425242603
    0.814632297    0.888225377    0.520231009
    0.481298804    0.554891944    0.615219474
    0.147965431    0.221558660    0.710207880
    0.814631820    0.888225079    0.805196404
    0.909869909    0.269177586    0.900184751
    0.576537132    0.935844481    0.425242662
    0.243203655    0.602511048    0.520231068
    0.909870267    0.269177705    0.615219474
    0.576536655    0.935844123    0.710207939
    0.243203327    0.602510810    0.805196345
    0.338441432    0.983463287    0.900184751
    0.005108595    0.650130153    0.425242692
    0.671775103    0.316796780    0.520231068
    0.338441730    0.983463407    0.615219533
    0.005108118    0.650129795    0.710207939
    0.671774745    0.316796571    0.805196404
    0.386060894    0.173939675    0.448989719
    0.052727461    0.840606213    0.543978214
    0.719394028    0.507272899    0.638966560
    0.386060536    0.173939496    0.733955026
    0.052727103    0.840605974    0.828943491
    0.243203759    0.602511048    0.448989719
    0.909870267    0.269177675    0.543978214
    0.576536953    0.935844302    0.638966560
    0.243203387    0.602510870    0.733955026
    0.909870028    0.269177407    0.828943372
    0.671775162    0.316796809    0.448989719
    0.338441700    0.983463347    0.543978155
    0.005108237    0.650130033    0.638966560
    0.671774805    0.316796631    0.733955026
    0.338441253    0.983463168    0.828943372
    0.100346446    0.031082489    0.448989719
    0.767013133    0.697749078    0.543978155
    0.433679700    0.364415735    0.638966560
    0.100346208    0.031082295    0.733955026
    0.767012775    0.697748780    0.828943372
    0.528918028    0.745368242    0.448989719
    0.195584536    0.412034810    0.543978155
    0.862251163    0.078701407    0.638966560
    0.528917730    0.745368004    0.733955026
    0.195584178    0.412034541    0.828943431
    0.957489550    0.459653974    0.448989719
    0.624156058    0.126320511    0.543978214
    0.290822625    0.792987108    0.638966620
    0.957489192    0.459653705    0.733955026
    0.624155700    0.126320213    0.828943491
    0.814632297    0.888225317    0.448989719
    0.481298834    0.554891884    0.543978214
    0.147965431    0.221558481    0.638966560
    0.814631939    0.888225079    0.733955026
    0.481298506    0.554891646    0.828943431
    0.695584297    0.412034661    0.900184810
    0.362251401    0.078701615    0.425242662
    0.028917909    0.745368242    0.520231068
    0.695584595    0.412034899    0.615219474
    0.362250984    0.078701340    0.710207939
    0.028917551    0.745367885    0.805196404
    0.552727222    0.840606093    0.900184751
    0.219394326    0.507273018    0.425242662
    0.886060834    0.173939645    0.520231068
    0.552727461    0.840606213    0.615219533
    0.219393849    0.507272661    0.710207939
    0.886060476    0.173939437    0.805196404
    0.981298566    0.554891825    0.900184751
    0.647965729    0.221558779    0.425242633
    0.314632297    0.888225377    0.520231068
    0.981298864    0.554891944    0.615219474
    0.647965252    0.221558422    0.710207939
    0.314631939    0.888225079    0.805196404
    0.838441372    0.983463168    0.900184810
    0.505108535    0.650130212    0.425242633
    0.171775103    0.316796869    0.520231009
    0.838441670    0.983463407    0.615219474
    0.505108297    0.650130093    0.710207880
    0.171774745    0.316796511    0.805196404
    0.267012835    0.697748899    0.900184751
    0.933679998    0.364415944    0.425242633
    0.600346565    0.031082544    0.520231009
    0.267013133    0.697749078    0.615219474
    0.933679760    0.364415795    0.710207880
    0.600346208    0.031082235    0.805196404
    0.124155641    0.126320392    0.900184691
    0.790822864    0.792987287    0.425242662
    0.457489401    0.459653944    0.520231068
    0.124155998    0.126320571    0.615219474
    0.790822387    0.792986989    0.710207939
    0.457489073    0.459653705    0.805196345
    0.409869969    0.269177467    0.900184751
    0.076537132    0.935844421    0.425242662
    0.743203700    0.602511048    0.520231068
    0.409870267    0.269177705    0.615219474
    0.076536655    0.935844123    0.710207939
    0.743203342    0.602510810    0.805196345
    0.600346565    0.031082517    0.448989749
    0.267013103    0.697749078    0.543978214
    0.933679700    0.364415735    0.638966620
    0.600346208    0.031082354    0.733955026
    0.267012715    0.697748780    0.828943491
    0.457489491    0.459653914    0.448989749
    0.124155998    0.126320511    0.543978214
    0.790822625    0.792987108    0.638966560
    0.457489133    0.459653705    0.733955026
    0.124155641    0.126320332    0.828943372
    0.886060894    0.173939645    0.448989749
    0.552727461    0.840606213    0.543978214
    0.219393969    0.507272899    0.638966560
    0.886060536    0.173939437    0.733955026
    0.552727103    0.840605974    0.828943431
    0.314632356    0.888225377    0.448989749
    0.981298864    0.554891944    0.543978214
    0.647965491    0.221558601    0.638966620
    0.314631999    0.888225198    0.733955026
    0.981298447    0.554891706    0.828943491
    0.743203759    0.602511048    0.448989719
    0.409870267    0.269177645    0.543978155
    0.076536775    0.935844243    0.638966560
    0.743203402    0.602510810    0.733954966
    0.409869909    0.269177407    0.828943431
    0.171775222    0.316796809    0.448989719
    0.838441849    0.983463347    0.543978214
    0.505108416    0.650129974    0.638966560
    0.171774864    0.316796571    0.733955026
    0.838441372    0.983463168    0.828943372
    0.028918028    0.745368242    0.448989749
    0.695584595    0.412034810    0.543978214
    0.362251192    0.078701437    0.638966620
    0.028917670    0.745368004    0.733955026
    0.695584238    0.412034601    0.828943431
    0.624155879    0.626320362    0.900184751
    0.290822834    0.292987347    0.425242633
    0.957489371    0.959653914    0.520231068
    0.624155998    0.626320541    0.615219474
    0.290822387    0.292987019    0.710207939
    0.957489014    0.959653735    0.805196345
    0.052727103    0.340606123    0.900184691
    0.719394267    0.007273078    0.425242633
    0.386060804    0.673939645    0.520231068
    0.052727342    0.340606302    0.615219474
    0.719393790    0.007272720    0.710207939
    0.386060417    0.673939466    0.805196345
    0.909869909    0.769177556    0.900184751
    0.576537132    0.435844481    0.425242662
    0.243203685    0.102511123    0.520231009
    0.909870267    0.769177675    0.615219474
    0.576536834    0.435844392    0.710207880
    0.243203267    0.102510832    0.805196404
    0.338441312    0.483463198    0.900184810
    0.005108476    0.150130153    0.425242633
    0.671775103    0.816796780    0.520231009
    0.338441610    0.483463377    0.615219474
    0.005108237    0.150130063    0.710207880
    0.671774685    0.816796541    0.805196345
    0.767012715    0.197748929    0.900184751
    0.433679998    0.864415824    0.425242662
    0.100346565    0.531082451    0.520231068
    0.767013192    0.197749078    0.615219474
    0.433679521    0.864415526    0.710207939
    0.100346088    0.531082153    0.805196404
    0.195584297    0.912034631    0.900184691
    0.862251461    0.578701615    0.425242633
    0.528917968    0.245368212    0.520231009
    0.195584536    0.912034810    0.615219474
    0.862250984    0.578701258    0.710207939
    0.528917611    0.245367974    0.805196345
    0.481298506    0.054891787    0.900184751
    0.147965670    0.721558690    0.425242662
    0.814632297    0.388225317    0.520231068
    0.481298804    0.054891936    0.615219474
    0.147965193    0.721558332    0.710207939
    0.814631939    0.388225108    0.805196404
    0.243203774    0.102511175    0.448989749
    0.909870386    0.769177794    0.543978214
    0.576536894    0.435844392    0.638966620
    0.243203387    0.102510951    0.733955026
    0.909869909    0.769177437    0.828943491
    0.528918087    0.245368302    0.448989749
    0.195584655    0.912034869    0.543978214
    0.862251163    0.578701496    0.638966620
    0.528917670    0.245368034    0.733955026
    0.195584178    0.912034631    0.828943491
    0.386060953    0.673939645    0.448989749
    0.052727461    0.340606332    0.543978214
    0.719394088    0.007272959    0.638966560
    0.386060536    0.673939466    0.733955026
    0.052727103    0.340606004    0.828943491
    0.814632356    0.388225436    0.448989749
    0.481298894    0.054892045    0.543978214
    0.147965431    0.721558630    0.638966620
    0.814631939    0.388225168    0.733955026
    0.481298447    0.054891728    0.828943491
    0.671775162    0.816796780    0.448989749
    0.338441700    0.483463436    0.543978155
    0.005108237    0.150130033    0.638966560
    0.671774745    0.816796541    0.733955026
    0.338441253    0.483463079    0.828943431
    0.100346565    0.531082451    0.448989719
    0.767013133    0.197749108    0.543978214
    0.433679700    0.864415705    0.638966620
    0.100346088    0.531082213    0.733955026
    0.767012656    0.197748810    0.828943431
    0.957489491    0.959654033    0.448989779
    0.624156058    0.626320660    0.543978214
    0.290822625    0.292987317    0.638966620
    0.957489133    0.959653735    0.733955026
    0.624155641    0.626320362    0.828943491
