Sn+Si
    1.000000000
   19.467599869    0.000000000    0.000000000
    0.000000000   19.467599869    0.000000000
    0.000000000    0.000000000   14.900251389
Sn  Si 
108     156
Direct
    0.078368433    0.583333433    0.108877368
    0.828368425    0.666666687    0.217754737
    0.034354549    0.810430348    0.544386804
    0.995035112    0.333333343    0.000000000
    0.649739146    0.733507276    0.544386804
    0.578368366    0.750000060    0.544386804
    0.995035112    0.000000000    0.000000000
    0.328368455    0.333333343    0.000000000
    0.661701739    0.000000000    0.435509443
    0.328368455    0.666666687    0.000000000
    0.161701739    0.666666687    0.217754737
    0.149739176    0.233507246    0.544386804
    0.828368425    0.000000000    0.217754737
    0.130508244    0.329661191    1.000000238
    0.611277640    0.925815046    0.544386804
    0.328368455    0.000000000    0.000000000
    0.578368366    0.416666716    0.544386804
    0.995035112    0.000000000    0.435509443
    0.661701798    0.666666687    0.000000000
    0.495035112    0.666666687    0.217754737
    0.328368455    0.666666687    0.435509443
    0.661701798    0.333333343    0.000000000
    0.745893121    0.252737999    0.635509431
    0.245035127    0.750000060    0.544386804
    0.661701798    0.000000000    0.000000000
    0.226662278    0.848891854    0.544386804
    0.328368455    0.000000000    0.435509443
    0.161701769    0.833333313    0.000000000
    0.911701798    0.916666746    0.326632023
    0.828368425    0.833333313    0.435509443
    0.995035112    0.666666687    0.000000000
    0.938200533    0.291199625    1.000000238
    0.745035052    0.583333433    0.544386804
    0.078368433    0.250000000    0.108877368
    0.911701798    0.250000000    0.326632023
    0.745035052    0.250000000    0.544386804
    0.411701769    0.916666746    0.108877368
    0.245035097    0.916666746    0.326632023
    0.078368381    0.916666746    0.544386804
    0.411701769    0.583333433    0.108877368
    0.245035097    0.583333433    0.326632023
    0.578368545    0.250000000    0.326632023
    0.707431197    0.445045829    1.000000238
    0.245035097    0.250000000    0.326632023
    0.078368381    0.250000000    0.544386804
    0.745035172    0.916666746    0.108877368
    0.578368545    0.916666746    0.326632023
    0.411701798    0.916666746    0.544386804
    0.745035172    0.583333433    0.108877368
    0.245892838    0.752738118    1.000000238
    0.411701798    0.583333433    0.544386804
    0.745035172    0.250000000    0.108877368
    0.745892763    0.252738148    1.000000238
    0.411701798    0.250000000    0.544386804
    0.078368433    0.916666746    0.108877368
    0.092046715    0.521968901    1.000000238
    0.745035052    0.916666746    0.544386804
    0.161701769    0.500000000    0.000000000
    0.995035052    0.500000000    0.217754737
    0.828368425    0.500000000    0.435509443
    0.161701769    0.166666672    0.000000000
    0.995035052    0.166666672    0.217754737
    0.911701739    0.083333343    0.544386804
    0.495035112    0.833333313    0.000000000
    0.995893002    0.002737983    0.544386804
    0.161701754    0.833333313    0.435509443
    0.578368485    0.083333343    0.108877368
    0.495893061    0.502738118    0.544386804
    0.457431525    0.695045650    0.544386804
    0.495035112    0.166666672    0.000000000
    0.328368425    0.166666672    0.217754737
    0.161701754    0.166666672    0.435509443
    0.828368545    0.833333313    0.000000000
    0.688200712    0.541199565    0.544386804
    0.495035201    0.833333313    0.435509443
    0.911701739    0.083333343    0.108877368
    0.661701858    0.500000000    0.217754737
    0.495035201    0.500000000    0.435509443
    0.411701858    0.750000060    0.326632023
    0.661701858    0.166666672    0.217754737
    0.495035201    0.166666672    0.435509443
    0.245035097    0.750000060    0.108877368
    0.078368433    0.750000060    0.326632023
    0.911701739    0.750000060    0.544386804
    0.399739027    0.983507454    1.000000238
    0.078368433    0.416666716    0.326632023
    0.911701739    0.416666716    0.544386804
    0.861277401    0.675815046    1.000000238
    0.899738967    0.483507365    1.000000238
    0.828368425    0.166666672    0.435509443
    0.578368485    0.750000060    0.108877368
    0.828368545    0.166666672    0.000000000
    0.328368455    0.333333343    0.435509443
    0.578368485    0.416666716    0.108877368
    0.411701858    0.416666716    0.326632023
    0.245035127    0.416666716    0.544386804
    0.495035112    0.500000000    0.000000000
    0.411701858    0.083333343    0.326632023
    0.245035127    0.083333343    0.544386804
    0.911701739    0.750000060    0.108877368
    0.476662189    0.598891973    1.000000238
    0.661701739    0.333333343    0.435509443
    0.284354359    0.560430527    1.000000238
    0.745035052    0.416666716    0.326632023
    0.161701739    0.000000000    0.217754737
    0.828368545    0.500000000    0.000000000
    0.842046857    0.771968901    0.544386804
    0.578368366    0.083333343    0.544386804
    0.765123904    0.156584159    0.544386804
    0.649739206    0.233507276    0.726632059
    0.534354508    0.310430437    0.908877313
    0.918970048    0.387353361    0.544386804
    0.803585351    0.464276463    0.726632059
    0.688200653    0.541199625    0.908877313
    0.380508453    0.079661071    0.544386804
    0.265123755    0.156584203    0.726632059
    0.149739057    0.233507335    0.908877313
    0.534354627    0.310430348    0.544386804
    0.418969899    0.387353480    0.726632059
    0.303585202    0.464276612    0.908877313
    0.661701858    0.833333313    0.217754737
    0.572816014    0.618122697    0.726632059
    0.457431316    0.695045829    0.908877313
    0.745035052    0.083333343    0.326632023
    0.726662159    0.848892033    0.726632059
    0.611277461    0.925815165    0.908877313
    0.328368425    0.833333313    0.217754737
    0.880508304    0.079661109    0.726632059
    0.765123606    0.156584248    0.908877313
    0.995035112    0.666666687    0.435509443
    0.034354486    0.310430378    0.726632059
    0.918969750    0.387353510    0.908877313
    0.303585351    0.464276522    0.544386804
    0.188200638    0.541199625    0.726632059
    0.072815925    0.618122756    0.908877313
    0.161701754    0.500000000    0.435509443
    0.342046827    0.771968782    0.726632059
    0.226662114    0.848891914    0.908877313
    0.995035112    0.333333343    0.435509443
    0.495892942    0.002738118    0.726632059
    0.380508244    0.079661250    0.908877313
    0.072816089    0.618122637    0.544386804
    0.957431376    0.695045769    0.726632059
    0.842046678    0.771968961    0.908877313
    0.495035112    0.000000000    0.217754737
    0.111277580    0.925814927    0.726632059
    0.745035052    0.083333343    0.326632023
    0.976662219    0.098891854    0.635509431
    0.861277521    0.175814986    0.817754686
    0.578368545    0.250000000    0.326632023
    0.592046857    0.021968842    0.635509431
    0.476662189    0.098891973    0.817754686
    0.361277431    0.175815105    1.000000238
    0.495035112    0.333333343    0.217754737
    0.630508423    0.329661161    0.817754686
    0.328368425    0.833333313    0.217754737
    0.899739206    0.483507246    0.635509431
    0.784354508    0.560430408    0.817754686
    0.668969750    0.637353539    1.000000238
    0.361277670    0.175814927    0.635509431
    0.245892972    0.252738059    0.817754686
    0.161701739    0.333333343    0.217754737
    0.515123785    0.406584233    0.635509431
    0.399739087    0.483507365    0.817754686
    0.911701739    0.416666716    0.108877368
    0.668969929    0.637353420    0.635509431
    0.553585231    0.714276552    0.817754686
    0.438200504    0.791199684    1.000000238
    0.822816074    0.868122697    0.635509431
    0.707431376    0.945045829    0.817754686
    0.592046678    0.021968961    1.000000238
    0.130508408    0.329661101    0.635509431
    0.015123707    0.406584203    0.817754686
    0.078368433    0.083333343    0.326632023
    0.284354538    0.560430408    0.635509431
    0.168969840    0.637353480    0.817754686
    0.053585116    0.714276671    1.000000238
    0.438200682    0.791199565    0.635509431
    0.322815984    0.868122697    0.817754686
    0.207431272    0.945045829    1.000000238
    0.053585317    0.714276493    0.635509431
    0.938200593    0.791199684    0.817754686
    0.822815895    0.868122756    1.000000238
    0.207431480    0.945045710    0.635509431
    0.092046745    0.021968842    0.817754686
    0.976662040    0.098891973    1.000000238
    0.957431495    0.195045754    0.544386804
    0.842046797    0.271968871    0.726632059
    0.726662099    0.348892033    0.908877313
    0.572816074    0.118122637    0.544386804
    0.457431376    0.195045769    0.726632059
    0.342046678    0.271968901    0.908877313
    0.726662338    0.348891944    0.544386804
    0.611277580    0.425815076    0.726632059
    0.495892912    0.502738237    0.908877313
    0.911701798    0.583333433    0.326632023
    0.765123725    0.656584322    0.726632059
    0.649739027    0.733507454    0.908877313
    0.188200742    0.041199543    0.544386804
    0.072816044    0.118122667    0.726632059
    0.957431316    0.195045799    0.908877313
    0.342046916    0.271968812    0.544386804
    0.226662219    0.348891944    0.726632059
    0.111277498    0.425815076    0.908877313
    0.328368425    0.500000000    0.217754737
    0.380508333    0.579661250    0.726632059
    0.265123636    0.656584382    0.908877313
    0.828368425    0.333333343    0.217754737
    0.534354448    0.810430408    0.726632059
    0.418969750    0.887353539    0.908877313
    0.803585351    0.964276612    0.544386804
    0.688200653    0.041199684    0.726632059
    0.572815955    0.118122816    0.908877313
    0.111277640    0.425814986    0.544386804
    0.995892942    0.502738118    0.726632059
    0.880508244    0.579661250    0.908877313
    0.078368433    0.083333343    0.326632023
    0.149739131    0.733507395    0.726632059
    0.034354419    0.810430527    0.908877313
    0.418969989    0.887353480    0.544386804
    0.303585261    0.964276612    0.726632059
    0.188200563    0.041199684    0.908877313
    0.661701739    0.666666687    0.435509443
    0.918969870    0.887353480    0.726632059
    0.803585112    0.964276612    0.908877313
    0.784354687    0.060430307    0.635509431
    0.668969929    0.137353450    0.817754686
    0.553585231    0.214276582    1.000000238
    0.938200653    0.291199535    0.635509431
    0.822815955    0.368122697    0.817754686
    0.411701769    0.250000000    0.108877368
    0.553585410    0.214276463    0.635509431
    0.438200712    0.291199595    0.817754686
    0.322815984    0.368122756    1.000000238
    0.707431614    0.445045710    0.635509431
    0.592046916    0.521968842    0.817754686
    0.745035052    0.750000060    0.326632023
    0.861277819    0.675814986    0.635509431
    0.745893121    0.752738118    0.817754686
    0.630508363    0.829661250    1.000000238
    0.168969959    0.137353346    0.635509431
    0.053585250    0.214276478    0.817754686
    0.911701798    0.583333433    0.326632023
    0.322816133    0.368122637    0.635509431
    0.207431436    0.445045769    0.817754686
    0.995035052    0.833333313    0.217754737
    0.476662278    0.598891854    0.635509431
    0.361277580    0.675814986    0.817754686
    0.578368545    0.583333433    0.326632023
    0.630508482    0.829661191    0.635509431
    0.515123785    0.906584322    0.817754686
    0.245035097    0.416666716    0.108877368
    0.092046842    0.521968782    0.635509431
    0.976662159    0.598891914    0.817754686
    0.245035097    0.083333343    0.108877368
    0.245893016    0.752737999    0.635509431
    0.130508304    0.829661131    0.817754686
    0.015123579    0.906584322    1.000000238
    0.399739236    0.983507335    0.635509431
    0.284354538    0.060430527    0.817754686
    0.168969825    0.137353659    1.000000238
    0.015123781    0.906584144    0.635509431
    0.899739027    0.983507335    0.817754686
    0.784354329    0.060430408    1.000000238
