Sn+Si
    1.000000000
    9.177114487    0.000000000    0.000000000
    0.000000000   12.978401184    0.000000000
    0.000000000    0.000000000   21.072139740
Sn  Si 
48     72
Direct
    0.982020497    0.982020497    0.000000001
    0.732020497    0.732020497    0.108877338
    0.482020438    0.482020438    0.217754737
    0.232020438    0.232020438    0.326632053
    0.982020378    0.982020378    0.435509384
    0.732020378    0.732020378    0.544386804
    0.982020497    0.482020497    0.000000001
    0.732020497    0.232020482    0.108877338
    0.482020438    0.982020438    0.217754737
    0.232020438    0.732020378    0.326632053
    0.982020378    0.482020378    0.435509384
    0.732020378    0.232020319    0.544386804
    0.482020468    0.982020497    0.000000001
    0.232020468    0.732020497    0.108877338
    0.982020438    0.482020438    0.217754722
    0.732020378    0.232020438    0.326632053
    0.482020378    0.982020378    0.435509384
    0.232020319    0.732020378    0.544386804
    0.482020468    0.482020497    0.000000001
    0.232020468    0.232020482    0.108877338
    0.982020438    0.982020438    0.217754722
    0.732020378    0.732020378    0.326632053
    0.482020378    0.482020378    0.435509384
    0.232020319    0.232020319    0.544386804
    0.732020438    0.357020497    0.000000000
    0.482020438    0.107020468    0.108877346
    0.232020378    0.857020378    0.217754737
    0.982020319    0.607020378    0.326632082
    0.732020319    0.357020319    0.435509443
    0.482020319    0.107020319    0.544386804
    0.732020438    0.857020438    0.000000000
    0.482020438    0.607020438    0.108877346
    0.232020378    0.357020378    0.217754737
    0.982020319    0.107020333    0.326632082
    0.732020319    0.857020378    0.435509443
    0.482020319    0.607020259    0.544386804
    0.232020482    0.357020497    0.000000001
    0.982020497    0.107020468    0.108877346
    0.732020378    0.857020378    0.217754737
    0.482020319    0.607020378    0.326632082
    0.232020378    0.357020319    0.435509384
    0.982020378    0.107020319    0.544386804
    0.232020482    0.857020438    0.000000001
    0.982020497    0.607020438    0.108877346
    0.732020378    0.357020378    0.217754737
    0.482020319    0.107020333    0.326632082
    0.232020378    0.857020378    0.435509384
    0.982020378    0.607020259    0.544386804
    0.000000000    0.021482719    0.544386804
    0.999999940    0.271482795    0.635509431
    0.999999940    0.521482825    0.726631999
    0.999999881    0.771482944    0.817754626
    0.999999881    0.021483064    0.908877254
    0.999999881    0.271483064    0.999999881
    0.333333373    0.354816079    0.544386804
    0.333333284    0.604816139    0.635509431
    0.333333284    0.854816139    0.726631999
    0.333333224    0.104816318    0.817754626
    0.333333135    0.354816198    0.908877254
    0.333333284    0.604816556    0.999999881
    0.666666687    0.688149393    0.544386804
    0.666666627    0.938149452    0.635509431
    0.666666627    0.188149452    0.726631999
    0.666666627    0.438149691    0.817754626
    0.666666627    0.688149691    0.908877254
    0.666666567    0.938149810    0.999999881
    0.000000023    0.521482766    0.544386804
    0.000000000    0.771482825    0.635509431
    0.999999940    0.021482825    0.726631999
    0.999999881    0.271482944    0.817754626
    0.999999762    0.521482944    0.908877254
    0.999999821    0.771483183    1.000000000
    0.333333373    0.854816139    0.544386804
    0.333333313    0.104816198    0.635509431
    0.333333284    0.354816198    0.726631999
    0.333333313    0.604816318    0.817754626
    0.333333284    0.854816437    0.908877254
    0.333333224    0.104816675    1.000000000
    0.666666746    0.188149393    0.544386804
    0.666666627    0.438149482    0.635509431
    0.666666627    0.688149512    0.726631999
    0.666666567    0.938149571    0.817754626
    0.666666567    0.188149571    0.908877254
    0.666666567    0.438149929    1.000000000
    0.083333328    0.354816020    0.544386804
    0.083333276    0.604816139    0.635509431
    0.083333306    0.854816198    0.726631999
    0.083333224    0.104816198    0.817754626
    0.083333194    0.354816437    0.908877254
    0.083333224    0.604816556    0.999999881
    0.416666687    0.688149393    0.544386804
    0.416666597    0.938149393    0.635509431
    0.416666657    0.188149452    0.726631999
    0.416666538    0.438149571    0.817754626
    0.416666448    0.688149691    0.908877254
    0.416666478    0.938149810    0.999999881
    0.750000060    0.021482732    0.544386804
    0.750000060    0.271482795    0.635509431
    0.750000000    0.521482885    0.726631999
    0.749999881    0.771482944    0.817754626
    0.750000000    0.021483183    0.908877254
    0.749999881    0.271483183    1.000000000
    0.083333336    0.854816079    0.544386804
    0.083333246    0.104816198    0.635509431
    0.083333336    0.354816318    0.726631999
    0.083333254    0.604816318    0.817754626
    0.083333224    0.854816556    0.908877254
    0.083333135    0.104816437    1.000000000
    0.416666716    0.188149393    0.544386804
    0.416666657    0.438149482    0.635509431
    0.416666627    0.688149571    0.726631999
    0.416666597    0.938149571    0.817754626
    0.416666597    0.188149810    0.908877254
    0.416666508    0.438149810    0.999999881
    0.750000000    0.521482706    0.544386804
    0.750000000    0.771482766    0.635509431
    0.750000060    0.021482944    0.726631999
    0.749999940    0.271482944    0.817754626
    0.749999940    0.521483064    0.908877254
    0.749999881    0.771483064    0.999999881
