Si+C
    1.000000000
   13.303179741    0.000000000    0.000000000
   -6.651589394   11.520891190    0.000000000
    0.000000000    0.000000000   17.351549149
Si  C  
72     308
Direct
    0.348160356    0.681493700    0.000000016
    0.681493759    0.014827132    0.180709481
    0.014827251    0.348160625    0.361418992
    0.014827028    0.014827028    0.000000018
    0.348160386    0.348160386    0.180709481
    0.681493878    0.681493878    0.361418992
    0.681493700    0.348160356    0.000000000
    0.014827132    0.681493759    0.180709451
    0.348160625    0.014827251    0.361418962
    0.014827013    0.681493759    0.045177381
    0.348160386    0.014827132    0.225886866
    0.681493878    0.348160625    0.406596422
    0.348160416    0.348160416    0.045177396
    0.681493759    0.681493819    0.225886881
    0.014827251    0.014827251    0.406596422
    0.681493759    0.014827013    0.045177381
    0.014827132    0.348160386    0.225886866
    0.348160625    0.681493878    0.406596363
    0.014827028    0.514827013    0.000000021
    0.348160416    0.848160446    0.180709496
    0.681493819    0.181493878    0.361418992
    0.681493759    0.848160386    0.000000047
    0.014827132    0.181493759    0.180709481
    0.348160625    0.514827251    0.361418992
    0.348160386    0.181493685    0.000000010
    0.681493759    0.514827073    0.180709451
    0.014827132    0.848160505    0.361418962
    0.348160416    0.848160267    0.045177333
    0.681493878    0.181493759    0.225886837
    0.014827132    0.514827013    0.406596303
    0.014827132    0.181493700    0.045177359
    0.348160505    0.514827132    0.225886837
    0.681493759    0.848160446    0.406596243
    0.681493819    0.514827073    0.045177344
    0.014827251    0.848160505    0.225886866
    0.348160625    0.181493878    0.406596333
    0.181493700    0.848160386    0.000000029
    0.514827073    0.181493759    0.180709481
    0.848160565    0.514827251    0.361418992
    0.514827013    0.514827013    0.000000018
    0.848160446    0.848160386    0.180709481
    0.181493878    0.181493878    0.361418992
    0.848160386    0.181493700    0.000000006
    0.181493759    0.514827073    0.180709451
    0.514827251    0.848160565    0.361418992
    0.181493685    0.514827013    0.045177344
    0.514827132    0.848160505    0.225886866
    0.848160446    0.181493759    0.406596303
    0.848160386    0.848160386    0.045177318
    0.181493878    0.181493878    0.225886866
    0.514827251    0.514827251    0.406596333
    0.514827073    0.181493670    0.045177344
    0.848160505    0.514827132    0.225886866
    0.181493759    0.848160446    0.406596333
    0.181493700    0.348160356    0.000000016
    0.514827073    0.681493759    0.180709481
    0.848160505    0.014827132    0.361418992
    0.848160386    0.681493759    0.000000034
    0.181493759    0.014827132    0.180709481
    0.514827251    0.348160625    0.361418992
    0.514827013    0.014827021    0.000000016
    0.848160386    0.348160416    0.180709481
    0.181493878    0.681493819    0.361418992
    0.514827013    0.681493640    0.045177396
    0.848160386    0.014827013    0.225886866
    0.181493878    0.348160505    0.406596422
    0.181493655    0.014827013    0.045177389
    0.514827013    0.348160386    0.225886866
    0.848160446    0.681493878    0.406596422
    0.848160446    0.348160386    0.045177381
    0.181493878    0.681493759    0.225886866
    0.514827251    0.014827251    0.406596363
    0.756872892    0.946091175    0.999999821
    0.709254205    0.136567697    0.406596422
    0.518777907    0.898472369    0.525277138
    0.328301668    0.660377085    0.643957734
    0.137825355    0.422281682    0.762638450
    0.947349191    0.184186459    0.881319046
    0.899730027    0.374662638    0.999999821
    0.852111340    0.565139174    0.406596482
    0.661635041    0.327043861    0.525277138
    0.471158803    0.088948570    0.643957794
    0.280682504    0.850853205    0.762638509
    0.090206273    0.612757921    0.881319165
    0.471158564    0.088948309    0.999999821
    0.423539877    0.279424876    0.406596422
    0.233063608    0.041329533    0.525277138
    0.042587359    0.803234220    0.643957734
    0.852110982    0.565138817    0.762638509
    0.661634803    0.327043653    0.881319165
    0.614015698    0.517519772    0.999999821
    0.566397011    0.707996249    0.406596422
    0.375920773    0.469900966    0.525277138
    0.185444534    0.231805682    0.643957734
    0.994968176    0.993710279    0.762638450
    0.804491997    0.755615056    0.881319165
    0.042587161    0.803233981    0.999999821
    0.994968414    0.993710577    0.406596422
    0.804492176    0.755615234    0.525277138
    0.614015937    0.517519951    0.643957734
    0.423539579    0.279424608    0.762638450
    0.233063400    0.041329324    0.881319046
    0.185444295    0.231805444    0.999999821
    0.137825593    0.422281981    0.406596422
    0.947349310    0.184186667    0.525277138
    0.756873071    0.946091413    0.643957734
    0.566396713    0.707996011    0.762638509
    0.375920534    0.469900787    0.881319046
    0.328301430    0.660376906    0.999999821
    0.280682713    0.850853443    0.406596422
    0.090206467    0.612758100    0.525277138
    0.899730206    0.374662846    0.643957734
    0.709253907    0.136567444    0.762638509
    0.518777728    0.898472190    0.881319046
    0.947349370    0.184186697    0.436266601
    0.756873131    0.946091413    0.554947257
    0.566396892    0.707996130    0.673628032
    0.375920534    0.469900727    0.792308688
    0.185444236    0.231805384    0.910989344
    0.661635101    0.327043891    0.436266601
    0.471158862    0.088948607    0.554947197
    0.280682623    0.850853324    0.673627913
    0.090206333    0.612757981    0.792308629
    0.899729967    0.374662519    0.910989344
    0.804492295    0.755615354    0.436266601
    0.614016056    0.517520070    0.554947197
    0.423539788    0.279424757    0.673628032
    0.233063504    0.041329399    0.792308629
    0.042587169    0.803233981    0.910989344
    0.233063668    0.041329596    0.436266601
    0.042587414    0.803234279    0.554947257
    0.852111161    0.565138996    0.673628032
    0.661634803    0.327043593    0.792308688
    0.471158504    0.088948250    0.910989344
    0.375920832    0.469901025    0.436266601
    0.185444579    0.231805727    0.554947257
    0.994968355    0.993710399    0.673628032
    0.804491997    0.755615056    0.792308629
    0.614015698    0.517519653    0.910989344
    0.518777966    0.898472488    0.436266601
    0.328301758    0.660377204    0.554947257
    0.137825489    0.422281921    0.673628032
    0.947349191    0.184186533    0.792308629
    0.756872833    0.946091115    0.910989344
    0.090206496    0.612758160    0.436266601
    0.899730265    0.374662846    0.554947257
    0.709254026    0.136567563    0.673628032
    0.518777728    0.898472190    0.792308688
    0.328301370    0.660376787    0.910989344
    0.971158683    0.088948369    0.999999821
    0.923539937    0.279424876    0.406596422
    0.733063698    0.041329559    0.525277138
    0.542587459    0.803234279    0.643957734
    0.352111101    0.565138817    0.762638450
    0.161634922    0.327043653    0.881319165
    0.542587161    0.803233981    0.999999821
    0.494968474    0.993710577    0.406596422
    0.304492205    0.755615234    0.525277138
    0.114015952    0.517519951    0.643957734
    0.923539639    0.279424548    0.762638509
    0.733063400    0.041329265    0.881319165
    0.685444355    0.231805444    0.999999821
    0.637825608    0.422282010    0.406596482
    0.447349370    0.184186682    0.525277138
    0.256873131    0.946091413    0.643957794
    0.066396803    0.707996011    0.762638509
    0.875920534    0.469900787    0.881319165
    0.828301430    0.660376906    0.999999821
    0.780682743    0.850853443    0.406596422
    0.590206444    0.612758100    0.525277138
    0.399730206    0.374662817    0.643957794
    0.209253892    0.136567414    0.762638509
    0.018777668    0.898472190    0.881319165
    0.256872833    0.946091175    0.999999821
    0.209254161    0.136567712    0.406596422
    0.018777886    0.898472369    0.525277138
    0.828301668    0.660377145    0.643957734
    0.637825310    0.422281682    0.762638450
    0.447349131    0.184186399    0.881319165
    0.399729967    0.374662578    0.999999821
    0.352111280    0.565139174    0.406596422
    0.161635026    0.327043831    0.525277138
    0.971158803    0.088948548    0.643957734
    0.780682445    0.850853145    0.762638509
    0.590206265    0.612757921    0.881319165
    0.114015698    0.517519712    0.999999821
    0.066397004    0.707996249    0.406596422
    0.875920713    0.469900966    0.525277138
    0.685444474    0.231805667    0.643957734
    0.494968176    0.993710279    0.762638509
    0.304491937    0.755614996    0.881319165
    0.733063757    0.041329611    0.436266601
    0.542587519    0.803234279    0.554947257
    0.352111220    0.565138996    0.673627913
    0.161634907    0.327043653    0.792308629
    0.971158624    0.088948309    0.910989344
    0.875920892    0.469900995    0.436266601
    0.685444653    0.231805697    0.554947257
    0.494968355    0.993710399    0.673628032
    0.304492086    0.755615056    0.792308629
    0.114015721    0.517519653    0.910989344
    0.447349399    0.184186742    0.436266541
    0.256873101    0.946091413    0.554947197
    0.066396870    0.707996130    0.673627913
    0.875920653    0.469900846    0.792308629
    0.685444295    0.231805503    0.910989344
    0.590206563    0.612758219    0.436266541
    0.399730265    0.374662876    0.554947197
    0.209254056    0.136567593    0.673627913
    0.018777782    0.898472250    0.792308629
    0.828301549    0.660376906    0.910989225
    0.161635101    0.327043891    0.436266601
    0.971158803    0.088948540    0.554947257
    0.780682564    0.850853264    0.673628032
    0.590206325    0.612757981    0.792308629
    0.399730027    0.374662638    0.910989344
    0.304492235    0.755615354    0.436266601
    0.114015967    0.517520010    0.554947257
    0.923539758    0.279424727    0.673627913
    0.733063459    0.041329399    0.792308629
    0.542587221    0.803234041    0.910989344
    0.018777935    0.898472488    0.436266601
    0.828301668    0.660377204    0.554947257
    0.637825370    0.422281891    0.673627913
    0.447349131    0.184186563    0.792308629
    0.256872833    0.946091235    0.910989344
    0.899730086    0.874662638    0.999999821
    0.852111340    0.065139137    0.406596482
    0.661635101    0.827043772    0.525277138
    0.471158892    0.588948548    0.643957794
    0.280682504    0.350853145    0.762638509
    0.090206318    0.112757921    0.881319165
    0.614015818    0.017519772    0.999999821
    0.566397071    0.207996309    0.406596482
    0.375920802    0.969900966    0.525277138
    0.185444564    0.731805682    0.643957794
    0.994968235    0.493710339    0.762638509
    0.804491997    0.255615115    0.881319165
    0.756872892    0.446091115    0.999999821
    0.709254205    0.636567712    0.406596422
    0.518777907    0.398472369    0.525277138
    0.328301668    0.160377100    0.643957734
    0.137825355    0.922281742    0.762638450
    0.947349131    0.684186459    0.881319046
    0.328301489    0.160376847    0.999999821
    0.280682743    0.350853413    0.406596422
    0.090206467    0.112758093    0.525277138
    0.899730206    0.874662817    0.643957734
    0.709253907    0.636567414    0.762638509
    0.518777728    0.398472190    0.881319165
    0.471158624    0.588948309    0.999999821
    0.423539877    0.779424846    0.406596422
    0.233063623    0.541329563    0.525277138
    0.042587388    0.303234249    0.643957734
    0.852111042    0.065138839    0.762638450
    0.661634862    0.827043593    0.881319046
    0.042587101    0.303234041    0.999999821
    0.994968414    0.493710548    0.406596422
    0.804492176    0.255615234    0.525277138
    0.614015937    0.017519958    0.643957734
    0.423539579    0.779424548    0.762638509
    0.233063400    0.541329324    0.881319046
    0.185444295    0.731805444    0.999999821
    0.137825578    0.922282040    0.406596422
    0.947349310    0.684186697    0.525277138
    0.756873012    0.446091413    0.643957734
    0.566396832    0.207996175    0.762638390
    0.375920534    0.969900787    0.881319165
    0.804492295    0.255615234    0.436266601
    0.614016056    0.017519956    0.554947257
    0.423539758    0.779424667    0.673628032
    0.233063474    0.541329324    0.792308688
    0.042587120    0.303233862    0.910989344
    0.947349429    0.684186757    0.436266601
    0.756873131    0.446091443    0.554947257
    0.566396892    0.207996145    0.673628032
    0.375920594    0.969900787    0.792308688
    0.185444295    0.731805384    0.910989344
    0.518777966    0.398472488    0.436266601
    0.328301698    0.160377130    0.554947257
    0.137825489    0.922281861    0.673628032
    0.947349191    0.684186578    0.792308688
    0.756872892    0.446091235    0.910989344
    0.661635160    0.827043891    0.436266601
    0.471158832    0.588948548    0.554947257
    0.280682623    0.350853264    0.673627913
    0.090206385    0.112757951    0.792308629
    0.899730086    0.874662638    0.910989344
    0.090206534    0.112758130    0.436266601
    0.899730206    0.874662757    0.554947257
    0.709254026    0.636567473    0.673627913
    0.518777728    0.398472250    0.792308629
    0.328301489    0.160376906    0.910989344
    0.233063698    0.541329622    0.436266601
    0.042587407    0.303234249    0.554947257
    0.852111161    0.065139003    0.673627913
    0.661634922    0.827043653    0.792308629
    0.471158624    0.588948369    0.910989344
    0.375920832    0.969900966    0.436266541
    0.185444534    0.731805682    0.554947197
    0.994968295    0.493710399    0.673627913
    0.804492056    0.255615056    0.792308629
    0.614015758    0.017519712    0.910989225
    0.828301549    0.160376847    0.999999821
    0.780682802    0.350853413    0.406596482
    0.590206563    0.112758100    0.525277138
    0.399730325    0.874662817    0.643957794
    0.209253982    0.636567414    0.762638509
    0.018777743    0.398472130    0.881319225
    0.971158683    0.588948309    0.999999821
    0.923539996    0.779424846    0.406596422
    0.733063698    0.541329563    0.525277138
    0.542587459    0.303234279    0.643957734
    0.352111131    0.065138876    0.762638450
    0.161634937    0.827043653    0.881319046
    0.399729967    0.874662519    0.999999821
    0.352111310    0.065139122    0.406596422
    0.161635041    0.827043772    0.525277138
    0.971158803    0.588948488    0.643957734
    0.780682445    0.350853086    0.762638450
    0.590206265    0.112757862    0.881319165
    0.542587101    0.303233981    0.999999821
    0.494968444    0.493710548    0.406596422
    0.304492176    0.255615234    0.525277138
    0.114015944    0.017519962    0.643957734
    0.923539639    0.779424548    0.762638509
    0.733063340    0.541329324    0.881319165
    0.685444355    0.731805503    0.999999821
    0.637825668    0.922282040    0.406596422
    0.447349370    0.684186697    0.525277138
    0.256873131    0.446091443    0.643957734
    0.066396810    0.207996041    0.762638450
    0.875920594    0.969900846    0.881319046
    0.114015698    0.017519712    0.999999821
    0.066397011    0.207996279    0.406596422
    0.875920713    0.969900966    0.525277138
    0.685444474    0.731805682    0.643957734
    0.494968116    0.493710279    0.762638450
    0.304491937    0.255615056    0.881319165
    0.256872892    0.446091235    0.999999821
    0.209254146    0.636567771    0.406596422
    0.018777898    0.398472458    0.525277138
    0.828301668    0.160377175    0.643957734
    0.637825310    0.922281742    0.762638450
    0.447349131    0.684186578    0.881319046
    0.590206623    0.112758204    0.436266601
    0.399730325    0.874662876    0.554947257
    0.209254101    0.636567593    0.673628032
    0.018777797    0.398472250    0.792308688
    0.828301489    0.160376847    0.910989344
    0.733063757    0.541329622    0.436266601
    0.542587519    0.303234309    0.554947197
    0.352111250    0.065139011    0.673628032
    0.161634997    0.827043653    0.792308629
    0.971158624    0.588948250    0.910989344
    0.875920892    0.969901025    0.436266601
    0.685444653    0.731805682    0.554947257
    0.494968325    0.493710399    0.673627913
    0.304492056    0.255615056    0.792308629
    0.114015728    0.017519712    0.910989344
    0.304492295    0.255615324    0.436266601
    0.114016034    0.017520020    0.554947257
    0.923539758    0.779424727    0.673628032
    0.733063459    0.541329384    0.792308688
    0.542587161    0.303233981    0.910989344
    0.447349370    0.684186697    0.436266601
    0.256873131    0.446091443    0.554947257
    0.066396877    0.207996130    0.673628032
    0.875920594    0.969900787    0.792308629
    0.685444236    0.731805325    0.910989344
    0.018777980    0.398472488    0.436266601
    0.828301728    0.160377190    0.554947257
    0.637825489    0.922281861    0.673628032
    0.447349131    0.684186518    0.792308688
    0.256872833    0.446091115    0.910989344
    0.161635131    0.827043891    0.436266601
    0.971158862    0.588948607    0.554947257
    0.780682623    0.350853294    0.673628032
    0.590206385    0.112757966    0.792308629
    0.399730027    0.874662578    0.910989344
