Sn+Si
    1.000000000
   19.467599869    0.000000000    0.000000000
    0.000000000   19.467599869    0.000000000
    0.000000000    0.000000000   19.300252914
Sn  Si 
108     156
Direct
    0.995035112    0.666666687    0.000000000
    0.828368425    0.666666687    0.168111786
    0.565678954    0.521449208    0.534267545
    0.995035112    0.333333343    0.000000000
    0.700294197    0.694525957    0.886011779
    0.873371303    0.059910655    0.534267545
    0.084909558    0.617602944    0.886011779
    0.828368425    0.000000000    0.168111786
    0.296448171    0.175295234    0.534267545
    0.328368455    0.666666687    0.000000000
    0.161701739    0.666666687    0.168111786
    0.238755852    0.386833787    0.604616404
    0.328368455    0.333333343    0.000000000
    0.161701739    0.333333343    0.168111786
    0.995035112    0.333333343    0.336223543
    0.354140431    0.963756800    0.886011779
    0.161701739    0.000000000    0.168111786
    0.995035112    0.000000000    0.336223543
    0.200294197    0.194525957    0.886011779
    0.495035112    0.666666687    0.168111786
    0.328368455    0.666666687    0.336223543
    0.623371184    0.309910566    0.886011779
    0.161832720    0.002218366    0.886011779
    0.328368455    0.333333343    0.336223543
    0.661701798    0.000000000    0.000000000
    0.661832690    0.502218246    0.886011779
    0.328368455    0.000000000    0.336223543
    0.078368433    0.916666746    0.084055893
    0.911701798    0.916666746    0.252167612
    0.745035052    0.916666746    0.420279443
    0.431063473    0.348372102    0.886011779
    0.911701798    0.583333433    0.252167612
    0.745035052    0.583333433    0.420279443
    0.078368433    0.250000000    0.084055893
    0.911701798    0.250000000    0.252167612
    0.834909737    0.867603004    0.534267545
    0.411701769    0.916666746    0.084055893
    0.245035097    0.916666746    0.252167612
    0.078368381    0.916666746    0.420279443
    0.411701769    0.583333433    0.084055893
    0.911832809    0.252218425    0.534267545
    0.078368381    0.583333433    0.420279443
    0.411701769    0.250000000    0.084055893
    0.411832839    0.752218425    0.534267545
    0.104140401    0.213756800    0.534267545
    0.745035172    0.916666746    0.084055893
    0.578368545    0.916666746    0.252167612
    0.950294316    0.444526017    0.534267545
    0.745035172    0.583333433    0.084055893
    0.450294346    0.944526136    0.534267545
    0.373371273    0.559910774    0.534267545
    0.745035172    0.250000000    0.084055893
    0.578368545    0.250000000    0.252167612
    0.411701798    0.250000000    0.420279443
    0.161701769    0.833333313    0.000000000
    0.834909678    0.867602885    0.815662920
    0.181063548    0.598372281    0.534267545
    0.161701769    0.500000000    0.000000000
    0.738755822    0.886833668    0.886011779
    0.828368425    0.500000000    0.336223543
    0.007986546    0.232987538    0.886011779
    0.046447992    0.425295234    0.886011779
    0.828368425    0.166666672    0.336223543
    0.495035112    0.833333313    0.000000000
    0.328368425    0.833333313    0.168111786
    0.161701754    0.833333313    0.336223543
    0.495035112    0.500000000    0.000000000
    0.328368425    0.500000000    0.168111786
    0.161701754    0.500000000    0.336223543
    0.854140282    0.463756770    0.886011779
    0.328368425    0.166666672    0.168111786
    0.161701754    0.166666672    0.336223543
    0.828368545    0.833333313    0.000000000
    0.469525039    0.540679872    0.886011779
    0.495035201    0.833333313    0.336223543
    0.828368545    0.500000000    0.000000000
    0.507986546    0.732987523    0.886011779
    0.495035201    0.500000000    0.336223543
    0.828368545    0.166666672    0.000000000
    0.661701858    0.166666672    0.168111786
    0.495035201    0.166666672    0.336223543
    0.245035097    0.750000060    0.084055893
    0.078368433    0.750000060    0.252167612
    0.911701739    0.750000060    0.420279443
    0.488755792    0.136833668    0.815662920
    0.078368433    0.416666716    0.252167612
    0.757986665    0.482987642    0.534267545
    0.245035097    0.083333343    0.084055893
    0.078368433    0.083333343    0.252167612
    0.911701739    0.083333343    0.420279443
    0.578368485    0.750000060    0.084055893
    0.257986635    0.982987702    0.534267545
    0.245035127    0.750000060    0.420279443
    0.578368485    0.416666716    0.084055893
    0.411701858    0.416666716    0.252167612
    0.604140520    0.713756859    0.534267545
    0.578368485    0.083333343    0.084055893
    0.219525084    0.790679932    0.534267545
    0.245035127    0.083333343    0.420279443
    0.546448112    0.925295353    0.886011779
    0.488755941    0.136833906    0.534267545
    0.578368366    0.750000060    0.420279443
    0.815678835    0.271449059    0.886011779
    0.796448112    0.675295353    0.534267545
    0.578368366    0.416666716    0.420279443
    0.123371139    0.809910655    0.886011779
    0.584909797    0.117603064    0.604616404
    0.578368366    0.083333343    0.420279443
    0.078368381    0.250000000    0.420279443
    0.988755763    0.136833668    0.674965203
    0.873371124    0.059910536    0.815662920
    0.828368425    0.833333313    0.336223543
    0.065678835    0.521449149    0.674965203
    0.950294197    0.444526017    0.815662920
    0.334909707    0.367603004    0.534267545
    0.219525039    0.290679902    0.674965203
    0.104140401    0.213756800    0.815662920
    0.411701858    0.750000060    0.252167612
    0.142601952    0.906064570    0.674965203
    0.027217269    0.829141438    0.815662920
    0.245035097    0.250000000    0.252167612
    0.296448141    0.675295293    0.674965203
    0.181063488    0.598372161    0.815662920
    0.661701739    0.666666687    0.336223543
    0.450294286    0.444526047    0.674965203
    0.334909618    0.367602915    0.815662920
    0.719525099    0.290679932    0.534267545
    0.604140401    0.213756800    0.674965203
    0.245035097    0.416666716    0.084055893
    0.745035052    0.750000060    0.252167612
    0.373371273    0.059910774    0.674965203
    0.257986605    0.982987583    0.815662920
    0.642602026    0.906064570    0.534267545
    0.527217329    0.829141438    0.674965203
    0.411832690    0.752218306    0.815662920
    0.745035052    0.416666716    0.252167612
    0.681063473    0.598372221    0.674965203
    0.565678775    0.521449089    0.815662920
    0.411701798    0.916666746    0.420279443
    0.834909678    0.367602885    0.674965203
    0.719524980    0.290679753    0.815662920
    0.661701739    0.333333343    0.336223543
    0.757986665    0.982987583    0.674965203
    0.642601967    0.906064451    0.815662920
    0.027217507    0.829141498    0.534267545
    0.911832809    0.752218366    0.674965203
    0.796448112    0.675295234    0.815662920
    0.123371258    0.809910715    0.604616404
    0.007986665    0.732987583    0.745314062
    0.892601907    0.656064451    0.886011779
    0.277217388    0.579141498    0.604616404
    0.161832720    0.502218366    0.745314062
    0.995035052    0.166666672    0.168111786
    0.431063563    0.348372251    0.604616404
    0.315678865    0.271449119    0.745314062
    0.661701798    0.666666687    0.000000000
    0.200294316    0.194526076    0.604616404
    0.084909678    0.117602944    0.745314062
    0.969524920    0.040679812    0.886011779
    0.354140490    0.963756919    0.604616404
    0.238755822    0.886833787    0.745314062
    0.911701739    0.083333343    0.084055893
    0.507986665    0.732987702    0.604616404
    0.392602026    0.656064510    0.745314062
    0.277217358    0.579141378    0.886011779
    0.661832809    0.502218366    0.604616404
    0.546448112    0.425295234    0.745314062
    0.078368433    0.583333433    0.084055893
    0.815678954    0.271449149    0.604616404
    0.700294256    0.194525957    0.745314062
    0.584909618    0.117602825    0.886011779
    0.745035052    0.083333343    0.252167612
    0.469525129    0.040679932    0.745314062
    0.328368455    0.000000000    0.000000000
    0.738755941    0.886833847    0.604616404
    0.623371243    0.809910655    0.745314062
    0.661701858    0.500000000    0.168111786
    0.892602086    0.656064570    0.604616404
    0.777217388    0.579141378    0.745314062
    0.495035112    0.000000000    0.168111786
    0.046448231    0.425295353    0.604616404
    0.931063533    0.348372191    0.745314062
    0.911701739    0.416666716    0.084055893
    0.969525278    0.040679932    0.604616404
    0.854140580    0.963756859    0.745314062
    0.995035052    0.500000000    0.168111786
    0.142602012    0.406064570    0.534267545
    0.027217388    0.329141438    0.674965203
    0.911832631    0.252218306    0.815662920
    0.411701858    0.083333343    0.252167612
    0.104140401    0.713756859    0.674965203
    0.988755703    0.636833668    0.815662920
    0.411701798    0.583333433    0.420279443
    0.257986605    0.482987642    0.674965203
    0.142601907    0.406064510    0.815662920
    0.527217388    0.329141438    0.534267545
    0.411832750    0.252218306    0.674965203
    0.296448052    0.175295115    0.815662920
    0.661701739    0.000000000    0.336223543
    0.181063473    0.098372102    0.674965203
    0.065678835    0.021449089    0.815662920
    0.578368545    0.583333433    0.252167612
    0.334909648    0.867603004    0.674965203
    0.219524994    0.790679872    0.815662920
    0.245035127    0.416666716    0.420279443
    0.488755852    0.636833727    0.674965203
    0.373371154    0.559910595    0.815662920
    0.911701739    0.416666716    0.420279443
    0.642602026    0.406064510    0.674965203
    0.527217329    0.329141378    0.815662920
    0.245035097    0.583333433    0.252167612
    0.796448112    0.175295234    0.674965203
    0.681063473    0.098372102    0.815662920
    0.681063533    0.098372221    0.534267545
    0.565678835    0.021449089    0.674965203
    0.450294226    0.944525957    0.815662920
    0.745035052    0.250000000    0.420279443
    0.719525039    0.790679872    0.674965203
    0.604140341    0.713756680    0.815662920
    0.988755882    0.636833847    0.534267545
    0.873371243    0.559910715    0.674965203
    0.757986546    0.482987583    0.815662920
    0.065679073    0.021449089    0.534267545
    0.950294316    0.944526017    0.674965203
    0.995035052    0.833333313    0.168111786
    0.995035112    0.666666687    0.336223543
    0.123371191    0.309910685    0.745314062
    0.161701769    0.166666672    0.000000000
    0.161832765    0.002218485    0.604616404
    0.046448112    0.925295293    0.745314062
    0.931063414    0.848372161    0.886011779
    0.315678954    0.771449268    0.604616404
    0.200294286    0.694526076    0.745314062
    0.995035112    0.000000000    0.000000000
    0.469525129    0.540679991    0.604616404
    0.354140460    0.463756859    0.745314062
    0.238755763    0.386833698    0.886011779
    0.623371243    0.309910685    0.604616404
    0.507986605    0.232987568    0.745314062
    0.392601937    0.156064391    0.886011779
    0.392602086    0.156064630    0.604616404
    0.277217418    0.079141498    0.745314062
    0.495035112    0.333333343    0.168111786
    0.546448171    0.925295472    0.604616404
    0.431063503    0.848372281    0.745314062
    0.315678835    0.771449149    0.886011779
    0.700294375    0.694526136    0.604616404
    0.584909678    0.617603004    0.745314062
    0.661701858    0.833333313    0.168111786
    0.854140520    0.463756859    0.604616404
    0.738755822    0.386833727    0.745314062
    0.661701798    0.333333343    0.000000000
    0.007986665    0.232987627    0.604616404
    0.892601967    0.156064510    0.745314062
    0.777217329    0.079141378    0.886011779
    0.777217507    0.079141617    0.604616404
    0.661832809    0.002218485    0.745314062
    0.911701739    0.750000060    0.084055893
    0.931063652    0.848372281    0.604616404
    0.815678954    0.771449149    0.745314062
    0.828368425    0.333333343    0.168111786
    0.084909678    0.617603064    0.604616404
    0.969524980    0.540679932    0.745314062
    0.495035112    0.166666672    0.000000000
