Si+C
    1.000000000
   16.293001175    0.000000000    0.000000000
  -10.862000465   12.144085884    0.000000000
    0.000000000    0.000000000    7.994748592
Si  C  
36     84
Direct
    0.974358499    0.982905626    0.000000002
    0.674358428    0.782905579    0.151900828
    0.374358416    0.582905531    0.303801656
    0.307691783    0.982905626    0.000000002
    0.007691726    0.782905579    0.151900828
    0.707691669    0.582905531    0.303801656
    0.641025066    0.982905626    0.000000002
    0.341025025    0.782905579    0.151900828
    0.041024987    0.582905531    0.303801656
    0.157691970    0.632905602    0.075950265
    0.857691944    0.432905525    0.227851093
    0.557691932    0.232905507    0.379751921
    0.491025209    0.632905602    0.075950265
    0.191025153    0.432905525    0.227851093
    0.891025186    0.232905507    0.379751921
    0.824358463    0.632905602    0.075950265
    0.524358392    0.432905525    0.227851093
    0.224358499    0.232905507    0.379751921
    0.141025156    0.482905596    0.000000000
    0.841025114    0.282905489    0.151900828
    0.541025102    0.082905434    0.303801656
    0.474358439    0.482905596    0.000000000
    0.174358383    0.282905489    0.151900828
    0.874358356    0.082905434    0.303801656
    0.807691693    0.482905596    0.000000000
    0.507691681    0.282905489    0.151900828
    0.207691625    0.082905434    0.303801656
    0.991025209    0.132905662    0.075950272
    0.691025138    0.932905614    0.227851093
    0.391025186    0.732905567    0.379751921
    0.324358463    0.132905662    0.075950272
    0.024358414    0.932905614    0.227851093
    0.724358439    0.732905567    0.379751921
    0.657691658    0.132905662    0.075950272
    0.357691616    0.932905614    0.227851093
    0.057691652    0.732905567    0.379751921
    0.738995373    0.322014570    0.764696360
    0.967566788    0.379157066    0.565175235
    0.853281081    0.850585878    0.664935827
    0.596138179    0.036300182    0.764696360
    0.824709654    0.093442798    0.565175235
    0.710423887    0.564871550    0.664935827
    0.453281045    0.750585973    0.764696360
    0.681852460    0.807728589    0.565175235
    0.567566693    0.279157400    0.664935827
    0.310423970    0.464871645    0.764696360
    0.538995385    0.522014260    0.565175235
    0.424709678    0.993443072    0.664935827
    0.167566836    0.179157495    0.764696360
    0.396138251    0.236299992    0.565175235
    0.281852543    0.707728803    0.664935827
    0.024709702    0.893443167    0.764696360
    0.253281116    0.950585723    0.565175235
    0.138995364    0.422014475    0.664935827
    0.881852567    0.607728839    0.764696360
    0.110424042    0.664871454    0.565175235
    0.996138275    0.136300206    0.664935827
    0.788995445    0.772014558    0.814576626
    0.017566919    0.829157054    0.615055442
    0.903281212    0.300585985    0.714816034
    0.646138251    0.486300230    0.814576626
    0.874709606    0.543442965    0.615055442
    0.760423899    0.014871597    0.714816034
    0.503281176    0.200585604    0.814576626
    0.731852531    0.257728338    0.615055501
    0.617566884    0.729157031    0.714816034
    0.360424012    0.914871514    0.814576626
    0.588995397    0.972014129    0.615055501
    0.474709690    0.443442822    0.714816034
    0.217566818    0.629157245    0.814576626
    0.446138263    0.686299980    0.615055442
    0.331852496    0.157728672    0.714816034
    0.074709773    0.343443155    0.814576626
    0.303281218    0.400585890    0.615055442
    0.188995510    0.872014463    0.714816034
    0.931852520    0.057728529    0.814576626
    0.160424009    0.114871264    0.615055442
    0.046138287    0.586299896    0.714816034
    0.810423851    0.964871705    0.764696360
    0.038995385    0.022014380    0.565175235
    0.924709558    0.493443012    0.664935827
    0.667566657    0.679157436    0.764696360
    0.896138132    0.736300051    0.565175295
    0.781852365    0.207728744    0.664935827
    0.524709582    0.393443108    0.764696360
    0.753281057    0.450585604    0.565175235
    0.638995349    0.922014534    0.664935827
    0.381852448    0.107728720    0.764696360
    0.610423982    0.164871454    0.565175235
    0.496138215    0.636300147    0.664935827
    0.238995403    0.822014630    0.764696360
    0.467566848    0.879157186    0.565175235
    0.353281081    0.350585938    0.664935827
    0.096138239    0.536300182    0.764696360
    0.324709654    0.593442798    0.565175295
    0.210423991    0.064871550    0.664935827
    0.953281105    0.250585794    0.764696360
    0.181852534    0.307728529    0.565175295
    0.067566991    0.779157460    0.664935827
    0.860423982    0.414871454    0.814576626
    0.088995457    0.472014189    0.615055442
    0.974709690    0.943442762    0.714816034
    0.717566848    0.129157543    0.814576626
    0.946138144    0.186299920    0.615055442
    0.831852496    0.657728732    0.714816034
    0.574709713    0.843442738    0.814576626
    0.803281069    0.900585413    0.615055442
    0.688995361    0.372014046    0.714816034
    0.431852579    0.557728529    0.814576626
    0.660423994    0.614871204    0.615055442
    0.546138346    0.086299896    0.714816034
    0.288995415    0.272014380    0.814576626
    0.517566860    0.329157114    0.615055442
    0.403281152    0.800585687    0.714816034
    0.146138266    0.986300290    0.814576626
    0.374709725    0.043442965    0.615055442
    0.260424018    0.514871597    0.714816034
    0.003281236    0.700585783    0.814576626
    0.231852651    0.757728279    0.615055442
    0.117567062    0.229157209    0.714815974
