Si+C                                    
   1.00000000000000     
    16.2930011750000006    0.0000000000000000    0.0000000000000000
   -10.8620004649999995   12.1440858840000008    0.0000000000000000
     0.0000000000000000    0.0000000000000000    7.9947485919999997
   Si   C 
    36    84
Direct
  0.9743584989999974  0.9829056259999973  0.0000000020000002
  0.6743584279999979  0.7829055790000012  0.1519008280000023
  0.3743584159999997  0.5829055310000015  0.3038016559999974
  0.3076917830000028  0.9829056259999973  0.0000000020000002
  0.0076917259999973  0.7829055790000012  0.1519008280000023
  0.7076916689999990  0.5829055310000015  0.3038016559999974
  0.6410250659999974  0.9829056259999973  0.0000000020000002
  0.3410250250000004  0.7829055790000012  0.1519008280000023
  0.0410249870000001  0.5829055310000015  0.3038016559999974
  0.1576919700000019  0.6329056020000010  0.0759502650000030
  0.8576919440000026  0.4329055250000025  0.2278510929999982
  0.5576919319999973  0.2329055069999981  0.3797519210000004
  0.4910252090000000  0.6329056020000010  0.0759502650000030
  0.1910251529999982  0.4329055250000025  0.2278510929999982
  0.8910251860000002  0.2329055069999981  0.3797519210000004
  0.8243584630000029  0.6329056020000010  0.0759502650000030
  0.5243583920000034  0.4329055250000025  0.2278510929999982
  0.2243584989999974  0.2329055069999981  0.3797519210000004
  0.1410251559999978  0.4829055960000019  0.0000000000000000
  0.8410251139999971  0.2829054890000009  0.1519008280000023
  0.5410251019999990  0.0829054339999971  0.3038016559999974
  0.4743584389999995  0.4829055960000019  0.0000000000000000
  0.1743583829999977  0.2829054890000009  0.1519008280000023
  0.8743583560000019  0.0829054339999971  0.3038016559999974
  0.8076916930000024  0.4829055960000019  0.0000000000000000
  0.5076916809999972  0.2829054890000009  0.1519008280000023
  0.2076916250000025  0.0829054339999971  0.3038016559999974
  0.9910252090000000  0.1329056619999989  0.0759502720000000
  0.6910251380000005  0.9329056139999992  0.2278510929999982
  0.3910251860000002  0.7329055670000031  0.3797519210000004
  0.3243584630000029  0.1329056619999989  0.0759502720000000
  0.0243584139999982  0.9329056139999992  0.2278510929999982
  0.7243584389999995  0.7329055670000031  0.3797519210000004
  0.6576916579999974  0.1329056619999989  0.0759502720000000
  0.3576916159999968  0.9329056139999992  0.2278510929999982
  0.0576916520000026  0.7329055670000031  0.3797519210000004
  0.7389953730000016  0.3281873460000000  0.7646963600000021
  0.9675667879999992  0.3853299620000001  0.5651752349999981
  0.8532810809999987  0.8567587140000015  0.6649358270000008
  0.5961381790000004  0.0424730780000004  0.7646963600000021
  0.8247096540000030  0.0996156929999970  0.5651752349999981
  0.7104238869999975  0.5710444449999983  0.6649358270000008
  0.4532810449999971  0.7567588089999973  0.7646963600000021
  0.6818524600000018  0.8139014240000009  0.5651752349999981
  0.5675666930000034  0.2853301760000022  0.6649358270000008
  0.3104239700000022  0.4710445400000012  0.7646963600000021
  0.5389953849999998  0.5281870370000021  0.5651752349999981
  0.4247096779999993  0.9996159080000027  0.6649358270000008
  0.1675668359999989  0.1853302720000016  0.7646963600000021
  0.3961382509999964  0.2424728869999981  0.5651752349999981
  0.2818525429999994  0.7139016389999995  0.6649358270000008
  0.0247097020000027  0.8996160029999984  0.7646963600000021
  0.2532811159999966  0.9567585590000007  0.5651752349999981
  0.1389953640000030  0.4281873700000034  0.6649358270000008
  0.8818525670000028  0.6139016150000032  0.7646963600000021
  0.1104240419999982  0.6710442899999975  0.5651752349999981
  0.9961382749999999  0.1424729820000010  0.6649358270000008
  0.7889954449999976  0.7781873939999997  0.8145766259999974
  0.0175669189999965  0.8353298899999970  0.6150554419999992
  0.9032812120000031  0.3067587609999975  0.7148160340000018
  0.6461382509999964  0.4924731249999965  0.8145766259999974
  0.8747096060000032  0.5496157409999967  0.6150554419999992
  0.7604238990000027  0.0210443739999988  0.7148160340000018
  0.5032811760000016  0.2067583799999966  0.8145766259999974
  0.7318525310000012  0.2639011139999994  0.6150555010000005
  0.6175668839999986  0.7353298660000007  0.7148160340000018
  0.3604240120000028  0.9210443500000025  0.8145766259999974
  0.5889953969999979  0.9781869649999990  0.6150555010000005
  0.4747096899999974  0.4496157170000004  0.7148160340000018
  0.2175668180000017  0.6353300809999993  0.8145766259999974
  0.4461382630000017  0.6924728159999987  0.6150554419999992
  0.3318524960000033  0.1639014479999972  0.7148160340000018
  0.0747097730000021  0.3496160509999982  0.8145766259999974
  0.3032812180000022  0.4067586660000018  0.6150554419999992
  0.1889955099999980  0.8781872989999968  0.7148160340000018
  0.9318525199999996  0.0639013050000017  0.8145766259999974
  0.1604240090000033  0.1210440400000010  0.6150554419999992
  0.0461382869999980  0.5924727920000024  0.7148160340000018
  0.8104238510000030  0.9710445400000012  0.7646963600000021
  0.0389953849999998  0.0281871560000013  0.5651752349999981
  0.9247095580000035  0.4996159080000027  0.6649358270000008
  0.6675666570000018  0.6853302720000016  0.7646963600000021
  0.8961381319999973  0.7424728869999981  0.5651752950000031
  0.7818523649999989  0.2139015200000003  0.6649358270000008
  0.5247095819999998  0.3996158839999993  0.7646963600000021
  0.7532810570000024  0.4567584990000029  0.5651752349999981
  0.6389953489999982  0.9281873700000034  0.6649358270000008
  0.3818524479999965  0.1139016150000032  0.7646963600000021
  0.6104239820000004  0.1710443500000025  0.5651752349999981
  0.4961382150000020  0.6424729820000010  0.6649358270000008
  0.2389954029999970  0.8281874660000028  0.7646963600000021
  0.4675668479999970  0.8853299620000001  0.5651752349999981
  0.3532810809999987  0.3567587140000015  0.6649358270000008
  0.0961382389999983  0.5424729590000013  0.7646963600000021
  0.3247096540000030  0.5996155739999978  0.5651752950000031
  0.2104239909999990  0.0710444449999983  0.6649358270000008
  0.9532811050000021  0.2567586899999981  0.7646963600000021
  0.1818525340000008  0.3139014240000009  0.5651752950000031
  0.0675669909999996  0.7853302959999979  0.6649358270000008
  0.8604239820000004  0.4210443500000025  0.8145766259999974
  0.0889954570000029  0.4781870839999982  0.6150554419999992
  0.9747096899999974  0.9496155980000012  0.7148160340000018
  0.7175668479999970  0.1353303189999977  0.8145766259999974
  0.9461381440000025  0.1924726960000029  0.6150554419999992
  0.8318524960000033  0.6639015670000035  0.7148160340000018
  0.5747097129999972  0.8496155739999978  0.8145766259999974
  0.8032810690000005  0.9067581890000014  0.6150554419999992
  0.6889953610000035  0.3781869410000027  0.7148160340000018
  0.4318525790000010  0.5639014240000009  0.8145766259999974
  0.6604239939999985  0.6210440400000010  0.6150554419999992
  0.5461383459999993  0.0924727920000024  0.7148160340000018
  0.2889954150000023  0.2781872750000005  0.8145766259999974
  0.5175668600000023  0.3353298899999970  0.6150554419999992
  0.4032811519999981  0.8067585229999992  0.7148160340000018
  0.1461382660000012  0.9924731249999965  0.8145766259999974
  0.3747097250000024  0.0496157409999967  0.6150554419999992
  0.2604240180000019  0.5210444929999980  0.7148160340000018
  0.0032812359999994  0.7067586180000021  0.8145766259999974
  0.2318526509999970  0.7639011139999994  0.6150554419999992
  0.1175670619999991  0.2353299859999964  0.7148159739999969
 
  0.00000000E+00  0.00000000E+00  0.00000000E+00
  0.00000000E+00  0.00000000E+00  0.00000000E+00
  0.00000000E+00  0.00000000E+00  0.00000000E+00
  0.00000000E+00  0.00000000E+00  0.00000000E+00
  0.00000000E+00  0.00000000E+00  0.00000000E+00
  0.00000000E+00  0.00000000E+00  0.00000000E+00
  0.00000000E+00  0.00000000E+00  0.00000000E+00
  0.00000000E+00  0.00000000E+00  0.00000000E+00
  0.00000000E+00  0.00000000E+00  0.00000000E+00
  0.00000000E+00  0.00000000E+00  0.00000000E+00
  0.00000000E+00  0.00000000E+00  0.00000000E+00
  0.00000000E+00  0.00000000E+00  0.00000000E+00
  0.00000000E+00  0.00000000E+00  0.00000000E+00
  0.00000000E+00  0.00000000E+00  0.00000000E+00
  0.00000000E+00  0.00000000E+00  0.00000000E+00
  0.00000000E+00  0.00000000E+00  0.00000000E+00
  0.00000000E+00  0.00000000E+00  0.00000000E+00
  0.00000000E+00  0.00000000E+00  0.00000000E+00
  0.00000000E+00  0.00000000E+00  0.00000000E+00
  0.00000000E+00  0.00000000E+00  0.00000000E+00
  0.00000000E+00  0.00000000E+00  0.00000000E+00
  0.00000000E+00  0.00000000E+00  0.00000000E+00
  0.00000000E+00  0.00000000E+00  0.00000000E+00
  0.00000000E+00  0.00000000E+00  0.00000000E+00
  0.00000000E+00  0.00000000E+00  0.00000000E+00
  0.00000000E+00  0.00000000E+00  0.00000000E+00
  0.00000000E+00  0.00000000E+00  0.00000000E+00
  0.00000000E+00  0.00000000E+00  0.00000000E+00
  0.00000000E+00  0.00000000E+00  0.00000000E+00
  0.00000000E+00  0.00000000E+00  0.00000000E+00
  0.00000000E+00  0.00000000E+00  0.00000000E+00
  0.00000000E+00  0.00000000E+00  0.00000000E+00
  0.00000000E+00  0.00000000E+00  0.00000000E+00
  0.00000000E+00  0.00000000E+00  0.00000000E+00
  0.00000000E+00  0.00000000E+00  0.00000000E+00
  0.00000000E+00  0.00000000E+00  0.00000000E+00
  0.00000000E+00  0.00000000E+00  0.00000000E+00
  0.00000000E+00  0.00000000E+00  0.00000000E+00
  0.00000000E+00  0.00000000E+00  0.00000000E+00
  0.00000000E+00  0.00000000E+00  0.00000000E+00
  0.00000000E+00  0.00000000E+00  0.00000000E+00
  0.00000000E+00  0.00000000E+00  0.00000000E+00
  0.00000000E+00  0.00000000E+00  0.00000000E+00
  0.00000000E+00  0.00000000E+00  0.00000000E+00
  0.00000000E+00  0.00000000E+00  0.00000000E+00
  0.00000000E+00  0.00000000E+00  0.00000000E+00
  0.00000000E+00  0.00000000E+00  0.00000000E+00
  0.00000000E+00  0.00000000E+00  0.00000000E+00
  0.00000000E+00  0.00000000E+00  0.00000000E+00
  0.00000000E+00  0.00000000E+00  0.00000000E+00
  0.00000000E+00  0.00000000E+00  0.00000000E+00
  0.00000000E+00  0.00000000E+00  0.00000000E+00
  0.00000000E+00  0.00000000E+00  0.00000000E+00
  0.00000000E+00  0.00000000E+00  0.00000000E+00
  0.00000000E+00  0.00000000E+00  0.00000000E+00
  0.00000000E+00  0.00000000E+00  0.00000000E+00
  0.00000000E+00  0.00000000E+00  0.00000000E+00
  0.00000000E+00  0.00000000E+00  0.00000000E+00
  0.00000000E+00  0.00000000E+00  0.00000000E+00
  0.00000000E+00  0.00000000E+00  0.00000000E+00
  0.00000000E+00  0.00000000E+00  0.00000000E+00
  0.00000000E+00  0.00000000E+00  0.00000000E+00
  0.00000000E+00  0.00000000E+00  0.00000000E+00
  0.00000000E+00  0.00000000E+00  0.00000000E+00
  0.00000000E+00  0.00000000E+00  0.00000000E+00
  0.00000000E+00  0.00000000E+00  0.00000000E+00
  0.00000000E+00  0.00000000E+00  0.00000000E+00
  0.00000000E+00  0.00000000E+00  0.00000000E+00
  0.00000000E+00  0.00000000E+00  0.00000000E+00
  0.00000000E+00  0.00000000E+00  0.00000000E+00
  0.00000000E+00  0.00000000E+00  0.00000000E+00
  0.00000000E+00  0.00000000E+00  0.00000000E+00
  0.00000000E+00  0.00000000E+00  0.00000000E+00
  0.00000000E+00  0.00000000E+00  0.00000000E+00
  0.00000000E+00  0.00000000E+00  0.00000000E+00
  0.00000000E+00  0.00000000E+00  0.00000000E+00
  0.00000000E+00  0.00000000E+00  0.00000000E+00
  0.00000000E+00  0.00000000E+00  0.00000000E+00
  0.00000000E+00  0.00000000E+00  0.00000000E+00
  0.00000000E+00  0.00000000E+00  0.00000000E+00
  0.00000000E+00  0.00000000E+00  0.00000000E+00
  0.00000000E+00  0.00000000E+00  0.00000000E+00
  0.00000000E+00  0.00000000E+00  0.00000000E+00
  0.00000000E+00  0.00000000E+00  0.00000000E+00
  0.00000000E+00  0.00000000E+00  0.00000000E+00
  0.00000000E+00  0.00000000E+00  0.00000000E+00
  0.00000000E+00  0.00000000E+00  0.00000000E+00
  0.00000000E+00  0.00000000E+00  0.00000000E+00
  0.00000000E+00  0.00000000E+00  0.00000000E+00
  0.00000000E+00  0.00000000E+00  0.00000000E+00
  0.00000000E+00  0.00000000E+00  0.00000000E+00
  0.00000000E+00  0.00000000E+00  0.00000000E+00
  0.00000000E+00  0.00000000E+00  0.00000000E+00
  0.00000000E+00  0.00000000E+00  0.00000000E+00
  0.00000000E+00  0.00000000E+00  0.00000000E+00
  0.00000000E+00  0.00000000E+00  0.00000000E+00
  0.00000000E+00  0.00000000E+00  0.00000000E+00
  0.00000000E+00  0.00000000E+00  0.00000000E+00
  0.00000000E+00  0.00000000E+00  0.00000000E+00
  0.00000000E+00  0.00000000E+00  0.00000000E+00
  0.00000000E+00  0.00000000E+00  0.00000000E+00
  0.00000000E+00  0.00000000E+00  0.00000000E+00
  0.00000000E+00  0.00000000E+00  0.00000000E+00
  0.00000000E+00  0.00000000E+00  0.00000000E+00
  0.00000000E+00  0.00000000E+00  0.00000000E+00
  0.00000000E+00  0.00000000E+00  0.00000000E+00
  0.00000000E+00  0.00000000E+00  0.00000000E+00
  0.00000000E+00  0.00000000E+00  0.00000000E+00
  0.00000000E+00  0.00000000E+00  0.00000000E+00
  0.00000000E+00  0.00000000E+00  0.00000000E+00
  0.00000000E+00  0.00000000E+00  0.00000000E+00
  0.00000000E+00  0.00000000E+00  0.00000000E+00
  0.00000000E+00  0.00000000E+00  0.00000000E+00
  0.00000000E+00  0.00000000E+00  0.00000000E+00
  0.00000000E+00  0.00000000E+00  0.00000000E+00
  0.00000000E+00  0.00000000E+00  0.00000000E+00
  0.00000000E+00  0.00000000E+00  0.00000000E+00
  0.00000000E+00  0.00000000E+00  0.00000000E+00
  0.00000000E+00  0.00000000E+00  0.00000000E+00
  0.00000000E+00  0.00000000E+00  0.00000000E+00
