Automatic KPOINTS generated
0
Gamma
9 6 1
0 0 0
