C 
 1.0000000000000000
     3.5668000000000002    0.0000000000000000    0.0000000000000000
     0.0000000000000000    5.0442169342723560    0.0000000000000000
     0.0000000000000000    0.0000000000000000   61.4379219706575128
 C  
  72
Direct
  0.0000000000000000  0.0000000000000000  0.3255318435013462
  0.2500000000000000  0.0000000000000000  0.3460575089717761
  0.0000000000000000  0.5000000000000000  0.3255318435013462
  0.2500000000000000  0.5000000000000000  0.3460575089717761
  0.5000000000000000  0.7500000000000000  0.3460575089717761
  0.7500000000000000  0.2500000000000000  0.3255318435013462
  0.5000000000000000  0.2500000000000000  0.3460575089717761
  0.7500000000000000  0.7500000000000000  0.3255318435013462
  0.0000000000000000  0.5000000000000000  0.3665831744422060
  0.2500000000000000  0.5000000000000000  0.3871088399126358
  0.0000000000000000  0.0000000000000000  0.3665831744422060
  0.2500000000000000  0.0000000000000000  0.3871088399126358
  0.5000000000000000  0.2500000000000000  0.3871088399126358
  0.7500000000000000  0.7500000000000000  0.3665831744422060
  0.5000000000000000  0.7500000000000000  0.3871088399126358
  0.7500000000000000  0.2500000000000000  0.3665831744422060
  0.0000000000000000  0.0000000000000000  0.4076345053830657
  0.2500000000000000  0.0000000000000002  0.4281601708534955
  0.0000000000000000  0.5000000000000000  0.4076345053830657
  0.2500000000000000  0.5000000000000000  0.4281601708534955
  0.5000000000000000  0.7500000000000000  0.4281601708534955
  0.7500000000000000  0.2500000000000000  0.4076345053830657
  0.5000000000000000  0.2500000000000000  0.4281601708534955
  0.7500000000000000  0.7500000000000000  0.4076345053830657
  0.0000000000000000  0.5000000000000000  0.4486858363239254
  0.2500000000000000  0.5000000000000000  0.4692115017943552
  0.0000000000000000  0.0000000000000000  0.4486858363239254
  0.2500000000000000  0.0000000000000000  0.4692115017943552
  0.5000000000000000  0.2500000000000000  0.4692115017943552
  0.7500000000000000  0.7500000000000000  0.4486858363239254
  0.5000000000000000  0.7500000000000000  0.4692115017943552
  0.7500000000000000  0.2500000000000001  0.4486858363239254
  0.0000000000000000  0.0000000000000000  0.4897371672647851
  0.2500000000000000  0.0000000000000000  0.5102628327352150
  0.0000000000000000  0.5000000000000000  0.4897371672647851
  0.2500000000000000  0.5000000000000000  0.5102628327352150
  0.5000000000000000  0.7500000000000004  0.5102628327352150
  0.7500000000000000  0.2500000000000000  0.4897371672647851
  0.5000000000000000  0.2500000000000000  0.5102628327352150
  0.7500000000000000  0.7500000000000000  0.4897371672647851
  0.0000000000000000  0.5000000000000000  0.5307884982056449
  0.2500000000000000  0.5000000000000000  0.5513141636760747
  0.0000000000000000  0.0000000000000004  0.5307884982056449
  0.2500000000000000  0.0000000000000000  0.5513141636760747
  0.5000000000000000  0.2500000000000000  0.5513141636760747
  0.7500000000000000  0.7500000000000000  0.5307884982056449
  0.5000000000000000  0.7500000000000000  0.5513141636760747
  0.7500000000000000  0.2500000000000004  0.5307884982056449
  0.0000000000000000  0.0000000000000000  0.5718398291465046
  0.2500000000000000  0.0000000000000000  0.5923654946169344
  0.0000000000000000  0.5000000000000000  0.5718398291465046
  0.2500000000000000  0.5000000000000000  0.5923654946169344
  0.5000000000000000  0.7500000000000000  0.5923654946169344
  0.7500000000000000  0.2500000000000000  0.5718398291465046
  0.5000000000000000  0.2500000000000000  0.5923654946169344
  0.7500000000000000  0.7500000000000000  0.5718398291465046
  0.0000000000000000  0.5000000000000000  0.6128911600873643
  0.2500000000000000  0.5000000000000000  0.6334168255577941
  0.0000000000000000  0.0000000000000000  0.6128911600873643
  0.2500000000000000  0.0000000000000000  0.6334168255577941
  0.5000000000000000  0.2500000000000000  0.6334168255577941
  0.7500000000000000  0.7500000000000000  0.6128911600873643
  0.5000000000000000  0.7500000000000000  0.6334168255577941
  0.7500000000000000  0.2500000000000000  0.6128911600873643
  0.0000000000000000  0.0000000000000000  0.6539424910282240
  0.2500000000000000  0.0000000000000000  0.6744681564986539
  0.0000000000000000  0.5000000000000000  0.6539424910282240
  0.2500000000000000  0.5000000000000000  0.6744681564986539
  0.5000000000000000  0.7500000000000000  0.6744681564986539
  0.7500000000000000  0.2500000000000000  0.6539424910282240
  0.5000000000000000  0.2500000000000000  0.6744681564986539
  0.7500000000000000  0.7500000000000000  0.6539424910282240
