fcc Si+fcc Ge
    1.000000000
    7.749890322    0.000000000    0.000000000
   -3.874945161   11.624835483    0.000000000
    0.000000000    0.000000000   18.633333333
Si    Ge   
12     66
Direct
    0.000000000    0.000000000    0.000000000
    0.388888889    0.277777778    0.049016100
    0.777777778    0.555555556    0.098032200
    0.500000000    0.000000000    0.000000000
    0.888888889    0.277777778    0.049016100
    0.277777778    0.555555556    0.098032200
    0.694444444    0.888888889    0.024508050
    0.083333333    0.166666667    0.073524150
    0.472222222    0.444444444    0.122540250
    0.194444444    0.888888889    0.024508050
    0.583333333    0.166666667    0.073524150
    0.972222222    0.444444444    0.122540250
    0.149122807    0.719945355    0.257513417
    0.315789474    0.553278689    0.409391771
    0.482456140    0.386612022    0.561270125
    0.649122807    0.219945355    0.713148479
    0.815789474    0.053278689    0.865026834
    0.815789474    0.053278689    0.257513417
    0.982456140    0.886612022    0.409391771
    0.149122807    0.719945355    0.561270125
    0.315789474    0.553278689    0.713148479
    0.482456140    0.386612022    0.865026834
    0.482456140    0.386612022    0.257513417
    0.649122807    0.219945355    0.409391771
    0.815789474    0.053278689    0.561270125
    0.982456140    0.886612022    0.713148479
    0.149122807    0.719945355    0.865026834
    0.649122807    0.719945355    0.257513417
    0.815789474    0.553278689    0.409391771
    0.982456140    0.386612022    0.561270125
    0.149122807    0.219945355    0.713148479
    0.315789474    0.053278689    0.865026834
    0.315789474    0.053278689    0.257513417
    0.482456140    0.886612022    0.409391771
    0.649122807    0.719945355    0.561270125
    0.815789474    0.553278689    0.713148479
    0.982456140    0.386612022    0.865026834
    0.982456140    0.386612022    0.257513417
    0.149122807    0.219945355    0.409391771
    0.315789474    0.053278689    0.561270125
    0.482456140    0.886612022    0.713148479
    0.649122807    0.719945355    0.865026834
    0.065789474    0.053278689    0.181574240
    0.232456140    0.886612022    0.333452594
    0.399122807    0.719945355    0.485330948
    0.565789474    0.553278689    0.637209302
    0.732456140    0.386612022    0.789087657
    0.899122807    0.219945355    0.940966011
    0.732456140    0.386612022    0.181574240
    0.899122807    0.219945355    0.333452594
    0.065789474    0.053278689    0.485330948
    0.232456140    0.886612022    0.637209302
    0.399122807    0.719945355    0.789087657
    0.565789474    0.553278689    0.940966011
    0.399122807    0.719945355    0.181574240
    0.565789474    0.553278689    0.333452594
    0.732456140    0.386612022    0.485330948
    0.899122807    0.219945355    0.637209302
    0.065789474    0.053278689    0.789087657
    0.232456140    0.886612022    0.940966011
    0.565789474    0.053278689    0.181574240
    0.732456140    0.886612022    0.333452594
    0.899122807    0.719945355    0.485330948
    0.065789474    0.553278689    0.637209302
    0.232456140    0.386612022    0.789087657
    0.399122807    0.219945355    0.940966011
    0.232456140    0.386612022    0.181574240
    0.399122807    0.219945355    0.333452594
    0.565789474    0.053278689    0.485330948
    0.732456140    0.886612022    0.637209302
    0.899122807    0.719945355    0.789087657
    0.065789474    0.553278689    0.940966011
    0.899122807    0.719945355    0.181574240
    0.065789474    0.553278689    0.333452594
    0.232456140    0.386612022    0.485330948
    0.399122807    0.219945355    0.637209302
    0.565789474    0.053278689    0.789087657
    0.732456140    0.886612022    0.940966011
