C+Si
    1.000000000
   16.345130920    0.000000000    0.000000000
  -10.896755219   12.182942390    0.000000000
    0.000000000    0.000000000    5.029923439
C   Si 
84     36
Direct
    0.867875099    0.471500456    0.000000065
    0.967875242    0.871500492    0.158563197
    0.067875385    0.271500587    0.317126393
    0.582160771    0.328643292    0.000000062
    0.682160854    0.728643298    0.158563197
    0.782160938    0.128643394    0.317126393
    0.296446532    0.185786158    0.000000064
    0.396446586    0.585786164    0.158563226
    0.496446639    0.985786200    0.317126393
    0.010732261    0.042929024    0.000000065
    0.110732324    0.442929059    0.158563226
    0.210732400    0.842929125    0.317126423
    0.725017905    0.900071800    0.000000053
    0.825018048    0.300071836    0.158563197
    0.925018132    0.700071931    0.317126393
    0.439303696    0.757214725    0.000000053
    0.539303720    0.157214761    0.158563197
    0.639303803    0.557214737    0.317126393
    0.153589383    0.614357531    0.000000053
    0.253589451    0.014357567    0.158563197
    0.353589505    0.414357543    0.317126393
    0.989303827    0.207214475    0.079281524
    0.089303851    0.607214451    0.237844646
    0.189303875    0.007214546    0.396407932
    0.703589439    0.064357400    0.079281546
    0.803589463    0.464357376    0.237844646
    0.903589547    0.864357471    0.396407932
    0.846446574    0.635786176    0.079281494
    0.946446598    0.035786271    0.237844691
    0.046446562    0.435786247    0.396407902
    0.560732245    0.492928684    0.079281524
    0.660732269    0.892928720    0.237844691
    0.760732353    0.292928696    0.396407872
    0.275017917    0.350071609    0.079281494
    0.375018001    0.750071704    0.237844691
    0.475018054    0.150071621    0.396407872
    0.417875111    0.921500325    0.079281554
    0.517875195    0.321500421    0.237844646
    0.617875278    0.721500397    0.396407783
    0.132160708    0.778643191    0.079281479
    0.232160792    0.178643346    0.237844795
    0.332160860    0.578643322    0.396407783
    0.939303637    0.257214785    0.000000049
    0.039303660    0.657214820    0.158563241
    0.139303923    0.057214856    0.317126393
    0.653589487    0.114357650    0.000000041
    0.753589571    0.514357686    0.158563226
    0.853589594    0.914357722    0.317126393
    0.796446502    0.685786068    0.000000052
    0.896446586    0.085786104    0.158563256
    0.996446669    0.485786200    0.317126393
    0.510732234    0.542928994    0.000000058
    0.610732257    0.942929029    0.158563286
    0.710732341    0.342929006    0.317126393
    0.225017980    0.400071859    0.000000058
    0.325018048    0.800071895    0.158563286
    0.425018102    0.200071931    0.317126393
    0.367875099    0.971500337    0.000000000
    0.467875153    0.371500373    0.158563197
    0.567875266    0.771500349    0.317126393
    0.082160808    0.828643203    0.000000000
    0.182160854    0.228643179    0.158563197
    0.282160938    0.628643274    0.317126393
    0.917875111    0.421500385    0.079281494
    0.017875195    0.821500480    0.237844750
    0.117875218    0.221500516    0.396407902
    0.632160783    0.278643340    0.079281494
    0.732160866    0.678643405    0.237844750
    0.832160830    0.078643322    0.396407783
    0.346446425    0.135785818    0.079281546
    0.446446508    0.535785913    0.237844929
    0.546446562    0.935785890    0.396407872
    0.775017917    0.850071549    0.079281531
    0.875018001    0.250071645    0.237844750
    0.975018024    0.650071502    0.396407872
    0.489303589    0.707214475    0.079281494
    0.589303732    0.107214570    0.237844646
    0.689303756    0.507214546    0.396407872
    0.203589380    0.564357400    0.079281457
    0.303589463    0.964357495    0.237844750
    0.403589487    0.364357352    0.396407872
    0.060732193    0.992928565    0.079281509
    0.160732284    0.392928600    0.237844691
    0.260732323    0.792928696    0.396407992
    0.974358499    0.982905626    0.396407992
    0.674358428    0.782905579    0.637844801
    0.374358416    0.582905531    0.879281640
    0.307691783    0.982905626    0.396407992
    0.007691726    0.782905579    0.637844801
    0.707691669    0.582905531    0.879281640
    0.641025066    0.982905626    0.396407992
    0.341025025    0.782905579    0.637844801
    0.041024987    0.582905531    0.879281640
    0.157691970    0.632905602    0.517126083
    0.857691944    0.432905525    0.758562922
    0.557691932    0.232905507    0.999999881
    0.491025209    0.632905602    0.517126083
    0.191025153    0.432905525    0.758562922
    0.891025186    0.232905507    0.999999881
    0.824358463    0.632905602    0.517126083
    0.524358392    0.432905525    0.758562922
    0.224358499    0.232905507    0.999999881
    0.141025156    0.482905596    0.396407992
    0.841025114    0.282905489    0.637844801
    0.541025102    0.082905434    0.879281640
    0.474358439    0.482905596    0.396407992
    0.174358383    0.282905489    0.637844801
    0.874358356    0.082905434    0.879281640
    0.807691693    0.482905596    0.396407992
    0.507691681    0.282905489    0.637844801
    0.207691625    0.082905434    0.879281640
    0.991025209    0.132905662    0.517126083
    0.691025138    0.932905614    0.758562922
    0.391025186    0.732905567    0.999999881
    0.324358463    0.132905662    0.517126083
    0.024358414    0.932905614    0.758562922
    0.724358439    0.732905567    0.999999881
    0.657691658    0.132905662    0.517126083
    0.357691616    0.932905614    0.758562922
    0.057691652    0.732905567    0.999999881
