Ge+Ge
    1.000000000
   12.651226044    0.000000000    0.000000000
    2.530245304   12.395620346    0.000000000
    0.000000000    0.000000000   13.735162735
Ge 
96
Direct
    0.517576933    0.427114189    0.500000060
    0.992590368    0.948132515    0.000000023
    0.950923562    0.656465769    0.084083088
    0.909256816    0.364798903    0.168166161
    0.867590070    0.073132217    0.252249181
    0.825923324    0.781465530    0.336332172
    0.392576933    0.302114248    0.500000060
    0.492590368    0.448132515    0.000000028
    0.450923622    0.156465769    0.084083088
    0.409256876    0.864798963    0.168166161
    0.367590129    0.573132277    0.252249181
    0.325923383    0.281465530    0.336332232
    0.642576933    0.052114248    0.500000060
    0.367590398    0.823132634    0.000000012
    0.325923622    0.531465828    0.084083088
    0.284256876    0.239799008    0.168166190
    0.242590174    0.948132396    0.252249181
    0.059243441    0.968780696    0.668166161
    0.767577052    0.177114248    0.500000060
    0.867590487    0.323132575    0.000000012
    0.825923681    0.031465776    0.084083088
    0.784256876    0.739798903    0.168166161
    0.742590129    0.448132336    0.252249181
    0.700923383    0.156465530    0.336332172
    0.034256559    0.239798784    0.420415282
    0.242590353    0.698132634    0.000000000
    0.200923592    0.406465799    0.084083080
    0.159256846    0.114798956    0.168166161
    0.117590085    0.823132396    0.252249151
    0.475910217    0.135447502    0.584083080
    0.267577052    0.677114248    0.500000060
    0.742590427    0.198132515    0.000000021
    0.700923622    0.906465709    0.084083095
    0.659256876    0.614798903    0.168166161
    0.617590249    0.323132336    0.252249181
    0.975910306    0.635447443    0.584083080
    0.767577052    0.177114248    0.500000060
    0.117590360    0.073132515    0.000000021
    0.075923599    0.781465769    0.084083088
    0.034256846    0.489798963    0.168166161
    0.850910246    0.510447383    0.584083080
    0.950923383    0.906465530    0.336332232
    0.517576933    0.427114189    0.500000060
    0.617590487    0.573132575    0.000000012
    0.575923622    0.281465828    0.084083080
    0.534256935    0.989799023    0.168166190
    0.600910187    0.760447383    0.584083080
    0.559243500    0.468780667    0.668166161
    0.934243083    0.093780398    0.920415342
    0.284256607    0.989798784    0.420415312
    0.100910068    0.260447383    0.584083080
    0.809243441    0.218780637    0.668166161
    0.517576694    0.177113891    0.752249241
    0.225909948    0.135447145    0.836332321
    0.434243083    0.593780398    0.920415342
    0.409256607    0.114798844    0.420415312
    0.492590189    0.698132277    0.252249241
    0.309243441    0.718780756    0.668166161
    0.017576694    0.677113950    0.752249241
    0.725909948    0.635447204    0.836332321
    0.809243202    0.468780458    0.920415342
    0.534256697    0.739798665    0.420415312
    0.575923443    0.031465471    0.336332172
    0.684243500    0.593780756    0.668166161
    0.392576814    0.552114010    0.752249241
    0.100910068    0.510447204    0.836332321
    0.309243083    0.968780458    0.920415282
    0.659256577    0.864798665    0.420415282
    0.075923339    0.531465530    0.336332172
    0.184243441    0.093780756    0.668166161
    0.892576814    0.052114010    0.752249241
    0.600909948    0.010447264    0.836332321
    0.684243202    0.343780398    0.920415342
    0.284256607    0.989798784    0.420415312
    0.992590070    0.198132217    0.252249181
    0.450923443    0.406465530    0.336332262
    0.267576814    0.427113920    0.752249181
    0.975909948    0.385447174    0.836332262
    0.184243083    0.843780518    0.920415342
    0.534256697    0.739798665    0.420415312
    0.350910187    0.010447502    0.584083080
    0.200923383    0.656465650    0.336332232
    0.767576694    0.927114069    0.752249241
    0.475909919    0.885447264    0.836332321
    0.059243083    0.218780398    0.920415342
    0.784256577    0.489798665    0.420415282
    0.225910187    0.385447443    0.584083080
    0.934243441    0.343780696    0.668166161
    0.642576694    0.302114010    0.752249181
    0.350909948    0.260447264    0.836332321
    0.559243202    0.718780518    0.920415342
    0.017577052    0.927114308    0.500000060
    0.725910187    0.885447443    0.584083080
    0.434243560    0.843780756    0.668166161
    0.142576694    0.802114010    0.752249241
    0.850909948    0.760447264    0.836332321
