Ge+Sn                                   
   1.00000000000000     
    11.3156003950000006    0.0000000000000000    0.0000000000000000
     0.0000000000000000   17.8915348049999992    0.0000000000000000
     0.0000000000000000   -0.0000003160000000   13.6694183349999996
   Ge   Sn
    48    48
Direct
  0.9455687399999988  0.0762038009999984  0.0000000129999975
  0.6955686809999975  0.4262039070000014  0.0654437689999980
  0.4455686809999975  0.7762039899999991  0.1308875229999984
  0.1955686209999996  0.1262041330000017  0.1963313369999966
  0.9455686809999975  0.4762041569999980  0.2617750759999993
  0.6955686809999975  0.8262043000000006  0.3272187709999983
  0.4455687399999988  0.0762038009999984  0.0000000129999975
  0.1955687110000000  0.4262039070000014  0.0654437689999980
  0.9455686809999975  0.7762039899999991  0.1308875229999984
  0.6955686809999975  0.1262041330000017  0.1963313369999966
  0.4455686809999975  0.4762041569999980  0.2617750759999993
  0.1955686209999996  0.8262043000000006  0.3272187709999983
  0.0705687250000011  0.8262039419999994  0.0000000300000025
  0.8205686809999975  0.1762040850000020  0.0654437470000033
  0.5705686809999975  0.5262041089999983  0.1308874790000019
  0.3205686209999996  0.8762041330000017  0.1963313219999989
  0.0705686209999996  0.2262041569999980  0.2617751060000018
  0.8205685619999983  0.5762043000000006  0.3272188310000033
  0.5705687399999988  0.8262039419999994  0.0000000300000025
  0.3205687399999988  0.1762040850000020  0.0654437470000033
  0.0705687110000000  0.5262041089999983  0.1308874790000019
  0.8205686809999975  0.8762041330000017  0.1963313219999989
  0.5705686809999975  0.2262041569999980  0.2617751060000018
  0.3205686209999996  0.5762043000000006  0.3272188310000033
  0.9455687399999988  0.5762038230000002  0.0000000160000013
  0.6955686809999975  0.9262039070000014  0.0654437390000027
  0.4455686809999975  0.2762039899999991  0.1308875380000032
  0.1955686209999996  0.6262041330000017  0.1963312629999976
  0.9455686809999975  0.9762041569999980  0.2617750759999993
  0.6955686809999975  0.3262043000000006  0.3272188310000033
  0.4455687399999988  0.5762038230000002  0.0000000160000013
  0.1955687110000000  0.9262039070000014  0.0654437390000027
  0.9455686809999975  0.2762039899999991  0.1308875380000032
  0.6955686809999975  0.6262041330000017  0.1963312629999976
  0.4455686809999975  0.9762041569999980  0.2617750759999993
  0.1955686209999996  0.3262043000000006  0.3272188310000033
  0.0705687250000011  0.3262038230000002  0.0000000000000000
  0.8205686809999975  0.6762039660000028  0.0654437769999987
  0.5705686809999975  0.0262039899999991  0.1308875229999984
  0.3205686209999996  0.3762041330000017  0.1963312769999987
  0.0705686209999996  0.7262041569999980  0.2617750470000004
  0.8205685619999983  0.0762043000000006  0.3272187410000029
  0.5705687399999988  0.3262038230000002  0.0000000000000000
  0.3205687399999988  0.6762039660000028  0.0654437769999987
  0.0705687110000000  0.0262039899999991  0.1308875229999984
  0.8205686809999975  0.3762041330000017  0.1963312769999987
  0.5705686809999975  0.7262041569999980  0.2617750470000004
  0.3205686209999996  0.0762043000000006  0.3272187410000029
  0.5659289359999988  0.2081854340000007  0.4213526839999986
  0.2325954439999975  0.0831854340000007  0.5182553530000007
  0.8992621900000017  0.9581854340000007  0.6151580209999992
  0.5659288169999996  0.8331854340000007  0.7120606900000013
  0.2325953249999984  0.7081854340000007  0.8089634780000026
  0.8992618320000005  0.5831853150000015  0.9058660860000032
  0.5659289359999988  0.7081854340000007  0.4213526839999986
  0.2325954439999975  0.5831854340000007  0.5182553530000007
  0.8992621900000017  0.4581854340000007  0.6151580209999992
  0.5659288169999996  0.3331854340000007  0.7120606900000013
  0.2325953249999984  0.2081854340000007  0.8089634780000026
  0.8992618320000005  0.0831851960000023  0.9058660860000032
  0.8159289359999988  0.4581854340000007  0.4213526839999986
  0.4825955629999967  0.3331854340000007  0.5182553530000007
  0.1492621900000017  0.2081854340000007  0.6151580809999970
  0.8159288169999996  0.0831854340000007  0.7120606900000013
  0.4825954439999975  0.9581854340000007  0.8089634780000026
  0.1492618320000005  0.8331853150000015  0.9058662059999989
  0.8159289359999988  0.9581854340000007  0.4213526839999986
  0.4825954439999975  0.8331854340000007  0.5182553530000007
  0.1492621900000017  0.7081854340000007  0.6151580209999992
  0.8159288169999996  0.5831854340000007  0.7120606900000013
  0.4825954439999975  0.4581854340000007  0.8089633579999997
  0.1492618320000005  0.3331853150000015  0.9058662059999989
  0.5659289359999988  0.4581854340000007  0.4213526839999986
  0.2325954439999975  0.3331854340000007  0.5182553530000007
  0.8992621900000017  0.2081854340000007  0.6151580209999992
  0.5659288169999996  0.0831854340000007  0.7120606900000013
  0.2325953249999984  0.9581853749999993  0.8089634780000026
  0.8992619509999997  0.8331853150000015  0.9058660860000032
  0.5659289359999988  0.9581854340000007  0.4213526839999986
  0.2325954439999975  0.8331854340000007  0.5182553530000007
  0.8992621900000017  0.7081854340000007  0.6151580209999992
  0.5659288169999996  0.5831854340000007  0.7120606900000013
  0.2325954439999975  0.4581854340000007  0.8089634780000026
  0.8992618320000005  0.3331851960000023  0.9058660860000032
  0.8159289359999988  0.2081854340000007  0.4213526839999986
  0.4825955629999967  0.0831854340000007  0.5182553530000007
  0.1492621900000017  0.9581854340000007  0.6151580209999992
  0.8159288169999996  0.8331854340000007  0.7120606900000013
  0.4825954439999975  0.7081854340000007  0.8089634780000026
  0.1492619509999997  0.5831854340000007  0.9058660860000032
  0.8159289359999988  0.7081854340000007  0.4213526839999986
  0.4825955629999967  0.5831854340000007  0.5182553530000007
  0.1492621900000017  0.4581854340000007  0.6151580209999992
  0.8159288169999996  0.3331854340000007  0.7120606900000013
  0.4825954439999975  0.2081854340000007  0.8089634780000026
  0.1492619509999997  0.0831853150000015  0.9058660860000032
 
  0.00000000E+00  0.00000000E+00  0.00000000E+00
  0.00000000E+00  0.00000000E+00  0.00000000E+00
  0.00000000E+00  0.00000000E+00  0.00000000E+00
  0.00000000E+00  0.00000000E+00  0.00000000E+00
  0.00000000E+00  0.00000000E+00  0.00000000E+00
  0.00000000E+00  0.00000000E+00  0.00000000E+00
  0.00000000E+00  0.00000000E+00  0.00000000E+00
  0.00000000E+00  0.00000000E+00  0.00000000E+00
  0.00000000E+00  0.00000000E+00  0.00000000E+00
  0.00000000E+00  0.00000000E+00  0.00000000E+00
  0.00000000E+00  0.00000000E+00  0.00000000E+00
  0.00000000E+00  0.00000000E+00  0.00000000E+00
  0.00000000E+00  0.00000000E+00  0.00000000E+00
  0.00000000E+00  0.00000000E+00  0.00000000E+00
  0.00000000E+00  0.00000000E+00  0.00000000E+00
  0.00000000E+00  0.00000000E+00  0.00000000E+00
  0.00000000E+00  0.00000000E+00  0.00000000E+00
  0.00000000E+00  0.00000000E+00  0.00000000E+00
  0.00000000E+00  0.00000000E+00  0.00000000E+00
  0.00000000E+00  0.00000000E+00  0.00000000E+00
  0.00000000E+00  0.00000000E+00  0.00000000E+00
  0.00000000E+00  0.00000000E+00  0.00000000E+00
  0.00000000E+00  0.00000000E+00  0.00000000E+00
  0.00000000E+00  0.00000000E+00  0.00000000E+00
  0.00000000E+00  0.00000000E+00  0.00000000E+00
  0.00000000E+00  0.00000000E+00  0.00000000E+00
  0.00000000E+00  0.00000000E+00  0.00000000E+00
  0.00000000E+00  0.00000000E+00  0.00000000E+00
  0.00000000E+00  0.00000000E+00  0.00000000E+00
  0.00000000E+00  0.00000000E+00  0.00000000E+00
  0.00000000E+00  0.00000000E+00  0.00000000E+00
  0.00000000E+00  0.00000000E+00  0.00000000E+00
  0.00000000E+00  0.00000000E+00  0.00000000E+00
  0.00000000E+00  0.00000000E+00  0.00000000E+00
  0.00000000E+00  0.00000000E+00  0.00000000E+00
  0.00000000E+00  0.00000000E+00  0.00000000E+00
  0.00000000E+00  0.00000000E+00  0.00000000E+00
  0.00000000E+00  0.00000000E+00  0.00000000E+00
  0.00000000E+00  0.00000000E+00  0.00000000E+00
  0.00000000E+00  0.00000000E+00  0.00000000E+00
  0.00000000E+00  0.00000000E+00  0.00000000E+00
  0.00000000E+00  0.00000000E+00  0.00000000E+00
  0.00000000E+00  0.00000000E+00  0.00000000E+00
  0.00000000E+00  0.00000000E+00  0.00000000E+00
  0.00000000E+00  0.00000000E+00  0.00000000E+00
  0.00000000E+00  0.00000000E+00  0.00000000E+00
  0.00000000E+00  0.00000000E+00  0.00000000E+00
  0.00000000E+00  0.00000000E+00  0.00000000E+00
  0.00000000E+00  0.00000000E+00  0.00000000E+00
  0.00000000E+00  0.00000000E+00  0.00000000E+00
  0.00000000E+00  0.00000000E+00  0.00000000E+00
  0.00000000E+00  0.00000000E+00  0.00000000E+00
  0.00000000E+00  0.00000000E+00  0.00000000E+00
  0.00000000E+00  0.00000000E+00  0.00000000E+00
  0.00000000E+00  0.00000000E+00  0.00000000E+00
  0.00000000E+00  0.00000000E+00  0.00000000E+00
  0.00000000E+00  0.00000000E+00  0.00000000E+00
  0.00000000E+00  0.00000000E+00  0.00000000E+00
  0.00000000E+00  0.00000000E+00  0.00000000E+00
  0.00000000E+00  0.00000000E+00  0.00000000E+00
  0.00000000E+00  0.00000000E+00  0.00000000E+00
  0.00000000E+00  0.00000000E+00  0.00000000E+00
  0.00000000E+00  0.00000000E+00  0.00000000E+00
  0.00000000E+00  0.00000000E+00  0.00000000E+00
  0.00000000E+00  0.00000000E+00  0.00000000E+00
  0.00000000E+00  0.00000000E+00  0.00000000E+00
  0.00000000E+00  0.00000000E+00  0.00000000E+00
  0.00000000E+00  0.00000000E+00  0.00000000E+00
  0.00000000E+00  0.00000000E+00  0.00000000E+00
  0.00000000E+00  0.00000000E+00  0.00000000E+00
  0.00000000E+00  0.00000000E+00  0.00000000E+00
  0.00000000E+00  0.00000000E+00  0.00000000E+00
  0.00000000E+00  0.00000000E+00  0.00000000E+00
  0.00000000E+00  0.00000000E+00  0.00000000E+00
  0.00000000E+00  0.00000000E+00  0.00000000E+00
  0.00000000E+00  0.00000000E+00  0.00000000E+00
  0.00000000E+00  0.00000000E+00  0.00000000E+00
  0.00000000E+00  0.00000000E+00  0.00000000E+00
  0.00000000E+00  0.00000000E+00  0.00000000E+00
  0.00000000E+00  0.00000000E+00  0.00000000E+00
  0.00000000E+00  0.00000000E+00  0.00000000E+00
  0.00000000E+00  0.00000000E+00  0.00000000E+00
  0.00000000E+00  0.00000000E+00  0.00000000E+00
  0.00000000E+00  0.00000000E+00  0.00000000E+00
  0.00000000E+00  0.00000000E+00  0.00000000E+00
  0.00000000E+00  0.00000000E+00  0.00000000E+00
  0.00000000E+00  0.00000000E+00  0.00000000E+00
  0.00000000E+00  0.00000000E+00  0.00000000E+00
  0.00000000E+00  0.00000000E+00  0.00000000E+00
  0.00000000E+00  0.00000000E+00  0.00000000E+00
  0.00000000E+00  0.00000000E+00  0.00000000E+00
  0.00000000E+00  0.00000000E+00  0.00000000E+00
  0.00000000E+00  0.00000000E+00  0.00000000E+00
  0.00000000E+00  0.00000000E+00  0.00000000E+00
  0.00000000E+00  0.00000000E+00  0.00000000E+00
  0.00000000E+00  0.00000000E+00  0.00000000E+00
