Ge+Sn
    1.000000000
   19.599195480    0.000000000    0.000000000
   -6.533064842   18.478298187    0.000000000
    0.000000000    0.000000000   25.800939560
Ge  Sn 
192     144
Direct
    0.744844615    0.234533861    0.000000014
    0.682344615    0.047033865    0.077529542
    0.619844615    0.859533846    0.155059069
    0.557344615    0.672033906    0.232588559
    0.494844615    0.484533906    0.310118109
    0.432344586    0.297033846    0.387647569
    0.494844645    0.984533846    0.000000013
    0.432344615    0.797033846    0.077529527
    0.369844615    0.609533787    0.155059084
    0.307344615    0.422033846    0.232588589
    0.244844645    0.234533906    0.310118079
    0.182344645    0.047033846    0.387647629
    0.744844615    0.734533846    0.000000016
    0.682344615    0.547033846    0.077529527
    0.619844615    0.359533817    0.155059084
    0.557344615    0.172033846    0.232588559
    0.494844615    0.984533906    0.310118079
    0.432344586    0.797033846    0.387647599
    0.494844615    0.484533846    0.000000016
    0.432344615    0.297033846    0.077529527
    0.369844615    0.109533817    0.155059069
    0.307344615    0.922033846    0.232588559
    0.244844630    0.734533906    0.310118079
    0.182344630    0.547033846    0.387647599
    0.244844630    0.234533861    0.000000016
    0.182344630    0.047033854    0.077529527
    0.119844608    0.859533787    0.155059069
    0.057344612    0.672033846    0.232588559
    0.994844615    0.484533906    0.310118079
    0.932344615    0.297033846    0.387647599
    0.994844615    0.984533846    0.000000016
    0.932344615    0.797033846    0.077529527
    0.869844615    0.609533787    0.155059069
    0.807344615    0.422033846    0.232588559
    0.744844675    0.234533906    0.310118079
    0.682344615    0.047033846    0.387647599
    0.244844615    0.734533846    0.000000007
    0.182344615    0.547033846    0.077529527
    0.119844608    0.359533846    0.155059069
    0.057344619    0.172033861    0.232588559
    0.994844615    0.984533906    0.310118079
    0.932344615    0.797033846    0.387647599
    0.994844615    0.484533876    0.000000007
    0.932344615    0.297033876    0.077529527
    0.869844615    0.109533824    0.155059069
    0.807344615    0.922033846    0.232588559
    0.744844675    0.734533906    0.310118079
    0.682344615    0.547033846    0.387647599
    0.869844615    0.109533794    0.000000000
    0.807344615    0.922033787    0.077529527
    0.744844675    0.734533787    0.155059054
    0.682344675    0.547033787    0.232588589
    0.619844675    0.359533846    0.310118079
    0.557344615    0.172033787    0.387647569
    0.869844615    0.609533846    0.000000018
    0.807344615    0.422033846    0.077529535
    0.744844615    0.234533802    0.155059069
    0.682344615    0.047033843    0.232588559
    0.619844615    0.859533906    0.310118079
    0.557344615    0.672033787    0.387647569
    0.619844615    0.359533846    0.000000018
    0.557344615    0.172033831    0.077529535
    0.494844645    0.984533787    0.155059069
    0.432344645    0.797033846    0.232588559
    0.369844645    0.609533906    0.310118079
    0.307344615    0.422033846    0.387647569
    0.369844615    0.109533861    0.000000019
    0.307344615    0.922033846    0.077529542
    0.244844615    0.734533787    0.155059084
    0.182344615    0.547033846    0.232588589
    0.119844638    0.359533906    0.310118079
    0.057344612    0.172033846    0.387647599
    0.619844615    0.859533846    0.000000015
    0.557344615    0.672033846    0.077529527
    0.494844615    0.484533757    0.155059069
    0.432344615    0.297033846    0.232588589
    0.369844615    0.109533846    0.310118079
    0.307344615    0.922033846    0.387647599
    0.369844615    0.609533846    0.000000016
    0.307344615    0.422033846    0.077529527
    0.244844601    0.234533846    0.155059069
    0.182344615    0.047033861    0.232588589
    0.119844608    0.859533906    0.310118079
    0.057344619    0.672033846    0.387647599
    0.119844630    0.359533876    0.000000016
    0.057344623    0.172033861    0.077529527
    0.994844615    0.984533787    0.155059069
    0.932344615    0.797033846    0.232588559
    0.869844675    0.609533906    0.310118079
    0.807344615    0.422033846    0.387647599
    0.119844615    0.859533846    0.000000019
    0.057344623    0.672033846    0.077529550
    0.994844615    0.484533817    0.155059084
    0.932344615    0.297033846    0.232588589
    0.869844675    0.109533884    0.310118109
    0.807344615    0.922033846    0.387647599
    0.869844675    0.234533906    0.000000007
    0.807344675    0.047033865    0.077529535
    0.744844615    0.859533846    0.155059069
    0.682344675    0.672033846    0.232588559
    0.619844675    0.484533906    0.310118079
    0.557344675    0.297033846    0.387647599
    0.619844615    0.984533846    0.000000007
    0.557344615    0.797033846    0.077529535
    0.494844645    0.609533787    0.155059069
    0.432344645    0.422033846    0.232588559
    0.369844645    0.234533906    0.310118079
    0.307344645    0.047033846    0.387647599
    0.869844675    0.734533906    0.000000017
    0.807344675    0.547033906    0.077529527
    0.744844675    0.359533876    0.155059084
    0.682344675    0.172033891    0.232588559
    0.619844675    0.984533966    0.310118079
    0.557344675    0.797033906    0.387647599
    0.619844675    0.484533906    0.000000018
    0.557344675    0.297033876    0.077529535
    0.494844645    0.109533831    0.155059069
    0.432344645    0.922033846    0.232588589
    0.369844675    0.734533906    0.310118079
    0.307344645    0.547033906    0.387647599
    0.369844615    0.234533846    0.000000018
    0.307344615    0.047033846    0.077529527
    0.244844615    0.859533787    0.155059084
    0.182344630    0.672033846    0.232588589
    0.119844645    0.484533906    0.310118109
    0.057344619    0.297033846    0.387647599
    0.119844615    0.984533846    0.000000018
    0.057344615    0.797033846    0.077529527
    0.994844615    0.609533787    0.155059069
    0.932344615    0.422033846    0.232588589
    0.869844675    0.234533906    0.310118079
    0.807344615    0.047033846    0.387647599
    0.369844615    0.734533846    0.000000015
    0.307344615    0.547033846    0.077529535
    0.244844601    0.359533817    0.155059084
    0.182344615    0.172033802    0.232588589
    0.119844615    0.984533846    0.310118079
    0.057344612    0.797033787    0.387647599
    0.119844615    0.484533846    0.000000015
    0.057344615    0.297033846    0.077529535
    0.994844615    0.109533817    0.155059084
    0.932344615    0.922033846    0.232588589
    0.869844675    0.734533906    0.310118079
    0.807344615    0.547033846    0.387647599
    0.744844615    0.359533846    0.000000006
    0.682344615    0.172033846    0.077529535
    0.619844615    0.984533787    0.155059069
    0.557344556    0.797033846    0.232588559
    0.494844586    0.609533906    0.310118079
    0.432344586    0.422033846    0.387647569
    0.494844615    0.109533846    0.000000006
    0.432344615    0.922033846    0.077529535
    0.369844615    0.734533787    0.155059069
    0.307344615    0.547033906    0.232588559
    0.244844630    0.359533906    0.310118079
    0.182344601    0.172033846    0.387647569
    0.744844615    0.859533846    0.000000016
    0.682344556    0.672033787    0.077529527
    0.619844556    0.484533787    0.155059069
    0.557344615    0.297033846    0.232588559
    0.494844615    0.109533854    0.310118079
    0.432344586    0.922033846    0.387647599
    0.494844615    0.609533846    0.000000016
    0.432344615    0.422033846    0.077529527
    0.369844586    0.234533802    0.155059069
    0.307344615    0.047033828    0.232588589
    0.244844615    0.859533846    0.310118079
    0.182344601    0.672033846    0.387647599
    0.244844615    0.359533846    0.000000016
    0.182344615    0.172033846    0.077529527
    0.119844615    0.984533846    0.155059069
    0.057344627    0.797033846    0.232588589
    0.994844615    0.609533906    0.310118079
    0.932344615    0.422033846    0.387647599
    0.994844615    0.109533839    0.000000016
    0.932344615    0.922033846    0.077529527
    0.869844615    0.734533787    0.155059069
    0.807344615    0.547033846    0.232588589
    0.744844675    0.359533906    0.310118079
    0.682344615    0.172033846    0.387647599
    0.244844615    0.859533846    0.000000014
    0.182344615    0.672033846    0.077529542
    0.119844593    0.484533817    0.155059069
    0.057344593    0.297033846    0.232588589
    0.994844615    0.109533876    0.310118079
    0.932344615    0.922033846    0.387647599
    0.994844615    0.609533846    0.000000014
    0.932344615    0.422033846    0.077529542
    0.869844615    0.234533846    0.155059069
    0.807344615    0.047033865    0.232588589
    0.744844675    0.859533906    0.310118079
    0.682344615    0.672033846    0.387647599
    0.873061538    0.805529892    0.471518040
    0.748061419    0.597196400    0.560440421
    0.623061419    0.388862908    0.649362683
    0.498061419    0.180529356    0.738284945
    0.373061419    0.972195864    0.827207327
    0.248061419    0.763862371    0.916129649
    0.873061538    0.472196579    0.471518040
    0.748061419    0.263863057    0.560440421
    0.623061419    0.055529594    0.649362683
    0.498061419    0.847195983    0.738284945
    0.373061419    0.638862491    0.827207327
    0.248061419    0.430529058    0.916129649
    0.873061538    0.138863206    0.471518040
    0.748061419    0.930529714    0.560440421
    0.623061419    0.722196221    0.649362683
    0.498061419    0.513862610    0.738284945
    0.373061419    0.305529118    0.827207327
    0.248061419    0.097195625    0.916129649
    0.373061538    0.972196460    0.471518040
    0.248061538    0.763862967    0.560440421
    0.123061538    0.555529535    0.649362683
    0.998061478    0.347195983    0.738285005
    0.873061419    0.138862491    0.827207327
    0.748061419    0.930528998    0.916129589
    0.373061538    0.638863206    0.471518040
    0.248061538    0.430529714    0.560440421
    0.123061538    0.222196221    0.649362683
    0.998061478    0.013862610    0.738285005
    0.873061419    0.805529118    0.827207327
    0.748061419    0.597195685    0.916129589
    0.373061538    0.305529892    0.471518040
    0.248061538    0.097196460    0.560440421
    0.123061538    0.888862848    0.649362683
    0.998061478    0.680529296    0.738285005
    0.873061419    0.472195804    0.827207327
    0.748061419    0.263862312    0.916129589
    0.123061538    0.888863206    0.471518040
    0.998061538    0.680529714    0.560440421
    0.873061419    0.472196221    0.649362683
    0.748061419    0.263862699    0.738284945
    0.623061419    0.055529237    0.827207327
    0.498061419    0.847195685    0.916129649
    0.123061538    0.555529892    0.471518040
    0.998061538    0.347196400    0.560440421
    0.873061419    0.138862967    0.649362683
    0.748061419    0.930529356    0.738284945
    0.623061419    0.722195804    0.827207327
    0.498061419    0.513862371    0.916129649
    0.123061538    0.222196549    0.471518040
    0.998061538    0.013863087    0.560440421
    0.873061419    0.805529535    0.649362683
    0.748061419    0.597195923    0.738284945
    0.623061419    0.388862491    0.827207327
    0.498061419    0.180529013    0.916129649
    0.623061538    0.055529952    0.471518040
    0.498061538    0.847196400    0.560440421
    0.373061538    0.638862908    0.649362683
    0.248061419    0.430529356    0.738285005
    0.123061419    0.222195864    0.827207327
    0.998061419    0.013862371    0.916129589
    0.623061538    0.722196519    0.471518040
    0.498061538    0.513863027    0.560440421
    0.373061538    0.305529535    0.649362683
    0.248061419    0.097195983    0.738285005
    0.123061419    0.888862491    0.827207327
    0.998061419    0.680528998    0.916129589
    0.623061538    0.388863236    0.471518040
    0.498061538    0.180529729    0.560440421
    0.373061538    0.972196221    0.649362683
    0.248061419    0.763862610    0.738285005
    0.123061419    0.555529118    0.827207327
    0.998061419    0.347195685    0.916129589
    0.248061538    0.013863325    0.471518070
    0.123061538    0.805529714    0.560440421
    0.998061478    0.597196221    0.649362683
    0.873061419    0.388862699    0.738285005
    0.748061419    0.180529207    0.827207327
    0.623061419    0.972195685    0.916129589
    0.248061538    0.680529833    0.471518070
    0.123061538    0.472196341    0.560440421
    0.998061478    0.263862848    0.649362683
    0.873061419    0.055529237    0.738285005
    0.748061419    0.847195745    0.827207327
    0.623061419    0.638862252    0.916129589
    0.248061538    0.347196579    0.471518070
    0.123061538    0.138863087    0.560440421
    0.998061478    0.930529535    0.649362683
    0.873061419    0.722195983    0.738285005
    0.748061419    0.513862491    0.827207327
    0.623061419    0.305528998    0.916129589
    0.748061657    0.847196579    0.471518040
    0.623061538    0.638863146    0.560440421
    0.498061538    0.430529594    0.649362683
    0.373061419    0.222196043    0.738285005
    0.248061419    0.013862610    0.827207327
    0.123061419    0.805528998    0.916129589
    0.748061657    0.513863206    0.471518040
    0.623061538    0.305529684    0.560440421
    0.498061538    0.097196221    0.649362683
    0.373061419    0.888862610    0.738285005
    0.248061419    0.680529118    0.827207327
    0.123061419    0.472195566    0.916129589
    0.748061657    0.180529892    0.471518040
    0.623061538    0.972196341    0.560440421
    0.498061538    0.763862848    0.649362683
    0.373061419    0.555529296    0.738285005
    0.248061419    0.347195745    0.827207327
    0.123061419    0.138862252    0.916129589
    0.998061538    0.930529952    0.471518040
    0.873061538    0.722196400    0.560440421
    0.748061419    0.513862967    0.649362683
    0.623061419    0.305529416    0.738285005
    0.498061419    0.097195864    0.827207327
    0.373061419    0.888862371    0.916129589
    0.998061538    0.597196579    0.471518040
    0.873061538    0.388863057    0.560440421
    0.748061419    0.180529550    0.649362683
    0.623061419    0.972195983    0.738285005
    0.498061419    0.763862491    0.827207327
    0.373061419    0.555528998    0.916129589
    0.998061538    0.263863266    0.471518040
    0.873061538    0.055529714    0.560440421
    0.748061419    0.847196221    0.649362683
    0.623061419    0.638862669    0.738285005
    0.498061419    0.430529177    0.827207327
    0.373061419    0.222195640    0.916129589
    0.498061538    0.097196579    0.471518070
    0.373061538    0.888863087    0.560440421
    0.248061538    0.680529594    0.649362683
    0.123061419    0.472196043    0.738285005
    0.998061419    0.263862550    0.827207327
    0.873061419    0.055528998    0.916129589
    0.498061538    0.763863206    0.471518070
    0.373061538    0.555529714    0.560440421
    0.248061538    0.347196221    0.649362683
    0.123061419    0.138862610    0.738285005
    0.998061419    0.930529118    0.827207327
    0.873061419    0.722195625    0.916129589
    0.498061538    0.430529892    0.471518070
    0.373061538    0.222196385    0.560440421
    0.248061538    0.013862848    0.649362683
    0.123061419    0.805529237    0.738285005
    0.998061419    0.597195864    0.827207327
    0.873061419    0.388862312    0.916129589
