Automatic KPOINTS generated
0
Gamma
3 2 6
0 0 0
