Ge+Sn
    1.000000000
   13.858724594    0.000000000    0.000000000
    0.000000000   19.599195480    0.000000000
    0.000000000    0.000000000   13.629248619
Ge  Sn 
144     36
Direct
    0.979378462    0.499999970    0.000000020
    0.729378343    0.499999940    0.146767855
    0.479378223    0.499999881    0.293535709
    0.229378223    0.499999821    0.440303445
    0.979378223    0.499999732    0.587071180
    0.729377985    0.499999702    0.733839035
    0.312711775    0.666666687    0.000000019
    0.062711671    0.666666627    0.146767825
    0.812711596    0.666666567    0.293535650
    0.562711537    0.666666508    0.440303385
    0.312711477    0.666666448    0.587071180
    0.062711358    0.666666389    0.733839035
    0.646045029    0.833333313    0.000000019
    0.396044970    0.833333254    0.146767825
    0.146044835    0.833333194    0.293535650
    0.896044850    0.833333194    0.440303385
    0.646044731    0.833333075    0.587071180
    0.396044672    0.833333015    0.733839035
    0.979378462    0.000000000    0.000000026
    0.729378343    0.999999940    0.146767810
    0.479378283    0.999999881    0.293535650
    0.229378283    0.999999821    0.440303385
    0.979378223    0.999999762    0.587071180
    0.729378104    0.999999702    0.733839035
    0.312711775    0.166666657    0.000000026
    0.062711693    0.166666612    0.146767810
    0.812711596    0.166666538    0.293535620
    0.562711537    0.166666478    0.440303385
    0.312711477    0.166666433    0.587071180
    0.062711358    0.166666359    0.733839035
    0.646045148    0.333333343    0.000000025
    0.396044999    0.333333284    0.146767825
    0.146044925    0.333333224    0.293535620
    0.896044850    0.333333135    0.440303385
    0.646044850    0.333333105    0.587071180
    0.396044731    0.333333045    0.733839035
    0.146045104    0.833333373    0.000000008
    0.896044970    0.833333313    0.146767795
    0.646044850    0.833333254    0.293535650
    0.396044791    0.833333194    0.440303445
    0.146044850    0.833333135    0.587071240
    0.896044731    0.833333015    0.733838975
    0.146045104    0.333333313    0.000000029
    0.896045029    0.333333284    0.146767855
    0.646044910    0.333333224    0.293535650
    0.396044910    0.333333135    0.440303445
    0.146044850    0.333333075    0.587071180
    0.896044731    0.333333015    0.733838975
    0.479378492    0.500000000    0.000000029
    0.229378358    0.499999940    0.146767855
    0.979378223    0.499999881    0.293535650
    0.729378223    0.499999791    0.440303445
    0.479378164    0.499999762    0.587071180
    0.229378045    0.499999672    0.733838975
    0.812711656    0.666666687    0.000000027
    0.562711656    0.666666627    0.146767855
    0.312711537    0.666666508    0.293535620
    0.062711500    0.666666508    0.440303445
    0.812711418    0.666666448    0.587071180
    0.562711358    0.666666329    0.733838975
    0.479378432    0.000000000    0.000000021
    0.229378358    0.999999940    0.146767825
    0.979378223    0.999999881    0.293535620
    0.729378223    0.999999821    0.440303445
    0.479378164    0.999999762    0.587071180
    0.229378045    0.999999702    0.733839035
    0.812711775    0.166666672    0.000000022
    0.562711716    0.166666597    0.146767825
    0.312711656    0.166666567    0.293535620
    0.062711604    0.166666508    0.440303445
    0.812711596    0.166666433    0.587071180
    0.562711477    0.166666403    0.733839035
    0.146045148    0.708333373    0.000000000
    0.896044970    0.708333313    0.146767855
    0.646044910    0.708333254    0.293535709
    0.396044850    0.708333194    0.440303445
    0.146044850    0.708333135    0.587071180
    0.896044731    0.708333075    0.733838975
    0.479378432    0.875000060    0.000000000
    0.229378387    0.875000000    0.146767855
    0.979378223    0.874999940    0.293535709
    0.729378223    0.874999881    0.440303445
    0.479378223    0.874999762    0.587071180
    0.229378104    0.874999762    0.733838975
    0.146045089    0.208333328    0.000000026
    0.896045029    0.208333269    0.146767810
    0.646044910    0.208333209    0.293535620
    0.396044850    0.208333150    0.440303445
    0.146044850    0.208333105    0.587071180
    0.896044731    0.208333045    0.733838975
    0.479378492    0.375000000    0.000000027
    0.229378372    0.374999940    0.146767825
    0.979378283    0.374999881    0.293535650
    0.729378223    0.374999821    0.440303445
    0.479378223    0.374999762    0.587071180
    0.229378045    0.374999702    0.733838975
    0.812711775    0.541666687    0.000000027
    0.562711775    0.541666627    0.146767825
    0.312711626    0.541666567    0.293535650
    0.062711582    0.541666508    0.440303445
    0.812711537    0.541666448    0.587071180
    0.562711477    0.541666389    0.733838975
    0.812711835    0.041666660    0.000000015
    0.562711716    0.041666590    0.146767825
    0.312711626    0.041666526    0.293535650
    0.062711574    0.041666493    0.440303445
    0.812711537    0.041666422    0.587071180
    0.562711477    0.041666344    0.733839035
    0.979378521    0.875000060    0.000000018
    0.729378343    0.874999940    0.146767795
    0.479378283    0.874999881    0.293535650
    0.229378223    0.874999821    0.440303445
    0.979378223    0.874999762    0.587071240
    0.729378104    0.874999702    0.733838975
    0.979378462    0.374999970    0.000000012
    0.729378343    0.374999911    0.146767825
    0.479378283    0.374999851    0.293535650
    0.229378223    0.374999791    0.440303385
    0.979378223    0.374999732    0.587071180
    0.729378104    0.374999672    0.733838975
    0.312711835    0.541666687    0.000000011
    0.062711686    0.541666627    0.146767825
    0.812711596    0.541666567    0.293535709
    0.562711537    0.541666508    0.440303445
    0.312711537    0.541666448    0.587071180
    0.062711418    0.541666389    0.733839035
    0.646045089    0.708333313    0.000000012
    0.396044999    0.708333254    0.146767825
    0.146044895    0.708333194    0.293535650
    0.896044850    0.708333135    0.440303385
    0.646044850    0.708333075    0.587071180
    0.396044731    0.708333015    0.733838975
    0.312711746    0.041666649    0.000000024
    0.062711686    0.041666593    0.146767810
    0.812711596    0.041666538    0.293535620
    0.562711537    0.041666482    0.440303445
    0.312711537    0.041666433    0.587071180
    0.062711418    0.041666370    0.733838975
    0.646045208    0.208333358    0.000000024
    0.396045059    0.208333284    0.146767810
    0.146044940    0.208333209    0.293535620
    0.896044910    0.208333164    0.440303445
    0.646044850    0.208333105    0.587071180
    0.396044731    0.208333045    0.733838975
    0.982905626    0.652421296    0.733839035
    0.782905579    0.485754609    0.840303481
    0.582905412    0.319087893    0.946767986
    0.982905626    0.319088012    0.733839035
    0.782905579    0.152421325    0.840303481
    0.582905412    0.985754609    0.946767986
    0.982905626    0.985754728    0.733839035
    0.782905579    0.819088042    0.840303481
    0.582905412    0.652421296    0.946767986
    0.632905602    0.902421415    0.787071168
    0.432905525    0.735754728    0.893535554
    0.232905433    0.569088042    1.000000000
    0.632905602    0.569087982    0.787071168
    0.432905525    0.402421296    0.893535554
    0.232905433    0.235754609    1.000000000
    0.632905602    0.235754758    0.787071168
    0.432905525    0.069088064    0.893535554
    0.232905433    0.902421355    1.000000000
    0.482905596    0.819087923    0.733839035
    0.282905459    0.652421236    0.840303481
    0.082905352    0.485754579    0.946767986
    0.482905596    0.485754669    0.733839035
    0.282905459    0.319087982    0.840303481
    0.082905352    0.152421281    0.946767986
    0.482905596    0.152421355    0.733839035
    0.282905459    0.985754669    0.840303481
    0.082905352    0.819087982    0.946767986
    0.132905647    0.735754669    0.787071168
    0.932905555    0.569087982    0.893535554
    0.732905507    0.402421296    1.000000000
    0.132905647    0.402421385    0.787071168
    0.932905555    0.235754713    0.893535554
    0.732905507    0.069088012    1.000000000
    0.132905647    0.069088012    0.787071168
    0.932905555    0.902421355    0.893535554
    0.732905507    0.735754609    1.000000000
