Sn+Si                                   
   1.00000000000000     
    19.4675998690000007    0.0000000000000000    0.0000000000000000
     0.0000000000000000   19.4675998690000007    0.0000000000000000
     0.0000000000000000    0.0000000000000000   19.3002529140000014
   Sn   Si
   108   156
Direct
  0.9950351119999965  0.6666666870000029  0.0000000000000000
  0.8283684250000007  0.6666666870000029  0.1681117859999972
  0.5946241620000023  0.8544431329999966  0.5342675449999987
  0.9950351119999965  0.3333333429999996  0.0000000000000000
  0.3446240430000032  0.1044431850000009  0.8860117790000004
  0.8253933789999977  0.7005968690000017  0.5342675449999987
  0.2677010299999978  0.4890585240000007  0.8860117790000004
  0.8283684250000007  0.0000000000000000  0.1681117859999972
  0.9407780169999995  0.1236737669999997  0.5342675449999987
  0.3283684550000032  0.6666666870000029  0.0000000000000000
  0.1617017390000015  0.6666666870000029  0.1681117859999972
  0.5369319919999995  0.1429045349999996  0.6046164039999979
  0.3283684550000032  0.3333333429999996  0.0000000000000000
  0.1617017390000015  0.3333333429999996  0.1681117859999972
  0.9950351119999965  0.3333333429999996  0.3362235430000027
  0.7677009109999986  0.9890585540000032  0.8860117790000004
  0.1617017390000015  0.0000000000000000  0.1681117859999972
  0.9950351119999965  0.0000000000000000  0.3362235430000027
  0.6138546469999966  0.7582892779999995  0.8860117790000004
  0.4950351119999965  0.6666666870000029  0.1681117859999972
  0.3283684550000032  0.6666666870000029  0.3362235430000027
  0.7292393450000034  0.1813662050000033  0.8860117790000004
  0.8061624170000030  0.7967509030000031  0.8860117790000004
  0.3283684550000032  0.3333333429999996  0.3362235430000027
  0.6617017980000028  0.0000000000000000  0.0000000000000000
  0.6907777790000011  0.3736738560000035  0.8860117790000004
  0.3283684550000032  0.0000000000000000  0.3362235430000027
  0.0783684330000014  0.9166667459999971  0.0840558929999986
  0.9117017980000028  0.9166667459999971  0.2521676120000009
  0.7450350519999986  0.9166667459999971  0.4202794429999983
  0.9215471150000027  0.2198278899999977  0.8860117790000004
  0.9117017980000028  0.5833334330000000  0.2521676120000009
  0.7450350519999986  0.5833334330000000  0.4202794429999983
  0.0783684330000014  0.2500000000000000  0.0840558929999986
  0.9117017980000028  0.2500000000000000  0.2521676120000009
  0.0177011489999970  0.7390584950000019  0.5342675449999987
  0.4117017689999969  0.9166667459999971  0.0840558929999986
  0.2450350969999988  0.9166667459999971  0.2521676120000009
  0.0783683809999971  0.9166667459999971  0.4202794429999983
  0.4117017689999969  0.5833334330000000  0.0840558929999986
  0.5561625960000001  0.0467507839999968  0.5342675449999987
  0.0783683809999971  0.5833334330000000  0.4202794429999983
  0.4117017689999969  0.2500000000000000  0.0840558929999986
  0.4407780169999995  0.6236737970000021  0.5342675449999987
  0.5177011489999970  0.2390583749999990  0.5342675449999987
  0.7450351720000015  0.9166667459999971  0.0840558929999986
  0.5783685450000036  0.9166667459999971  0.2521676120000009
  0.3638548850000021  0.0082892180000016  0.5342675449999987
  0.7450351720000015  0.5833334330000000  0.0840558929999986
  0.0946242810000015  0.3544430430000034  0.5342675449999987
  0.4792397020000010  0.4313661750000009  0.5342675449999987
  0.7450351720000015  0.2500000000000000  0.0840558929999986
  0.5783685450000036  0.2500000000000000  0.2521676120000009
  0.4117017980000028  0.2500000000000000  0.4202794429999983
  0.1617017689999969  0.8333333129999971  0.0000000000000000
  0.1330854890000026  0.1621354819999965  0.8156629200000012
  0.6715474129999990  0.4698275920000015  0.5342675449999987
  0.1617017689999969  0.5000000000000000  0.0000000000000000
  0.1523163319999981  0.0659816269999993  0.8860117790000004
  0.8283684250000007  0.5000000000000000  0.3362235430000027
  0.6523163319999981  0.5659815670000015  0.8860117790000004
  0.4600085020000009  0.5275200609999970  0.8860117790000004
  0.8283684250000007  0.1666666719999981  0.3362235430000027
  0.4950351119999965  0.8333333129999971  0.0000000000000000
  0.3283684250000007  0.8333333129999971  0.1681117859999972
  0.1617017539999992  0.8333333129999971  0.3362235430000027
  0.4950351119999965  0.5000000000000000  0.0000000000000000
  0.3283684250000007  0.5000000000000000  0.1681117859999972
  0.1617017539999992  0.5000000000000000  0.3362235430000027
  0.4984700680000032  0.3352123800000015  0.8860117790000004
  0.3283684250000007  0.1666666719999981  0.1681117859999972
  0.1617017539999992  0.1666666719999981  0.3362235430000027
  0.8283685450000036  0.8333333129999971  0.0000000000000000
  0.5753932000000006  0.9505969880000009  0.8860117790000004
  0.4950352010000003  0.8333333129999971  0.3362235430000027
  0.8283685450000036  0.5000000000000000  0.0000000000000000
  0.5369316339999983  0.1429046390000011  0.8860117790000004
  0.4950352010000003  0.5000000000000000  0.3362235430000027
  0.8283685450000036  0.1666666719999981  0.0000000000000000
  0.6617018580000007  0.1666666719999981  0.1681117859999972
  0.4950352010000003  0.1666666719999981  0.3362235430000027
  0.2450350969999988  0.7500000599999979  0.0840558929999986
  0.0783684330000014  0.7500000599999979  0.2521676120000009
  0.9117017390000015  0.7500000599999979  0.4202794429999983
  0.7869317529999975  0.8929047580000002  0.8156629200000012
  0.0783684330000014  0.4166667160000017  0.2521676120000009
  0.4023164509999972  0.8159815070000036  0.5342675449999987
  0.2450350969999988  0.0833333429999996  0.0840558929999986
  0.0783684330000014  0.0833333429999996  0.2521676120000009
  0.9117017390000015  0.0833333429999996  0.4202794429999983
  0.5783684849999986  0.7500000599999979  0.0840558929999986
  0.2869319919999995  0.3929045799999997  0.5342675449999987
  0.2450351270000013  0.7500000599999979  0.4202794429999983
  0.5783684849999986  0.4166667160000017  0.0840558929999986
  0.4117018580000007  0.4166667160000017  0.2521676120000009
  0.2484703060000015  0.5852123499999990  0.5342675449999987
  0.5783684849999986  0.0833333429999996  0.0840558929999986
  0.3253934379999990  0.2005968690000017  0.5342675449999987
  0.2450351270000013  0.0833333429999996  0.4202794429999983
  0.1907777790000011  0.8736739160000013  0.8860117790000004
  0.9023164509999972  0.3159814770000011  0.5342675449999987
  0.5783683659999994  0.7500000599999979  0.4202794429999983
  0.8446240430000032  0.6044431329999966  0.8860117790000004
  0.2100088600000021  0.7775198820000000  0.5342675449999987
  0.5783683659999994  0.4166667160000017  0.4202794429999983
  0.0753933189999998  0.4505969880000009  0.8860117790000004
  0.8830857279999975  0.4121353330000019  0.6046164039999979
  0.5783683659999994  0.0833333429999996  0.4202794429999983
  0.0783683809999971  0.2500000000000000  0.4202794429999983
  0.4023165699999964  0.3159815069999965  0.6749652029999993
  0.2869317529999975  0.3929046690000035  0.8156629200000012
  0.8283684250000007  0.8333333129999971  0.3362235430000027
  0.5561625960000001  0.5467506649999976  0.6749652029999993
  0.4407780169999995  0.6236738560000035  0.8156629200000012
  0.1330857279999975  0.1621353029999995  0.5342675449999987
  0.0177010299999978  0.2390584349999969  0.6749652029999993
  0.9023163319999981  0.3159815670000015  0.8156629200000012
  0.4117018580000007  0.7500000599999979  0.2521676120000009
  0.1715471739999970  0.4698277119999972  0.6749652029999993
  0.0561624770000009  0.5467508440000017  0.8156629200000012
  0.2450350969999988  0.2500000000000000  0.2521676120000009
  0.3253933189999998  0.7005969289999996  0.6749652029999993
  0.2100086210000001  0.7775200609999970  0.8156629200000012
  0.6617017390000015  0.6666666870000029  0.3362235430000027
  0.4792394640000026  0.9313662650000012  0.6749652029999993
  0.3638547660000029  0.0082893370000008  0.8156629200000012
  0.7484703060000015  0.0852122080000015  0.5342675449999987
  0.6330856080000018  0.1621353330000019  0.6749652029999993
  0.5177009109999986  0.2390584649999994  0.8156629200000012
  0.7450350519999986  0.7500000599999979  0.2521676120000009
  0.7869318130000025  0.3929046089999986  0.6749652029999993
  0.6715470549999978  0.4698277410000031  0.8156629200000012
  0.0561625960000001  0.5467507239999989  0.5342675449999987
  0.9407779570000017  0.6236738560000035  0.6749652029999993
  0.8253932000000006  0.7005969880000009  0.8156629200000012
  0.7450350519999986  0.4166667160000017  0.2521676120000009
  0.0946241620000023  0.8544430139999974  0.6749652029999993
  0.9792394039999976  0.9313661460000020  0.8156629200000012
  0.4117017980000028  0.9166667459999971  0.4202794429999983
  0.2484703060000015  0.0852123419999984  0.6749652029999993
  0.9950350519999986  0.8333333129999971  0.1681117859999972
  0.6617017390000015  0.3333333429999996  0.3362235430000027
  0.7100086210000001  0.7775200009999992  0.6749652029999993
  0.5946240430000032  0.8544431919999980  0.8156629200000012
  0.9792395830000018  0.9313660859999970  0.5342675449999987
  0.8638548850000021  0.0082890990000024  0.6749652029999993
  0.7484700680000032  0.0852123419999984  0.8156629200000012
  0.7292394640000026  0.1813660859999970  0.6046164039999979
  0.6138548850000021  0.2582892180000016  0.7453140619999985
  0.4950351119999965  0.1666666719999981  0.0000000000000000
  0.3446241620000023  0.1044430660000017  0.6046164039999979
  0.2292394640000026  0.1813662050000033  0.7453140619999985
  0.1138547660000029  0.2582893370000008  0.8860117790000004
  0.4984704259999972  0.3352122309999999  0.6046164039999979
  0.3830857279999975  0.4121353920000033  0.7453140619999985
  0.9950351119999965  0.0000000000000000  0.0000000000000000
  0.6523165699999964  0.5659814480000023  0.6046164039999979
  0.5369317529999975  0.6429046390000011  0.7453140619999985
  0.4215470549999978  0.7198277709999985  0.8860117790000004
  0.1138550040000013  0.2582891579999966  0.6046164039999979
  0.9984703060000015  0.3352122900000012  0.7453140619999985
  0.8830855490000005  0.4121354219999986  0.8860117790000004
  0.2677011489999970  0.4890584649999994  0.6046164039999979
  0.1523163319999981  0.5659815670000015  0.7453140619999985
  0.0369316339999983  0.6429047580000002  0.8860117790000004
  0.4215471739999970  0.7198276519999993  0.6046164039999979
  0.3061625960000001  0.7967507839999968  0.7453140619999985
  0.9117017390000015  0.7500000599999979  0.0840558929999986
  0.5753934379999990  0.9505969289999996  0.6046164039999979
  0.4600086210000001  0.0275200609999970  0.7453140619999985
  0.8283684250000007  0.3333333429999996  0.1681117859999972
  0.7450350519999986  0.0833333429999996  0.2521676120000009
  0.7677010299999978  0.4890584349999969  0.7453140619999985
  0.1617017689999969  0.1666666719999981  0.0000000000000000
  0.0369318719999967  0.6429046390000011  0.6046164039999979
  0.9215471739999970  0.7198277119999972  0.7453140619999985
  0.4950351119999965  0.3333333429999996  0.1681117859999972
  0.1907780169999995  0.8736737970000021  0.6046164039999979
  0.0753933189999998  0.9505969289999996  0.7453140619999985
  0.9600085619999987  0.0275200609999970  0.8860117790000004
  0.8061625960000001  0.7967507239999989  0.6046164039999979
  0.6907778980000003  0.8736739160000013  0.7453140619999985
  0.6617018580000007  0.8333333129999971  0.1681117859999972
  0.9600087999999971  0.0275199410000013  0.6046164039999979
  0.8446240430000032  0.1044430660000017  0.7453140619999985
  0.6617017980000028  0.3333333429999996  0.0000000000000000
  0.7100088600000021  0.2775199709999967  0.5342675449999987
  0.5946240430000032  0.3544431030000013  0.6749652029999993
  0.4792394640000026  0.4313662650000012  0.8156629200000012
  0.4117018580000007  0.0833333429999996  0.2521676120000009
  0.2100086210000001  0.2775200009999992  0.6749652029999993
  0.0946240430000032  0.3544431329999966  0.8156629200000012
  0.4117017980000028  0.5833334330000000  0.4202794429999983
  0.3638548850000021  0.5082892779999995  0.6749652029999993
  0.2484701870000023  0.5852124689999982  0.8156629200000012
  0.6330857279999975  0.6621354219999986  0.5342675449999987
  0.5177010299999978  0.7390585540000032  0.6749652029999993
  0.4023163319999981  0.8159816860000006  0.8156629200000012
  0.6617017390000015  0.0000000000000000  0.3362235430000027
  0.8253933189999998  0.2005968989999971  0.6749652029999993
  0.7100086210000001  0.2775200310000017  0.8156629200000012
  0.5783685450000036  0.5833334330000000  0.2521676120000009
  0.9792395229999968  0.4313661750000009  0.6749652029999993
  0.8638548249999971  0.5082892779999995  0.8156629200000012
  0.2450351270000013  0.4166667160000017  0.4202794429999983
  0.1330856080000018  0.6621354819999965  0.6749652029999993
  0.0177009109999986  0.7390586140000011  0.8156629200000012
  0.9117017390000015  0.4166667160000017  0.4202794429999983
  0.2869317529999975  0.8929046390000011  0.6749652029999993
  0.1715470549999978  0.9698277709999985  0.8156629200000012
  0.2450350969999988  0.5833334330000000  0.2521676120000009
  0.4407780169999995  0.1236739080000007  0.6749652029999993
  0.3253932000000006  0.2005970479999988  0.8156629200000012
  0.8638549449999999  0.5082892180000016  0.5342675449999987
  0.7484703060000015  0.5852123499999990  0.6749652029999993
  0.6330854890000026  0.6621354819999965  0.8156629200000012
  0.7450350519999986  0.2500000000000000  0.4202794429999983
  0.9023164509999972  0.8159816269999993  0.6749652029999993
  0.2450350969999988  0.4166667160000017  0.0840558929999986
  0.1715472939999998  0.9698277119999972  0.5342675449999987
  0.0561625960000001  0.0467507839999968  0.6749652029999993
  0.9407778980000003  0.1236739080000007  0.8156629200000012
  0.7869318719999967  0.8929045799999997  0.5342675449999987
  0.6715471739999970  0.9698277119999972  0.6749652029999993
  0.5561623569999981  0.0467507839999968  0.8156629200000012
  0.9950351119999965  0.6666666870000029  0.3362235430000027
  0.4215471739999970  0.2198276820000018  0.7453140619999985
  0.3061625960000001  0.2967508139999993  0.8860117790000004
  0.6907780169999995  0.3736737669999997  0.6046164039999979
  0.5753932000000006  0.4505969289999996  0.7453140619999985
  0.9950350519999986  0.1666666719999981  0.1681117859999972
  0.3061627149999993  0.2967506950000001  0.6046164039999979
  0.1907780169999995  0.3736738260000010  0.7453140619999985
  0.9117017390000015  0.0833333429999996  0.0840558929999986
  0.4600088600000021  0.5275199410000013  0.6046164039999979
  0.3446242810000015  0.6044430729999988  0.7453140619999985
  0.2292394640000026  0.6813662050000033  0.8860117790000004
  0.6138551239999970  0.7582892180000016  0.6046164039999979
  0.4984704259999972  0.8352123499999990  0.7453140619999985
  0.3830857279999975  0.9121354819999965  0.8860117790000004
  0.9215472939999998  0.2198275630000026  0.6046164039999979
  0.8061625360000022  0.2967506950000001  0.7453140619999985
  0.4950351119999965  0.0000000000000000  0.1681117859999972
  0.0753934379999990  0.4505968690000017  0.6046164039999979
  0.9600087399999992  0.5275200009999992  0.7453140619999985
  0.9117017390000015  0.4166667160000017  0.0840558929999986
  0.2292395830000018  0.6813660859999970  0.6046164039999979
  0.1138548850000021  0.7582892180000016  0.7453140619999985
  0.9984701280000010  0.8352123499999990  0.8860117790000004
  0.3830857279999975  0.9121354219999986  0.6046164039999979
  0.2677011489999970  0.9890585540000032  0.7453140619999985
  0.9950350519999986  0.5000000000000000  0.1681117859999972
  0.8446241620000023  0.6044430139999974  0.6046164039999979
  0.7292394640000026  0.6813661460000020  0.7453140619999985
  0.6617017980000028  0.6666666870000029  0.0000000000000000
  0.9984703060000015  0.8352122309999999  0.6046164039999979
  0.8830856080000018  0.9121353629999973  0.7453140619999985
  0.3283684550000032  0.0000000000000000  0.0000000000000000
  0.1523165700000035  0.0659815069999965  0.6046164039999979
  0.0369318719999967  0.1429047580000002  0.7453140619999985
  0.0783684330000014  0.5833334330000000  0.0840558929999986
  0.7677010889999991  0.9890583749999990  0.6046164039999979
  0.6523163319999981  0.0659815069999965  0.7453140619999985
  0.6617018580000007  0.5000000000000000  0.1681117859999972
 
  0.00000000E+00  0.00000000E+00  0.00000000E+00
  0.00000000E+00  0.00000000E+00  0.00000000E+00
  0.00000000E+00  0.00000000E+00  0.00000000E+00
  0.00000000E+00  0.00000000E+00  0.00000000E+00
  0.00000000E+00  0.00000000E+00  0.00000000E+00
  0.00000000E+00  0.00000000E+00  0.00000000E+00
  0.00000000E+00  0.00000000E+00  0.00000000E+00
  0.00000000E+00  0.00000000E+00  0.00000000E+00
  0.00000000E+00  0.00000000E+00  0.00000000E+00
  0.00000000E+00  0.00000000E+00  0.00000000E+00
  0.00000000E+00  0.00000000E+00  0.00000000E+00
  0.00000000E+00  0.00000000E+00  0.00000000E+00
  0.00000000E+00  0.00000000E+00  0.00000000E+00
  0.00000000E+00  0.00000000E+00  0.00000000E+00
  0.00000000E+00  0.00000000E+00  0.00000000E+00
  0.00000000E+00  0.00000000E+00  0.00000000E+00
  0.00000000E+00  0.00000000E+00  0.00000000E+00
  0.00000000E+00  0.00000000E+00  0.00000000E+00
  0.00000000E+00  0.00000000E+00  0.00000000E+00
  0.00000000E+00  0.00000000E+00  0.00000000E+00
  0.00000000E+00  0.00000000E+00  0.00000000E+00
  0.00000000E+00  0.00000000E+00  0.00000000E+00
  0.00000000E+00  0.00000000E+00  0.00000000E+00
  0.00000000E+00  0.00000000E+00  0.00000000E+00
  0.00000000E+00  0.00000000E+00  0.00000000E+00
  0.00000000E+00  0.00000000E+00  0.00000000E+00
  0.00000000E+00  0.00000000E+00  0.00000000E+00
  0.00000000E+00  0.00000000E+00  0.00000000E+00
  0.00000000E+00  0.00000000E+00  0.00000000E+00
  0.00000000E+00  0.00000000E+00  0.00000000E+00
  0.00000000E+00  0.00000000E+00  0.00000000E+00
  0.00000000E+00  0.00000000E+00  0.00000000E+00
  0.00000000E+00  0.00000000E+00  0.00000000E+00
  0.00000000E+00  0.00000000E+00  0.00000000E+00
  0.00000000E+00  0.00000000E+00  0.00000000E+00
  0.00000000E+00  0.00000000E+00  0.00000000E+00
  0.00000000E+00  0.00000000E+00  0.00000000E+00
  0.00000000E+00  0.00000000E+00  0.00000000E+00
  0.00000000E+00  0.00000000E+00  0.00000000E+00
  0.00000000E+00  0.00000000E+00  0.00000000E+00
  0.00000000E+00  0.00000000E+00  0.00000000E+00
  0.00000000E+00  0.00000000E+00  0.00000000E+00
  0.00000000E+00  0.00000000E+00  0.00000000E+00
  0.00000000E+00  0.00000000E+00  0.00000000E+00
  0.00000000E+00  0.00000000E+00  0.00000000E+00
  0.00000000E+00  0.00000000E+00  0.00000000E+00
  0.00000000E+00  0.00000000E+00  0.00000000E+00
  0.00000000E+00  0.00000000E+00  0.00000000E+00
  0.00000000E+00  0.00000000E+00  0.00000000E+00
  0.00000000E+00  0.00000000E+00  0.00000000E+00
  0.00000000E+00  0.00000000E+00  0.00000000E+00
  0.00000000E+00  0.00000000E+00  0.00000000E+00
  0.00000000E+00  0.00000000E+00  0.00000000E+00
  0.00000000E+00  0.00000000E+00  0.00000000E+00
  0.00000000E+00  0.00000000E+00  0.00000000E+00
  0.00000000E+00  0.00000000E+00  0.00000000E+00
  0.00000000E+00  0.00000000E+00  0.00000000E+00
  0.00000000E+00  0.00000000E+00  0.00000000E+00
  0.00000000E+00  0.00000000E+00  0.00000000E+00
  0.00000000E+00  0.00000000E+00  0.00000000E+00
  0.00000000E+00  0.00000000E+00  0.00000000E+00
  0.00000000E+00  0.00000000E+00  0.00000000E+00
  0.00000000E+00  0.00000000E+00  0.00000000E+00
  0.00000000E+00  0.00000000E+00  0.00000000E+00
  0.00000000E+00  0.00000000E+00  0.00000000E+00
  0.00000000E+00  0.00000000E+00  0.00000000E+00
  0.00000000E+00  0.00000000E+00  0.00000000E+00
  0.00000000E+00  0.00000000E+00  0.00000000E+00
  0.00000000E+00  0.00000000E+00  0.00000000E+00
  0.00000000E+00  0.00000000E+00  0.00000000E+00
  0.00000000E+00  0.00000000E+00  0.00000000E+00
  0.00000000E+00  0.00000000E+00  0.00000000E+00
  0.00000000E+00  0.00000000E+00  0.00000000E+00
  0.00000000E+00  0.00000000E+00  0.00000000E+00
  0.00000000E+00  0.00000000E+00  0.00000000E+00
  0.00000000E+00  0.00000000E+00  0.00000000E+00
  0.00000000E+00  0.00000000E+00  0.00000000E+00
  0.00000000E+00  0.00000000E+00  0.00000000E+00
  0.00000000E+00  0.00000000E+00  0.00000000E+00
  0.00000000E+00  0.00000000E+00  0.00000000E+00
  0.00000000E+00  0.00000000E+00  0.00000000E+00
  0.00000000E+00  0.00000000E+00  0.00000000E+00
  0.00000000E+00  0.00000000E+00  0.00000000E+00
  0.00000000E+00  0.00000000E+00  0.00000000E+00
  0.00000000E+00  0.00000000E+00  0.00000000E+00
  0.00000000E+00  0.00000000E+00  0.00000000E+00
  0.00000000E+00  0.00000000E+00  0.00000000E+00
  0.00000000E+00  0.00000000E+00  0.00000000E+00
  0.00000000E+00  0.00000000E+00  0.00000000E+00
  0.00000000E+00  0.00000000E+00  0.00000000E+00
  0.00000000E+00  0.00000000E+00  0.00000000E+00
  0.00000000E+00  0.00000000E+00  0.00000000E+00
  0.00000000E+00  0.00000000E+00  0.00000000E+00
  0.00000000E+00  0.00000000E+00  0.00000000E+00
  0.00000000E+00  0.00000000E+00  0.00000000E+00
  0.00000000E+00  0.00000000E+00  0.00000000E+00
  0.00000000E+00  0.00000000E+00  0.00000000E+00
  0.00000000E+00  0.00000000E+00  0.00000000E+00
  0.00000000E+00  0.00000000E+00  0.00000000E+00
  0.00000000E+00  0.00000000E+00  0.00000000E+00
  0.00000000E+00  0.00000000E+00  0.00000000E+00
  0.00000000E+00  0.00000000E+00  0.00000000E+00
  0.00000000E+00  0.00000000E+00  0.00000000E+00
  0.00000000E+00  0.00000000E+00  0.00000000E+00
  0.00000000E+00  0.00000000E+00  0.00000000E+00
  0.00000000E+00  0.00000000E+00  0.00000000E+00
  0.00000000E+00  0.00000000E+00  0.00000000E+00
  0.00000000E+00  0.00000000E+00  0.00000000E+00
  0.00000000E+00  0.00000000E+00  0.00000000E+00
  0.00000000E+00  0.00000000E+00  0.00000000E+00
  0.00000000E+00  0.00000000E+00  0.00000000E+00
  0.00000000E+00  0.00000000E+00  0.00000000E+00
  0.00000000E+00  0.00000000E+00  0.00000000E+00
  0.00000000E+00  0.00000000E+00  0.00000000E+00
  0.00000000E+00  0.00000000E+00  0.00000000E+00
  0.00000000E+00  0.00000000E+00  0.00000000E+00
  0.00000000E+00  0.00000000E+00  0.00000000E+00
  0.00000000E+00  0.00000000E+00  0.00000000E+00
  0.00000000E+00  0.00000000E+00  0.00000000E+00
  0.00000000E+00  0.00000000E+00  0.00000000E+00
  0.00000000E+00  0.00000000E+00  0.00000000E+00
  0.00000000E+00  0.00000000E+00  0.00000000E+00
  0.00000000E+00  0.00000000E+00  0.00000000E+00
  0.00000000E+00  0.00000000E+00  0.00000000E+00
  0.00000000E+00  0.00000000E+00  0.00000000E+00
  0.00000000E+00  0.00000000E+00  0.00000000E+00
  0.00000000E+00  0.00000000E+00  0.00000000E+00
  0.00000000E+00  0.00000000E+00  0.00000000E+00
  0.00000000E+00  0.00000000E+00  0.00000000E+00
  0.00000000E+00  0.00000000E+00  0.00000000E+00
  0.00000000E+00  0.00000000E+00  0.00000000E+00
  0.00000000E+00  0.00000000E+00  0.00000000E+00
  0.00000000E+00  0.00000000E+00  0.00000000E+00
  0.00000000E+00  0.00000000E+00  0.00000000E+00
  0.00000000E+00  0.00000000E+00  0.00000000E+00
  0.00000000E+00  0.00000000E+00  0.00000000E+00
  0.00000000E+00  0.00000000E+00  0.00000000E+00
  0.00000000E+00  0.00000000E+00  0.00000000E+00
  0.00000000E+00  0.00000000E+00  0.00000000E+00
  0.00000000E+00  0.00000000E+00  0.00000000E+00
  0.00000000E+00  0.00000000E+00  0.00000000E+00
  0.00000000E+00  0.00000000E+00  0.00000000E+00
  0.00000000E+00  0.00000000E+00  0.00000000E+00
  0.00000000E+00  0.00000000E+00  0.00000000E+00
  0.00000000E+00  0.00000000E+00  0.00000000E+00
  0.00000000E+00  0.00000000E+00  0.00000000E+00
  0.00000000E+00  0.00000000E+00  0.00000000E+00
  0.00000000E+00  0.00000000E+00  0.00000000E+00
  0.00000000E+00  0.00000000E+00  0.00000000E+00
  0.00000000E+00  0.00000000E+00  0.00000000E+00
  0.00000000E+00  0.00000000E+00  0.00000000E+00
  0.00000000E+00  0.00000000E+00  0.00000000E+00
  0.00000000E+00  0.00000000E+00  0.00000000E+00
  0.00000000E+00  0.00000000E+00  0.00000000E+00
  0.00000000E+00  0.00000000E+00  0.00000000E+00
  0.00000000E+00  0.00000000E+00  0.00000000E+00
  0.00000000E+00  0.00000000E+00  0.00000000E+00
  0.00000000E+00  0.00000000E+00  0.00000000E+00
  0.00000000E+00  0.00000000E+00  0.00000000E+00
  0.00000000E+00  0.00000000E+00  0.00000000E+00
  0.00000000E+00  0.00000000E+00  0.00000000E+00
  0.00000000E+00  0.00000000E+00  0.00000000E+00
  0.00000000E+00  0.00000000E+00  0.00000000E+00
  0.00000000E+00  0.00000000E+00  0.00000000E+00
  0.00000000E+00  0.00000000E+00  0.00000000E+00
  0.00000000E+00  0.00000000E+00  0.00000000E+00
  0.00000000E+00  0.00000000E+00  0.00000000E+00
  0.00000000E+00  0.00000000E+00  0.00000000E+00
  0.00000000E+00  0.00000000E+00  0.00000000E+00
  0.00000000E+00  0.00000000E+00  0.00000000E+00
  0.00000000E+00  0.00000000E+00  0.00000000E+00
  0.00000000E+00  0.00000000E+00  0.00000000E+00
  0.00000000E+00  0.00000000E+00  0.00000000E+00
  0.00000000E+00  0.00000000E+00  0.00000000E+00
  0.00000000E+00  0.00000000E+00  0.00000000E+00
  0.00000000E+00  0.00000000E+00  0.00000000E+00
  0.00000000E+00  0.00000000E+00  0.00000000E+00
  0.00000000E+00  0.00000000E+00  0.00000000E+00
  0.00000000E+00  0.00000000E+00  0.00000000E+00
  0.00000000E+00  0.00000000E+00  0.00000000E+00
  0.00000000E+00  0.00000000E+00  0.00000000E+00
  0.00000000E+00  0.00000000E+00  0.00000000E+00
  0.00000000E+00  0.00000000E+00  0.00000000E+00
  0.00000000E+00  0.00000000E+00  0.00000000E+00
  0.00000000E+00  0.00000000E+00  0.00000000E+00
  0.00000000E+00  0.00000000E+00  0.00000000E+00
  0.00000000E+00  0.00000000E+00  0.00000000E+00
  0.00000000E+00  0.00000000E+00  0.00000000E+00
  0.00000000E+00  0.00000000E+00  0.00000000E+00
  0.00000000E+00  0.00000000E+00  0.00000000E+00
  0.00000000E+00  0.00000000E+00  0.00000000E+00
  0.00000000E+00  0.00000000E+00  0.00000000E+00
  0.00000000E+00  0.00000000E+00  0.00000000E+00
  0.00000000E+00  0.00000000E+00  0.00000000E+00
  0.00000000E+00  0.00000000E+00  0.00000000E+00
  0.00000000E+00  0.00000000E+00  0.00000000E+00
  0.00000000E+00  0.00000000E+00  0.00000000E+00
  0.00000000E+00  0.00000000E+00  0.00000000E+00
  0.00000000E+00  0.00000000E+00  0.00000000E+00
  0.00000000E+00  0.00000000E+00  0.00000000E+00
  0.00000000E+00  0.00000000E+00  0.00000000E+00
  0.00000000E+00  0.00000000E+00  0.00000000E+00
  0.00000000E+00  0.00000000E+00  0.00000000E+00
  0.00000000E+00  0.00000000E+00  0.00000000E+00
  0.00000000E+00  0.00000000E+00  0.00000000E+00
  0.00000000E+00  0.00000000E+00  0.00000000E+00
  0.00000000E+00  0.00000000E+00  0.00000000E+00
  0.00000000E+00  0.00000000E+00  0.00000000E+00
  0.00000000E+00  0.00000000E+00  0.00000000E+00
  0.00000000E+00  0.00000000E+00  0.00000000E+00
  0.00000000E+00  0.00000000E+00  0.00000000E+00
  0.00000000E+00  0.00000000E+00  0.00000000E+00
  0.00000000E+00  0.00000000E+00  0.00000000E+00
  0.00000000E+00  0.00000000E+00  0.00000000E+00
  0.00000000E+00  0.00000000E+00  0.00000000E+00
  0.00000000E+00  0.00000000E+00  0.00000000E+00
  0.00000000E+00  0.00000000E+00  0.00000000E+00
  0.00000000E+00  0.00000000E+00  0.00000000E+00
  0.00000000E+00  0.00000000E+00  0.00000000E+00
  0.00000000E+00  0.00000000E+00  0.00000000E+00
  0.00000000E+00  0.00000000E+00  0.00000000E+00
  0.00000000E+00  0.00000000E+00  0.00000000E+00
  0.00000000E+00  0.00000000E+00  0.00000000E+00
  0.00000000E+00  0.00000000E+00  0.00000000E+00
  0.00000000E+00  0.00000000E+00  0.00000000E+00
  0.00000000E+00  0.00000000E+00  0.00000000E+00
  0.00000000E+00  0.00000000E+00  0.00000000E+00
  0.00000000E+00  0.00000000E+00  0.00000000E+00
  0.00000000E+00  0.00000000E+00  0.00000000E+00
  0.00000000E+00  0.00000000E+00  0.00000000E+00
  0.00000000E+00  0.00000000E+00  0.00000000E+00
  0.00000000E+00  0.00000000E+00  0.00000000E+00
  0.00000000E+00  0.00000000E+00  0.00000000E+00
  0.00000000E+00  0.00000000E+00  0.00000000E+00
  0.00000000E+00  0.00000000E+00  0.00000000E+00
  0.00000000E+00  0.00000000E+00  0.00000000E+00
  0.00000000E+00  0.00000000E+00  0.00000000E+00
  0.00000000E+00  0.00000000E+00  0.00000000E+00
  0.00000000E+00  0.00000000E+00  0.00000000E+00
  0.00000000E+00  0.00000000E+00  0.00000000E+00
  0.00000000E+00  0.00000000E+00  0.00000000E+00
  0.00000000E+00  0.00000000E+00  0.00000000E+00
  0.00000000E+00  0.00000000E+00  0.00000000E+00
  0.00000000E+00  0.00000000E+00  0.00000000E+00
  0.00000000E+00  0.00000000E+00  0.00000000E+00
  0.00000000E+00  0.00000000E+00  0.00000000E+00
  0.00000000E+00  0.00000000E+00  0.00000000E+00
  0.00000000E+00  0.00000000E+00  0.00000000E+00
  0.00000000E+00  0.00000000E+00  0.00000000E+00
  0.00000000E+00  0.00000000E+00  0.00000000E+00
  0.00000000E+00  0.00000000E+00  0.00000000E+00
  0.00000000E+00  0.00000000E+00  0.00000000E+00
  0.00000000E+00  0.00000000E+00  0.00000000E+00
  0.00000000E+00  0.00000000E+00  0.00000000E+00
  0.00000000E+00  0.00000000E+00  0.00000000E+00
  0.00000000E+00  0.00000000E+00  0.00000000E+00
  0.00000000E+00  0.00000000E+00  0.00000000E+00
  0.00000000E+00  0.00000000E+00  0.00000000E+00
  0.00000000E+00  0.00000000E+00  0.00000000E+00
  0.00000000E+00  0.00000000E+00  0.00000000E+00
  0.00000000E+00  0.00000000E+00  0.00000000E+00
  0.00000000E+00  0.00000000E+00  0.00000000E+00
  0.00000000E+00  0.00000000E+00  0.00000000E+00
  0.00000000E+00  0.00000000E+00  0.00000000E+00
