Si+Si                                   
   1.00000000000000     
     7.6805944439999996    0.0000000000000000    0.0000000000000000
    -3.8402969840000001   11.5208911900000004    0.0000000000000000
     0.0000000000000000    0.0000000000000000    9.0516681670000008
   Si
    48
Direct
  0.0059322899999970  0.9940677290000011  0.0000000000000000
  0.1725990030000020  0.8274010419999982  0.2999999230000014
  0.3392657340000014  0.6607342960000011  0.5999999049999971
  0.6725989580000018  0.3274010419999982  0.0000000000000000
  0.8392657039999989  0.1607343410000013  0.2999999230000014
  0.0059324500000031  0.9940676690000032  0.5999999049999971
  0.3392656449999976  0.6607344150000003  0.0000000000000000
  0.5059323309999968  0.4940676989999986  0.2999999230000014
  0.6725990770000010  0.3274010120000028  0.5999999049999971
  0.0892656589999987  0.1607343700000001  0.1499999759999966
  0.2559323910000018  0.9940676690000032  0.4499999279999969
  0.4225991369999988  0.8274009820000003  0.7499998810000008
  0.7559322709999989  0.4940677290000011  0.1499999759999966
  0.9225990179999997  0.3274010419999982  0.4499999279999969
  0.0892657039999989  0.1607343259999965  0.7499998810000008
  0.4225989279999993  0.8274011020000032  0.1499999759999966
  0.5892657039999989  0.6607344749999982  0.4499999279999969
  0.7559324500000031  0.4940677290000011  0.7499998810000008
  0.5059323309999968  0.9940677290000011  0.0000000000000000
  0.6725990179999997  0.8274010419999982  0.2999999230000014
  0.8392657639999968  0.6607342960000011  0.5999999049999971
  0.1725989729999995  0.3274010419999982  0.0000000000000000
  0.3392656740000035  0.1607343700000001  0.2999999230000014
  0.5059323910000018  0.9940676690000032  0.5999999049999971
  0.8392655849999997  0.6607344150000003  0.0000000000000000
  0.0059323309999968  0.4940676989999986  0.2999999230000014
  0.1725989580000018  0.3274009820000003  0.5999999049999971
  0.5892656449999976  0.1607343550000024  0.1499999759999966
  0.7559323910000018  0.9940676690000032  0.4499999279999969
  0.9225991369999988  0.8274009229999990  0.7499998810000008
  0.2559322709999989  0.4940677290000011  0.1499999759999966
  0.4225990469999985  0.3274010419999982  0.4499999279999969
  0.5892657639999968  0.1607343259999965  0.7499998810000008
  0.9225989580000018  0.8274011609999974  0.1499999759999966
  0.0892657039999989  0.6607344150000003  0.4499999279999969
  0.2559324500000031  0.4940676989999986  0.7499998810000008
  0.9628466369999984  0.9734618660000010  0.7499998810000008
  0.5739576220000018  0.6956840750000026  0.8499999639999984
  0.1850686069999981  0.4179062250000030  0.9499999880000018
  0.4628466070000030  0.9734618660000010  0.7499998810000008
  0.0739575919999993  0.6956840750000026  0.8499998449999993
  0.6850686069999981  0.4179062250000030  0.9499999880000018
  0.7684021000000030  0.0845729409999976  0.7999998929999990
  0.3795130849999993  0.8067951199999968  0.9000000360000016
  0.9906240700000026  0.5290172099999992  0.9999999400000021
  0.2684021000000030  0.0845729409999976  0.7999998929999990
  0.8795130849999993  0.8067951199999968  0.9000000360000016
  0.4906240110000013  0.5290172099999992  0.9999999400000021
 
  0.00000000E+00  0.00000000E+00  0.00000000E+00
  0.00000000E+00  0.00000000E+00  0.00000000E+00
  0.00000000E+00  0.00000000E+00  0.00000000E+00
  0.00000000E+00  0.00000000E+00  0.00000000E+00
  0.00000000E+00  0.00000000E+00  0.00000000E+00
  0.00000000E+00  0.00000000E+00  0.00000000E+00
  0.00000000E+00  0.00000000E+00  0.00000000E+00
  0.00000000E+00  0.00000000E+00  0.00000000E+00
  0.00000000E+00  0.00000000E+00  0.00000000E+00
  0.00000000E+00  0.00000000E+00  0.00000000E+00
  0.00000000E+00  0.00000000E+00  0.00000000E+00
  0.00000000E+00  0.00000000E+00  0.00000000E+00
  0.00000000E+00  0.00000000E+00  0.00000000E+00
  0.00000000E+00  0.00000000E+00  0.00000000E+00
  0.00000000E+00  0.00000000E+00  0.00000000E+00
  0.00000000E+00  0.00000000E+00  0.00000000E+00
  0.00000000E+00  0.00000000E+00  0.00000000E+00
  0.00000000E+00  0.00000000E+00  0.00000000E+00
  0.00000000E+00  0.00000000E+00  0.00000000E+00
  0.00000000E+00  0.00000000E+00  0.00000000E+00
  0.00000000E+00  0.00000000E+00  0.00000000E+00
  0.00000000E+00  0.00000000E+00  0.00000000E+00
  0.00000000E+00  0.00000000E+00  0.00000000E+00
  0.00000000E+00  0.00000000E+00  0.00000000E+00
  0.00000000E+00  0.00000000E+00  0.00000000E+00
  0.00000000E+00  0.00000000E+00  0.00000000E+00
  0.00000000E+00  0.00000000E+00  0.00000000E+00
  0.00000000E+00  0.00000000E+00  0.00000000E+00
  0.00000000E+00  0.00000000E+00  0.00000000E+00
  0.00000000E+00  0.00000000E+00  0.00000000E+00
  0.00000000E+00  0.00000000E+00  0.00000000E+00
  0.00000000E+00  0.00000000E+00  0.00000000E+00
  0.00000000E+00  0.00000000E+00  0.00000000E+00
  0.00000000E+00  0.00000000E+00  0.00000000E+00
  0.00000000E+00  0.00000000E+00  0.00000000E+00
  0.00000000E+00  0.00000000E+00  0.00000000E+00
  0.00000000E+00  0.00000000E+00  0.00000000E+00
  0.00000000E+00  0.00000000E+00  0.00000000E+00
  0.00000000E+00  0.00000000E+00  0.00000000E+00
  0.00000000E+00  0.00000000E+00  0.00000000E+00
  0.00000000E+00  0.00000000E+00  0.00000000E+00
  0.00000000E+00  0.00000000E+00  0.00000000E+00
  0.00000000E+00  0.00000000E+00  0.00000000E+00
  0.00000000E+00  0.00000000E+00  0.00000000E+00
  0.00000000E+00  0.00000000E+00  0.00000000E+00
  0.00000000E+00  0.00000000E+00  0.00000000E+00
  0.00000000E+00  0.00000000E+00  0.00000000E+00
  0.00000000E+00  0.00000000E+00  0.00000000E+00
