Ge+Si                                   
   1.00000000000000     
     5.6578001980000003    0.0000000000000000    0.0000000000000000
     0.0000000000000000   16.0026760099999983    0.0000000000000000
     0.0000000000000000    0.0000000000000000   16.7904243469999983
   Ge   Si
    48    36
Direct
  0.0586744809999971  0.4559941589999994  0.0000000280000023
  0.5586745140000033  0.0809941369999976  0.1191354469999979
  0.0586744550000020  0.7059941289999969  0.2382708940000029
  0.5586742160000000  0.3309942480000032  0.3574062880000000
  0.0586745740000012  0.9559941289999969  0.4765417280000008
  0.5586745740000012  0.5809941289999969  0.5956771970000005
  0.0586744809999971  0.9559941289999969  0.0000000240000020
  0.5586745140000033  0.5809941289999969  0.1191354770000004
  0.0586744550000020  0.2059941289999969  0.2382708789999981
  0.5586742160000000  0.8309943679999989  0.3574062880000000
  0.0586745740000012  0.4559941289999969  0.4765417580000033
  0.5586745740000012  0.0809941289999969  0.5956771370000027
  0.0586744809999971  0.7059941289999969  0.0000000320000026
  0.5586745140000033  0.3309941289999969  0.1191354469999979
  0.0586744550000020  0.9559941289999969  0.2382708789999981
  0.5586742160000000  0.5809942480000032  0.3574063180000024
  0.0586745740000012  0.2059941890000019  0.4765417580000033
  0.5586745740000012  0.8309941289999969  0.5956771970000005
  0.0586744809999971  0.2059941440000017  0.0000000269999987
  0.5586745140000033  0.8309941289999969  0.1191354469999979
  0.0586744550000020  0.4559941289999969  0.2382708789999981
  0.5586742160000000  0.0809942480000032  0.3574063180000024
  0.0586745740000012  0.7059942480000032  0.4765417280000008
  0.5586745740000012  0.3309941289999969  0.5956771370000027
  0.8086744550000020  0.5809941890000019  0.0000000400000033
  0.3086744550000020  0.2059941589999994  0.1191354469999979
  0.8086745740000012  0.8309941289999969  0.2382708789999981
  0.3086743349999992  0.4559942480000032  0.3574062880000000
  0.8086745740000012  0.0809941890000019  0.4765417580000033
  0.3086743349999992  0.7059941289999969  0.5956771970000005
  0.8086744550000020  0.0809941369999976  0.0000000200000017
  0.3086744550000020  0.7059941289999969  0.1191354469999979
  0.8086745740000012  0.3309941289999969  0.2382708789999981
  0.3086743349999992  0.9559942480000032  0.3574063180000024
  0.8086745740000012  0.5809942480000032  0.4765417280000008
  0.3086743349999992  0.2059940099999977  0.5956771370000027
  0.8086744550000020  0.8309941890000019  0.0000000000000000
  0.3086744550000020  0.4559941890000019  0.1191354469999979
  0.8086745740000012  0.0809941739999971  0.2382708789999981
  0.3086743349999992  0.7059943080000011  0.3574062880000000
  0.8086745740000012  0.3309942480000032  0.4765417280000008
  0.3086743349999992  0.9559941289999969  0.5956771370000027
  0.8086744550000020  0.3309941289999969  0.0000000280000023
  0.3086744550000020  0.9559941289999969  0.1191354770000004
  0.8086745740000012  0.5809941289999969  0.2382708789999981
  0.3086743349999992  0.2059942480000032  0.3574063180000024
  0.8086745740000012  0.8309941289999969  0.4765417280000008
  0.3086743349999992  0.4559941289999969  0.5956771370000027
  0.0177968590000006  0.6666667459999971  0.5956772569999984
  0.5177968739999983  0.6666667459999971  0.7574064140000019
  0.0177968739999983  0.6666667459999971  0.9191354510000025
  0.0177968590000006  0.3333333730000021  0.5956772569999984
  0.5177968739999983  0.3333333730000021  0.7574064140000019
  0.0177968739999983  0.3333333730000021  0.9191354510000025
  0.0177968590000006  0.0000000000000000  0.5956772569999984
  0.5177968739999983  0.0000000000000000  0.7574064140000019
  0.0177968739999983  0.0000000000000000  0.9191354510000025
  0.2677968739999983  0.9166667459999971  0.6765417459999981
  0.7677969340000033  0.9166667459999971  0.8382709030000015
  0.2677969929999975  0.9166667459999971  0.0000000000000000
  0.2677968739999983  0.5833334330000000  0.6765417459999981
  0.7677969340000033  0.5833334330000000  0.8382709030000015
  0.2677969929999975  0.5833334330000000  0.0000000000000000
  0.2677968739999983  0.2500000000000000  0.6765417459999981
  0.7677969340000033  0.2500000000000000  0.8382709030000015
  0.2677969929999975  0.2500000000000000  0.0000000000000000
  0.5177968739999983  0.8333333129999971  0.5956772569999984
  0.0177968739999983  0.8333333129999971  0.7574064140000019
  0.5177969929999975  0.8333333129999971  0.9191354510000025
  0.5177968739999983  0.5000000000000000  0.5956772569999984
  0.0177968739999983  0.5000000000000000  0.7574064140000019
  0.5177969929999975  0.5000000000000000  0.9191354510000025
  0.5177968739999983  0.1666666870000029  0.5956772569999984
  0.0177968739999983  0.1666666870000029  0.7574064140000019
  0.5177969929999975  0.1666666870000029  0.9191354510000025
  0.7677969340000033  0.7500000599999979  0.6765417459999981
  0.2677968739999983  0.7500000599999979  0.8382709030000015
  0.7677969929999975  0.7500000599999979  0.0000000000000000
  0.7677969340000033  0.4166666870000029  0.6765417459999981
  0.2677968739999983  0.4166666870000029  0.8382709030000015
  0.7677969929999975  0.4166666870000029  0.0000000000000000
  0.7677969340000033  0.0833333510000003  0.6765417459999981
  0.2677968739999983  0.0833333510000003  0.8382709030000015
  0.7677969929999975  0.0833333510000003  0.0000000000000000
 
  0.00000000E+00  0.00000000E+00  0.00000000E+00
  0.00000000E+00  0.00000000E+00  0.00000000E+00
  0.00000000E+00  0.00000000E+00  0.00000000E+00
  0.00000000E+00  0.00000000E+00  0.00000000E+00
  0.00000000E+00  0.00000000E+00  0.00000000E+00
  0.00000000E+00  0.00000000E+00  0.00000000E+00
  0.00000000E+00  0.00000000E+00  0.00000000E+00
  0.00000000E+00  0.00000000E+00  0.00000000E+00
  0.00000000E+00  0.00000000E+00  0.00000000E+00
  0.00000000E+00  0.00000000E+00  0.00000000E+00
  0.00000000E+00  0.00000000E+00  0.00000000E+00
  0.00000000E+00  0.00000000E+00  0.00000000E+00
  0.00000000E+00  0.00000000E+00  0.00000000E+00
  0.00000000E+00  0.00000000E+00  0.00000000E+00
  0.00000000E+00  0.00000000E+00  0.00000000E+00
  0.00000000E+00  0.00000000E+00  0.00000000E+00
  0.00000000E+00  0.00000000E+00  0.00000000E+00
  0.00000000E+00  0.00000000E+00  0.00000000E+00
  0.00000000E+00  0.00000000E+00  0.00000000E+00
  0.00000000E+00  0.00000000E+00  0.00000000E+00
  0.00000000E+00  0.00000000E+00  0.00000000E+00
  0.00000000E+00  0.00000000E+00  0.00000000E+00
  0.00000000E+00  0.00000000E+00  0.00000000E+00
  0.00000000E+00  0.00000000E+00  0.00000000E+00
  0.00000000E+00  0.00000000E+00  0.00000000E+00
  0.00000000E+00  0.00000000E+00  0.00000000E+00
  0.00000000E+00  0.00000000E+00  0.00000000E+00
  0.00000000E+00  0.00000000E+00  0.00000000E+00
  0.00000000E+00  0.00000000E+00  0.00000000E+00
  0.00000000E+00  0.00000000E+00  0.00000000E+00
  0.00000000E+00  0.00000000E+00  0.00000000E+00
  0.00000000E+00  0.00000000E+00  0.00000000E+00
  0.00000000E+00  0.00000000E+00  0.00000000E+00
  0.00000000E+00  0.00000000E+00  0.00000000E+00
  0.00000000E+00  0.00000000E+00  0.00000000E+00
  0.00000000E+00  0.00000000E+00  0.00000000E+00
  0.00000000E+00  0.00000000E+00  0.00000000E+00
  0.00000000E+00  0.00000000E+00  0.00000000E+00
  0.00000000E+00  0.00000000E+00  0.00000000E+00
  0.00000000E+00  0.00000000E+00  0.00000000E+00
  0.00000000E+00  0.00000000E+00  0.00000000E+00
  0.00000000E+00  0.00000000E+00  0.00000000E+00
  0.00000000E+00  0.00000000E+00  0.00000000E+00
  0.00000000E+00  0.00000000E+00  0.00000000E+00
  0.00000000E+00  0.00000000E+00  0.00000000E+00
  0.00000000E+00  0.00000000E+00  0.00000000E+00
  0.00000000E+00  0.00000000E+00  0.00000000E+00
  0.00000000E+00  0.00000000E+00  0.00000000E+00
  0.00000000E+00  0.00000000E+00  0.00000000E+00
  0.00000000E+00  0.00000000E+00  0.00000000E+00
  0.00000000E+00  0.00000000E+00  0.00000000E+00
  0.00000000E+00  0.00000000E+00  0.00000000E+00
  0.00000000E+00  0.00000000E+00  0.00000000E+00
  0.00000000E+00  0.00000000E+00  0.00000000E+00
  0.00000000E+00  0.00000000E+00  0.00000000E+00
  0.00000000E+00  0.00000000E+00  0.00000000E+00
  0.00000000E+00  0.00000000E+00  0.00000000E+00
  0.00000000E+00  0.00000000E+00  0.00000000E+00
  0.00000000E+00  0.00000000E+00  0.00000000E+00
  0.00000000E+00  0.00000000E+00  0.00000000E+00
  0.00000000E+00  0.00000000E+00  0.00000000E+00
  0.00000000E+00  0.00000000E+00  0.00000000E+00
  0.00000000E+00  0.00000000E+00  0.00000000E+00
  0.00000000E+00  0.00000000E+00  0.00000000E+00
  0.00000000E+00  0.00000000E+00  0.00000000E+00
  0.00000000E+00  0.00000000E+00  0.00000000E+00
  0.00000000E+00  0.00000000E+00  0.00000000E+00
  0.00000000E+00  0.00000000E+00  0.00000000E+00
  0.00000000E+00  0.00000000E+00  0.00000000E+00
  0.00000000E+00  0.00000000E+00  0.00000000E+00
  0.00000000E+00  0.00000000E+00  0.00000000E+00
  0.00000000E+00  0.00000000E+00  0.00000000E+00
  0.00000000E+00  0.00000000E+00  0.00000000E+00
  0.00000000E+00  0.00000000E+00  0.00000000E+00
  0.00000000E+00  0.00000000E+00  0.00000000E+00
  0.00000000E+00  0.00000000E+00  0.00000000E+00
  0.00000000E+00  0.00000000E+00  0.00000000E+00
  0.00000000E+00  0.00000000E+00  0.00000000E+00
  0.00000000E+00  0.00000000E+00  0.00000000E+00
  0.00000000E+00  0.00000000E+00  0.00000000E+00
  0.00000000E+00  0.00000000E+00  0.00000000E+00
  0.00000000E+00  0.00000000E+00  0.00000000E+00
  0.00000000E+00  0.00000000E+00  0.00000000E+00
  0.00000000E+00  0.00000000E+00  0.00000000E+00
