Automatic KPOINTS generated
0
Gamma
8 5 3
0 0 0
