fcc Si+fcc Ge                           
   1.00000000000000     
    13.4232037900000005    0.0000000000000000    0.0000000000000000
    -6.7116018950000003   15.0075980760000007    0.0000000000000000
     0.0000000000000000    0.0000000000000000   10.9914855050000000
   Si   Ge
    36    66
Direct
  0.0000000000000000  0.6666666670000012  0.0000000000000000
  0.2999999999999972  0.4333333330000002  0.1114831339999967
  0.6000000000000014  0.2000000000000028  0.2229662680000004
  0.0000000000000000  0.3333333329999988  0.0000000000000000
  0.2999999999999972  0.1000000000000014  0.1114831339999967
  0.6000000000000014  0.8666666669999969  0.2229662680000004
  0.0000000000000000  0.0000000000000000  0.0000000000000000
  0.2999999999999972  0.7666666670000026  0.1114831339999967
  0.6000000000000014  0.5333333330000016  0.2229662680000004
  0.5000000000000000  0.6666666670000012  0.0000000000000000
  0.7999999999999972  0.4333333330000002  0.1114831339999967
  0.1000000000000014  0.2000000000000028  0.2229662680000004
  0.5000000000000000  0.3333333329999988  0.0000000000000000
  0.7999999999999972  0.1000000000000014  0.1114831339999967
  0.1000000000000014  0.8666666669999969  0.2229662680000004
  0.5000000000000000  0.0000000000000000  0.0000000000000000
  0.7999999999999972  0.7666666670000026  0.1114831339999967
  0.1000000000000014  0.5333333330000016  0.2229662680000004
  0.1499999999999986  0.7999999999999972  0.0557415669999983
  0.4500000000000028  0.5666666669999998  0.1672247010000021
  0.7500000000000000  0.3333333329999988  0.2787078349999987
  0.1499999999999986  0.4666666669999984  0.0557415669999983
  0.4500000000000028  0.2333333329999974  0.1672247010000021
  0.7500000000000000  0.0000000000000000  0.2787078349999987
  0.1499999999999986  0.1333333330000031  0.0557415669999983
  0.4500000000000028  0.8999999999999986  0.1672247010000021
  0.7500000000000000  0.6666666670000012  0.2787078349999987
  0.6499999999999986  0.7999999999999972  0.0557415669999983
  0.9500000000000028  0.5666666669999998  0.1672247010000021
  0.2500000000000000  0.3333333329999988  0.2787078349999987
  0.6499999999999986  0.4666666669999984  0.0557415669999983
  0.9500000000000028  0.2333333329999974  0.1672247010000021
  0.2500000000000000  0.0000000000000000  0.2787078349999987
  0.6499999999999986  0.1333333330000031  0.0557415669999983
  0.9500000000000028  0.8999999999999986  0.1672247010000021
  0.2500000000000000  0.6666666670000012  0.2787078349999987
  0.5037593979999997  0.1717791410000018  0.3514914459999972
  0.3037593979999968  0.2717791410000032  0.4666364340000015
  0.1037593980000011  0.3717791409999975  0.5817814230000025
  0.9037593979999983  0.4717791409999990  0.6969264120000034
  0.7037593980000025  0.5717791410000004  0.8120714009999972
  0.5037593979999997  0.6717791410000018  0.9272163890000016
  0.8370927320000021  0.5051124740000006  0.3514914459999972
  0.6370927319999993  0.6051124740000020  0.4666364340000015
  0.4370927319999964  0.7051124740000034  0.5817814230000025
  0.2370927320000007  0.8051124739999977  0.6969264120000034
  0.0370927319999979  0.9051124739999992  0.8120714009999972
  0.8370927320000021  0.0051124740000006  0.9272163890000016
  0.1704260650000009  0.8384458080000030  0.3514914459999972
  0.9704260649999981  0.9384458079999973  0.4666364340000015
  0.7704260650000023  0.0384458079999987  0.5817814230000025
  0.5704260649999995  0.1384458080000002  0.6969264120000034
  0.3704260649999966  0.2384458080000016  0.8120714009999972
  0.1704260650000009  0.3384458080000030  0.9272163890000016
  0.6704260650000009  0.8384458080000030  0.3514914459999972
  0.4704260649999981  0.9384458079999973  0.4666364340000015
  0.2704260650000023  0.0384458079999987  0.5817814230000025
  0.0704260649999995  0.1384458080000002  0.6969264120000034
  0.8704260649999966  0.2384458080000016  0.8120714009999972
  0.6704260650000009  0.3384458080000030  0.9272163890000016
  0.0037593979999997  0.1717791410000018  0.3514914459999972
  0.8037593979999968  0.2717791410000032  0.4666364340000015
  0.6037593980000011  0.3717791409999975  0.5817814230000025
  0.4037593979999983  0.4717791409999990  0.6969264120000034
  0.2037593980000025  0.5717791410000004  0.8120714009999972
  0.0037593979999997  0.6717791410000018  0.9272163890000016
  0.3370927320000021  0.5051124740000006  0.3514914459999972
  0.1370927319999993  0.6051124740000020  0.4666364340000015
  0.9370927319999964  0.7051124740000034  0.5817814230000025
  0.7370927320000007  0.8051124739999977  0.6969264120000034
  0.5370927319999979  0.9051124739999992  0.8120714009999972
  0.3370927320000021  0.0051124740000006  0.9272163890000016
  0.6537593979999983  0.4717791409999990  0.4090639400000029
  0.4537593980000025  0.5717791410000004  0.5242089289999967
  0.2537593979999997  0.6717791410000018  0.6393539179999976
  0.0537593979999968  0.7717791410000032  0.7544989060000020
  0.8537593980000011  0.8717791409999975  0.8696438950000029
  0.9870927320000007  0.8051124739999977  0.4090639400000029
  0.7870927319999979  0.9051124739999992  0.5242089289999967
  0.5870927320000021  0.0051124740000006  0.6393539179999976
  0.3870927319999993  0.1051124740000020  0.7544989060000020
  0.1870927320000035  0.2051124740000034  0.8696438950000029
  0.3204260649999995  0.1384458080000002  0.4090639400000029
  0.1204260649999966  0.2384458080000016  0.5242089289999967
  0.9204260650000009  0.3384458080000030  0.6393539179999976
  0.7204260649999981  0.4384458079999973  0.7544989060000020
  0.5204260650000023  0.5384458079999987  0.8696438950000029
  0.8204260649999995  0.1384458080000002  0.4090639400000029
  0.6204260649999966  0.2384458080000016  0.5242089289999967
  0.4204260650000009  0.3384458080000030  0.6393539179999976
  0.2204260649999981  0.4384458079999973  0.7544989060000020
  0.0204260650000023  0.5384458079999987  0.8696438950000029
  0.1537593979999983  0.4717791409999990  0.4090639400000029
  0.9537593980000025  0.5717791410000004  0.5242089289999967
  0.7537593979999997  0.6717791410000018  0.6393539179999976
  0.5537593979999968  0.7717791410000032  0.7544989060000020
  0.3537593980000011  0.8717791409999975  0.8696438950000029
  0.4870927320000007  0.8051124739999977  0.4090639400000029
  0.2870927319999979  0.9051124739999992  0.5242089289999967
  0.0870927320000021  0.0051124740000006  0.6393539179999976
  0.8870927319999993  0.1051124740000020  0.7544989060000020
  0.6870927319999964  0.2051124740000034  0.8696438950000029
 
  0.00000000E+00  0.00000000E+00  0.00000000E+00
  0.00000000E+00  0.00000000E+00  0.00000000E+00
  0.00000000E+00  0.00000000E+00  0.00000000E+00
  0.00000000E+00  0.00000000E+00  0.00000000E+00
  0.00000000E+00  0.00000000E+00  0.00000000E+00
  0.00000000E+00  0.00000000E+00  0.00000000E+00
  0.00000000E+00  0.00000000E+00  0.00000000E+00
  0.00000000E+00  0.00000000E+00  0.00000000E+00
  0.00000000E+00  0.00000000E+00  0.00000000E+00
  0.00000000E+00  0.00000000E+00  0.00000000E+00
  0.00000000E+00  0.00000000E+00  0.00000000E+00
  0.00000000E+00  0.00000000E+00  0.00000000E+00
  0.00000000E+00  0.00000000E+00  0.00000000E+00
  0.00000000E+00  0.00000000E+00  0.00000000E+00
  0.00000000E+00  0.00000000E+00  0.00000000E+00
  0.00000000E+00  0.00000000E+00  0.00000000E+00
  0.00000000E+00  0.00000000E+00  0.00000000E+00
  0.00000000E+00  0.00000000E+00  0.00000000E+00
  0.00000000E+00  0.00000000E+00  0.00000000E+00
  0.00000000E+00  0.00000000E+00  0.00000000E+00
  0.00000000E+00  0.00000000E+00  0.00000000E+00
  0.00000000E+00  0.00000000E+00  0.00000000E+00
  0.00000000E+00  0.00000000E+00  0.00000000E+00
  0.00000000E+00  0.00000000E+00  0.00000000E+00
  0.00000000E+00  0.00000000E+00  0.00000000E+00
  0.00000000E+00  0.00000000E+00  0.00000000E+00
  0.00000000E+00  0.00000000E+00  0.00000000E+00
  0.00000000E+00  0.00000000E+00  0.00000000E+00
  0.00000000E+00  0.00000000E+00  0.00000000E+00
  0.00000000E+00  0.00000000E+00  0.00000000E+00
  0.00000000E+00  0.00000000E+00  0.00000000E+00
  0.00000000E+00  0.00000000E+00  0.00000000E+00
  0.00000000E+00  0.00000000E+00  0.00000000E+00
  0.00000000E+00  0.00000000E+00  0.00000000E+00
  0.00000000E+00  0.00000000E+00  0.00000000E+00
  0.00000000E+00  0.00000000E+00  0.00000000E+00
  0.00000000E+00  0.00000000E+00  0.00000000E+00
  0.00000000E+00  0.00000000E+00  0.00000000E+00
  0.00000000E+00  0.00000000E+00  0.00000000E+00
  0.00000000E+00  0.00000000E+00  0.00000000E+00
  0.00000000E+00  0.00000000E+00  0.00000000E+00
  0.00000000E+00  0.00000000E+00  0.00000000E+00
  0.00000000E+00  0.00000000E+00  0.00000000E+00
  0.00000000E+00  0.00000000E+00  0.00000000E+00
  0.00000000E+00  0.00000000E+00  0.00000000E+00
  0.00000000E+00  0.00000000E+00  0.00000000E+00
  0.00000000E+00  0.00000000E+00  0.00000000E+00
  0.00000000E+00  0.00000000E+00  0.00000000E+00
  0.00000000E+00  0.00000000E+00  0.00000000E+00
  0.00000000E+00  0.00000000E+00  0.00000000E+00
  0.00000000E+00  0.00000000E+00  0.00000000E+00
  0.00000000E+00  0.00000000E+00  0.00000000E+00
  0.00000000E+00  0.00000000E+00  0.00000000E+00
  0.00000000E+00  0.00000000E+00  0.00000000E+00
  0.00000000E+00  0.00000000E+00  0.00000000E+00
  0.00000000E+00  0.00000000E+00  0.00000000E+00
  0.00000000E+00  0.00000000E+00  0.00000000E+00
  0.00000000E+00  0.00000000E+00  0.00000000E+00
  0.00000000E+00  0.00000000E+00  0.00000000E+00
  0.00000000E+00  0.00000000E+00  0.00000000E+00
  0.00000000E+00  0.00000000E+00  0.00000000E+00
  0.00000000E+00  0.00000000E+00  0.00000000E+00
  0.00000000E+00  0.00000000E+00  0.00000000E+00
  0.00000000E+00  0.00000000E+00  0.00000000E+00
  0.00000000E+00  0.00000000E+00  0.00000000E+00
  0.00000000E+00  0.00000000E+00  0.00000000E+00
  0.00000000E+00  0.00000000E+00  0.00000000E+00
  0.00000000E+00  0.00000000E+00  0.00000000E+00
  0.00000000E+00  0.00000000E+00  0.00000000E+00
  0.00000000E+00  0.00000000E+00  0.00000000E+00
  0.00000000E+00  0.00000000E+00  0.00000000E+00
  0.00000000E+00  0.00000000E+00  0.00000000E+00
  0.00000000E+00  0.00000000E+00  0.00000000E+00
  0.00000000E+00  0.00000000E+00  0.00000000E+00
  0.00000000E+00  0.00000000E+00  0.00000000E+00
  0.00000000E+00  0.00000000E+00  0.00000000E+00
  0.00000000E+00  0.00000000E+00  0.00000000E+00
  0.00000000E+00  0.00000000E+00  0.00000000E+00
  0.00000000E+00  0.00000000E+00  0.00000000E+00
  0.00000000E+00  0.00000000E+00  0.00000000E+00
  0.00000000E+00  0.00000000E+00  0.00000000E+00
  0.00000000E+00  0.00000000E+00  0.00000000E+00
  0.00000000E+00  0.00000000E+00  0.00000000E+00
  0.00000000E+00  0.00000000E+00  0.00000000E+00
  0.00000000E+00  0.00000000E+00  0.00000000E+00
  0.00000000E+00  0.00000000E+00  0.00000000E+00
  0.00000000E+00  0.00000000E+00  0.00000000E+00
  0.00000000E+00  0.00000000E+00  0.00000000E+00
  0.00000000E+00  0.00000000E+00  0.00000000E+00
  0.00000000E+00  0.00000000E+00  0.00000000E+00
  0.00000000E+00  0.00000000E+00  0.00000000E+00
  0.00000000E+00  0.00000000E+00  0.00000000E+00
  0.00000000E+00  0.00000000E+00  0.00000000E+00
  0.00000000E+00  0.00000000E+00  0.00000000E+00
  0.00000000E+00  0.00000000E+00  0.00000000E+00
  0.00000000E+00  0.00000000E+00  0.00000000E+00
  0.00000000E+00  0.00000000E+00  0.00000000E+00
  0.00000000E+00  0.00000000E+00  0.00000000E+00
  0.00000000E+00  0.00000000E+00  0.00000000E+00
  0.00000000E+00  0.00000000E+00  0.00000000E+00
  0.00000000E+00  0.00000000E+00  0.00000000E+00
  0.00000000E+00  0.00000000E+00  0.00000000E+00
