fcc Si+fcc Ge
    1.000000000
   13.423203790    0.000000000    0.000000000
   -6.711601895   15.007598076    0.000000000
    0.000000000    0.000000000   10.991485505
Si    Ge   
36     66
Direct
    0.000000000    0.666666667    0.000000000
    0.300000000    0.433333333    0.111483134
    0.600000000    0.200000000    0.222966268
    0.000000000    0.333333333    0.000000000
    0.300000000    0.100000000    0.111483134
    0.600000000    0.866666667    0.222966268
    0.000000000    0.000000000    0.000000000
    0.300000000    0.766666667    0.111483134
    0.600000000    0.533333333    0.222966268
    0.500000000    0.666666667    0.000000000
    0.800000000    0.433333333    0.111483134
    0.100000000    0.200000000    0.222966268
    0.500000000    0.333333333    0.000000000
    0.800000000    0.100000000    0.111483134
    0.100000000    0.866666667    0.222966268
    0.500000000    0.000000000    0.000000000
    0.800000000    0.766666667    0.111483134
    0.100000000    0.533333333    0.222966268
    0.150000000    0.800000000    0.055741567
    0.450000000    0.566666667    0.167224701
    0.750000000    0.333333333    0.278707835
    0.150000000    0.466666667    0.055741567
    0.450000000    0.233333333    0.167224701
    0.750000000    0.000000000    0.278707835
    0.150000000    0.133333333    0.055741567
    0.450000000    0.900000000    0.167224701
    0.750000000    0.666666667    0.278707835
    0.650000000    0.800000000    0.055741567
    0.950000000    0.566666667    0.167224701
    0.250000000    0.333333333    0.278707835
    0.650000000    0.466666667    0.055741567
    0.950000000    0.233333333    0.167224701
    0.250000000    0.000000000    0.278707835
    0.650000000    0.133333333    0.055741567
    0.950000000    0.900000000    0.167224701
    0.250000000    0.666666667    0.278707835
    0.503759398    0.171779141    0.351491446
    0.303759398    0.271779141    0.466636434
    0.103759398    0.371779141    0.581781423
    0.903759398    0.471779141    0.696926412
    0.703759398    0.571779141    0.812071401
    0.503759398    0.671779141    0.927216389
    0.837092732    0.505112474    0.351491446
    0.637092732    0.605112474    0.466636434
    0.437092732    0.705112474    0.581781423
    0.237092732    0.805112474    0.696926412
    0.037092732    0.905112474    0.812071401
    0.837092732    0.005112474    0.927216389
    0.170426065    0.838445808    0.351491446
    0.970426065    0.938445808    0.466636434
    0.770426065    0.038445808    0.581781423
    0.570426065    0.138445808    0.696926412
    0.370426065    0.238445808    0.812071401
    0.170426065    0.338445808    0.927216389
    0.670426065    0.838445808    0.351491446
    0.470426065    0.938445808    0.466636434
    0.270426065    0.038445808    0.581781423
    0.070426065    0.138445808    0.696926412
    0.870426065    0.238445808    0.812071401
    0.670426065    0.338445808    0.927216389
    0.003759398    0.171779141    0.351491446
    0.803759398    0.271779141    0.466636434
    0.603759398    0.371779141    0.581781423
    0.403759398    0.471779141    0.696926412
    0.203759398    0.571779141    0.812071401
    0.003759398    0.671779141    0.927216389
    0.337092732    0.505112474    0.351491446
    0.137092732    0.605112474    0.466636434
    0.937092732    0.705112474    0.581781423
    0.737092732    0.805112474    0.696926412
    0.537092732    0.905112474    0.812071401
    0.337092732    0.005112474    0.927216389
    0.653759398    0.471779141    0.409063940
    0.453759398    0.571779141    0.524208929
    0.253759398    0.671779141    0.639353918
    0.053759398    0.771779141    0.754498906
    0.853759398    0.871779141    0.869643895
    0.987092732    0.805112474    0.409063940
    0.787092732    0.905112474    0.524208929
    0.587092732    0.005112474    0.639353918
    0.387092732    0.105112474    0.754498906
    0.187092732    0.205112474    0.869643895
    0.320426065    0.138445808    0.409063940
    0.120426065    0.238445808    0.524208929
    0.920426065    0.338445808    0.639353918
    0.720426065    0.438445808    0.754498906
    0.520426065    0.538445808    0.869643895
    0.820426065    0.138445808    0.409063940
    0.620426065    0.238445808    0.524208929
    0.420426065    0.338445808    0.639353918
    0.220426065    0.438445808    0.754498906
    0.020426065    0.538445808    0.869643895
    0.153759398    0.471779141    0.409063940
    0.953759398    0.571779141    0.524208929
    0.753759398    0.671779141    0.639353918
    0.553759398    0.771779141    0.754498906
    0.353759398    0.871779141    0.869643895
    0.487092732    0.805112474    0.409063940
    0.287092732    0.905112474    0.524208929
    0.087092732    0.005112474    0.639353918
    0.887092732    0.105112474    0.754498906
    0.687092732    0.205112474    0.869643895
