Si+C
    1.000000000
   16.293001175    0.000000000    0.000000000
  -10.862000465   12.144085884    0.000000000
    0.000000000    0.000000000    7.994749546
Si  C  
36     84
Direct
    0.982905626    0.641025126    0.000000002
    0.782905579    0.341025025    0.151900828
    0.582905412    0.041024935    0.303801656
    0.982905626    0.307691783    0.000000002
    0.782905579    0.007691715    0.151900828
    0.582905412    0.707691669    0.303801656
    0.982905626    0.974358499    0.000000002
    0.782905579    0.674358368    0.151900828
    0.582905412    0.374358296    0.303801656
    0.632905662    0.657691717    0.075950257
    0.432905585    0.357691616    0.227851093
    0.232905522    0.057691578    0.379751921
    0.632905662    0.324358463    0.075950257
    0.432905585    0.024358369    0.227851093
    0.232905522    0.724358320    0.379751921
    0.632905662    0.991025209    0.075950257
    0.432905585    0.691025138    0.227851093
    0.232905522    0.391025066    0.379751921
    0.482905626    0.807691753    0.000000000
    0.282905549    0.507691622    0.151900828
    0.082905442    0.207691610    0.303801656
    0.482905626    0.474358439    0.000000000
    0.282905549    0.174358353    0.151900828
    0.082905442    0.874358296    0.303801656
    0.482905626    0.141025141    0.000000000
    0.282905549    0.841025054    0.151900828
    0.082905442    0.541024983    0.303801656
    0.132905677    0.824358523    0.075950272
    0.932905555    0.524358392    0.227851093
    0.732905507    0.224358380    0.379751921
    0.132905677    0.491025209    0.075950272
    0.932905555    0.191025108    0.227851093
    0.732905507    0.891025126    0.379751921
    0.132905677    0.157691956    0.075950272
    0.932905555    0.857691884    0.227851093
    0.732905507    0.557691932    0.379751921
    0.771728337    0.108191729    0.565175176
    0.014585495    0.079620242    0.664935827
    0.257442713    0.051048756    0.764696479
    0.057442665    0.251048863    0.565175176
    0.300299883    0.222477376    0.664935827
    0.543157101    0.193905920    0.764696479
    0.343156815    0.393905967    0.565175176
    0.586014032    0.365334481    0.664935827
    0.828871369    0.336763024    0.764696479
    0.628871202    0.536763191    0.565175176
    0.871728420    0.508191705    0.664935827
    0.114585757    0.479620218    0.764696479
    0.914585471    0.679620266    0.565175176
    0.157442689    0.651048839    0.664935827
    0.400299907    0.622477353    0.764696479
    0.200299740    0.822477460    0.565175176
    0.443156958    0.793905973    0.664935827
    0.686014175    0.765334487    0.764696479
    0.486014009    0.965334594    0.565175176
    0.728871226    0.936763048    0.664935827
    0.971728444    0.908191621    0.764696479
    0.607442498    0.201048881    0.615055442
    0.850299835    0.172477394    0.714816093
    0.093157053    0.143905878    0.814576626
    0.893156707    0.343906015    0.615055442
    0.136013985    0.315334529    0.714816093
    0.378871202    0.286763012    0.814576745
    0.178871036    0.486763179    0.615055442
    0.421728373    0.458191693    0.714816093
    0.664585590    0.429620206    0.814576745
    0.464585423    0.629620314    0.615055442
    0.707442760    0.601048827    0.714816093
    0.950299978    0.572477400    0.814576745
    0.750299573    0.772477448    0.615055442
    0.993156910    0.743905962    0.714816093
    0.236014009    0.715334475    0.814576745
    0.036014080    0.915334582    0.615055442
    0.278871298    0.886763036    0.714816093
    0.521728516    0.858191609    0.814576626
    0.321728230    0.058191657    0.615055442
    0.564585447    0.029620290    0.714816093
    0.807442665    0.001048803    0.814576626
    0.414585590    0.179620326    0.565175176
    0.657442689    0.151048809    0.664935827
    0.900300026    0.122477390    0.764696479
    0.700299978    0.322477460    0.565175176
    0.943157077    0.293905944    0.664935827
    0.186014175    0.265334457    0.764696479
    0.986014068    0.465334594    0.565175176
    0.228871346    0.436763108    0.664935827
    0.471728563    0.408191621    0.764696479
    0.271728277    0.608191729    0.565175176
    0.514585495    0.579620242    0.664935827
    0.757442832    0.551048815    0.764696479
    0.557442665    0.751048863    0.565175176
    0.800299883    0.722477436    0.664935827
    0.043156981    0.693905890    0.764696479
    0.843156874    0.893906057    0.565175176
    0.086014152    0.865334630    0.664935827
    0.328871489    0.836763144    0.764696479
    0.128871202    0.036763191    0.565175176
    0.371728420    0.008191824    0.664935827
    0.614585638    0.979620278    0.764696479
    0.964585483    0.129620314    0.615055442
    0.207442760    0.101048827    0.714816093
    0.450299978    0.072477341    0.814576745
    0.250299692    0.272477448    0.615055442
    0.493156910    0.243905962    0.714816093
    0.736014128    0.215334505    0.814576626
    0.536013842    0.415334553    0.615055442
    0.778871298    0.386763126    0.714816093
    0.021728516    0.358191669    0.814576626
    0.821728110    0.558191717    0.615055442
    0.064585447    0.529620290    0.714816093
    0.307442665    0.501048744    0.814576626
    0.107442617    0.701048791    0.615055442
    0.350299835    0.672477305    0.714816093
    0.593157053    0.643905878    0.814576745
    0.393156886    0.843905985    0.615055442
    0.636014223    0.815334499    0.714816093
    0.878871441    0.786763132    0.814576745
    0.678871036    0.986763120    0.615055442
    0.921728373    0.958191693    0.714816093
    0.164585590    0.929620206    0.814576745
