Si+C
    1.000000000
   13.303179741    0.000000000    0.000000000
    6.651589394   11.520891190    0.000000000
    0.000000000    0.000000000   21.679418564
Si  C  
72     308
Direct
    0.000000000    0.318506181    0.289268762
    0.000000000    0.985172927    0.000000014
    0.000000000    0.651839554    0.144634396
    0.333333343    0.651839614    0.289268732
    0.333333343    0.318506300    0.000000009
    0.333333343    0.985172868    0.144634381
    0.666666687    0.985172927    0.289268732
    0.666666687    0.651839614    0.000000006
    0.666666687    0.318506241    0.144634381
    0.333333343    0.318506062    0.325427443
    0.333333343    0.985172868    0.036158618
    0.333333343    0.651839495    0.180793002
    1.000000000    0.985172808    0.325427443
    1.000000000    0.651839614    0.036158614
    1.000000000    0.318506271    0.180793002
    0.666666746    0.651839375    0.325427443
    0.666666746    0.318506211    0.036158625
    0.666666746    0.985172868    0.180793002
    0.500000000    0.318506241    0.289268732
    0.500000000    0.985172927    0.000000010
    0.500000000    0.651839554    0.144634381
    0.166666672    0.985172927    0.289268732
    0.166666672    0.651839674    0.000000001
    0.166666672    0.318506241    0.144634381
    0.833333373    0.651839614    0.289268732
    0.833333373    0.318506300    0.000000001
    0.833333373    0.985172927    0.144634381
    0.166666657    0.651839554    0.325427353
    0.166666657    0.318506300    0.036158573
    0.166666657    0.985172868    0.180792958
    0.833333433    0.318506181    0.325427383
    0.833333433    0.985172927    0.036158588
    0.833333433    0.651839495    0.180792972
    0.500000060    0.985172868    0.325427383
    0.500000060    0.651839614    0.036158592
    0.500000060    0.318506211    0.180793002
    0.166666672    0.485172927    0.289268732
    0.166666672    0.151839614    0.000000010
    0.166666672    0.818506241    0.144634381
    0.500000000    0.818506241    0.289268762
    0.500000000    0.485172987    0.000000016
    0.500000000    0.151839584    0.144634396
    0.833333373    0.151839629    0.289268732
    0.833333373    0.818506360    0.000000000
    0.833333373    0.485173017    0.144634351
    0.500000000    0.485172868    0.325427383
    0.500000000    0.151839614    0.036158588
    0.500000000    0.818506241    0.180792972
    0.166666672    0.151839569    0.325427353
    0.166666672    0.818506360    0.036158565
    0.166666672    0.485172927    0.180792958
    0.833333373    0.818506181    0.325427353
    0.833333373    0.485172927    0.036158565
    0.833333373    0.151839525    0.180792958
    0.000000000    0.818506241    0.289268732
    0.000000000    0.485172957    0.000000009
    0.000000000    0.151839554    0.144634381
    0.666666687    0.485172868    0.289268732
    0.666666687    0.151839599    0.000000009
    0.666666687    0.818506181    0.144634381
    0.333333313    0.151839495    0.289268732
    0.333333313    0.818506241    0.000000002
    0.333333313    0.485172868    0.144634351
    0.000000000    0.485172808    0.325427443
    0.000000000    0.151839659    0.036158610
    0.000000000    0.818506300    0.180793002
    0.333333343    0.818506122    0.325427443
    0.333333343    0.485172957    0.036158614
    0.333333343    0.151839599    0.180793002
    0.666666687    0.151839525    0.325427413
    0.666666687    0.818506300    0.036158610
    0.666666687    0.485172957    0.180792972
    0.431514978    0.363333523    0.900184691
    0.098182082    0.030000329    0.425242662
    0.764848709    0.696666956    0.520231068
    0.431515276    0.363333583    0.615219474
    0.098181725    0.029999971    0.710207939
    0.764848351    0.696666658    0.805196404
    0.717229247    0.506190598    0.900184751
    0.383896470    0.172857463    0.425242662
    0.050562978    0.839524090    0.520231068
    0.717229605    0.506190717    0.615219533
    0.383895993    0.172857150    0.710207939
    0.050562620    0.839523852    0.805196345
    0.574372172    0.934761941    0.900184751
    0.241039306    0.601428866    0.425242662
    0.907705903    0.268095493    0.520231068
    0.574372470    0.934762120    0.615219474
    0.241038799    0.601428568    0.710207939
    0.907705545    0.268095255    0.805196404
    0.002943635    0.649047673    0.900184751
    0.669610739    0.315714598    0.425242662
    0.336277306    0.982381225    0.520231068
    0.002943873    0.649047852    0.615219533
    0.669610262    0.315714300    0.710207939
    0.336276948    0.982380927    0.805196464
    0.860086322    0.077619061    0.900184751
    0.526753604    0.744286060    0.425242633
    0.193420142    0.410952687    0.520231009
    0.860086679    0.077619240    0.615219474
    0.526753306    0.744285882    0.710207880
    0.193419755    0.410952330    0.805196404
    0.288657784    0.791904747    0.900184751
    0.955324948    0.458571732    0.425242633
    0.621991575    0.125238359    0.520231009
    0.288658112    0.791904986    0.615219474
    0.955324769    0.458571613    0.710207880
    0.621991158    0.125238046    0.805196404
    0.145800650    0.220476195    0.900184751
    0.812467813    0.887143135    0.425242662
    0.479134411    0.553809762    0.520231068
    0.145800978    0.220476359    0.615219474
    0.812467396    0.887142837    0.710207939
    0.479134023    0.553809524    0.805196345
    0.193420202    0.410952628    0.448989749
    0.860086799    0.077619247    0.543978214
    0.526753366    0.744285882    0.638966620
    0.193419814    0.410952449    0.733955026
    0.860086322    0.077618942    0.828943491
    0.621991634    0.125238374    0.448989749
    0.288658202    0.791904986    0.543978214
    0.955324769    0.458571672    0.638966560
    0.621991277    0.125238165    0.733955026
    0.288657725    0.791904628    0.828943491
    0.479134470    0.553809762    0.448989749
    0.145801038    0.220476389    0.543978214
    0.812467575    0.887143016    0.638966560
    0.479134083    0.553809583    0.733955026
    0.145800591    0.220476136    0.828943431
    0.907705843    0.268095493    0.448989749
    0.574372470    0.934762120    0.543978214
    0.241039008    0.601428747    0.638966620
    0.907705486    0.268095255    0.733955026
    0.574371994    0.934761822    0.828943431
    0.336277336    0.982381284    0.448989749
    0.002943873    0.649047852    0.543978214
    0.669610500    0.315714478    0.638966620
    0.336276948    0.982380927    0.733955026
    0.002943516    0.649047554    0.828943431
    0.764848828    0.696666956    0.448989749
    0.431515396    0.363333523    0.543978214
    0.098181963    0.030000091    0.638966620
    0.764848471    0.696666658    0.733955026
    0.431514919    0.363333225    0.828943491
    0.050563097    0.839524090    0.448989719
    0.717229605    0.506190658    0.543978155
    0.383896232    0.172857299    0.638966560
    0.050562739    0.839523911    0.733955026
    0.717229247    0.506190419    0.828943431
    0.645800710    0.720476210    0.900184691
    0.312467843    0.387143195    0.425242662
    0.979134440    0.053809769    0.520231068
    0.645801008    0.720476389    0.615219474
    0.312467396    0.387142837    0.710207939
    0.979134083    0.053809568    0.805196345
    0.074372172    0.434761941    0.900184691
    0.741039336    0.101428896    0.425242633
    0.407705843    0.768095553    0.520231009
    0.074372411    0.434762180    0.615219474
    0.741038799    0.101428553    0.710207939
    0.407705486    0.768095315    0.805196345
    0.502943516    0.149047598    0.900184751
    0.169610739    0.815714598    0.425242633
    0.836277366    0.482381225    0.520231068
    0.502943873    0.149047762    0.615219474
    0.169610500    0.815714478    0.710207939
    0.836277008    0.482380927    0.805196404
    0.931514978    0.863333404    0.900184751
    0.598182142    0.530000329    0.425242633
    0.264848709    0.196666926    0.520231068
    0.931515217    0.863333523    0.615219474
    0.598181903    0.530000150    0.710207939
    0.264848351    0.196666643    0.805196345
    0.360086381    0.577619016    0.900184751
    0.026753545    0.244286060    0.425242603
    0.693420172    0.910952687    0.520231009
    0.360086709    0.577619255    0.615219474
    0.026753306    0.244285926    0.710207880
    0.693419695    0.910952389    0.805196404
    0.788657784    0.291904867    0.900184751
    0.455325037    0.958571792    0.425242662
    0.121991545    0.625238359    0.520231068
    0.788658142    0.291904986    0.615219474
    0.455324531    0.958571434    0.710207939
    0.121991210    0.625238121    0.805196345
    0.217229307    0.006190538    0.900184751
    0.883896470    0.672857463    0.425242692
    0.550562978    0.339524031    0.520231068
    0.217229605    0.006190658    0.615219533
    0.883895993    0.672857106    0.710207939
    0.550562620    0.339523852    0.805196404
    0.264848769    0.196666956    0.448989719
    0.931515336    0.863333523    0.543978214
    0.598181903    0.530000210    0.638966560
    0.264848411    0.196666762    0.733955026
    0.931514978    0.863333285    0.828943491
    0.121991634    0.625238359    0.448989719
    0.788658142    0.291904926    0.543978214
    0.455324829    0.958571613    0.638966560
    0.121991269    0.625238180    0.733955026
    0.788657904    0.291904688    0.828943372
    0.550563037    0.339524090    0.448989719
    0.217229575    0.006190658    0.543978155
    0.883896172    0.672857344    0.638966560
    0.550562680    0.339523911    0.733955026
    0.217229128    0.006190419    0.828943372
    0.979134381    0.053809762    0.448989719
    0.645801008    0.720476389    0.543978155
    0.312467605    0.387143016    0.638966560
    0.979134142    0.053809568    0.733955026
    0.645800650    0.720476091    0.828943372
    0.407705933    0.768095553    0.448989719
    0.074372411    0.434762061    0.543978155
    0.741039038    0.101428680    0.638966560
    0.407705605    0.768095315    0.733955026
    0.074372053    0.434761822    0.828943431
    0.836277425    0.482381225    0.448989719
    0.502943933    0.149047777    0.543978214
    0.169610515    0.815714419    0.638966620
    0.836277068    0.482380986    0.733955026
    0.502943575    0.149047479    0.828943491
    0.693420172    0.910952628    0.448989719
    0.360086709    0.577619195    0.543978214
    0.026753306    0.244285762    0.638966560
    0.693419814    0.910952389    0.733955026
    0.360086381    0.577618957    0.828943431
    0.574372172    0.434761941    0.900184810
    0.241039276    0.101428896    0.425242662
    0.907705843    0.768095553    0.520231068
    0.574372470    0.434762180    0.615219474
    0.241038859    0.101428613    0.710207939
    0.907705426    0.768095195    0.805196404
    0.431515098    0.863333404    0.900184751
    0.098182201    0.530000329    0.425242662
    0.764848709    0.196666911    0.520231068
    0.431515336    0.863333523    0.615219533
    0.098181725    0.529999971    0.710207939
    0.764848351    0.196666703    0.805196404
    0.860086441    0.577619135    0.900184751
    0.526753604    0.244286045    0.425242633
    0.193420172    0.910952687    0.520231068
    0.860086739    0.577619255    0.615219474
    0.526753128    0.244285688    0.710207939
    0.193419814    0.910952389    0.805196404
    0.717229247    0.006190419    0.900184810
    0.383896440    0.672857523    0.425242633
    0.050562978    0.339524150    0.520231009
    0.717229545    0.006190658    0.615219474
    0.383896172    0.672857404    0.710207880
    0.050562620    0.339523792    0.805196404
    0.145800710    0.720476210    0.900184751
    0.812467873    0.387143195    0.425242633
    0.479134470    0.053809818    0.520231009
    0.145801008    0.720476389    0.615219474
    0.812467635    0.387143075    0.710207880
    0.479134083    0.053809509    0.805196404
    0.002943516    0.149047658    0.900184691
    0.669610739    0.815714598    0.425242662
    0.336277276    0.482381225    0.520231068
    0.002943873    0.149047837    0.615219474
    0.669610262    0.815714300    0.710207939
    0.336276948    0.482380986    0.805196345
    0.288657844    0.291904747    0.900184751
    0.955325007    0.958571732    0.425242662
    0.621991575    0.625238359    0.520231068
    0.288658142    0.291904986    0.615219474
    0.955324531    0.958571434    0.710207939
    0.621991217    0.625238121    0.805196345
    0.479134470    0.053809792    0.448989749
    0.145800978    0.720476389    0.543978214
    0.812467575    0.387143016    0.638966620
    0.479134083    0.053809628    0.733955026
    0.145800591    0.720476091    0.828943491
    0.336277395    0.482381165    0.448989749
    0.002943873    0.149047792    0.543978214
    0.669610500    0.815714419    0.638966560
    0.336277008    0.482380986    0.733955026
    0.002943516    0.149047598    0.828943372
    0.764848769    0.196666926    0.448989749
    0.431515336    0.863333523    0.543978214
    0.098181844    0.530000210    0.638966560
    0.764848411    0.196666703    0.733955026
    0.431514978    0.863333285    0.828943431
    0.193420231    0.910952687    0.448989749
    0.860086739    0.577619255    0.543978214
    0.526753366    0.244285867    0.638966620
    0.193419874    0.910952508    0.733955026
    0.860086322    0.577619016    0.828943491
    0.621991634    0.625238359    0.448989719
    0.288658142    0.291904926    0.543978155
    0.955324709    0.958571553    0.638966560
    0.621991277    0.625238121    0.733954966
    0.288657784    0.291904688    0.828943431
    0.050563097    0.339524090    0.448989719
    0.717229724    0.006190658    0.543978214
    0.383896291    0.672857285    0.638966560
    0.050562739    0.339523852    0.733955026
    0.717229247    0.006190419    0.828943372
    0.907705963    0.768095553    0.448989749
    0.574372470    0.434762061    0.543978214
    0.241039068    0.101428702    0.638966620
    0.907705545    0.768095315    0.733955026
    0.574372113    0.434761882    0.828943431
    0.502943754    0.649047673    0.900184751
    0.169610724    0.315714598    0.425242633
    0.836277246    0.982381225    0.520231068
    0.502943873    0.649047852    0.615219474
    0.169610262    0.315714300    0.710207939
    0.836276889    0.982381046    0.805196345
    0.931514978    0.363333404    0.900184691
    0.598182142    0.030000329    0.425242633
    0.264848679    0.696666956    0.520231068
    0.931515276    0.363333583    0.615219474
    0.598181665    0.029999971    0.710207939
    0.264848292    0.696666777    0.805196345
    0.788657784    0.791904867    0.900184751
    0.455325007    0.458571732    0.425242662
    0.121991567    0.125238389    0.520231009
    0.788658142    0.791904986    0.615219474
    0.455324709    0.458571672    0.710207880
    0.121991150    0.125238106    0.805196404
    0.217229187    0.506190479    0.900184810
    0.883896351    0.172857434    0.425242633
    0.550562978    0.839524090    0.520231009
    0.217229486    0.506190658    0.615219474
    0.883896112    0.172857329    0.710207880
    0.550562561    0.839523852    0.805196345
    0.645800591    0.220476195    0.900184751
    0.312467873    0.887143135    0.425242662
    0.979134440    0.553809762    0.520231068
    0.645801067    0.220476359    0.615219474
    0.312467396    0.887142837    0.710207939
    0.979133964    0.553809464    0.805196404
    0.074372172    0.934761941    0.900184691
    0.741039336    0.601428926    0.425242633
    0.407705873    0.268095493    0.520231009
    0.074372411    0.934762120    0.615219474
    0.741038859    0.601428568    0.710207939
    0.407705486    0.268095255    0.805196345
    0.360086381    0.077619061    0.900184751
    0.026753545    0.744286001    0.425242662
    0.693420172    0.410952568    0.520231068
    0.360086709    0.077619210    0.615219474
    0.026753068    0.744285643    0.710207939
    0.693419814    0.410952389    0.805196404
    0.121991649    0.125238448    0.448989749
    0.788658261    0.791905105    0.543978214
    0.455324769    0.458571672    0.638966620
    0.121991269    0.125238225    0.733955026
    0.788657784    0.791904747    0.828943491
    0.407705963    0.268095553    0.448989749
    0.074372530    0.934762180    0.543978214
    0.741039038    0.601428807    0.638966620
    0.407705545    0.268095315    0.733955026
    0.074372053    0.934761941    0.828943491
    0.264848828    0.696666956    0.448989749
    0.931515396    0.363333583    0.543978214
    0.598181963    0.030000210    0.638966560
    0.264848411    0.696666777    0.733955026
    0.931514978    0.363333285    0.828943491
    0.693420231    0.410952687    0.448989749
    0.360086769    0.077619314    0.543978214
    0.026753306    0.744285941    0.638966620
    0.693419814    0.410952449    0.733955026
    0.360086322    0.077619001    0.828943491
    0.550563037    0.839524090    0.448989749
    0.217229575    0.506190717    0.543978155
    0.883896172    0.172857314    0.638966560
    0.550562620    0.839523852    0.733955026
    0.217229128    0.506190360    0.828943431
    0.979134440    0.553809762    0.448989719
    0.645801008    0.220476374    0.543978214
    0.312467575    0.887143016    0.638966620
    0.979134023    0.553809524    0.733955026
    0.645800531    0.220476076    0.828943431
    0.836277366    0.982381344    0.448989779
    0.502943933    0.649047971    0.543978214
    0.169610515    0.315714598    0.638966620
    0.836277008    0.982381046    0.733955026
    0.502943516    0.649047673    0.828943491
