Si+Ge                                   
   1.00000000000000     
     7.6805944439999996    0.0000000000000000    0.0000000000000000
     0.0000000000000000   16.2929992679999991    0.0000000000000000
     0.0000000000000000    0.0000000000000000   21.0008640289999988
   Si   Ge
    72    48
Direct
  0.9785172939999995  0.9856781960000021  0.0000000009999965
  0.7285172340000017  0.8190114499999979  0.0914319010000000
  0.4785171750000003  0.6523447630000021  0.1828638020000000
  0.2285172340000017  0.4856781359999971  0.2742956579999998
  0.9785171750000003  0.3190113900000000  0.3657275739999974
  0.8511636260000017  0.9463360310000013  0.5601997380000014
  0.8511636260000017  0.9463361500000005  0.8296077250000025
  0.7285172340000017  0.1523448530000024  0.0914319010000000
  0.4785171750000003  0.9856781359999971  0.1828638020000000
  0.2285172340000017  0.8190115089999992  0.2742956579999998
  0.9785171750000003  0.6523447630000021  0.3657275739999974
  0.7285171750000003  0.4856780770000029  0.4571594599999997
  0.9785172939999995  0.6523449419999992  0.0000000009999965
  0.7285172340000017  0.4856781960000021  0.0914319010000000
  0.4785171750000003  0.3190115089999992  0.1828638020000000
  0.2285172340000017  0.1523448680000001  0.2742956579999998
  0.9785171750000003  0.9856781359999971  0.3657275739999974
  0.7285171750000003  0.8190113900000000  0.4571594599999997
  0.4785172939999995  0.9856781960000021  0.0000000000000000
  0.2285172489999994  0.8190114499999979  0.0914319010000000
  0.9785172340000017  0.6523447630000021  0.1828638020000000
  0.7285172939999995  0.4856781359999971  0.2742956279999973
  0.4785171750000003  0.3190113900000000  0.3657275739999974
  0.2285171150000025  0.1523447040000008  0.4571594599999997
  0.4785172939999995  0.3190115390000017  0.0000000000000000
  0.2285172489999994  0.1523448530000024  0.0914319010000000
  0.9785172340000017  0.9856781359999971  0.1828638020000000
  0.7285172939999995  0.8190115089999992  0.2742956279999973
  0.4785171750000003  0.6523447630000021  0.3657275739999974
  0.2285171150000025  0.4856780770000029  0.4571594599999997
  0.6011636260000017  0.4463360909999992  0.8969597219999983
  0.2285172489999994  0.4856781960000021  0.0914319010000000
  0.9785172340000017  0.3190115089999992  0.1828638020000000
  0.7285172939999995  0.1523448680000001  0.2742956279999973
  0.4785171750000003  0.9856781359999971  0.3657275739999974
  0.1011635070000025  0.4463360609999967  0.6275517340000007
  0.6011636260000017  0.6963360909999992  0.8969597219999983
  0.4785172939999995  0.0690114869999974  0.0914318929999993
  0.2285172639999971  0.9023447630000021  0.1828638020000000
  0.9785172939999995  0.7356781359999971  0.2742956579999998
  0.7285172340000017  0.5690114499999979  0.3657275739999974
  0.3511636260000017  0.4463360909999992  0.5601997380000014
  0.7285173539999974  0.5690116290000020  0.0000000000000000
  0.4785172939999995  0.4023448820000013  0.0914318929999993
  0.2285172639999971  0.2356781960000021  0.1828638020000000
  0.3511636260000017  0.6963360310000013  0.5601997380000014
  0.7285172340000017  0.9023448230000000  0.3657275739999974
  0.4785172340000017  0.7356780770000029  0.4571594000000019
  0.7285173539999974  0.9023449419999992  0.0000000000000000
  0.6011635659999968  0.9463360310000013  0.8969597219999983
  0.2285172639999971  0.5690115089999992  0.1828638020000000
  0.9785172939999995  0.4023448530000024  0.2742956579999998
  0.8511635659999968  0.4463360609999967  0.5601997380000014
  0.4785172340000017  0.0690113830000030  0.4571594000000019
  0.2285172939999995  0.2356781960000021  0.0000000009999965
  0.9785172340000017  0.0690114869999974  0.0914319010000000
  0.7285171750000003  0.9023447630000021  0.1828638020000000
  0.4785172939999995  0.7356781359999971  0.2742956279999973
  0.2285171750000003  0.5690114499999979  0.3657275739999974
  0.9785170560000012  0.4023446440000029  0.4571594599999997
  0.2285172939999995  0.5690116290000020  0.0000000009999965
  0.9785172340000017  0.4023448820000013  0.0914319010000000
  0.7285171750000003  0.2356781960000021  0.1828638020000000
  0.4785172939999995  0.0690115390000017  0.2742956279999973
  0.2285171750000003  0.9023448230000000  0.3657275739999974
  0.8511636260000017  0.1963361500000005  0.5601997380000014
  0.1011636260000017  0.9463360310000013  0.8969597219999983
  0.9785172340000017  0.7356781960000021  0.0914319010000000
  0.1011636260000017  0.1963361500000005  0.8969597219999983
  0.4785172939999995  0.4023448530000024  0.2742956279999973
  0.2285171750000003  0.2356781209999994  0.3657275739999974
  0.9785170560000012  0.0690113830000030  0.4571594599999997
  0.9785172939999995  0.0690115390000017  0.2742956579999998
  0.1011636260000017  0.3213360909999992  0.6949037309999966
  0.9785172939999995  0.3190115390000017  0.0000000009999965
  0.7285171750000003  0.1523447040000008  0.4571594599999997
  0.6011636260000017  0.5713360909999992  0.6949037309999966
  0.3511636260000017  0.1963361500000005  0.8296077250000025
  0.3511636260000017  0.1963361500000005  0.5601997380000014
  0.1011636260000017  0.8213361500000005  0.6949037309999966
  0.8511636260000017  0.4463360909999992  0.8296077250000025
  0.7285172340000017  0.2356781209999994  0.3657275739999974
  0.6011636260000017  0.0713361500000005  0.6949037309999966
  0.3511636260000017  0.6963360909999992  0.8296077250000025
  0.6011635659999968  0.6963360310000013  0.6275517340000007
  0.3511636260000017  0.3213360909999992  0.7622557279999995
  0.2285172939999995  0.9023449419999992  0.0000000009999965
  0.1011636260000017  0.9463360310000013  0.6275517340000007
  0.8511636260000017  0.5713360909999992  0.7622557279999995
  0.6011636260000017  0.1963360310000013  0.8969597219999983
  0.6011636260000017  0.1963361500000005  0.6275517340000007
  0.3511636260000017  0.8213361500000005  0.7622557279999995
  0.1011636260000017  0.4463360909999992  0.8969597219999983
  0.2285171150000025  0.8190113900000000  0.4571594599999997
  0.8511636260000017  0.0713361500000005  0.7622557279999995
  0.7285173539999974  0.2356781960000021  0.0000000000000000
  0.3511636260000017  0.9463360909999992  0.5601997380000014
  0.1011637450000009  0.5713361500000005  0.6949037309999966
  0.8511636260000017  0.1963361500000005  0.8296077250000025
  0.4785172340000017  0.4023446440000029  0.4571594000000019
  0.1011636260000017  0.0713361500000005  0.6949037309999966
  0.8511636260000017  0.6963360909999992  0.8296077250000025
  0.8511636260000017  0.6963360909999992  0.5601997380000014
  0.6011636260000017  0.3213361500000005  0.6949037309999966
  0.3511636260000017  0.9463361500000005  0.8296077250000025
  0.9785170560000012  0.7356780770000029  0.4571594599999997
  0.6011636260000017  0.8213360909999992  0.6949037309999966
  0.3511636260000017  0.4463361500000005  0.8296077250000025
  0.6011636850000031  0.9463360909999992  0.6275517340000007
  0.3511636260000017  0.5713361500000005  0.7622557279999995
  0.7285171750000003  0.5690115089999992  0.1828638020000000
  0.6011636260000017  0.4463360909999992  0.6275517340000007
  0.3511636260000017  0.0713361500000005  0.7622557279999995
  0.1011636260000017  0.6963360909999992  0.8969597219999983
  0.1011636260000017  0.6963360310000013  0.6275517340000007
  0.8511636260000017  0.3213360609999967  0.7622557279999995
  0.4785172939999995  0.7356781960000021  0.0914318929999993
  0.1011636260000017  0.1963361500000005  0.6275517340000007
  0.8511636260000017  0.8213361500000005  0.7622557279999995
  0.4785172939999995  0.6523449419999992  0.0000000000000000
 
  0.00000000E+00  0.00000000E+00  0.00000000E+00
  0.00000000E+00  0.00000000E+00  0.00000000E+00
  0.00000000E+00  0.00000000E+00  0.00000000E+00
  0.00000000E+00  0.00000000E+00  0.00000000E+00
  0.00000000E+00  0.00000000E+00  0.00000000E+00
  0.00000000E+00  0.00000000E+00  0.00000000E+00
  0.00000000E+00  0.00000000E+00  0.00000000E+00
  0.00000000E+00  0.00000000E+00  0.00000000E+00
  0.00000000E+00  0.00000000E+00  0.00000000E+00
  0.00000000E+00  0.00000000E+00  0.00000000E+00
  0.00000000E+00  0.00000000E+00  0.00000000E+00
  0.00000000E+00  0.00000000E+00  0.00000000E+00
  0.00000000E+00  0.00000000E+00  0.00000000E+00
  0.00000000E+00  0.00000000E+00  0.00000000E+00
  0.00000000E+00  0.00000000E+00  0.00000000E+00
  0.00000000E+00  0.00000000E+00  0.00000000E+00
  0.00000000E+00  0.00000000E+00  0.00000000E+00
  0.00000000E+00  0.00000000E+00  0.00000000E+00
  0.00000000E+00  0.00000000E+00  0.00000000E+00
  0.00000000E+00  0.00000000E+00  0.00000000E+00
  0.00000000E+00  0.00000000E+00  0.00000000E+00
  0.00000000E+00  0.00000000E+00  0.00000000E+00
  0.00000000E+00  0.00000000E+00  0.00000000E+00
  0.00000000E+00  0.00000000E+00  0.00000000E+00
  0.00000000E+00  0.00000000E+00  0.00000000E+00
  0.00000000E+00  0.00000000E+00  0.00000000E+00
  0.00000000E+00  0.00000000E+00  0.00000000E+00
  0.00000000E+00  0.00000000E+00  0.00000000E+00
  0.00000000E+00  0.00000000E+00  0.00000000E+00
  0.00000000E+00  0.00000000E+00  0.00000000E+00
  0.00000000E+00  0.00000000E+00  0.00000000E+00
  0.00000000E+00  0.00000000E+00  0.00000000E+00
  0.00000000E+00  0.00000000E+00  0.00000000E+00
  0.00000000E+00  0.00000000E+00  0.00000000E+00
  0.00000000E+00  0.00000000E+00  0.00000000E+00
  0.00000000E+00  0.00000000E+00  0.00000000E+00
  0.00000000E+00  0.00000000E+00  0.00000000E+00
  0.00000000E+00  0.00000000E+00  0.00000000E+00
  0.00000000E+00  0.00000000E+00  0.00000000E+00
  0.00000000E+00  0.00000000E+00  0.00000000E+00
  0.00000000E+00  0.00000000E+00  0.00000000E+00
  0.00000000E+00  0.00000000E+00  0.00000000E+00
  0.00000000E+00  0.00000000E+00  0.00000000E+00
  0.00000000E+00  0.00000000E+00  0.00000000E+00
  0.00000000E+00  0.00000000E+00  0.00000000E+00
  0.00000000E+00  0.00000000E+00  0.00000000E+00
  0.00000000E+00  0.00000000E+00  0.00000000E+00
  0.00000000E+00  0.00000000E+00  0.00000000E+00
  0.00000000E+00  0.00000000E+00  0.00000000E+00
  0.00000000E+00  0.00000000E+00  0.00000000E+00
  0.00000000E+00  0.00000000E+00  0.00000000E+00
  0.00000000E+00  0.00000000E+00  0.00000000E+00
  0.00000000E+00  0.00000000E+00  0.00000000E+00
  0.00000000E+00  0.00000000E+00  0.00000000E+00
  0.00000000E+00  0.00000000E+00  0.00000000E+00
  0.00000000E+00  0.00000000E+00  0.00000000E+00
  0.00000000E+00  0.00000000E+00  0.00000000E+00
  0.00000000E+00  0.00000000E+00  0.00000000E+00
  0.00000000E+00  0.00000000E+00  0.00000000E+00
  0.00000000E+00  0.00000000E+00  0.00000000E+00
  0.00000000E+00  0.00000000E+00  0.00000000E+00
  0.00000000E+00  0.00000000E+00  0.00000000E+00
  0.00000000E+00  0.00000000E+00  0.00000000E+00
  0.00000000E+00  0.00000000E+00  0.00000000E+00
  0.00000000E+00  0.00000000E+00  0.00000000E+00
  0.00000000E+00  0.00000000E+00  0.00000000E+00
  0.00000000E+00  0.00000000E+00  0.00000000E+00
  0.00000000E+00  0.00000000E+00  0.00000000E+00
  0.00000000E+00  0.00000000E+00  0.00000000E+00
  0.00000000E+00  0.00000000E+00  0.00000000E+00
  0.00000000E+00  0.00000000E+00  0.00000000E+00
  0.00000000E+00  0.00000000E+00  0.00000000E+00
  0.00000000E+00  0.00000000E+00  0.00000000E+00
  0.00000000E+00  0.00000000E+00  0.00000000E+00
  0.00000000E+00  0.00000000E+00  0.00000000E+00
  0.00000000E+00  0.00000000E+00  0.00000000E+00
  0.00000000E+00  0.00000000E+00  0.00000000E+00
  0.00000000E+00  0.00000000E+00  0.00000000E+00
  0.00000000E+00  0.00000000E+00  0.00000000E+00
  0.00000000E+00  0.00000000E+00  0.00000000E+00
  0.00000000E+00  0.00000000E+00  0.00000000E+00
  0.00000000E+00  0.00000000E+00  0.00000000E+00
  0.00000000E+00  0.00000000E+00  0.00000000E+00
  0.00000000E+00  0.00000000E+00  0.00000000E+00
  0.00000000E+00  0.00000000E+00  0.00000000E+00
  0.00000000E+00  0.00000000E+00  0.00000000E+00
  0.00000000E+00  0.00000000E+00  0.00000000E+00
  0.00000000E+00  0.00000000E+00  0.00000000E+00
  0.00000000E+00  0.00000000E+00  0.00000000E+00
  0.00000000E+00  0.00000000E+00  0.00000000E+00
  0.00000000E+00  0.00000000E+00  0.00000000E+00
  0.00000000E+00  0.00000000E+00  0.00000000E+00
  0.00000000E+00  0.00000000E+00  0.00000000E+00
  0.00000000E+00  0.00000000E+00  0.00000000E+00
  0.00000000E+00  0.00000000E+00  0.00000000E+00
  0.00000000E+00  0.00000000E+00  0.00000000E+00
  0.00000000E+00  0.00000000E+00  0.00000000E+00
  0.00000000E+00  0.00000000E+00  0.00000000E+00
  0.00000000E+00  0.00000000E+00  0.00000000E+00
  0.00000000E+00  0.00000000E+00  0.00000000E+00
  0.00000000E+00  0.00000000E+00  0.00000000E+00
  0.00000000E+00  0.00000000E+00  0.00000000E+00
  0.00000000E+00  0.00000000E+00  0.00000000E+00
  0.00000000E+00  0.00000000E+00  0.00000000E+00
  0.00000000E+00  0.00000000E+00  0.00000000E+00
  0.00000000E+00  0.00000000E+00  0.00000000E+00
  0.00000000E+00  0.00000000E+00  0.00000000E+00
  0.00000000E+00  0.00000000E+00  0.00000000E+00
  0.00000000E+00  0.00000000E+00  0.00000000E+00
  0.00000000E+00  0.00000000E+00  0.00000000E+00
  0.00000000E+00  0.00000000E+00  0.00000000E+00
  0.00000000E+00  0.00000000E+00  0.00000000E+00
  0.00000000E+00  0.00000000E+00  0.00000000E+00
  0.00000000E+00  0.00000000E+00  0.00000000E+00
  0.00000000E+00  0.00000000E+00  0.00000000E+00
  0.00000000E+00  0.00000000E+00  0.00000000E+00
  0.00000000E+00  0.00000000E+00  0.00000000E+00
  0.00000000E+00  0.00000000E+00  0.00000000E+00
  0.00000000E+00  0.00000000E+00  0.00000000E+00
  0.00000000E+00  0.00000000E+00  0.00000000E+00
