Ge+Ge
    1.000000000
    8.001338005    0.000000000    0.000000000
    4.000669003   12.002006531    0.000000000
    0.000000000    0.000000000   11.413372993
Ge 
48
Direct
    0.660972118    0.660972118    0.000000000
    0.494305372    0.494305462    0.247858346
    0.327638626    0.327638775    0.495716751
    0.327638805    0.327638805    0.000000000
    0.160972089    0.160972148    0.247858346
    0.994305313    0.994305491    0.495716751
    0.994305491    0.994305491    0.000000000
    0.827638805    0.827638865    0.247858346
    0.660971999    0.660972178    0.495716751
    0.410972089    0.660972059    0.123929173
    0.244305372    0.494305402    0.371787578
    0.077638626    0.327638716    0.619645953
    0.744305491    0.994305491    0.123929173
    0.577638686    0.827638865    0.371787578
    0.410971940    0.660972118    0.619645953
    0.077638842    0.327638835    0.123929173
    0.910972118    0.160972148    0.371787578
    0.744305372    0.994305432    0.619645953
    0.827638745    0.327638835    0.000000000
    0.660972059    0.160972178    0.247858346
    0.494305313    0.994305491    0.495716751
    0.160972208    0.660972118    0.000000000
    0.994305491    0.494305491    0.247858346
    0.827638745    0.327638775    0.495716751
    0.494305432    0.994305491    0.000000000
    0.327638716    0.827638865    0.247858346
    0.160971999    0.660972118    0.495716751
    0.910972297    0.660972059    0.123929173
    0.744305491    0.494305402    0.371787578
    0.577638745    0.327638716    0.619645953
    0.577638805    0.327638835    0.123929173
    0.410972029    0.160972148    0.371787578
    0.244305283    0.994305432    0.619645953
    0.244305477    0.994305491    0.123929173
    0.077638723    0.827638865    0.371787578
    0.910971999    0.660972118    0.619645953
    0.179258227    0.719493628    0.706548631
    0.068147063    0.441715837    0.789168119
    0.957035840    0.163938046    0.871787667
    0.679258168    0.719493628    0.706548631
    0.568147004    0.441715717    0.789168119
    0.457035840    0.163938046    0.871787667
    0.873702526    0.830604672    0.747858405
    0.762591362    0.552826881    0.830477893
    0.651480198    0.275048971    0.913097382
    0.373702586    0.830604672    0.747858405
    0.262591422    0.552826881    0.830477893
    0.151480317    0.275048971    0.913097382
