Si+C
    1.000000000
   13.303179741    0.000000000    0.000000000
   -6.651589394   14.873406410    0.000000000
    0.000000000    0.000000000    7.204129696
Si  C  
36     84
Direct
    0.017094348    0.991452813    0.000000000
    0.217094451    0.891452730    0.168571234
    0.417094558    0.791452646    0.337142467
    0.017094348    0.324786127    0.000000000
    0.217094451    0.224786043    0.168571234
    0.417094558    0.124785945    0.337142467
    0.017094348    0.658119500    0.000000000
    0.217094451    0.558119357    0.168571234
    0.417094558    0.458119243    0.337142467
    0.367094278    0.191452786    0.084285446
    0.567094386    0.091452695    0.252856702
    0.767094493    0.991452634    0.421427935
    0.367094278    0.524786055    0.084285446
    0.567094386    0.424786001    0.252856702
    0.767094493    0.324785918    0.421427935
    0.367094278    0.858119428    0.084285446
    0.567094386    0.758119226    0.252856702
    0.767094493    0.658119202    0.421427935
    0.517094374    0.991452813    0.000000004
    0.717094421    0.891452670    0.168571189
    0.917094529    0.791452587    0.337142467
    0.517094374    0.324786127    0.000000004
    0.717094421    0.224786013    0.168571189
    0.917094529    0.124785922    0.337142467
    0.517094374    0.658119380    0.000000004
    0.717094421    0.558119297    0.168571189
    0.917094529    0.458119243    0.337142467
    0.867094278    0.191452801    0.084285453
    0.067094445    0.091452725    0.252856731
    0.267094374    0.991452634    0.421427846
    0.867094278    0.524786115    0.084285453
    0.067094445    0.424786001    0.252856731
    0.267094374    0.324785918    0.421427846
    0.867094278    0.858119488    0.084285453
    0.067094445    0.758119345    0.252856731
    0.267094374    0.658119261    0.421427846
    0.068693399    0.962914050    0.793745637
    0.440121889    0.991485596    0.572327852
    0.754407704    0.977199912    0.683036804
    0.211550474    0.820056856    0.793745756
    0.582978964    0.848628461    0.572327852
    0.897264779    0.834342659    0.683036804
    0.354407668    0.677199781    0.793745637
    0.725836158    0.705771327    0.572327852
    0.040122032    0.691485584    0.683036804
    0.497264862    0.534342647    0.793745637
    0.868693352    0.562914193    0.572327852
    0.182979107    0.548628390    0.683036804
    0.640121937    0.391485512    0.793745637
    0.011550426    0.420057058    0.572327852
    0.325836301    0.405771315    0.683036804
    0.782979131    0.248628348    0.793745637
    0.154407620    0.277199924    0.572327852
    0.468693376    0.262914151    0.683036804
    0.925836325    0.105771184    0.793745637
    0.297264755    0.134342790    0.572327852
    0.611550570    0.120056987    0.683036804
    0.618693352    0.062914133    0.849099874
    0.990121722    0.091485620    0.627682209
    0.304407597    0.077199936    0.738391161
    0.761550426    0.920056880    0.849099994
    0.132978797    0.948628426    0.627682209
    0.447264552    0.934342623    0.738391042
    0.904407740    0.777199805    0.849099994
    0.275836110    0.805771291    0.627682209
    0.590121984    0.791485608    0.738391042
    0.047264814    0.634342730    0.849099994
    0.418693185    0.662914217    0.627682209
    0.732979059    0.648628473    0.738391042
    0.190121770    0.491485536    0.849099994
    0.561550260    0.520057082    0.627682209
    0.875836074    0.505771339    0.738391161
    0.332979083    0.348628342    0.849099994
    0.704407573    0.377199948    0.627682209
    0.018693328    0.362914145    0.738391161
    0.475836277    0.205771267    0.849099994
    0.847264647    0.234342799    0.627682209
    0.161550403    0.220057040    0.738391161
    0.568693519    0.962914050    0.793745756
    0.940121949    0.991485715    0.572327852
    0.254407644    0.977199852    0.683036804
    0.711550713    0.820056856    0.793745756
    0.082979202    0.848628521    0.572327852
    0.397264838    0.834342659    0.683036804
    0.854407907    0.677199721    0.793745756
    0.225836277    0.705771387    0.572327852
    0.540122032    0.691485584    0.683036804
    0.997264922    0.534342706    0.793745756
    0.368693352    0.562914252    0.572327852
    0.682979167    0.548628449    0.683036804
    0.140122056    0.391485453    0.793745637
    0.511550486    0.420057058    0.572327852
    0.825836301    0.405771255    0.683036804
    0.282979131    0.248628348    0.793745637
    0.654407620    0.277199924    0.572327852
    0.968693435    0.262914121    0.683036804
    0.425836325    0.105771184    0.793745637
    0.797264755    0.134342790    0.572327852
    0.111550570    0.120056987    0.683036804
    0.118693352    0.062914133    0.849099994
    0.490121782    0.091485620    0.627682209
    0.804407537    0.077199817    0.738391161
    0.261550426    0.920056999    0.849099994
    0.632978916    0.948628545    0.627682209
    0.947264612    0.934342742    0.738391161
    0.404407620    0.777199805    0.849099874
    0.775836110    0.805771291    0.627682209
    0.090121984    0.791485548    0.738391161
    0.547264814    0.634342611    0.849099994
    0.918693244    0.662914157    0.627682209
    0.232979059    0.648628354    0.738391161
    0.690121889    0.491485536    0.849099994
    0.061550260    0.520057023    0.627682328
    0.375836134    0.505771279    0.738391161
    0.832979202    0.348628372    0.849099994
    0.204407573    0.377199948    0.627682209
    0.518693328    0.362914175    0.738391161
    0.975836277    0.205771282    0.849099874
    0.347264647    0.234342784    0.627682209
    0.661550522    0.220057070    0.738391161
