Si+Ge                                   
   1.00000000000000     
     5.4310002329999998    0.0000000000000000    0.0000000000000000
     0.0000000000000000   17.1743316650000004    0.0000000000000000
     0.0000000000000000    0.0000002760000000   11.3658390049999998
   Si   Ge
    24    36
Direct
  0.1088625419999971  0.9237961769999998  0.0000000000000000
  0.6088625189999988  0.5737960929999986  0.0755524779999988
  0.1088623999999996  0.2237960100000009  0.1511049869999965
  0.6088625189999988  0.8737958669999983  0.2266575100000026
  0.1088626379999980  0.5237957240000028  0.3022100330000015
  0.6088626379999980  0.1737956999999994  0.3777624669999966
  0.8588625789999966  0.1737961919999975  0.0000000120000010
  0.3588625189999988  0.8237960929999986  0.0755525080000012
  0.8588623999999996  0.4737960100000009  0.1511050160000025
  0.3588626379999980  0.1237958669999983  0.2266574800000001
  0.8588623999999996  0.7737957240000028  0.3022100330000015
  0.3588626379999980  0.4237955810000003  0.3777625259999979
  0.1088625419999971  0.4237961769999998  0.0000000249999985
  0.6088625189999988  0.0737960929999986  0.0755525160000019
  0.1088623999999996  0.7237960100000009  0.1511050160000025
  0.6088625189999988  0.3737959270000033  0.2266575250000002
  0.1088626379999980  0.0237957240000028  0.3022100330000015
  0.6088626379999980  0.6737956999999994  0.3777624960000026
  0.8588625789999966  0.6737961769999998  0.0000000389999997
  0.3588625189999988  0.3237960929999986  0.0755525160000019
  0.8588623999999996  0.9737960100000009  0.1511050160000025
  0.3588626379999980  0.6237958669999983  0.2266575550000027
  0.8588623999999996  0.2737957840000007  0.3022100330000015
  0.3588626379999980  0.9237956999999994  0.3777625560000004
  0.0000000000000000  0.9943054909999987  0.3777625560000004
  0.0000000000000000  0.8276388649999973  0.6266574260000013
  0.0000000000000000  0.6609721179999966  0.8755524159999979
  0.0000000000000000  0.3276388350000019  0.3777625560000004
  0.0000000000000000  0.1609721479999990  0.6266574260000013
  0.0000000000000000  0.9943054319999973  0.8755524159999979
  0.0000000000000000  0.6609721179999966  0.3777625560000004
  0.0000000000000000  0.4943054619999998  0.6266574260000013
  0.0000000000000000  0.3276387749999969  0.8755524159999979
  0.2499999850000023  0.0776388419999989  0.5022100210000033
  0.2499999850000023  0.9109721179999966  0.7511049510000021
  0.2499999850000023  0.7443054909999987  0.0000000000000000
  0.2499999850000023  0.4109721179999966  0.5022100210000033
  0.2499999850000023  0.2443054319999973  0.7511049510000021
  0.2499999850000023  0.0776387229999997  0.0000000000000000
  0.2499999850000023  0.7443054909999987  0.5022100210000033
  0.2499999850000023  0.5776387450000016  0.7511049510000021
  0.2499999850000023  0.4109720889999977  0.0000000000000000
  0.4999999699999975  0.1609721629999967  0.3777625560000004
  0.4999999699999975  0.9943054909999987  0.6266574260000013
  0.4999999699999975  0.8276388049999994  0.8755524159999979
  0.4999999699999975  0.4943054619999998  0.3777625560000004
  0.4999999699999975  0.3276387749999969  0.6266574260000013
  0.4999999699999975  0.1609720889999977  0.8755524159999979
  0.4999999699999975  0.8276388649999973  0.3777625560000004
  0.4999999699999975  0.6609721179999966  0.6266574260000013
  0.4999999699999975  0.4943054619999998  0.8755524159999979
  0.7500000000000000  0.2443054769999975  0.5022100210000033
  0.7500000000000000  0.0776387900000017  0.7511049510000021
  0.7500000000000000  0.9109721179999966  0.0000000000000000
  0.7500000000000000  0.5776388649999973  0.5022100210000033
  0.7500000000000000  0.4109721780000015  0.7511049510000021
  0.7500000000000000  0.2443054619999998  0.0000000000000000
  0.7500000000000000  0.9109721780000015  0.5022100210000033
  0.7500000000000000  0.7443054909999987  0.7511049510000021
  0.7500000000000000  0.5776387450000016  0.0000000000000000
 
  0.00000000E+00  0.00000000E+00  0.00000000E+00
  0.00000000E+00  0.00000000E+00  0.00000000E+00
  0.00000000E+00  0.00000000E+00  0.00000000E+00
  0.00000000E+00  0.00000000E+00  0.00000000E+00
  0.00000000E+00  0.00000000E+00  0.00000000E+00
  0.00000000E+00  0.00000000E+00  0.00000000E+00
  0.00000000E+00  0.00000000E+00  0.00000000E+00
  0.00000000E+00  0.00000000E+00  0.00000000E+00
  0.00000000E+00  0.00000000E+00  0.00000000E+00
  0.00000000E+00  0.00000000E+00  0.00000000E+00
  0.00000000E+00  0.00000000E+00  0.00000000E+00
  0.00000000E+00  0.00000000E+00  0.00000000E+00
  0.00000000E+00  0.00000000E+00  0.00000000E+00
  0.00000000E+00  0.00000000E+00  0.00000000E+00
  0.00000000E+00  0.00000000E+00  0.00000000E+00
  0.00000000E+00  0.00000000E+00  0.00000000E+00
  0.00000000E+00  0.00000000E+00  0.00000000E+00
  0.00000000E+00  0.00000000E+00  0.00000000E+00
  0.00000000E+00  0.00000000E+00  0.00000000E+00
  0.00000000E+00  0.00000000E+00  0.00000000E+00
  0.00000000E+00  0.00000000E+00  0.00000000E+00
  0.00000000E+00  0.00000000E+00  0.00000000E+00
  0.00000000E+00  0.00000000E+00  0.00000000E+00
  0.00000000E+00  0.00000000E+00  0.00000000E+00
  0.00000000E+00  0.00000000E+00  0.00000000E+00
  0.00000000E+00  0.00000000E+00  0.00000000E+00
  0.00000000E+00  0.00000000E+00  0.00000000E+00
  0.00000000E+00  0.00000000E+00  0.00000000E+00
  0.00000000E+00  0.00000000E+00  0.00000000E+00
  0.00000000E+00  0.00000000E+00  0.00000000E+00
  0.00000000E+00  0.00000000E+00  0.00000000E+00
  0.00000000E+00  0.00000000E+00  0.00000000E+00
  0.00000000E+00  0.00000000E+00  0.00000000E+00
  0.00000000E+00  0.00000000E+00  0.00000000E+00
  0.00000000E+00  0.00000000E+00  0.00000000E+00
  0.00000000E+00  0.00000000E+00  0.00000000E+00
  0.00000000E+00  0.00000000E+00  0.00000000E+00
  0.00000000E+00  0.00000000E+00  0.00000000E+00
  0.00000000E+00  0.00000000E+00  0.00000000E+00
  0.00000000E+00  0.00000000E+00  0.00000000E+00
  0.00000000E+00  0.00000000E+00  0.00000000E+00
  0.00000000E+00  0.00000000E+00  0.00000000E+00
  0.00000000E+00  0.00000000E+00  0.00000000E+00
  0.00000000E+00  0.00000000E+00  0.00000000E+00
  0.00000000E+00  0.00000000E+00  0.00000000E+00
  0.00000000E+00  0.00000000E+00  0.00000000E+00
  0.00000000E+00  0.00000000E+00  0.00000000E+00
  0.00000000E+00  0.00000000E+00  0.00000000E+00
  0.00000000E+00  0.00000000E+00  0.00000000E+00
  0.00000000E+00  0.00000000E+00  0.00000000E+00
  0.00000000E+00  0.00000000E+00  0.00000000E+00
  0.00000000E+00  0.00000000E+00  0.00000000E+00
  0.00000000E+00  0.00000000E+00  0.00000000E+00
  0.00000000E+00  0.00000000E+00  0.00000000E+00
  0.00000000E+00  0.00000000E+00  0.00000000E+00
  0.00000000E+00  0.00000000E+00  0.00000000E+00
  0.00000000E+00  0.00000000E+00  0.00000000E+00
  0.00000000E+00  0.00000000E+00  0.00000000E+00
  0.00000000E+00  0.00000000E+00  0.00000000E+00
  0.00000000E+00  0.00000000E+00  0.00000000E+00
