Si+C                                    
   1.00000000000000     
    13.3031797409999992    0.0000000000000000    0.0000000000000000
     6.6515893940000002   14.8734064099999994    0.0000000000000000
     0.0000000000000000    0.0000000000000000    7.9947524070000000
   Si   C 
    36    84
Direct
  0.2832494969999999  0.6416247490000018  0.0000000470000003
  0.8165827990000025  0.4082912800000003  0.1519008280000023
  0.3499159810000023  0.1749577670000022  0.3038016559999974
  0.6165827510000028  0.3082913759999997  0.0000000570000012
  0.1499160529999983  0.0749579299999965  0.1519008280000023
  0.6832492349999981  0.8416244390000003  0.3038016260000020
  0.9499161239999978  0.9749580619999989  0.0000000400000033
  0.4832494850000018  0.7416245940000010  0.1519008280000023
  0.0165826679999981  0.5082911249999995  0.3038016260000020
  0.7999162670000004  0.7749580139999992  0.0759502869999977
  0.3332495089999981  0.5416245460000013  0.2278510929999982
  0.8665827510000028  0.3082910780000034  0.3797519510000029
  0.1332496850000027  0.4416247609999999  0.0759503020000025
  0.6665829419999980  0.2082912770000007  0.2278510929999982
  0.1999162440000006  0.9749577640000027  0.3797519510000029
  0.4665828939999983  0.1082915369999995  0.0759503020000025
  0.9999161360000031  0.8749580380000026  0.2278510929999982
  0.5332493780000007  0.6416245699999976  0.3797519510000029
  0.7832495569999978  0.6416247490000018  0.0000000000000000
  0.3165828289999979  0.4082912800000003  0.1519008129999975
  0.8499160410000002  0.1749577819999999  0.3038016559999974
  0.1165827960000030  0.3082914049999985  0.0000000570000012
  0.6499160529999983  0.0749579519999983  0.1519008579999976
  0.1832492950000031  0.8416244980000016  0.3038016559999974
  0.4499161239999978  0.9749580619999989  0.0000000570000012
  0.9832494260000004  0.7416245940000010  0.1519008579999976
  0.5165826679999981  0.5082911249999995  0.3038016559999974
  0.2999161779999966  0.7749581340000020  0.0759503020000025
  0.8332494499999967  0.5416246650000005  0.2278511519999995
  0.3665826920000015  0.3082911970000026  0.3797519210000004
  0.6332494019999970  0.4416247309999974  0.0759503170000002
  0.1665826440000018  0.2082912620000030  0.2278511519999995
  0.6999159459999973  0.9749578240000005  0.3797518909999980
  0.9665827159999978  0.1082915510000007  0.0759503020000025
  0.4999159569999989  0.8749580380000026  0.2278511519999995
  0.0332492590000015  0.6416246289999989  0.3797519510000029
  0.9915816190000015  0.9320497510000010  0.7646964790000013
  0.3344387409999996  0.9606214169999987  0.5651752950000031
  0.6630101800000006  0.9463356139999988  0.6649358869999986
  0.2772958279999997  0.7891926770000026  0.7646964790000013
  0.6201530100000028  0.8177642819999988  0.5651752950000031
  0.9487244489999966  0.8034784789999989  0.6649358869999986
  0.5630100970000029  0.6463355420000028  0.7646964790000013
  0.9058672190000010  0.6749071480000026  0.5651752950000031
  0.2344386729999997  0.6606213450000027  0.6649358869999986
  0.8487244840000017  0.5034784079999994  0.7646964790000013
  0.1915815919999986  0.5320500139999993  0.5651752349999981
  0.5201530459999972  0.5177642109999994  0.6649358869999986
  0.1344387680000025  0.3606212440000007  0.7646964790000013
  0.4772958160000016  0.3891928489999970  0.5651752349999981
  0.8058672550000026  0.3749070759999995  0.6649358869999986
  0.4201530220000009  0.2177641239999986  0.7646964790000013
  0.7630100849999977  0.2463357299999984  0.5651752349999981
  0.0915815979999977  0.2320499570000010  0.6649358869999986
  0.7058674100000033  0.0749070640000014  0.7646965380000026
  0.0487244580000024  0.1034785510000020  0.5651752349999981
  0.3772959109999974  0.0891928670000013  0.6649358869999986
  0.4415814879999971  0.0320497749999973  0.8145766849999987
  0.7844386100000023  0.0606213809999971  0.6150555010000005
  0.1130100640000009  0.0463354589999980  0.7148161530000010
  0.7272957559999966  0.8891926410000011  0.8145766849999987
  0.0701528940000031  0.9177642459999973  0.6150555010000005
  0.3987243179999993  0.9034783840000031  0.7148161530000010
  0.0130100249999998  0.7463355060000012  0.8145768050000015
  0.3558672070000028  0.7749071120000011  0.6150554419999992
  0.6844386459999967  0.7606213090000011  0.7148160930000031
  0.2987244130000022  0.6034784320000028  0.8145766849999987
  0.6415815350000003  0.6320499779999977  0.6150554419999992
  0.9701529149999999  0.6177642350000028  0.7148161530000010
  0.5844388009999975  0.4606213269999984  0.8145768050000015
  0.9272958640000013  0.4891929030000028  0.6150554419999992
  0.2558672429999973  0.4749071299999983  0.7148160930000031
  0.8701529499999978  0.3177641329999972  0.8145768050000015
  0.2130101320000009  0.3463357090000017  0.6150555010000005
  0.5415815710000018  0.3320499060000017  0.7148161530000010
  0.1558673529999979  0.1749069990000010  0.8145766849999987
  0.4987244610000019  0.2034785900000031  0.6150555010000005
  0.8272958399999979  0.1891928020000009  0.7148160930000031
  0.4915815589999966  0.9320498109999988  0.7646964790000013
  0.8344386819999983  0.9606212970000030  0.5651752349999981
  0.1630100160000012  0.9463356139999988  0.6649359459999999
  0.7772960069999968  0.7891926770000026  0.7646965380000026
  0.1201530550000030  0.8177642819999988  0.5651752349999981
  0.4487245079999980  0.8034784789999989  0.6649358869999986
  0.0630103499999990  0.6463355420000028  0.7646965380000026
  0.4058673380000002  0.6749071480000026  0.5651752349999981
  0.7344387770000012  0.6606213450000027  0.6649358869999986
  0.3487244840000017  0.5034784079999994  0.7646965380000026
  0.6915815469999984  0.5320500139999993  0.5651752349999981
  0.0201529409999992  0.5177642109999994  0.6649358869999986
  0.6344386339999986  0.3606213629999999  0.7646965380000026
  0.9772958160000016  0.3891928789999994  0.5651752349999981
  0.3058673139999968  0.3749070759999995  0.6649358869999986
  0.9201530810000023  0.2177641390000034  0.7646965380000026
  0.2630101439999990  0.2463357000000030  0.5651752950000031
  0.5915816429999978  0.2320499120000008  0.6649358869999986
  0.2058673049999982  0.0749070640000014  0.7646965380000026
  0.5487243529999972  0.1034786700000012  0.5651752950000031
  0.8772958520000032  0.0891928670000013  0.6649358869999986
  0.9415815469999984  0.0320498939999965  0.8145766849999987
  0.2844386700000001  0.0606215000000034  0.6150555010000005
  0.6130100490000032  0.0463355779999972  0.7148160930000031
  0.2272958900000006  0.8891927000000024  0.8145766849999987
  0.5701529979999975  0.9177643060000023  0.6150555010000005
  0.8987243770000006  0.9034784440000010  0.7148160930000031
  0.5130101439999990  0.7463355060000012  0.8145766849999987
  0.8558673260000020  0.7749071120000011  0.6150555010000005
  0.1844388399999985  0.7606212499999998  0.7148160930000031
  0.7987242940000030  0.6034784320000028  0.8145766259999974
  0.1415815499999979  0.6320499179999999  0.6150554419999992
  0.4701529740000012  0.6177641749999978  0.7148160930000031
  0.0844388160000022  0.4606212679999970  0.8145766849999987
  0.4272959830000005  0.4891928429999979  0.6150554419999992
  0.7558673620000036  0.4749070700000004  0.7148160930000031
  0.3701528309999986  0.3177641030000018  0.8145766849999987
  0.7130100130000017  0.3463357090000017  0.6150554419999992
  0.0415814070000025  0.3320499060000017  0.7148160930000031
  0.6558672190000010  0.1749070580000023  0.8145766849999987
  0.9987244610000019  0.2034785749999983  0.6150555010000005
  0.3272957800000000  0.1891928020000009  0.7148161530000010
 
  0.00000000E+00  0.00000000E+00  0.00000000E+00
  0.00000000E+00  0.00000000E+00  0.00000000E+00
  0.00000000E+00  0.00000000E+00  0.00000000E+00
  0.00000000E+00  0.00000000E+00  0.00000000E+00
  0.00000000E+00  0.00000000E+00  0.00000000E+00
  0.00000000E+00  0.00000000E+00  0.00000000E+00
  0.00000000E+00  0.00000000E+00  0.00000000E+00
  0.00000000E+00  0.00000000E+00  0.00000000E+00
  0.00000000E+00  0.00000000E+00  0.00000000E+00
  0.00000000E+00  0.00000000E+00  0.00000000E+00
  0.00000000E+00  0.00000000E+00  0.00000000E+00
  0.00000000E+00  0.00000000E+00  0.00000000E+00
  0.00000000E+00  0.00000000E+00  0.00000000E+00
  0.00000000E+00  0.00000000E+00  0.00000000E+00
  0.00000000E+00  0.00000000E+00  0.00000000E+00
  0.00000000E+00  0.00000000E+00  0.00000000E+00
  0.00000000E+00  0.00000000E+00  0.00000000E+00
  0.00000000E+00  0.00000000E+00  0.00000000E+00
  0.00000000E+00  0.00000000E+00  0.00000000E+00
  0.00000000E+00  0.00000000E+00  0.00000000E+00
  0.00000000E+00  0.00000000E+00  0.00000000E+00
  0.00000000E+00  0.00000000E+00  0.00000000E+00
  0.00000000E+00  0.00000000E+00  0.00000000E+00
  0.00000000E+00  0.00000000E+00  0.00000000E+00
  0.00000000E+00  0.00000000E+00  0.00000000E+00
  0.00000000E+00  0.00000000E+00  0.00000000E+00
  0.00000000E+00  0.00000000E+00  0.00000000E+00
  0.00000000E+00  0.00000000E+00  0.00000000E+00
  0.00000000E+00  0.00000000E+00  0.00000000E+00
  0.00000000E+00  0.00000000E+00  0.00000000E+00
  0.00000000E+00  0.00000000E+00  0.00000000E+00
  0.00000000E+00  0.00000000E+00  0.00000000E+00
  0.00000000E+00  0.00000000E+00  0.00000000E+00
  0.00000000E+00  0.00000000E+00  0.00000000E+00
  0.00000000E+00  0.00000000E+00  0.00000000E+00
  0.00000000E+00  0.00000000E+00  0.00000000E+00
  0.00000000E+00  0.00000000E+00  0.00000000E+00
  0.00000000E+00  0.00000000E+00  0.00000000E+00
  0.00000000E+00  0.00000000E+00  0.00000000E+00
  0.00000000E+00  0.00000000E+00  0.00000000E+00
  0.00000000E+00  0.00000000E+00  0.00000000E+00
  0.00000000E+00  0.00000000E+00  0.00000000E+00
  0.00000000E+00  0.00000000E+00  0.00000000E+00
  0.00000000E+00  0.00000000E+00  0.00000000E+00
  0.00000000E+00  0.00000000E+00  0.00000000E+00
  0.00000000E+00  0.00000000E+00  0.00000000E+00
  0.00000000E+00  0.00000000E+00  0.00000000E+00
  0.00000000E+00  0.00000000E+00  0.00000000E+00
  0.00000000E+00  0.00000000E+00  0.00000000E+00
  0.00000000E+00  0.00000000E+00  0.00000000E+00
  0.00000000E+00  0.00000000E+00  0.00000000E+00
  0.00000000E+00  0.00000000E+00  0.00000000E+00
  0.00000000E+00  0.00000000E+00  0.00000000E+00
  0.00000000E+00  0.00000000E+00  0.00000000E+00
  0.00000000E+00  0.00000000E+00  0.00000000E+00
  0.00000000E+00  0.00000000E+00  0.00000000E+00
  0.00000000E+00  0.00000000E+00  0.00000000E+00
  0.00000000E+00  0.00000000E+00  0.00000000E+00
  0.00000000E+00  0.00000000E+00  0.00000000E+00
  0.00000000E+00  0.00000000E+00  0.00000000E+00
  0.00000000E+00  0.00000000E+00  0.00000000E+00
  0.00000000E+00  0.00000000E+00  0.00000000E+00
  0.00000000E+00  0.00000000E+00  0.00000000E+00
  0.00000000E+00  0.00000000E+00  0.00000000E+00
  0.00000000E+00  0.00000000E+00  0.00000000E+00
  0.00000000E+00  0.00000000E+00  0.00000000E+00
  0.00000000E+00  0.00000000E+00  0.00000000E+00
  0.00000000E+00  0.00000000E+00  0.00000000E+00
  0.00000000E+00  0.00000000E+00  0.00000000E+00
  0.00000000E+00  0.00000000E+00  0.00000000E+00
  0.00000000E+00  0.00000000E+00  0.00000000E+00
  0.00000000E+00  0.00000000E+00  0.00000000E+00
  0.00000000E+00  0.00000000E+00  0.00000000E+00
  0.00000000E+00  0.00000000E+00  0.00000000E+00
  0.00000000E+00  0.00000000E+00  0.00000000E+00
  0.00000000E+00  0.00000000E+00  0.00000000E+00
  0.00000000E+00  0.00000000E+00  0.00000000E+00
  0.00000000E+00  0.00000000E+00  0.00000000E+00
  0.00000000E+00  0.00000000E+00  0.00000000E+00
  0.00000000E+00  0.00000000E+00  0.00000000E+00
  0.00000000E+00  0.00000000E+00  0.00000000E+00
  0.00000000E+00  0.00000000E+00  0.00000000E+00
  0.00000000E+00  0.00000000E+00  0.00000000E+00
  0.00000000E+00  0.00000000E+00  0.00000000E+00
  0.00000000E+00  0.00000000E+00  0.00000000E+00
  0.00000000E+00  0.00000000E+00  0.00000000E+00
  0.00000000E+00  0.00000000E+00  0.00000000E+00
  0.00000000E+00  0.00000000E+00  0.00000000E+00
  0.00000000E+00  0.00000000E+00  0.00000000E+00
  0.00000000E+00  0.00000000E+00  0.00000000E+00
  0.00000000E+00  0.00000000E+00  0.00000000E+00
  0.00000000E+00  0.00000000E+00  0.00000000E+00
  0.00000000E+00  0.00000000E+00  0.00000000E+00
  0.00000000E+00  0.00000000E+00  0.00000000E+00
  0.00000000E+00  0.00000000E+00  0.00000000E+00
  0.00000000E+00  0.00000000E+00  0.00000000E+00
  0.00000000E+00  0.00000000E+00  0.00000000E+00
  0.00000000E+00  0.00000000E+00  0.00000000E+00
  0.00000000E+00  0.00000000E+00  0.00000000E+00
  0.00000000E+00  0.00000000E+00  0.00000000E+00
  0.00000000E+00  0.00000000E+00  0.00000000E+00
  0.00000000E+00  0.00000000E+00  0.00000000E+00
  0.00000000E+00  0.00000000E+00  0.00000000E+00
  0.00000000E+00  0.00000000E+00  0.00000000E+00
  0.00000000E+00  0.00000000E+00  0.00000000E+00
  0.00000000E+00  0.00000000E+00  0.00000000E+00
  0.00000000E+00  0.00000000E+00  0.00000000E+00
  0.00000000E+00  0.00000000E+00  0.00000000E+00
  0.00000000E+00  0.00000000E+00  0.00000000E+00
  0.00000000E+00  0.00000000E+00  0.00000000E+00
  0.00000000E+00  0.00000000E+00  0.00000000E+00
  0.00000000E+00  0.00000000E+00  0.00000000E+00
  0.00000000E+00  0.00000000E+00  0.00000000E+00
  0.00000000E+00  0.00000000E+00  0.00000000E+00
  0.00000000E+00  0.00000000E+00  0.00000000E+00
  0.00000000E+00  0.00000000E+00  0.00000000E+00
  0.00000000E+00  0.00000000E+00  0.00000000E+00
  0.00000000E+00  0.00000000E+00  0.00000000E+00
  0.00000000E+00  0.00000000E+00  0.00000000E+00
  0.00000000E+00  0.00000000E+00  0.00000000E+00
