Si+Ge                                   
   1.00000000000000     
    16.2930011750000006    0.0000000000000000    0.0000000000000000
     0.0000000000000000   17.1743297579999989    0.0000000000000000
     0.0000000000000000    0.0000004390000000   18.0725288390000003
   Si   Ge
    72   144
Direct
  0.1303789019999968  0.8262046580000018  0.2375754709999995
  0.9637124540000030  0.0762039119999969  0.0000000329999992
  0.7970457079999989  0.4262040260000006  0.0475151199999999
  0.6303790810000010  0.7762041690000032  0.0950301889999992
  0.4637122749999989  0.1262044910000029  0.1425452980000017
  0.2970455290000018  0.4762046339999984  0.1900603919999995
  0.4637122749999989  0.8262046580000018  0.2375754709999995
  0.2970457970000027  0.0762039119999969  0.0000000329999992
  0.1303790810000010  0.4262040260000006  0.0475151199999999
  0.9637123939999981  0.7762041690000032  0.0950301889999992
  0.7970455880000031  0.1262044910000029  0.1425452980000017
  0.6303788419999989  0.4762046339999984  0.1900603919999995
  0.7970455880000031  0.8262046580000018  0.2375754709999995
  0.6303791400000023  0.0762039119999969  0.0000000329999992
  0.4637124240000006  0.4262040260000006  0.0475151199999999
  0.2970457670000002  0.7762041690000032  0.0950301889999992
  0.1303789760000029  0.1262044910000029  0.1425452980000017
  0.9637122150000010  0.4762046339999984  0.1900603919999995
  0.2137122150000010  0.5762047770000009  0.2375754270000030
  0.0470457670000002  0.8262040019999972  0.0000000000000000
  0.8803790810000010  0.1762042049999977  0.0475151090000026
  0.7137123349999968  0.5262044669999995  0.0950301589999967
  0.5470455880000031  0.8762046100000020  0.1425452679999992
  0.3803789620000018  0.2262046339999984  0.1900603320000016
  0.5470455880000031  0.5762047770000009  0.2375754270000030
  0.3803790810000010  0.8262040019999972  0.0000000000000000
  0.2137123790000004  0.1762042049999977  0.0475151090000026
  0.0470456930000012  0.5262044669999995  0.0950301589999967
  0.8803789620000018  0.8762046100000020  0.1425452679999992
  0.7137123349999968  0.2262046339999984  0.1900603320000016
  0.8803789019999968  0.5762047770000009  0.2375754270000030
  0.7137123939999981  0.8262040019999972  0.0000000000000000
  0.5470457079999989  0.1762042049999977  0.0475151090000026
  0.3803789910000006  0.5262044669999995  0.0950301589999967
  0.2137122299999987  0.8762046100000020  0.1425452679999992
  0.0470455809999990  0.2262046339999984  0.1900603320000016
  0.1303789019999968  0.3262047770000009  0.2375754709999995
  0.9637123939999981  0.5762040019999972  0.0000000129999975
  0.7970457079999989  0.9262041449999998  0.0475150939999978
  0.6303790210000031  0.2762042279999974  0.0950301589999967
  0.4637122749999989  0.6262044910000029  0.1425452980000017
  0.2970456480000010  0.9762046339999984  0.1900603320000016
  0.4637122749999989  0.3262047770000009  0.2375754709999995
  0.2970457670000002  0.5762040019999972  0.0000000129999975
  0.1303790509999985  0.9262041449999998  0.0475150939999978
  0.9637123939999981  0.2762042279999974  0.0950301589999967
  0.7970455880000031  0.6262044910000029  0.1425452980000017
  0.6303789620000018  0.9762046339999984  0.1900603320000016
  0.7970455880000031  0.3262047770000009  0.2375754709999995
  0.6303791400000023  0.5762040019999972  0.0000000129999975
  0.4637123939999981  0.9262041449999998  0.0475150939999978
  0.2970457380000013  0.2762042279999974  0.0950301589999967
  0.1303789760000029  0.6262044910000029  0.1425452980000017
  0.9637123349999968  0.9762046339999984  0.1900603320000016
  0.2137122150000010  0.0762047770000009  0.2375754119999982
  0.0470457670000002  0.3262039119999969  0.0000000329999992
  0.8803790810000010  0.6762040260000006  0.0475150979999981
  0.7137123939999981  0.0262042279999974  0.0950301660000008
  0.5470455880000031  0.3762044910000029  0.1425452679999992
  0.3803788419999989  0.7262047529999975  0.1900603320000016
  0.5470455880000031  0.0762047770000009  0.2375754119999982
  0.3803791110000034  0.3262039119999969  0.0000000329999992
  0.2137124090000029  0.6762040260000006  0.0475150979999981
  0.0470457260000003  0.0262042279999974  0.0950301660000008
  0.8803789620000018  0.3762044910000029  0.1425452679999992
  0.7137122150000010  0.7262047529999975  0.1900603320000016
  0.8803789620000018  0.0762047770000009  0.2375754119999982
  0.7137124540000030  0.3262039119999969  0.0000000329999992
  0.5470457670000002  0.6762040260000006  0.0475150979999981
  0.3803790810000010  0.0262042279999974  0.0950301660000008
  0.2137122899999966  0.3762044910000029  0.1425452679999992
  0.0470455399999992  0.7262047529999975  0.1900603320000016
  0.4464793209999982  0.8342055079999966  0.3420784770000012
  0.3214793209999982  0.6675388809999987  0.4527621570000022
  0.1964793209999982  0.5008721350000016  0.5634459260000000
  0.0714793209999982  0.3342053889999974  0.6741295460000032
  0.9464794399999974  0.1675387619999995  0.7848132250000006
  0.8214793209999982  0.0008721350000016  0.8954970240000009
  0.4464793209999982  0.1675388809999987  0.3420784770000012
  0.3214793209999982  0.0008721350000016  0.4527621570000022
  0.1964793209999982  0.8342053889999974  0.5634459260000000
  0.0714793209999982  0.6675387619999995  0.6741295460000032
  0.9464794399999974  0.5008721350000016  0.7848132250000006
  0.8214793209999982  0.3342053889999974  0.8954970240000009
  0.4464793209999982  0.5008721350000016  0.3420784770000012
  0.3214793209999982  0.3342055079999966  0.4527621570000022
  0.1964793209999982  0.1675387619999995  0.5634459260000000
  0.0714793209999982  0.0008721350000016  0.6741295460000032
  0.9464794399999974  0.8342053889999974  0.7848132250000006
  0.8214793209999982  0.6675387619999995  0.8954970240000009
  0.9464793209999982  0.8342055079999966  0.3420784770000012
  0.8214793209999982  0.6675388809999987  0.4527621869999976
  0.6964793209999982  0.5008721350000016  0.5634459260000000
  0.5714793209999982  0.3342053889999974  0.6741296049999974
  0.4464793209999982  0.1675387619999995  0.7848132250000006
  0.3214793209999982  0.0008721350000016  0.8954969050000017
  0.9464793209999982  0.1675388809999987  0.3420784770000012
  0.8214793209999982  0.0008721350000016  0.4527621869999976
  0.6964793209999982  0.8342053889999974  0.5634459260000000
  0.5714793209999982  0.6675387619999995  0.6741296049999974
  0.4464793209999982  0.5008721350000016  0.7848132250000006
  0.3214793209999982  0.3342053889999974  0.8954969050000017
  0.9464793209999982  0.5008721350000016  0.3420784770000012
  0.8214793209999982  0.3342055079999966  0.4527621869999976
  0.6964793209999982  0.1675387619999995  0.5634459260000000
  0.5714793209999982  0.0008721350000016  0.6741296049999974
  0.4464793209999982  0.8342053889999974  0.7848132250000006
  0.3214793209999982  0.6675387619999995  0.8954969050000017
  0.6964793209999982  0.8342055079999966  0.3420784770000012
  0.5714793209999982  0.6675388809999987  0.4527621869999976
  0.4464793209999982  0.5008721350000016  0.5634459260000000
  0.3214793209999982  0.3342053889999974  0.6741296049999974
  0.1964793209999982  0.1675387619999995  0.7848132250000006
  0.0714793209999982  0.0008721350000016  0.8954970240000009
  0.6964793209999982  0.1675388809999987  0.3420784770000012
  0.5714793209999982  0.0008721350000016  0.4527621869999976
  0.4464793209999982  0.8342053889999974  0.5634459260000000
  0.3214793209999982  0.6675387619999995  0.6741296049999974
  0.1964793209999982  0.5008721350000016  0.7848132250000006
  0.0714793209999982  0.3342053889999974  0.8954970240000009
  0.6964793209999982  0.5008721350000016  0.3420784770000012
  0.5714793209999982  0.3342055079999966  0.4527621869999976
  0.4464793209999982  0.1675387619999995  0.5634459260000000
  0.3214793209999982  0.0008721350000016  0.6741296049999974
  0.1964793209999982  0.8342053889999974  0.7848132250000006
  0.0714793209999982  0.6675387619999995  0.8954970240000009
  0.1964793209999982  0.8342055079999966  0.3420784469999987
  0.0714793209999982  0.6675388809999987  0.4527621869999976
  0.9464793209999982  0.5008721350000016  0.5634458660000021
  0.8214793209999982  0.3342053889999974  0.6741296049999974
  0.6964793799999995  0.1675387619999995  0.7848132250000006
  0.5714793209999982  0.0008721350000016  0.8954969050000017
  0.1964793209999982  0.1675388809999987  0.3420784469999987
  0.0714793209999982  0.0008721350000016  0.4527621869999976
  0.9464793209999982  0.8342053889999974  0.5634458660000021
  0.8214793209999982  0.6675387619999995  0.6741296049999974
  0.6964793799999995  0.5008721350000016  0.7848132250000006
  0.5714793209999982  0.3342053889999974  0.8954969050000017
  0.1964793209999982  0.5008721350000016  0.3420784469999987
  0.0714793209999982  0.3342055079999966  0.4527621869999976
  0.9464793209999982  0.1675387619999995  0.5634458660000021
  0.8214793209999982  0.0008721350000016  0.6741296049999974
  0.6964793799999995  0.8342053889999974  0.7848132250000006
  0.5714793209999982  0.6675387619999995  0.8954969050000017
  0.8214793209999982  0.0842055079999966  0.3420784469999987
  0.6964793209999982  0.9175388219999974  0.4527621570000022
  0.5714793209999982  0.7508721350000016  0.5634458660000021
  0.4464793209999982  0.5842053889999974  0.6741296049999974
  0.3214793209999982  0.4175387619999995  0.7848132250000006
  0.1964793209999982  0.2508721350000016  0.8954970240000009
  0.8214793209999982  0.4175388809999987  0.3420784469999987
  0.6964793209999982  0.2508721350000016  0.4527621570000022
  0.5714793209999982  0.0842055079999966  0.5634458660000021
  0.4464793209999982  0.9175388219999974  0.6741296049999974
  0.3214793209999982  0.7508721350000016  0.7848132250000006
  0.1964793209999982  0.5842053889999974  0.8954970240000009
  0.8214793209999982  0.7508721350000016  0.3420784469999987
  0.6964793209999982  0.5842055079999966  0.4527621570000022
  0.5714793209999982  0.4175387619999995  0.5634458660000021
  0.4464793209999982  0.2508721350000016  0.6741296049999974
  0.3214793209999982  0.0842055079999966  0.7848132250000006
  0.1964793209999982  0.9175387619999995  0.8954970240000009
  0.3214794399999974  0.0842055079999966  0.3420784469999987
  0.1964794399999974  0.9175388219999974  0.4527621570000022
  0.0714794399999974  0.7508721350000016  0.5634458660000021
  0.9464794399999974  0.5842053889999974  0.6741295460000032
  0.8214794399999974  0.4175387619999995  0.7848132250000006
  0.6964794399999974  0.2508721350000016  0.8954969050000017
  0.3214794399999974  0.4175388809999987  0.3420784469999987
  0.1964794399999974  0.2508721350000016  0.4527621570000022
  0.0714794399999974  0.0842055079999966  0.5634458660000021
  0.9464794399999974  0.9175388219999974  0.6741295460000032
  0.8214794399999974  0.7508721350000016  0.7848132250000006
  0.6964794399999974  0.5842053889999974  0.8954969050000017
  0.3214794399999974  0.7508721350000016  0.3420784469999987
  0.1964794399999974  0.5842055079999966  0.4527621570000022
  0.0714794399999974  0.4175387619999995  0.5634458660000021
  0.9464794399999974  0.2508721350000016  0.6741295460000032
  0.8214794399999974  0.0842055079999966  0.7848132250000006
  0.6964794399999974  0.9175387619999995  0.8954969050000017
  0.5714793209999982  0.0842055079999966  0.3420784770000012
  0.4464793209999982  0.9175388219999974  0.4527621869999976
  0.3214793209999982  0.7508721350000016  0.5634458660000021
  0.1964793209999982  0.5842053889999974  0.6741296049999974
  0.0714793209999982  0.4175387619999995  0.7848132250000006
  0.9464793209999982  0.2508721350000016  0.8954969050000017
  0.5714793209999982  0.4175388809999987  0.3420784770000012
  0.4464793209999982  0.2508721350000016  0.4527621869999976
  0.3214793209999982  0.0842055079999966  0.5634458660000021
  0.1964793209999982  0.9175388219999974  0.6741296049999974
  0.0714793209999982  0.7508721350000016  0.7848132250000006
  0.9464793209999982  0.5842053889999974  0.8954969050000017
  0.5714793209999982  0.7508721350000016  0.3420784770000012
  0.4464793209999982  0.5842055079999966  0.4527621869999976
  0.3214793209999982  0.4175387619999995  0.5634458660000021
  0.1964793209999982  0.2508721350000016  0.6741296049999974
  0.0714793209999982  0.0842055079999966  0.7848132250000006
  0.9464793209999982  0.9175387619999995  0.8954969050000017
  0.0714793209999982  0.0842055079999966  0.3420784469999987
  0.9464793209999982  0.9175388219999974  0.4527621869999976
  0.8214793209999982  0.7508721350000016  0.5634458660000021
  0.6964793209999982  0.5842053889999974  0.6741296049999974
  0.5714793799999995  0.4175387619999995  0.7848132250000006
  0.4464793209999982  0.2508721350000016  0.8954969050000017
  0.0714793209999982  0.4175388809999987  0.3420784469999987
  0.9464793209999982  0.2508721350000016  0.4527621869999976
  0.8214793209999982  0.0842055079999966  0.5634458660000021
  0.6964793209999982  0.9175388219999974  0.6741296049999974
  0.5714793799999995  0.7508721350000016  0.7848132250000006
  0.4464793209999982  0.5842053889999974  0.8954969050000017
  0.0714793209999982  0.7508721350000016  0.3420784469999987
  0.9464793209999982  0.5842055079999966  0.4527621869999976
  0.8214793209999982  0.4175387619999995  0.5634458660000021
  0.6964793209999982  0.2508721350000016  0.6741296049999974
  0.5714793799999995  0.0842055079999966  0.7848132250000006
  0.4464793209999982  0.9175387619999995  0.8954969050000017
 
  0.00000000E+00  0.00000000E+00  0.00000000E+00
  0.00000000E+00  0.00000000E+00  0.00000000E+00
  0.00000000E+00  0.00000000E+00  0.00000000E+00
  0.00000000E+00  0.00000000E+00  0.00000000E+00
  0.00000000E+00  0.00000000E+00  0.00000000E+00
  0.00000000E+00  0.00000000E+00  0.00000000E+00
  0.00000000E+00  0.00000000E+00  0.00000000E+00
  0.00000000E+00  0.00000000E+00  0.00000000E+00
  0.00000000E+00  0.00000000E+00  0.00000000E+00
  0.00000000E+00  0.00000000E+00  0.00000000E+00
  0.00000000E+00  0.00000000E+00  0.00000000E+00
  0.00000000E+00  0.00000000E+00  0.00000000E+00
  0.00000000E+00  0.00000000E+00  0.00000000E+00
  0.00000000E+00  0.00000000E+00  0.00000000E+00
  0.00000000E+00  0.00000000E+00  0.00000000E+00
  0.00000000E+00  0.00000000E+00  0.00000000E+00
  0.00000000E+00  0.00000000E+00  0.00000000E+00
  0.00000000E+00  0.00000000E+00  0.00000000E+00
  0.00000000E+00  0.00000000E+00  0.00000000E+00
  0.00000000E+00  0.00000000E+00  0.00000000E+00
  0.00000000E+00  0.00000000E+00  0.00000000E+00
  0.00000000E+00  0.00000000E+00  0.00000000E+00
  0.00000000E+00  0.00000000E+00  0.00000000E+00
  0.00000000E+00  0.00000000E+00  0.00000000E+00
  0.00000000E+00  0.00000000E+00  0.00000000E+00
  0.00000000E+00  0.00000000E+00  0.00000000E+00
  0.00000000E+00  0.00000000E+00  0.00000000E+00
  0.00000000E+00  0.00000000E+00  0.00000000E+00
  0.00000000E+00  0.00000000E+00  0.00000000E+00
  0.00000000E+00  0.00000000E+00  0.00000000E+00
  0.00000000E+00  0.00000000E+00  0.00000000E+00
  0.00000000E+00  0.00000000E+00  0.00000000E+00
  0.00000000E+00  0.00000000E+00  0.00000000E+00
  0.00000000E+00  0.00000000E+00  0.00000000E+00
  0.00000000E+00  0.00000000E+00  0.00000000E+00
  0.00000000E+00  0.00000000E+00  0.00000000E+00
  0.00000000E+00  0.00000000E+00  0.00000000E+00
  0.00000000E+00  0.00000000E+00  0.00000000E+00
  0.00000000E+00  0.00000000E+00  0.00000000E+00
  0.00000000E+00  0.00000000E+00  0.00000000E+00
  0.00000000E+00  0.00000000E+00  0.00000000E+00
  0.00000000E+00  0.00000000E+00  0.00000000E+00
  0.00000000E+00  0.00000000E+00  0.00000000E+00
  0.00000000E+00  0.00000000E+00  0.00000000E+00
  0.00000000E+00  0.00000000E+00  0.00000000E+00
  0.00000000E+00  0.00000000E+00  0.00000000E+00
  0.00000000E+00  0.00000000E+00  0.00000000E+00
  0.00000000E+00  0.00000000E+00  0.00000000E+00
  0.00000000E+00  0.00000000E+00  0.00000000E+00
  0.00000000E+00  0.00000000E+00  0.00000000E+00
  0.00000000E+00  0.00000000E+00  0.00000000E+00
  0.00000000E+00  0.00000000E+00  0.00000000E+00
  0.00000000E+00  0.00000000E+00  0.00000000E+00
  0.00000000E+00  0.00000000E+00  0.00000000E+00
  0.00000000E+00  0.00000000E+00  0.00000000E+00
  0.00000000E+00  0.00000000E+00  0.00000000E+00
  0.00000000E+00  0.00000000E+00  0.00000000E+00
  0.00000000E+00  0.00000000E+00  0.00000000E+00
  0.00000000E+00  0.00000000E+00  0.00000000E+00
  0.00000000E+00  0.00000000E+00  0.00000000E+00
  0.00000000E+00  0.00000000E+00  0.00000000E+00
  0.00000000E+00  0.00000000E+00  0.00000000E+00
  0.00000000E+00  0.00000000E+00  0.00000000E+00
  0.00000000E+00  0.00000000E+00  0.00000000E+00
  0.00000000E+00  0.00000000E+00  0.00000000E+00
  0.00000000E+00  0.00000000E+00  0.00000000E+00
  0.00000000E+00  0.00000000E+00  0.00000000E+00
  0.00000000E+00  0.00000000E+00  0.00000000E+00
  0.00000000E+00  0.00000000E+00  0.00000000E+00
  0.00000000E+00  0.00000000E+00  0.00000000E+00
  0.00000000E+00  0.00000000E+00  0.00000000E+00
  0.00000000E+00  0.00000000E+00  0.00000000E+00
  0.00000000E+00  0.00000000E+00  0.00000000E+00
  0.00000000E+00  0.00000000E+00  0.00000000E+00
  0.00000000E+00  0.00000000E+00  0.00000000E+00
  0.00000000E+00  0.00000000E+00  0.00000000E+00
  0.00000000E+00  0.00000000E+00  0.00000000E+00
  0.00000000E+00  0.00000000E+00  0.00000000E+00
  0.00000000E+00  0.00000000E+00  0.00000000E+00
  0.00000000E+00  0.00000000E+00  0.00000000E+00
  0.00000000E+00  0.00000000E+00  0.00000000E+00
  0.00000000E+00  0.00000000E+00  0.00000000E+00
  0.00000000E+00  0.00000000E+00  0.00000000E+00
  0.00000000E+00  0.00000000E+00  0.00000000E+00
  0.00000000E+00  0.00000000E+00  0.00000000E+00
  0.00000000E+00  0.00000000E+00  0.00000000E+00
  0.00000000E+00  0.00000000E+00  0.00000000E+00
  0.00000000E+00  0.00000000E+00  0.00000000E+00
  0.00000000E+00  0.00000000E+00  0.00000000E+00
  0.00000000E+00  0.00000000E+00  0.00000000E+00
  0.00000000E+00  0.00000000E+00  0.00000000E+00
  0.00000000E+00  0.00000000E+00  0.00000000E+00
  0.00000000E+00  0.00000000E+00  0.00000000E+00
  0.00000000E+00  0.00000000E+00  0.00000000E+00
  0.00000000E+00  0.00000000E+00  0.00000000E+00
  0.00000000E+00  0.00000000E+00  0.00000000E+00
  0.00000000E+00  0.00000000E+00  0.00000000E+00
  0.00000000E+00  0.00000000E+00  0.00000000E+00
  0.00000000E+00  0.00000000E+00  0.00000000E+00
  0.00000000E+00  0.00000000E+00  0.00000000E+00
  0.00000000E+00  0.00000000E+00  0.00000000E+00
  0.00000000E+00  0.00000000E+00  0.00000000E+00
  0.00000000E+00  0.00000000E+00  0.00000000E+00
  0.00000000E+00  0.00000000E+00  0.00000000E+00
  0.00000000E+00  0.00000000E+00  0.00000000E+00
  0.00000000E+00  0.00000000E+00  0.00000000E+00
  0.00000000E+00  0.00000000E+00  0.00000000E+00
  0.00000000E+00  0.00000000E+00  0.00000000E+00
  0.00000000E+00  0.00000000E+00  0.00000000E+00
  0.00000000E+00  0.00000000E+00  0.00000000E+00
  0.00000000E+00  0.00000000E+00  0.00000000E+00
  0.00000000E+00  0.00000000E+00  0.00000000E+00
  0.00000000E+00  0.00000000E+00  0.00000000E+00
  0.00000000E+00  0.00000000E+00  0.00000000E+00
  0.00000000E+00  0.00000000E+00  0.00000000E+00
  0.00000000E+00  0.00000000E+00  0.00000000E+00
  0.00000000E+00  0.00000000E+00  0.00000000E+00
  0.00000000E+00  0.00000000E+00  0.00000000E+00
  0.00000000E+00  0.00000000E+00  0.00000000E+00
  0.00000000E+00  0.00000000E+00  0.00000000E+00
  0.00000000E+00  0.00000000E+00  0.00000000E+00
  0.00000000E+00  0.00000000E+00  0.00000000E+00
  0.00000000E+00  0.00000000E+00  0.00000000E+00
  0.00000000E+00  0.00000000E+00  0.00000000E+00
  0.00000000E+00  0.00000000E+00  0.00000000E+00
  0.00000000E+00  0.00000000E+00  0.00000000E+00
  0.00000000E+00  0.00000000E+00  0.00000000E+00
  0.00000000E+00  0.00000000E+00  0.00000000E+00
  0.00000000E+00  0.00000000E+00  0.00000000E+00
  0.00000000E+00  0.00000000E+00  0.00000000E+00
  0.00000000E+00  0.00000000E+00  0.00000000E+00
  0.00000000E+00  0.00000000E+00  0.00000000E+00
  0.00000000E+00  0.00000000E+00  0.00000000E+00
  0.00000000E+00  0.00000000E+00  0.00000000E+00
  0.00000000E+00  0.00000000E+00  0.00000000E+00
  0.00000000E+00  0.00000000E+00  0.00000000E+00
  0.00000000E+00  0.00000000E+00  0.00000000E+00
  0.00000000E+00  0.00000000E+00  0.00000000E+00
  0.00000000E+00  0.00000000E+00  0.00000000E+00
  0.00000000E+00  0.00000000E+00  0.00000000E+00
  0.00000000E+00  0.00000000E+00  0.00000000E+00
  0.00000000E+00  0.00000000E+00  0.00000000E+00
  0.00000000E+00  0.00000000E+00  0.00000000E+00
  0.00000000E+00  0.00000000E+00  0.00000000E+00
  0.00000000E+00  0.00000000E+00  0.00000000E+00
  0.00000000E+00  0.00000000E+00  0.00000000E+00
  0.00000000E+00  0.00000000E+00  0.00000000E+00
  0.00000000E+00  0.00000000E+00  0.00000000E+00
  0.00000000E+00  0.00000000E+00  0.00000000E+00
  0.00000000E+00  0.00000000E+00  0.00000000E+00
  0.00000000E+00  0.00000000E+00  0.00000000E+00
  0.00000000E+00  0.00000000E+00  0.00000000E+00
  0.00000000E+00  0.00000000E+00  0.00000000E+00
  0.00000000E+00  0.00000000E+00  0.00000000E+00
  0.00000000E+00  0.00000000E+00  0.00000000E+00
  0.00000000E+00  0.00000000E+00  0.00000000E+00
  0.00000000E+00  0.00000000E+00  0.00000000E+00
  0.00000000E+00  0.00000000E+00  0.00000000E+00
  0.00000000E+00  0.00000000E+00  0.00000000E+00
  0.00000000E+00  0.00000000E+00  0.00000000E+00
  0.00000000E+00  0.00000000E+00  0.00000000E+00
  0.00000000E+00  0.00000000E+00  0.00000000E+00
  0.00000000E+00  0.00000000E+00  0.00000000E+00
  0.00000000E+00  0.00000000E+00  0.00000000E+00
  0.00000000E+00  0.00000000E+00  0.00000000E+00
  0.00000000E+00  0.00000000E+00  0.00000000E+00
  0.00000000E+00  0.00000000E+00  0.00000000E+00
  0.00000000E+00  0.00000000E+00  0.00000000E+00
  0.00000000E+00  0.00000000E+00  0.00000000E+00
  0.00000000E+00  0.00000000E+00  0.00000000E+00
  0.00000000E+00  0.00000000E+00  0.00000000E+00
  0.00000000E+00  0.00000000E+00  0.00000000E+00
  0.00000000E+00  0.00000000E+00  0.00000000E+00
  0.00000000E+00  0.00000000E+00  0.00000000E+00
  0.00000000E+00  0.00000000E+00  0.00000000E+00
  0.00000000E+00  0.00000000E+00  0.00000000E+00
  0.00000000E+00  0.00000000E+00  0.00000000E+00
  0.00000000E+00  0.00000000E+00  0.00000000E+00
  0.00000000E+00  0.00000000E+00  0.00000000E+00
  0.00000000E+00  0.00000000E+00  0.00000000E+00
  0.00000000E+00  0.00000000E+00  0.00000000E+00
  0.00000000E+00  0.00000000E+00  0.00000000E+00
  0.00000000E+00  0.00000000E+00  0.00000000E+00
  0.00000000E+00  0.00000000E+00  0.00000000E+00
  0.00000000E+00  0.00000000E+00  0.00000000E+00
  0.00000000E+00  0.00000000E+00  0.00000000E+00
  0.00000000E+00  0.00000000E+00  0.00000000E+00
  0.00000000E+00  0.00000000E+00  0.00000000E+00
  0.00000000E+00  0.00000000E+00  0.00000000E+00
  0.00000000E+00  0.00000000E+00  0.00000000E+00
  0.00000000E+00  0.00000000E+00  0.00000000E+00
  0.00000000E+00  0.00000000E+00  0.00000000E+00
  0.00000000E+00  0.00000000E+00  0.00000000E+00
  0.00000000E+00  0.00000000E+00  0.00000000E+00
  0.00000000E+00  0.00000000E+00  0.00000000E+00
  0.00000000E+00  0.00000000E+00  0.00000000E+00
  0.00000000E+00  0.00000000E+00  0.00000000E+00
  0.00000000E+00  0.00000000E+00  0.00000000E+00
  0.00000000E+00  0.00000000E+00  0.00000000E+00
  0.00000000E+00  0.00000000E+00  0.00000000E+00
  0.00000000E+00  0.00000000E+00  0.00000000E+00
  0.00000000E+00  0.00000000E+00  0.00000000E+00
  0.00000000E+00  0.00000000E+00  0.00000000E+00
  0.00000000E+00  0.00000000E+00  0.00000000E+00
  0.00000000E+00  0.00000000E+00  0.00000000E+00
  0.00000000E+00  0.00000000E+00  0.00000000E+00
  0.00000000E+00  0.00000000E+00  0.00000000E+00
  0.00000000E+00  0.00000000E+00  0.00000000E+00
  0.00000000E+00  0.00000000E+00  0.00000000E+00
  0.00000000E+00  0.00000000E+00  0.00000000E+00
  0.00000000E+00  0.00000000E+00  0.00000000E+00
  0.00000000E+00  0.00000000E+00  0.00000000E+00
  0.00000000E+00  0.00000000E+00  0.00000000E+00
  0.00000000E+00  0.00000000E+00  0.00000000E+00
  0.00000000E+00  0.00000000E+00  0.00000000E+00
  0.00000000E+00  0.00000000E+00  0.00000000E+00
