Si+C
    1.000000000
   13.303179741    0.000000000    0.000000000
   -6.651589394   14.873406410    0.000000000
    0.000000000    0.000000000    7.006474972
Si  C  
36     84
Direct
    0.997150958    0.980056584    0.000000000
    0.963817537    0.746723175    0.173326731
    0.930484116    0.513389826    0.346653461
    0.330484211    0.313389868    0.000000000
    0.297150791    0.080056474    0.173326731
    0.263817370    0.846723080    0.346653461
    0.663817465    0.646723151    0.000000000
    0.630484045    0.413389713    0.173326731
    0.597150624    0.180056334    0.346653461
    0.313817531    0.946723342    0.086663187
    0.280484110    0.713389993    0.259989917
    0.247150689    0.480056584    0.433316529
    0.647150815    0.280056566    0.086663187
    0.613817394    0.046723194    0.259989887
    0.580483973    0.813389778    0.433316559
    0.980484426    0.613389850    0.086663209
    0.947151005    0.380056471    0.259989887
    0.913817585    0.146723092    0.433316529
    0.163817570    0.646723092    0.000000002
    0.130484164    0.413389713    0.173326731
    0.097150750    0.180056319    0.346653461
    0.497150898    0.980056643    0.000000006
    0.463817418    0.746723175    0.173326656
    0.430484056    0.513389826    0.346653372
    0.830484152    0.313389868    0.000000006
    0.797150731    0.080056526    0.173326656
    0.763817310    0.846723080    0.346653372
    0.147150904    0.280056566    0.086663194
    0.113817483    0.046723165    0.259989917
    0.080484070    0.813389778    0.433316559
    0.480484217    0.613389909    0.086663194
    0.447150826    0.380056530    0.259989887
    0.413817406    0.146723166    0.433316559
    0.813817501    0.946723282    0.086663187
    0.780484140    0.713389874    0.259989887
    0.747150719    0.480056465    0.433316559
    0.939905584    0.962914050    0.802032232
    0.311334044    0.991485596    0.574368238
    0.625619829    0.977199912    0.688200235
    0.082762718    0.820056856    0.802032351
    0.454191148    0.848628461    0.574368238
    0.768476903    0.834342659    0.688200235
    0.225619808    0.677199781    0.802032232
    0.597048342    0.705771327    0.574368238
    0.911334097    0.691485584    0.688200235
    0.368476987    0.534342647    0.802032232
    0.739905477    0.562914193    0.574368238
    0.054191351    0.548628390    0.688200235
    0.511334062    0.391485512    0.802032232
    0.882762611    0.420057058    0.574368238
    0.197048441    0.405771315    0.688200235
    0.654191256    0.248628348    0.802032232
    0.025619745    0.277199924    0.574368238
    0.339905500    0.262914151    0.688200235
    0.797048450    0.105771184    0.802032292
    0.168476894    0.134342790    0.574368238
    0.482762694    0.120056987    0.688200235
    0.489905477    0.062914133    0.858948112
    0.861333847    0.091485620    0.631284118
    0.175619736    0.077199936    0.745116174
    0.632762551    0.920056880    0.858948112
    0.004190922    0.948628426    0.631284118
    0.318476677    0.934342623    0.745116174
    0.775619864    0.777199805    0.858948112
    0.147048250    0.805771291    0.631284118
    0.461334109    0.791485608    0.745116174
    0.918476939    0.634342730    0.858948112
    0.289905310    0.662914217    0.631284118
    0.604191184    0.648628473    0.745116174
    0.061333895    0.491485536    0.858948112
    0.432762444    0.520057082    0.631284177
    0.747048199    0.505771339    0.745116174
    0.204191223    0.348628342    0.858948112
    0.575619698    0.377199948    0.631284118
    0.889905453    0.362914145    0.745116174
    0.347048402    0.205771267    0.858948112
    0.718476772    0.234342799    0.631284118
    0.032762527    0.220057040    0.745116174
    0.439905643    0.962914050    0.802032351
    0.811334074    0.991485715    0.574368238
    0.125619888    0.977199852    0.688200235
    0.582762837    0.820056856    0.802032351
    0.954191327    0.848628521    0.574368238
    0.268476963    0.834342659    0.688200235
    0.725620031    0.677199721    0.802032351
    0.097048402    0.705771387    0.574368238
    0.411334157    0.691485584    0.688200235
    0.868477046    0.534342706    0.802032351
    0.239905477    0.562914252    0.574368238
    0.554191291    0.548628449    0.688200235
    0.011334181    0.391485453    0.802032232
    0.382762611    0.420057058    0.574368238
    0.697048426    0.405771255    0.688200235
    0.154191270    0.248628348    0.802032232
    0.525619745    0.277199924    0.574368238
    0.839905560    0.262914121    0.688200235
    0.297048450    0.105771184    0.802032232
    0.668476880    0.134342790    0.574368238
    0.982762694    0.120056987    0.688200235
    0.989905417    0.062914133    0.858948112
    0.361333936    0.091485620    0.631284177
    0.675619662    0.077199817    0.745116174
    0.132762551    0.920056999    0.858948112
    0.504191041    0.948628545    0.631284177
    0.818476737    0.934342742    0.745116174
    0.275619745    0.777199805    0.858948112
    0.647048235    0.805771291    0.631284177
    0.961334050    0.791485548    0.745116174
    0.418476939    0.634342611    0.858948112
    0.789905369    0.662914157    0.631284177
    0.104191184    0.648628354    0.745116174
    0.561334014    0.491485536    0.858948112
    0.932762384    0.520057023    0.631284177
    0.247048274    0.505771279    0.745116174
    0.704191327    0.348628372    0.858948231
    0.075619698    0.377199948    0.631284118
    0.389905453    0.362914175    0.745116174
    0.847048402    0.205771282    0.858948112
    0.218476787    0.234342784    0.631284177
    0.532762647    0.220057070    0.745116174
