Si+C
    1.000000000
   13.303179741    0.000000000    0.000000000
   -6.651589394   11.520891190    0.000000000
    0.000000000    0.000000000   21.679416656
Si  C  
72     308
Direct
    0.348160356    0.681493700    0.000000013
    0.681493759    0.014827132    0.144634396
    0.014827251    0.348160625    0.289268821
    0.014827028    0.014827028    0.000000014
    0.348160386    0.348160386    0.144634396
    0.681493878    0.681493878    0.289268821
    0.681493700    0.348160356    0.000000000
    0.014827132    0.681493759    0.144634396
    0.348160625    0.014827251    0.289268792
    0.014827013    0.681493759    0.036158606
    0.348160386    0.014827132    0.180793017
    0.681493878    0.348160625    0.325427473
    0.348160416    0.348160416    0.036158621
    0.681493759    0.681493819    0.180793032
    0.014827251    0.014827251    0.325427473
    0.681493759    0.014827013    0.036158606
    0.014827132    0.348160386    0.180793017
    0.348160625    0.681493878    0.325427443
    0.014827028    0.514827013    0.000000017
    0.348160416    0.848160446    0.144634411
    0.681493819    0.181493878    0.289268821
    0.681493759    0.848160386    0.000000038
    0.014827132    0.181493759    0.144634396
    0.348160625    0.514827251    0.289268821
    0.348160386    0.181493685    0.000000008
    0.681493759    0.514827073    0.144634396
    0.014827132    0.848160505    0.289268792
    0.348160416    0.848160267    0.036158569
    0.681493878    0.181493759    0.180793002
    0.014827132    0.514827013    0.325427413
    0.014827132    0.181493700    0.036158592
    0.348160505    0.514827132    0.180793002
    0.681493759    0.848160446    0.325427353
    0.681493819    0.514827073    0.036158577
    0.014827251    0.848160505    0.180793017
    0.348160625    0.181493878    0.325427413
    0.181493700    0.848160386    0.000000024
    0.514827073    0.181493759    0.144634396
    0.848160565    0.514827251    0.289268821
    0.514827013    0.514827013    0.000000014
    0.848160446    0.848160386    0.144634396
    0.181493878    0.181493878    0.289268821
    0.848160386    0.181493700    0.000000005
    0.181493759    0.514827073    0.144634381
    0.514827251    0.848160565    0.289268821
    0.181493685    0.514827013    0.036158577
    0.514827132    0.848160505    0.180793017
    0.848160446    0.181493759    0.325427413
    0.848160386    0.848160386    0.036158562
    0.181493878    0.181493878    0.180793017
    0.514827251    0.514827251    0.325427413
    0.514827073    0.181493670    0.036158577
    0.848160505    0.514827132    0.180793017
    0.181493759    0.848160446    0.325427413
    0.181493700    0.348160356    0.000000013
    0.514827073    0.681493759    0.144634396
    0.848160505    0.014827132    0.289268821
    0.848160386    0.681493759    0.000000027
    0.181493759    0.014827132    0.144634396
    0.514827251    0.348160625    0.289268821
    0.514827013    0.014827021    0.000000013
    0.848160386    0.348160416    0.144634396
    0.181493878    0.681493819    0.289268821
    0.514827013    0.681493640    0.036158621
    0.848160386    0.014827013    0.180793017
    0.181493878    0.348160505    0.325427473
    0.181493655    0.014827013    0.036158614
    0.514827013    0.348160386    0.180793017
    0.848160446    0.681493878    0.325427473
    0.848160446    0.348160386    0.036158606
    0.181493878    0.681493759    0.180793017
    0.514827251    0.014827251    0.325427443
    0.902976930    0.157130271    0.876437604
    0.664881825    0.109511256    0.496484011
    0.474405587    0.871416092    0.591472447
    0.283929318    0.633320689    0.686460853
    0.093453050    0.395225435    0.781449199
    0.045834064    0.585701704    0.876437724
    0.807738960    0.538082838    0.496484041
    0.617262721    0.299987555    0.591472447
    0.426786423    0.061892152    0.686460853
    0.236310154    0.823796868    0.781449258
    0.617262602    0.299987406    0.876437724
    0.379167467    0.252368480    0.496484011
    0.188691288    0.014273286    0.591472447
    0.998215020    0.776177883    0.686460853
    0.807738781    0.538082600    0.781449258
    0.760119796    0.728558779    0.876437604
    0.522024691    0.680939913    0.496484011
    0.331548452    0.442844689    0.591472447
    0.141072139    0.204749316    0.686460853
    0.950595915    0.966653943    0.781449258
    0.188691169    0.014273167    0.876437604
    0.950596094    0.966654181    0.496484011
    0.760119855    0.728558898    0.591472447
    0.569643557    0.490463585    0.686460853
    0.379167289    0.252368301    0.781449199
    0.331548303    0.442844540    0.876437604
    0.093453169    0.395225614    0.496484011
    0.902976990    0.157130361    0.591472447
    0.712500751    0.919035077    0.686460853
    0.522024453    0.680939674    0.781449199
    0.474405438    0.871415973    0.876437604
    0.236310363    0.823797107    0.496484011
    0.045834184    0.585701823    0.591472447
    0.855357885    0.347606450    0.686460853
    0.664881587    0.109511137    0.781449199
    0.141072065    0.204749256    0.900184691
    0.093453288    0.395225644    0.425242722
    0.902976990    0.157130331    0.520231128
    0.712500811    0.919035077    0.615219593
    0.522024512    0.680939674    0.710207939
    0.331548184    0.442844421    0.805196404
    0.855357766    0.347606391    0.900184691
    0.807739019    0.538082838    0.425242692
    0.617262781    0.299987555    0.520231068
    0.426786482    0.061892271    0.615219533
    0.236310184    0.823796868    0.710207939
    0.045833945    0.585701704    0.805196345
    0.998215020    0.776177883    0.900184751
    0.950596213    0.966654301    0.425242692
    0.760119975    0.728559017    0.520231128
    0.569643676    0.490463704    0.615219533
    0.379167378    0.252368331    0.710207939
    0.188691184    0.014273047    0.805196404
    0.426786333    0.061892152    0.900184691
    0.379167527    0.252368510    0.425242722
    0.188691288    0.014273167    0.520231128
    0.998215079    0.776177883    0.615219593
    0.807738781    0.538082600    0.710207939
    0.617262483    0.299987346    0.805196464
    0.569643497    0.490463585    0.900184691
    0.522024751    0.680939913    0.425242722
    0.331548452    0.442844689    0.520231128
    0.141072214    0.204749376    0.615219593
    0.950595915    0.966653943    0.710207939
    0.760119677    0.728558779    0.805196404
    0.712500691    0.919034958    0.900184751
    0.664881885    0.109511375    0.425242722
    0.474405617    0.871416092    0.520231128
    0.283929378    0.633320868    0.615219593
    0.093453050    0.395225465    0.710207939
    0.902976871    0.157130256    0.805196404
    0.283929199    0.633320689    0.900184751
    0.236310393    0.823797107    0.425242722
    0.045834064    0.585701823    0.520231128
    0.855357885    0.347606480    0.615219593
    0.664881587    0.109511137    0.710207939
    0.474405378    0.871415854    0.805196464
    0.117262691    0.299987406    0.876437604
    0.879167616    0.252368510    0.496484011
    0.688691437    0.014273286    0.591472447
    0.498215050    0.776177883    0.686460853
    0.307738811    0.538082600    0.781449199
    0.688691199    0.014273047    0.876437604
    0.450596064    0.966654181    0.496484011
    0.260119855    0.728558898    0.591472447
    0.069643617    0.490463585    0.686460853
    0.879167318    0.252368242    0.781449258
    0.831548333    0.442844599    0.876437604
    0.593453288    0.395225614    0.496484041
    0.402977020    0.157130376    0.591472447
    0.212500751    0.919035077    0.686460853
    0.022024512    0.680939674    0.781449258
    0.974405408    0.871415973    0.876437724
    0.736310363    0.823797107    0.496484041
    0.545834124    0.585701823    0.591472447
    0.355357826    0.347606421    0.686460853
    0.164881527    0.109511137    0.781449258
    0.402976841    0.157130212    0.876437604
    0.164881766    0.109511375    0.496484011
    0.974405587    0.871416092    0.591472447
    0.783929288    0.633320689    0.686460853
    0.593453050    0.395225376    0.781449258
    0.545834005    0.585701704    0.876437604
    0.307738900    0.538082719    0.496484041
    0.117262714    0.299987555    0.591472447
    0.926786423    0.061892152    0.686460853
    0.736310184    0.823796868    0.781449258
    0.260119706    0.728558779    0.876437604
    0.022024632    0.680939913    0.496484011
    0.831548452    0.442844659    0.591472447
    0.641072154    0.204749316    0.686460853
    0.450595826    0.966653943    0.781449199
    0.926786423    0.061892033    0.900184751
    0.879167616    0.252368540    0.425242722
    0.688691437    0.014273286    0.520231128
    0.498215169    0.776177883    0.615219593
    0.307738811    0.538082600    0.710207939
    0.117262602    0.299987346    0.805196404
    0.069643497    0.490463525    0.900184751
    0.022024751    0.680939913    0.425242722
    0.831548572    0.442844659    0.520231128
    0.641072333    0.204749361    0.615219593
    0.450595945    0.966653943    0.710207939
    0.260119766    0.728558779    0.805196404
    0.641072154    0.204749256    0.900184691
    0.593453288    0.395225644    0.425242692
    0.402977020    0.157130361    0.520231068
    0.212500826    0.919035196    0.615219474
    0.022024512    0.680939794    0.710207939
    0.831548333    0.442844540    0.805196345
    0.783929288    0.633320689    0.900184691
    0.736310482    0.823797107    0.425242662
    0.545834184    0.585701823    0.520231068
    0.355358005    0.347606599    0.615219474
    0.164881676    0.109511256    0.710207939
    0.974405468    0.871415973    0.805196345
    0.355357796    0.347606391    0.900184691
    0.307738960    0.538082838    0.425242692
    0.117262706    0.299987495    0.520231068
    0.926786542    0.061892271    0.615219474
    0.736310244    0.823796868    0.710207939
    0.545834064    0.585701704    0.805196345
    0.498214990    0.776177883    0.900184691
    0.450596154    0.966654301    0.425242692
    0.260119885    0.728559017    0.520231068
    0.069643736    0.490463734    0.615219474
    0.879167378    0.252368361    0.710207939
    0.688691139    0.014273047    0.805196345
    0.212500602    0.919035077    0.900184691
    0.164881825    0.109511495    0.425242692
    0.974405587    0.871416092    0.520231068
    0.783929348    0.633320928    0.615219474
    0.593453050    0.395225495    0.710207939
    0.402976781    0.157130256    0.805196345
    0.045834064    0.085701704    0.876437724
    0.807739019    0.038082719    0.496484041
    0.617262840    0.799987555    0.591472447
    0.426786453    0.561892152    0.686460853
    0.236310214    0.323796898    0.781449258
    0.760119796    0.228558868    0.876437724
    0.522024691    0.180939928    0.496484041
    0.331548482    0.942844629    0.591472447
    0.141072199    0.704749346    0.686460853
    0.950595975    0.466654032    0.781449258
    0.902976930    0.657130241    0.876437604
    0.664881825    0.609511316    0.496484011
    0.474405587    0.371416092    0.591472447
    0.283929288    0.133320689    0.686460853
    0.093452930    0.895225406    0.781449199
    0.474405438    0.371415943    0.876437604
    0.236310363    0.323797047    0.496484011
    0.045834184    0.085701823    0.591472447
    0.855357885    0.847606421    0.686460853
    0.664881647    0.609511137    0.781449199
    0.617262602    0.799987316    0.876437604
    0.379167527    0.752368450    0.496484011
    0.188691318    0.514273226    0.591472447
    0.998215020    0.276177853    0.686460853
    0.807738781    0.038082480    0.781449199
    0.188691109    0.514273047    0.876437604
    0.950596094    0.466654181    0.496484011
    0.760119855    0.228558958    0.591472447
    0.569643557    0.990463614    0.686460853
    0.379167229    0.752368212    0.781449199
    0.331548244    0.942844510    0.876437724
    0.093453169    0.895225644    0.496483982
    0.902976990    0.657130361    0.591472447
    0.712500811    0.419035196    0.686460793
    0.522024393    0.180939704    0.781449258
    0.998214960    0.276177734    0.900184751
    0.950596213    0.466654181    0.425242722
    0.760119975    0.228558898    0.520231128
    0.569643676    0.990463614    0.615219593
    0.379167348    0.752368212    0.710207939
    0.188691169    0.514273047    0.805196404
    0.141072124    0.704749227    0.900184691
    0.093453288    0.895225644    0.425242722
    0.902977049    0.657130361    0.520231128
    0.712500811    0.419035077    0.615219593
    0.522024512    0.180939719    0.710207939
    0.331548244    0.942844391    0.805196404
    0.712500691    0.419034988    0.900184751
    0.664881885    0.609511435    0.425242692
    0.474405617    0.371416092    0.520231128
    0.283929437    0.133320928    0.615219533
    0.093453050    0.895225525    0.710207939
    0.902976871    0.657130241    0.805196404
    0.855357885    0.847606421    0.900184691
    0.807739019    0.038082838    0.425242692
    0.617262781    0.799987555    0.520231068
    0.426786572    0.561892271    0.615219474
    0.236310273    0.323796898    0.710207939
    0.045834064    0.085701585    0.805196345
    0.283929259    0.133320570    0.900184691
    0.236310422    0.323797047    0.425242692
    0.045834184    0.085701704    0.520231068
    0.855358005    0.847606540    0.615219474
    0.664881706    0.609511137    0.710207939
    0.474405438    0.371415943    0.805196345
    0.426786393    0.561892152    0.900184691
    0.379167557    0.752368569    0.425242692
    0.188691318    0.514273286    0.520231068
    0.998215139    0.276178032    0.615219474
    0.807738781    0.038082600    0.710207939
    0.617262602    0.799987316    0.805196345
    0.569643557    0.990463495    0.900184691
    0.522024691    0.180939928    0.425242692
    0.331548452    0.942844629    0.520231068
    0.141072243    0.704749346    0.615219474
    0.950595975    0.466654032    0.710207939
    0.760119736    0.228558809    0.805196345
    0.974405587    0.371416003    0.876437724
    0.736310482    0.323797047    0.496484041
    0.545834243    0.085701823    0.591472447
    0.355357945    0.847606421    0.686460853
    0.164881647    0.609511137    0.781449318
    0.117262654    0.799987435    0.876437604
    0.879167616    0.752368450    0.496483982
    0.688691378    0.514273286    0.591472447
    0.498215079    0.276177913    0.686460853
    0.307738781    0.038082600    0.781449199
    0.545834064    0.085701585    0.876437604
    0.307738930    0.038082719    0.496484011
    0.117262721    0.799987435    0.591472447
    0.926786423    0.561892152    0.686460853
    0.736310124    0.323796839    0.781449258
    0.688691258    0.514273167    0.876437604
    0.450596035    0.466654181    0.496484011
    0.260119855    0.228558958    0.591472447
    0.069643617    0.990463614    0.686460853
    0.879167318    0.752368212    0.781449258
    0.831548393    0.942844629    0.876437604
    0.593453288    0.895225644    0.496483982
    0.402977049    0.657130480    0.591472447
    0.212500751    0.419035077    0.686460853
    0.022024512    0.180939749    0.781449258
    0.260119706    0.228558868    0.876437604
    0.022024632    0.180939898    0.496484011
    0.831548452    0.942844629    0.591472447
    0.641072154    0.704749227    0.686460853
    0.450595826    0.466653973    0.781449258
    0.402976900    0.657130241    0.876437604
    0.164881766    0.609511375    0.496484011
    0.974405587    0.371416152    0.591472447
    0.783929288    0.133320808    0.686460853
    0.593453050    0.895225525    0.781449199
    0.783929229    0.133320689    0.900184751
    0.736310482    0.323797107    0.425242722
    0.545834243    0.085701823    0.520231128
    0.355357975    0.847606540    0.615219593
    0.164881691    0.609511256    0.710207939
    0.974405527    0.371415883    0.805196404
    0.926786542    0.561892152    0.900184691
    0.879167676    0.752368569    0.425242692
    0.688691437    0.514273286    0.520231068
    0.498215139    0.276177943    0.615219533
    0.307738870    0.038082600    0.710207939
    0.117262647    0.799987316    0.805196345
    0.069643497    0.990463495    0.900184691
    0.022024751    0.180939957    0.425242692
    0.831548512    0.942844629    0.520231068
    0.641072333    0.704749346    0.615219593
    0.450595915    0.466653973    0.710207939
    0.260119736    0.228558689    0.805196404
    0.498214930    0.276177794    0.900184751
    0.450596154    0.466654241    0.425242722
    0.260119915    0.228558958    0.520231128
    0.069643617    0.990463614    0.615219593
    0.879167378    0.752368331    0.710207939
    0.688691199    0.514273047    0.805196404
    0.641072035    0.704749227    0.900184691
    0.593453288    0.895225644    0.425242692
    0.402977020    0.657130361    0.520231068
    0.212500766    0.419035077    0.615219533
    0.022024512    0.180939734    0.710207939
    0.831548333    0.942844510    0.805196404
    0.212500662    0.419035047    0.900184691
    0.164881855    0.609511375    0.425242722
    0.974405646    0.371416152    0.520231128
    0.783929348    0.133320808    0.615219593
    0.593453050    0.895225406    0.710207939
    0.402976781    0.657130241    0.805196404
    0.355357796    0.847606421    0.900184691
    0.307739019    0.038082838    0.425242692
    0.117262766    0.799987555    0.520231068
    0.926786542    0.561892271    0.615219593
    0.736310244    0.323796928    0.710207939
    0.545834064    0.085701704    0.805196345
