Sn+Ge
    1.000000000
   19.467599869    0.000000000    0.000000000
    6.489200115   18.354230881    0.000000000
    0.000000000    0.000000000   25.800943375
Sn  Ge 
144     192
Direct
    0.991010249    0.991010249    0.000000014
    0.866010189    0.866010129    0.088922322
    0.741010189    0.741009951    0.177844614
    0.616010189    0.616009831    0.266766906
    0.491010129    0.491009712    0.355689257
    0.366010129    0.366009593    0.444611579
    0.991010249    0.324343592    0.000000014
    0.866010189    0.199343473    0.088922322
    0.741010189    0.074343339    0.177844614
    0.616010189    0.949343204    0.266766906
    0.491010129    0.824343085    0.355689257
    0.366010129    0.699342966    0.444611579
    0.991010249    0.657676935    0.000000014
    0.866010189    0.532676816    0.088922322
    0.741010189    0.407676697    0.177844614
    0.616010189    0.282676548    0.266766906
    0.491010129    0.157676399    0.355689257
    0.366010129    0.032676294    0.444611579
    0.491010249    0.157676876    0.000000013
    0.366010219    0.032676764    0.088922322
    0.241010219    0.907676637    0.177844614
    0.116010167    0.782676458    0.266766936
    0.991010129    0.657676339    0.355689257
    0.866010129    0.532676280    0.444611549
    0.491010249    0.491010368    0.000000013
    0.366010219    0.366010189    0.088922322
    0.241010219    0.241010040    0.177844614
    0.116010167    0.116009913    0.266766936
    0.991010129    0.991009772    0.355689257
    0.866010129    0.866009712    0.444611549
    0.491010249    0.824343622    0.000000013
    0.366010219    0.699343503    0.088922322
    0.241010219    0.574343324    0.177844614
    0.116010167    0.449343175    0.266766936
    0.991010129    0.324343055    0.355689257
    0.866010129    0.199342936    0.444611549
    0.241010249    0.241010264    0.000000010
    0.116010226    0.116010129    0.088922322
    0.991010189    0.991010010    0.177844614
    0.866010189    0.866009831    0.266766906
    0.741010129    0.741009712    0.355689257
    0.616010129    0.616009593    0.444611579
    0.241010249    0.574343681    0.000000010
    0.116010226    0.449343532    0.088922322
    0.991010189    0.324343383    0.177844614
    0.866010189    0.199343234    0.266766906
    0.741010129    0.074343123    0.355689257
    0.616010129    0.949343026    0.444611579
    0.241010249    0.907676935    0.000000010
    0.116010226    0.782676756    0.088922322
    0.991010189    0.657676637    0.177844614
    0.866010189    0.532676518    0.266766906
    0.741010129    0.407676429    0.355689257
    0.616010129    0.282676280    0.444611579
    0.741010249    0.074343577    0.000000005
    0.616010249    0.949343443    0.088922322
    0.491010219    0.824343324    0.177844614
    0.366010159    0.699343204    0.266766936
    0.241010144    0.574343085    0.355689257
    0.116010129    0.449342906    0.444611549
    0.741010249    0.407676876    0.000000005
    0.616010249    0.282676727    0.088922322
    0.491010219    0.157676622    0.177844614
    0.366010159    0.032676473    0.266766936
    0.241010144    0.907676339    0.355689257
    0.116010129    0.782676220    0.444611549
    0.741010249    0.741010249    0.000000005
    0.616010249    0.616010129    0.088922322
    0.491010219    0.491010010    0.177844614
    0.366010159    0.366009861    0.266766936
    0.241010144    0.241009742    0.355689257
    0.116010129    0.116009608    0.444611549
    0.366010249    0.116010241    0.000000018
    0.241010219    0.991010129    0.088922322
    0.116010211    0.866009951    0.177844614
    0.991010129    0.741009831    0.266766936
    0.866010129    0.616009712    0.355689257
    0.741010129    0.491009593    0.444611549
    0.366010249    0.449343652    0.000000018
    0.241010219    0.324343443    0.088922322
    0.116010211    0.199343339    0.177844614
    0.991010129    0.074343182    0.266766936
    0.866010129    0.949343085    0.355689257
    0.741010129    0.824342906    0.444611549
    0.366010249    0.782676995    0.000000018
    0.241010219    0.657676816    0.088922322
    0.116010211    0.532676697    0.177844614
    0.991010129    0.407676578    0.266766936
    0.866010129    0.282676458    0.355689257
    0.741010129    0.157676324    0.444611549
    0.866010308    0.282676965    0.000000000
    0.741010249    0.157676771    0.088922314
    0.616010249    0.032676667    0.177844614
    0.491010189    0.907676518    0.266766936
    0.366010189    0.782676399    0.355689257
    0.241010174    0.657676220    0.444611549
    0.866010308    0.616010368    0.000000000
    0.741010249    0.491010159    0.088922314
    0.616010249    0.366010010    0.177844614
    0.491010189    0.241009891    0.266766936
    0.366010189    0.116009764    0.355689257
    0.241010174    0.991009653    0.444611549
    0.866010308    0.949343622    0.000000000
    0.741010249    0.824343622    0.088922314
    0.616010249    0.699343443    0.177844614
    0.491010189    0.574343264    0.266766936
    0.366010189    0.449343115    0.355689257
    0.241010174    0.324343026    0.444611549
    0.116010241    0.199343547    0.000000014
    0.991010249    0.074343421    0.088922322
    0.866010189    0.949343324    0.177844614
    0.741010129    0.824343145    0.266766936
    0.616010129    0.699343026    0.355689257
    0.491010129    0.574342966    0.444611549
    0.116010241    0.532676935    0.000000014
    0.991010249    0.407676727    0.088922322
    0.866010189    0.282676637    0.177844614
    0.741010129    0.157676473    0.266766936
    0.616010129    0.032676354    0.355689257
    0.491010129    0.907676220    0.444611549
    0.116010241    0.866010368    0.000000014
    0.991010249    0.741010189    0.088922322
    0.866010189    0.616010070    0.177844614
    0.741010129    0.491009891    0.266766936
    0.616010129    0.366009802    0.355689257
    0.491010129    0.241009653    0.444611549
    0.616010249    0.032676876    0.000000022
    0.491010219    0.907676756    0.088922322
    0.366010219    0.782676637    0.177844614
    0.241010159    0.657676458    0.266766936
    0.116010137    0.532676339    0.355689257
    0.991010129    0.407676280    0.444611549
    0.616010249    0.366010308    0.000000022
    0.491010219    0.241010129    0.088922322
    0.366010219    0.116010010    0.177844614
    0.241010159    0.991009831    0.266766936
    0.116010137    0.866009712    0.355689257
    0.991010129    0.741009593    0.444611549
    0.616010249    0.699343562    0.000000022
    0.491010219    0.574343324    0.088922322
    0.366010219    0.449343294    0.177844614
    0.241010159    0.324343145    0.266766936
    0.116010137    0.199343026    0.355689257
    0.991010129    0.074342884    0.444611549
    0.052232862    0.044557214    0.528481960
    0.864732921    0.607057214    0.606011569
    0.677232921    0.169557273    0.683541059
    0.489732951    0.732057214    0.761070490
    0.302232951    0.294557333    0.838600099
    0.114732884    0.857057214    0.916129470
    0.052232981    0.544557214    0.528481960
    0.864732862    0.107057244    0.606011569
    0.677232921    0.669557214    0.683541059
    0.489732951    0.232057273    0.761070490
    0.302232951    0.794557333    0.838600099
    0.114732824    0.357057214    0.916129589
    0.302232921    0.294557214    0.528481960
    0.114732921    0.857057214    0.606011569
    0.927232921    0.419557214    0.683541059
    0.739732921    0.982057214    0.761070490
    0.552232921    0.544557333    0.838600099
    0.364732891    0.107057087    0.916129589
    0.552232921    0.044557214    0.528481960
    0.364732921    0.607057214    0.606011569
    0.177232951    0.169557214    0.683541059
    0.989732862    0.732057333    0.761070490
    0.802232981    0.294557333    0.838600099
    0.614732802    0.857057214    0.916129589
    0.302232921    0.794557273    0.528481960
    0.114732921    0.357057273    0.606011569
    0.927232921    0.919557273    0.683541059
    0.739732921    0.482057273    0.761070490
    0.552232862    0.044557333    0.838600099
    0.364732832    0.607057095    0.916129589
    0.552232921    0.544557214    0.528481960
    0.364732921    0.107057251    0.606011569
    0.177232921    0.669557214    0.683541059
    0.989732921    0.232057273    0.761070490
    0.802232921    0.794557333    0.838600099
    0.614732802    0.357057095    0.916129589
    0.802232921    0.294557244    0.528481960
    0.614732921    0.857057273    0.606011569
    0.427232891    0.419557333    0.683541059
    0.239732891    0.982057333    0.761070490
    0.052232981    0.544557214    0.838600099
    0.864732802    0.107057206    0.916129589
    0.802232921    0.794557273    0.528481960
    0.614732862    0.357057273    0.606011510
    0.427232921    0.919557214    0.683541059
    0.239732891    0.482057273    0.761070490
    0.052232862    0.044557333    0.838600099
    0.864732802    0.607057095    0.916129529
    0.177232921    0.169557214    0.528481960
    0.989732921    0.732057214    0.606011569
    0.802232921    0.294557273    0.683541059
    0.614732921    0.857057214    0.761070490
    0.427232891    0.419557333    0.838600099
    0.239732891    0.982057214    0.916129589
    0.177232906    0.669557273    0.528481960
    0.989732862    0.232057244    0.606011569
    0.802232921    0.794557214    0.683541059
    0.614732921    0.357057273    0.761070490
    0.427232891    0.919557333    0.838600099
    0.239732832    0.482057095    0.916129529
    0.427232921    0.419557244    0.528481960
    0.239732921    0.982057214    0.606011569
    0.052232981    0.544557273    0.683541059
    0.864732921    0.107057266    0.761070490
    0.677232921    0.669557333    0.838600099
    0.489732832    0.232057095    0.916129529
    0.677232921    0.169557229    0.528481960
    0.489732921    0.732057214    0.606011569
    0.302232951    0.294557273    0.683541059
    0.114732891    0.857057333    0.761070490
    0.927232921    0.419557214    0.838600099
    0.739732802    0.982057214    0.916129529
    0.427232951    0.919557273    0.528481960
    0.239732951    0.482057303    0.606011569
    0.052232981    0.044557214    0.683541059
    0.864732921    0.607057333    0.761070490
    0.677232921    0.169557333    0.838600099
    0.489732832    0.732057214    0.916129589
    0.677232921    0.669557273    0.528481960
    0.489732981    0.232057244    0.606011569
    0.302232951    0.794557273    0.683541059
    0.114732966    0.357057273    0.761070490
    0.927232921    0.919557333    0.838600099
    0.739732802    0.482057095    0.916129589
    0.927232981    0.419557244    0.528481960
    0.739732981    0.982057214    0.606011569
    0.552232981    0.544557273    0.683541059
    0.364733011    0.107057266    0.761070490
    0.177232996    0.669557214    0.838600099
    0.989732802    0.232057095    0.916129589
    0.927232921    0.919557273    0.528481960
    0.739732981    0.482057303    0.606011569
    0.552232981    0.044557214    0.683541059
    0.364732981    0.607057333    0.761070490
    0.177233011    0.169557273    0.838600099
    0.989732862    0.732057095    0.916129529
    0.177232921    0.294557214    0.528481960
    0.989732921    0.857057214    0.606011569
    0.802232921    0.419557273    0.683541059
    0.614732921    0.982057214    0.761070549
    0.427232891    0.544557214    0.838600099
    0.239732832    0.107057087    0.916129589
    0.427232921    0.044557214    0.528481960
    0.239732921    0.607057214    0.606011569
    0.052232981    0.169557273    0.683541059
    0.864732921    0.732057214    0.761070549
    0.677232862    0.294557333    0.838600099
    0.489732772    0.857057214    0.916129589
    0.177232936    0.794557273    0.528481960
    0.989732921    0.357057273    0.606011569
    0.802232921    0.919557273    0.683541059
    0.614732921    0.482057273    0.761070490
    0.427232951    0.044557333    0.838600099
    0.239732891    0.607057214    0.916129589
    0.427232891    0.544557214    0.528481960
    0.239732891    0.107057214    0.606011569
    0.052232862    0.669557214    0.683541059
    0.864732862    0.232057214    0.761070490
    0.677232921    0.794557214    0.838600099
    0.489732891    0.357057095    0.916129470
    0.677232921    0.294557244    0.528481960
    0.489732921    0.857057273    0.606011569
    0.302232951    0.419557273    0.683541059
    0.114732973    0.982057214    0.761070490
    0.927232921    0.544557333    0.838600099
    0.739732802    0.107057206    0.916129589
    0.927232981    0.044557214    0.528481960
    0.739732981    0.607057214    0.606011569
    0.552232981    0.169557273    0.683541059
    0.364732921    0.732057333    0.761070490
    0.177232981    0.294557333    0.838600099
    0.989732921    0.857057214    0.916129589
    0.677232921    0.794557273    0.528481960
    0.489732921    0.357057244    0.606011569
    0.302232921    0.919557273    0.683541059
    0.114732951    0.482057273    0.761070490
    0.927232921    0.044557214    0.838600099
    0.739732802    0.607057095    0.916129589
    0.927232921    0.544557214    0.528481960
    0.739732981    0.107057214    0.606011569
    0.552232981    0.669557214    0.683541059
    0.364732981    0.232057273    0.761070490
    0.177232981    0.794557214    0.838600099
    0.989732862    0.357057095    0.916129589
    0.052232862    0.169557214    0.528481960
    0.864732862    0.732057214    0.606011569
    0.677232921    0.294557214    0.683541059
    0.489732951    0.857057214    0.761070549
    0.302233011    0.419557333    0.838600039
    0.114732824    0.982057214    0.916129529
    0.052232981    0.669557273    0.528481960
    0.864732862    0.232057244    0.606011569
    0.677232921    0.794557273    0.683541059
    0.489732951    0.357057273    0.761070490
    0.302232951    0.919557333    0.838600099
    0.114732884    0.482057214    0.916129470
    0.302232921    0.419557244    0.528481960
    0.114732921    0.982057273    0.606011569
    0.927232921    0.544557273    0.683541059
    0.739732921    0.107057266    0.761070490
    0.552232921    0.669557214    0.838600099
    0.364732891    0.232057214    0.916129470
    0.552232921    0.169557244    0.528481960
    0.364732921    0.732057214    0.606011569
    0.177232921    0.294557273    0.683541059
    0.989732981    0.857057214    0.761070490
    0.802232921    0.419557333    0.838600099
    0.614732802    0.982057214    0.916129470
    0.302232921    0.919557273    0.528481960
    0.114732891    0.482057244    0.606011569
    0.927232862    0.044557214    0.683541059
    0.739732921    0.607057273    0.761070490
    0.552232862    0.169557273    0.838600099
    0.364732891    0.732057095    0.916129529
    0.552232921    0.669557214    0.528481960
    0.364732921    0.232057244    0.606011569
    0.177232921    0.794557214    0.683541059
    0.989732921    0.357057273    0.761070490
    0.802232921    0.919557214    0.838600099
    0.614732862    0.482057095    0.916129529
    0.802232921    0.419557244    0.528481960
    0.614732862    0.982057214    0.606011569
    0.427232921    0.544557273    0.683541059
    0.239732951    0.107057266    0.761070490
    0.052232862    0.669557333    0.838600099
    0.864732802    0.232057214    0.916129529
    0.802232862    0.919557214    0.528482020
    0.614732862    0.482057244    0.606011569
    0.427232891    0.044557214    0.683541059
    0.239732891    0.607057273    0.761070490
    0.052232862    0.169557214    0.838600099
    0.864732802    0.732057095    0.916129529
