Si
 1.0000000000000000
    17.1743299723744691    0.0000000000000000    0.0000000000000000
     1.7174329972374469    7.4861168772601996    0.0000000000000000
     0.0000000000000000    0.0000000000000000   60.8697772484046027
 Si 
 136
Direct
  0.0000000000000000  0.0000000000000000  0.3285702840406599
  0.7368421052631579  0.1315789473684211  0.3439221989026903
  0.0000000000000001  0.5000000000000000  0.3285702840406599
  0.7368421052631581  0.6315789473684211  0.3439221989026903
  0.5000000000000001  0.0000000000000001  0.3285702840406599
  0.2368421052631580  0.1315789473684211  0.3439221989026903
  0.5000000000000001  0.5000000000000000  0.3285702840406599
  0.2368421052631580  0.6315789473684211  0.3439221989026903
  0.3157894736842106  0.8421052631578947  0.3490395038567005
  0.0526315789473684  0.9736842105263158  0.3643914187187310
  0.3157894736842107  0.3421052631578947  0.3490395038567005
  0.0526315789473684  0.4736842105263159  0.3643914187187309
  0.8157894736842107  0.8421052631578948  0.3490395038567005
  0.5526315789473686  0.9736842105263158  0.3643914187187310
  0.8157894736842107  0.3421052631578947  0.3490395038567005
  0.5526315789473685  0.4736842105263159  0.3643914187187310
  0.6315789473684211  0.6842105263157894  0.3695087236727411
  0.3684210526315790  0.8157894736842104  0.3848606385347716
  0.6315789473684211  0.1842105263157895  0.3695087236727411
  0.3684210526315789  0.3157894736842106  0.3848606385347715
  0.1315789473684212  0.6842105263157895  0.3695087236727411
  0.8684210526315793  0.8157894736842106  0.3848606385347715
  0.1315789473684215  0.1842105263157894  0.3695087236727411
  0.8684210526315791  0.3157894736842106  0.3848606385347715
  0.9473684210526315  0.5263157894736842  0.3899779434887817
  0.6842105263157894  0.6578947368421053  0.4053298583508122
  0.9473684210526315  0.0263157894736843  0.3899779434887817
  0.6842105263157894  0.1578947368421054  0.4053298583508122
  0.4473684210526318  0.5263157894736842  0.3899779434887817
  0.1842105263157898  0.6578947368421053  0.4053298583508122
  0.4473684210526321  0.0263157894736841  0.3899779434887817
  0.1842105263157898  0.1578947368421053  0.4053298583508122
  0.2631578947368423  0.3684210526315789  0.4104471633048223
  0.0000000000000000  0.5000000000000000  0.4257990781668528
  0.2631578947368420  0.8684210526315790  0.4104471633048223
  0.0000000000000004  0.0000000000000000  0.4257990781668528
  0.7631578947368421  0.3684210526315789  0.4104471633048223
  0.5000000000000003  0.5000000000000000  0.4257990781668528
  0.7631578947368421  0.8684210526315789  0.4104471633048223
  0.5000000000000002  0.0000000000000000  0.4257990781668528
  0.5789473684210530  0.2105263157894736  0.4309163831208629
  0.3157894736842106  0.3421052631578948  0.4462682979828934
  0.5789473684210527  0.7105263157894737  0.4309163831208629
  0.3157894736842106  0.8421052631578949  0.4462682979828934
  0.0789473684210531  0.2105263157894737  0.4309163831208629
  0.8157894736842108  0.3421052631578947  0.4462682979828934
  0.0789473684210531  0.7105263157894733  0.4309163831208629
  0.8157894736842108  0.8421052631578947  0.4462682979828934
  0.8947368421052631  0.0526315789473684  0.4513856029369036
  0.6315789473684212  0.1842105263157895  0.4667375177989340
  0.8947368421052631  0.5526315789473685  0.4513856029369035
  0.6315789473684211  0.6842105263157896  0.4667375177989339
  0.3947368421052637  0.0526315789473684  0.4513856029369036
  0.1315789473684212  0.1842105263157895  0.4667375177989340
  0.3947368421052633  0.5526315789473680  0.4513856029369036
  0.1315789473684212  0.6842105263157895  0.4667375177989339
  0.2105263157894740  0.8947368421052628  0.4718548227529442
  0.9473684210526320  0.0263157894736841  0.4872067376149746
  0.2105263157894744  0.3947368421052631  0.4718548227529442
  0.9473684210526320  0.5263157894736843  0.4872067376149746
  0.7105263157894743  0.8947368421052628  0.4718548227529442
  0.4473684210526319  0.0263157894736841  0.4872067376149746
  0.7105263157894743  0.3947368421052627  0.4718548227529442
  0.4473684210526318  0.5263157894736842  0.4872067376149746
  0.5263157894736846  0.7368421052631577  0.4923240425689848
  0.2631578947368425  0.8684210526315788  0.5076759574310152
  0.5263157894736846  0.2368421052631579  0.4923240425689848
  0.2631578947368425  0.3684210526315792  0.5076759574310152
  0.0263157894736850  0.7368421052631577  0.4923240425689848
  0.7631578947368425  0.8684210526315788  0.5076759574310152
  0.0263157894736845  0.2368421052631575  0.4923240425689848
  0.7631578947368425  0.3684210526315789  0.5076759574310152
  0.8421052631578947  0.5789473684210524  0.5127932623850253
  0.5789473684210527  0.7105263157894737  0.5281451772470559
  0.8421052631578951  0.0789473684210527  0.5127932623850253
  0.5789473684210527  0.2105263157894740  0.5281451772470559
  0.3421052631578951  0.5789473684210524  0.5127932623850253
  0.0789473684210527  0.7105263157894737  0.5281451772470559
  0.3421052631578951  0.0789473684210524  0.5127932623850253
  0.0789473684210527  0.2105263157894739  0.5281451772470558
  0.1578947368421058  0.4210526315789471  0.5332624822010660
  0.8947368421052642  0.5526315789473679  0.5486143970630964
  0.1578947368421058  0.9210526315789471  0.5332624822010660
  0.8947368421052633  0.0526315789473684  0.5486143970630964
  0.6578947368421062  0.4210526315789471  0.5332624822010660
  0.3947368421052633  0.5526315789473680  0.5486143970630964
  0.6578947368421058  0.9210526315789469  0.5332624822010660
  0.3947368421052637  0.0526315789473685  0.5486143970630963
  0.4736842105263160  0.2631578947368418  0.5537317020171065
  0.2105263157894725  0.3947368421052633  0.5690836168791370
  0.4736842105263160  0.7631578947368420  0.5537317020171065
  0.2105263157894744  0.8947368421052629  0.5690836168791370
  0.9736842105263160  0.2631578947368418  0.5537317020171065
  0.7105263157894740  0.3947368421052631  0.5690836168791370
  0.9736842105263168  0.7631578947368418  0.5537317020171065
  0.7105263157894739  0.8947368421052629  0.5690836168791370
  0.7894736842105261  0.1052631578947367  0.5742009218331472
  0.5263157894736841  0.2368421052631573  0.5895528366951777
  0.7894736842105261  0.6052631578947367  0.5742009218331472
  0.5263157894736850  0.7368421052631577  0.5895528366951777
  0.2894736842105265  0.1052631578947367  0.5742009218331472
  0.0263157894736841  0.2368421052631577  0.5895528366951777
  0.2894736842105265  0.6052631578947365  0.5742009218331471
  0.0263157894736850  0.7368421052631579  0.5895528366951777
  0.1052631578947372  0.9473684210526314  0.5946701416491877
  0.8421052631578939  0.0789473684210529  0.6100220565112182
  0.1052631578947363  0.4473684210526316  0.5946701416491877
  0.8421052631578957  0.5789473684210524  0.6100220565112182
  0.6052631578947364  0.9473684210526319  0.5946701416491877
  0.3421052631578947  0.0789473684210527  0.6100220565112182
  0.6052631578947372  0.4473684210526316  0.5946701416491877
  0.3421052631578956  0.5789473684210525  0.6100220565112182
  0.4210526315789479  0.7894736842105257  0.6151393614652285
  0.1578947368421053  0.9210526315789473  0.6304912763272589
  0.4210526315789478  0.2894736842105259  0.6151393614652284
  0.1578947368421062  0.4210526315789471  0.6304912763272589
  0.9210526315789478  0.7894736842105257  0.6151393614652285
  0.6578947368421062  0.9210526315789473  0.6304912763272589
  0.9210526315789488  0.2894736842105257  0.6151393614652285
  0.6578947368421062  0.4210526315789471  0.6304912763272589
  0.7368421052631593  0.6315789473684208  0.6356085812812690
  0.4736842105263160  0.7631578947368416  0.6509604961432994
  0.7368421052631593  0.1315789473684208  0.6356085812812690
  0.4736842105263168  0.2631578947368418  0.6509604961432994
  0.2368421052631584  0.6315789473684208  0.6356085812812690
  0.9736842105263160  0.7631578947368416  0.6509604961432994
  0.2368421052631593  0.1315789473684206  0.6356085812812690
  0.9736842105263168  0.2631578947368418  0.6509604961432993
  0.0526315789473690  0.4736842105263155  0.6560778010973096
  0.7894736842105258  0.6052631578947367  0.6714297159593401
  0.0526315789473681  0.9736842105263155  0.6560778010973096
  0.7894736842105274  0.1052631578947367  0.6714297159593401
  0.5526315789473690  0.4736842105263155  0.6560778010973096
  0.2894736842105266  0.6052631578947367  0.6714297159593401
  0.5526315789473690  0.9736842105263155  0.6560778010973096
  0.2894736842105274  0.1052631578947365  0.6714297159593401
