Sn+Ge
    1.000000000
   15.895228386    0.000000000    0.000000000
  -15.895230293   11.239624977    0.000000000
    0.000000000    0.000000000   21.473072052
Sn  Ge 
72     96
Direct
    0.658140540    0.367438078    0.000000018
    0.574807107    0.700771451    0.106844462
    0.491473675    0.034104943    0.213688985
    0.408140212    0.367438316    0.320533395
    0.324806869    0.700771928    0.427377939
    0.241473302    0.034105301    0.534222364
    0.991473794    0.034104731    0.000000018
    0.908140361    0.367438138    0.106844485
    0.824806929    0.700771630    0.213688985
    0.741473556    0.034104943    0.320533395
    0.658140063    0.367438555    0.427377939
    0.574806690    0.700771928    0.534222364
    0.324807167    0.700771391    0.000000000
    0.241473734    0.034104824    0.106844448
    0.158140317    0.367438316    0.213688910
    0.074806847    0.700771689    0.320533395
    0.991473436    0.034105062    0.427377850
    0.908140063    0.367438555    0.534222364
    0.491473824    0.034104735    0.000000011
    0.408140391    0.367438108    0.106844485
    0.324806958    0.700771630    0.213688955
    0.241473511    0.034104943    0.320533395
    0.158140123    0.367438555    0.427377939
    0.074806623    0.700771928    0.534222364
    0.824807167    0.700771391    0.000000014
    0.741473794    0.034104824    0.106844433
    0.658140302    0.367438197    0.213688955
    0.574806929    0.700771689    0.320533395
    0.491473496    0.034105062    0.427377850
    0.408139914    0.367438555    0.534222364
    0.158140481    0.367438048    0.000000015
    0.074807063    0.700771451    0.106844477
    0.991473556    0.034104824    0.213688955
    0.908140182    0.367438316    0.320533395
    0.824806750    0.700771809    0.427377939
    0.741473317    0.034105301    0.534222364
    0.741473794    0.284104705    0.000000019
    0.658140481    0.617438078    0.106844462
    0.574806988    0.950771570    0.213688955
    0.491473585    0.284105062    0.320533425
    0.408140123    0.617438436    0.427377939
    0.324806690    0.950771928    0.534222305
    0.408140510    0.617438078    0.000000000
    0.324807078    0.950771511    0.106844485
    0.241473645    0.284104943    0.213688985
    0.158140302    0.617438436    0.320533425
    0.074806817    0.950771928    0.427377820
    0.991473317    0.284105301    0.534222424
    0.074807145    0.950771451    0.000000023
    0.991473675    0.284104824    0.106844448
    0.908140302    0.617438316    0.213688985
    0.824806929    0.950771809    0.320533395
    0.741473556    0.284105301    0.427377850
    0.658140182    0.617438793    0.534222424
    0.908140481    0.617438078    0.000000021
    0.824807048    0.950771511    0.106844462
    0.741473615    0.284104943    0.213688955
    0.658140182    0.617438316    0.320533395
    0.574806750    0.950771928    0.427377909
    0.491473258    0.284105301    0.534222305
    0.241473839    0.284104735    0.000000013
    0.158140436    0.617438138    0.106844492
    0.074807018    0.950771630    0.213688985
    0.991473615    0.284105062    0.320533425
    0.908140123    0.617438436    0.427377939
    0.824806690    0.950771928    0.534222364
    0.574807107    0.950771511    0.000000041
    0.491473675    0.284104824    0.106844485
    0.408140212    0.617438316    0.213688955
    0.324806809    0.950771689    0.320533395
    0.241473436    0.284105301    0.427377909
    0.158139959    0.617438793    0.534222364
    0.969067693    0.479378492    0.534222484
    0.594067693    0.229378477    0.627377987
    0.219067633    0.979378402    0.720533490
    0.844067693    0.729378462    0.813688993
    0.469067812    0.479378521    0.906844497
    0.094067693    0.229378462    0.999999881
    0.969067693    0.979378462    0.534222484
    0.594067693    0.729378462    0.627377987
    0.219067633    0.479378402    0.720533490
    0.844067693    0.229378462    0.813688993
    0.469067812    0.979378581    0.906844497
    0.094067693    0.729378462    0.999999881
    0.469067723    0.479378492    0.534222484
    0.094067708    0.229378477    0.627377987
    0.719067633    0.979378402    0.720533490
    0.344067752    0.729378462    0.813688993
    0.969067812    0.479378521    0.906844497
    0.594067693    0.229378462    0.999999881
    0.469067693    0.979378462    0.534222484
    0.094067700    0.729378462    0.627377987
    0.719067633    0.479378402    0.720533490
    0.344067693    0.229378462    0.813688993
    0.969067812    0.979378581    0.906844497
    0.594067693    0.729378462    0.999999881
    0.219067708    0.479378492    0.534222484
    0.844067693    0.229378477    0.627377987
    0.469067633    0.979378402    0.720533490
    0.094067693    0.729378462    0.813688993
    0.719067812    0.479378521    0.906844497
    0.344067693    0.229378462    0.999999881
    0.219067678    0.979378462    0.534222484
    0.844067693    0.729378462    0.627377987
    0.469067633    0.479378402    0.720533490
    0.094067693    0.229378462    0.813688993
    0.719067812    0.979378581    0.906844497
    0.344067693    0.729378462    0.999999881
    0.719067693    0.479378492    0.534222484
    0.344067723    0.229378477    0.627377987
    0.969067633    0.979378402    0.720533490
    0.594067693    0.729378462    0.813688993
    0.219067752    0.479378521    0.906844497
    0.844067693    0.229378462    0.999999881
    0.719067633    0.979378462    0.534222484
    0.344067693    0.729378462    0.627377987
    0.969067633    0.479378402    0.720533490
    0.594067693    0.229378462    0.813688993
    0.219067872    0.979378581    0.906844497
    0.844067693    0.729378462    0.999999881
    0.219067737    0.854378521    0.534222484
    0.844067693    0.604378462    0.627377987
    0.469067693    0.354378462    0.720533490
    0.094067752    0.104378499    0.813688993
    0.719067812    0.854378521    0.906844497
    0.344067693    0.604378521    0.999999881
    0.219067678    0.354378462    0.534222484
    0.844067693    0.104378462    0.627377987
    0.469067633    0.854378402    0.720533490
    0.094067633    0.604378462    0.813688993
    0.719067693    0.354378462    0.906844497
    0.344067574    0.104378402    0.999999881
    0.719067752    0.854378521    0.534222484
    0.344067663    0.604378462    0.627377987
    0.969067633    0.354378462    0.720533490
    0.594067693    0.104378499    0.813688993
    0.219067812    0.854378521    0.906844497
    0.844067693    0.604378521    0.999999881
    0.719067693    0.354378462    0.534222484
    0.344067693    0.104378462    0.627377987
    0.969067633    0.854378402    0.720533490
    0.594067693    0.604378462    0.813688993
    0.219067752    0.354378462    0.906844497
    0.844067574    0.104378402    0.999999881
    0.969067693    0.854378521    0.534222484
    0.594067633    0.604378462    0.627377987
    0.219067633    0.354378462    0.720533490
    0.844067574    0.104378499    0.813688993
    0.469067812    0.854378521    0.906844497
    0.094067693    0.604378521    0.999999881
    0.969067693    0.354378462    0.534222484
    0.594067693    0.104378462    0.627377987
    0.219067633    0.854378402    0.720533490
    0.844067693    0.604378462    0.813688993
    0.469067693    0.354378462    0.906844497
    0.094067693    0.104378402    0.999999881
    0.469067752    0.854378521    0.534222484
    0.094067685    0.604378462    0.627377987
    0.719067693    0.354378462    0.720533490
    0.344067752    0.104378499    0.813688993
    0.969067812    0.854378521    0.906844497
    0.594067812    0.604378521    0.999999881
    0.469067693    0.354378462    0.534222484
    0.094067693    0.104378462    0.627377987
    0.719067633    0.854378402    0.720533490
    0.344067693    0.604378462    0.813688993
    0.969067693    0.354378462    0.906844497
    0.594067693    0.104378402    0.999999881
