Si+C                                    
   1.00000000000000     
    13.3031797409999992    0.0000000000000000    0.0000000000000000
     6.6515893940000002   14.8734064099999994    0.0000000000000000
     0.0000000000000000    0.0000000000000000    8.1924057010000002
   Si   C 
    36    84
Direct
  0.9829056259999973  0.6581194999999980  0.0000000049999969
  0.7829055790000012  0.5581192969999975  0.1482359620000011
  0.5829054120000023  0.4581190939999971  0.2964719240000022
  0.9829056259999973  0.3247861270000030  0.0000000049999969
  0.7829055790000012  0.2247859690000027  0.1482359620000011
  0.5829054120000023  0.1247858030000017  0.2964719240000022
  0.9829056259999973  0.9914528130000022  0.0000000049999969
  0.7829055790000012  0.8914526699999996  0.1482359620000011
  0.5829054120000023  0.7914525269999970  0.2964719240000022
  0.6329056619999989  0.6914526819999978  0.0741178239999982
  0.4329055850000003  0.5914524789999973  0.2223538009999970
  0.2329055220000029  0.4914524260000022  0.3705897330000028
  0.6329056619999989  0.3581194280000020  0.0741178239999982
  0.4329055850000003  0.2581192849999994  0.2223538009999970
  0.2329055220000029  0.1581191419999968  0.3705897330000028
  0.6329056619999989  0.0247861369999995  0.0741178239999982
  0.4329055850000003  0.9247859720000022  0.2223538009999970
  0.2329055220000029  0.8247858289999996  0.3705897330000028
  0.4829056259999973  0.6581194999999980  0.0000000000000000
  0.2829055489999988  0.5581192969999975  0.1482359620000011
  0.0829054419999977  0.4581190939999971  0.2964719240000022
  0.4829056259999973  0.3247861270000030  0.0000000000000000
  0.2829055489999988  0.2247859539999979  0.1482359620000011
  0.0829054419999977  0.1247858110000024  0.2964719240000022
  0.4829056259999973  0.9914528130000022  0.0000000000000000
  0.2829055489999988  0.8914526699999996  0.1482359620000011
  0.0829054419999977  0.7914525269999970  0.2964719240000022
  0.1329056769999966  0.6914527420000027  0.0741178390000030
  0.9329055549999978  0.5914524789999973  0.2223538009999970
  0.7329055069999981  0.4914523959999997  0.3705897330000028
  0.1329056769999966  0.3581194879999998  0.0741178390000030
  0.9329055549999978  0.2581192849999994  0.2223538009999970
  0.7329055069999981  0.1581191269999991  0.3705897330000028
  0.1329056769999966  0.0247861369999995  0.0741178390000030
  0.9329055549999978  0.9247859720000022  0.2223538009999970
  0.7329055069999981  0.8247858289999996  0.3705897330000028
  0.7188544269999966  0.9629139299999991  0.7583102580000016
  0.0617114309999991  0.9914855959999969  0.5636027460000008
  0.3902828690000035  0.9771997929999969  0.6609564419999998
  0.0045685770000006  0.8200568560000008  0.7583102580000016
  0.3474256989999986  0.8486284609999970  0.5636027460000008
  0.6759972569999988  0.8343426590000007  0.6609564419999998
  0.2902828450000001  0.6771997210000009  0.7583102580000016
  0.6331399680000018  0.7057713270000008  0.5636027460000008
  0.9617114070000028  0.6914855240000009  0.6609564419999998
  0.5759972330000025  0.5343425869999976  0.7583101990000003
  0.9188543559999971  0.5629141929999975  0.5636026860000030
  0.2474257949999981  0.5486283899999975  0.6609564419999998
  0.8617115019999986  0.3914854530000014  0.7583101990000003
  0.2045686239999966  0.4200570579999976  0.5636026860000030
  0.5331399439999984  0.4057712549999977  0.6609564419999998
  0.1474257710000018  0.2486283180000015  0.7583101990000003
  0.4902827740000006  0.2771999240000014  0.5636026860000030
  0.8188543320000008  0.2629141509999968  0.6609564419999998
  0.4331401589999970  0.1057711839999982  0.7583102580000016
  0.7759971620000030  0.1343427899999980  0.5636026860000030
  0.1045687200000032  0.1200569869999981  0.6609565019999977
  0.1688542369999979  0.0629140140000004  0.8069870469999998
  0.5117113590000031  0.0914856200000003  0.6122795340000025
  0.8402827979999969  0.0771996969999975  0.7096332910000029
  0.4545685049999975  0.9200568199999992  0.8069870469999998
  0.7974256279999992  0.9486284259999991  0.6122795340000025
  0.1259970659999965  0.9343425630000013  0.7096332910000029
  0.7402827740000006  0.7771996860000030  0.8069871069999976
  0.0831398959999987  0.8057712909999992  0.6122794750000011
  0.4117114539999989  0.7914854879999993  0.7096332309999980
  0.0259971620000030  0.6343426110000010  0.8069869879999985
  0.3688542840000011  0.6629141570000030  0.6122794750000011
  0.6974256040000029  0.6486284140000009  0.7096332309999980
  0.3117115499999983  0.4914855359999990  0.8069871069999976
  0.6545686720000035  0.5200570820000010  0.6122794750000011
  0.9831399919999981  0.5057713389999989  0.7096331719999966
  0.5974256989999986  0.3486283419999978  0.8069871069999976
  0.9402828810000017  0.3771999180000023  0.6122795340000025
  0.2688543800000005  0.3629141150000024  0.7096332309999980
  0.8831400870000010  0.2057711779999991  0.8069869879999985
  0.2259972100000027  0.2343427839999990  0.6122795340000025
  0.5545685290000009  0.2200569959999967  0.7096332309999980
  0.2188543079999974  0.9629139899999970  0.7583101990000003
  0.5617114309999991  0.9914854760000011  0.5636026860000030
  0.8902827499999972  0.9771997929999969  0.6609565019999977
  0.5045688149999989  0.8200568560000008  0.7583102580000016
  0.8474258179999978  0.8486284609999970  0.5636026860000030
  0.1759972569999988  0.8343426590000007  0.6609564419999998
  0.7902830840000021  0.6771997210000009  0.7583102580000016
  0.1331400870000010  0.7057713270000008  0.5636026860000030
  0.4617115260000020  0.6914855240000009  0.6609564419999998
  0.0759972330000025  0.5343426470000026  0.7583102580000016
  0.4188542369999979  0.5629141929999975  0.5636026860000030
  0.7474256750000023  0.5486284489999989  0.6609564419999998
  0.3617113829999994  0.3914855720000006  0.7583102580000016
  0.7045686239999966  0.4200570579999976  0.5636026860000030
  0.0331400629999976  0.4057712549999977  0.6609564419999998
  0.6474258900000009  0.2486283479999969  0.7583102580000016
  0.9902828929999998  0.2771998939999989  0.5636027460000008
  0.3188543320000008  0.2629141210000014  0.6609565019999977
  0.9331400390000013  0.1057713029999974  0.7583102580000016
  0.2759971620000030  0.1343427899999980  0.5636027460000008
  0.6045686009999969  0.1200569869999981  0.6609565019999977
  0.6688542369999979  0.0629141329999996  0.8069870469999998
  0.0117113590000031  0.0914856200000003  0.6122795340000025
  0.3402827979999969  0.0771998170000003  0.7096332309999980
  0.9545686239999966  0.9200568799999971  0.8069870469999998
  0.2974257469999984  0.9486284850000004  0.6122795340000025
  0.6259970659999965  0.9343426229999992  0.7096332309999980
  0.2402828929999998  0.7771996860000030  0.8069870469999998
  0.5831401350000007  0.8057712909999992  0.6122795340000025
  0.9117115740000017  0.7914854289999980  0.7096332309999980
  0.5259970429999967  0.6343426110000010  0.8069869879999985
  0.8688542840000011  0.6629140969999980  0.6122794750000011
  0.1974257230000021  0.6486283540000031  0.7096332309999980
  0.8117115499999983  0.4914854760000011  0.8069869879999985
  0.1545686720000035  0.5200570229999997  0.6122794750000011
  0.4831401109999973  0.5057712790000011  0.7096332309999980
  0.0974255799999995  0.3486282829999965  0.8069870469999998
  0.4402828220000004  0.3771998879999998  0.6122794750000011
  0.7688541409999985  0.3629141150000024  0.7096332309999980
  0.3831399680000018  0.2057712670000029  0.8069869879999985
  0.7259972100000027  0.2343427539999965  0.6122795340000025
  0.0545685290000009  0.2200569809999990  0.7096332309999980
 
  0.00000000E+00  0.00000000E+00  0.00000000E+00
  0.00000000E+00  0.00000000E+00  0.00000000E+00
  0.00000000E+00  0.00000000E+00  0.00000000E+00
  0.00000000E+00  0.00000000E+00  0.00000000E+00
  0.00000000E+00  0.00000000E+00  0.00000000E+00
  0.00000000E+00  0.00000000E+00  0.00000000E+00
  0.00000000E+00  0.00000000E+00  0.00000000E+00
  0.00000000E+00  0.00000000E+00  0.00000000E+00
  0.00000000E+00  0.00000000E+00  0.00000000E+00
  0.00000000E+00  0.00000000E+00  0.00000000E+00
  0.00000000E+00  0.00000000E+00  0.00000000E+00
  0.00000000E+00  0.00000000E+00  0.00000000E+00
  0.00000000E+00  0.00000000E+00  0.00000000E+00
  0.00000000E+00  0.00000000E+00  0.00000000E+00
  0.00000000E+00  0.00000000E+00  0.00000000E+00
  0.00000000E+00  0.00000000E+00  0.00000000E+00
  0.00000000E+00  0.00000000E+00  0.00000000E+00
  0.00000000E+00  0.00000000E+00  0.00000000E+00
  0.00000000E+00  0.00000000E+00  0.00000000E+00
  0.00000000E+00  0.00000000E+00  0.00000000E+00
  0.00000000E+00  0.00000000E+00  0.00000000E+00
  0.00000000E+00  0.00000000E+00  0.00000000E+00
  0.00000000E+00  0.00000000E+00  0.00000000E+00
  0.00000000E+00  0.00000000E+00  0.00000000E+00
  0.00000000E+00  0.00000000E+00  0.00000000E+00
  0.00000000E+00  0.00000000E+00  0.00000000E+00
  0.00000000E+00  0.00000000E+00  0.00000000E+00
  0.00000000E+00  0.00000000E+00  0.00000000E+00
  0.00000000E+00  0.00000000E+00  0.00000000E+00
  0.00000000E+00  0.00000000E+00  0.00000000E+00
  0.00000000E+00  0.00000000E+00  0.00000000E+00
  0.00000000E+00  0.00000000E+00  0.00000000E+00
  0.00000000E+00  0.00000000E+00  0.00000000E+00
  0.00000000E+00  0.00000000E+00  0.00000000E+00
  0.00000000E+00  0.00000000E+00  0.00000000E+00
  0.00000000E+00  0.00000000E+00  0.00000000E+00
  0.00000000E+00  0.00000000E+00  0.00000000E+00
  0.00000000E+00  0.00000000E+00  0.00000000E+00
  0.00000000E+00  0.00000000E+00  0.00000000E+00
  0.00000000E+00  0.00000000E+00  0.00000000E+00
  0.00000000E+00  0.00000000E+00  0.00000000E+00
  0.00000000E+00  0.00000000E+00  0.00000000E+00
  0.00000000E+00  0.00000000E+00  0.00000000E+00
  0.00000000E+00  0.00000000E+00  0.00000000E+00
  0.00000000E+00  0.00000000E+00  0.00000000E+00
  0.00000000E+00  0.00000000E+00  0.00000000E+00
  0.00000000E+00  0.00000000E+00  0.00000000E+00
  0.00000000E+00  0.00000000E+00  0.00000000E+00
  0.00000000E+00  0.00000000E+00  0.00000000E+00
  0.00000000E+00  0.00000000E+00  0.00000000E+00
  0.00000000E+00  0.00000000E+00  0.00000000E+00
  0.00000000E+00  0.00000000E+00  0.00000000E+00
  0.00000000E+00  0.00000000E+00  0.00000000E+00
  0.00000000E+00  0.00000000E+00  0.00000000E+00
  0.00000000E+00  0.00000000E+00  0.00000000E+00
  0.00000000E+00  0.00000000E+00  0.00000000E+00
  0.00000000E+00  0.00000000E+00  0.00000000E+00
  0.00000000E+00  0.00000000E+00  0.00000000E+00
  0.00000000E+00  0.00000000E+00  0.00000000E+00
  0.00000000E+00  0.00000000E+00  0.00000000E+00
  0.00000000E+00  0.00000000E+00  0.00000000E+00
  0.00000000E+00  0.00000000E+00  0.00000000E+00
  0.00000000E+00  0.00000000E+00  0.00000000E+00
  0.00000000E+00  0.00000000E+00  0.00000000E+00
  0.00000000E+00  0.00000000E+00  0.00000000E+00
  0.00000000E+00  0.00000000E+00  0.00000000E+00
  0.00000000E+00  0.00000000E+00  0.00000000E+00
  0.00000000E+00  0.00000000E+00  0.00000000E+00
  0.00000000E+00  0.00000000E+00  0.00000000E+00
  0.00000000E+00  0.00000000E+00  0.00000000E+00
  0.00000000E+00  0.00000000E+00  0.00000000E+00
  0.00000000E+00  0.00000000E+00  0.00000000E+00
  0.00000000E+00  0.00000000E+00  0.00000000E+00
  0.00000000E+00  0.00000000E+00  0.00000000E+00
  0.00000000E+00  0.00000000E+00  0.00000000E+00
  0.00000000E+00  0.00000000E+00  0.00000000E+00
  0.00000000E+00  0.00000000E+00  0.00000000E+00
  0.00000000E+00  0.00000000E+00  0.00000000E+00
  0.00000000E+00  0.00000000E+00  0.00000000E+00
  0.00000000E+00  0.00000000E+00  0.00000000E+00
  0.00000000E+00  0.00000000E+00  0.00000000E+00
  0.00000000E+00  0.00000000E+00  0.00000000E+00
  0.00000000E+00  0.00000000E+00  0.00000000E+00
  0.00000000E+00  0.00000000E+00  0.00000000E+00
  0.00000000E+00  0.00000000E+00  0.00000000E+00
  0.00000000E+00  0.00000000E+00  0.00000000E+00
  0.00000000E+00  0.00000000E+00  0.00000000E+00
  0.00000000E+00  0.00000000E+00  0.00000000E+00
  0.00000000E+00  0.00000000E+00  0.00000000E+00
  0.00000000E+00  0.00000000E+00  0.00000000E+00
  0.00000000E+00  0.00000000E+00  0.00000000E+00
  0.00000000E+00  0.00000000E+00  0.00000000E+00
  0.00000000E+00  0.00000000E+00  0.00000000E+00
  0.00000000E+00  0.00000000E+00  0.00000000E+00
  0.00000000E+00  0.00000000E+00  0.00000000E+00
  0.00000000E+00  0.00000000E+00  0.00000000E+00
  0.00000000E+00  0.00000000E+00  0.00000000E+00
  0.00000000E+00  0.00000000E+00  0.00000000E+00
  0.00000000E+00  0.00000000E+00  0.00000000E+00
  0.00000000E+00  0.00000000E+00  0.00000000E+00
  0.00000000E+00  0.00000000E+00  0.00000000E+00
  0.00000000E+00  0.00000000E+00  0.00000000E+00
  0.00000000E+00  0.00000000E+00  0.00000000E+00
  0.00000000E+00  0.00000000E+00  0.00000000E+00
  0.00000000E+00  0.00000000E+00  0.00000000E+00
  0.00000000E+00  0.00000000E+00  0.00000000E+00
  0.00000000E+00  0.00000000E+00  0.00000000E+00
  0.00000000E+00  0.00000000E+00  0.00000000E+00
  0.00000000E+00  0.00000000E+00  0.00000000E+00
  0.00000000E+00  0.00000000E+00  0.00000000E+00
  0.00000000E+00  0.00000000E+00  0.00000000E+00
  0.00000000E+00  0.00000000E+00  0.00000000E+00
  0.00000000E+00  0.00000000E+00  0.00000000E+00
  0.00000000E+00  0.00000000E+00  0.00000000E+00
  0.00000000E+00  0.00000000E+00  0.00000000E+00
  0.00000000E+00  0.00000000E+00  0.00000000E+00
  0.00000000E+00  0.00000000E+00  0.00000000E+00
  0.00000000E+00  0.00000000E+00  0.00000000E+00
  0.00000000E+00  0.00000000E+00  0.00000000E+00
  0.00000000E+00  0.00000000E+00  0.00000000E+00
