Ge+Sn
    1.000000000
   19.599195480    0.000000000    0.000000000
   -6.533064842   18.478298187    0.000000000
    0.000000000    0.000000000   25.604219437
Ge  Sn 
192     144
Direct
    0.984533846    0.494844645    0.000000015
    0.797033846    0.432344615    0.078125201
    0.609533787    0.369844615    0.156250432
    0.422033846    0.307344615    0.234375596
    0.234533906    0.244844630    0.312500775
    0.047033846    0.182344645    0.390625983
    0.234533846    0.744844615    0.000000015
    0.047033850    0.682344615    0.078125201
    0.859533787    0.619844615    0.156250432
    0.672033846    0.557344615    0.234375596
    0.484533906    0.494844615    0.312500775
    0.297033846    0.432344645    0.390625983
    0.984533846    0.994844615    0.000000019
    0.797033846    0.932344615    0.078125209
    0.609533787    0.869844615    0.156250417
    0.422033846    0.807344615    0.234375596
    0.234533906    0.744844675    0.312500745
    0.047033846    0.682344615    0.390625983
    0.234533861    0.244844630    0.000000019
    0.047033854    0.182344630    0.078125209
    0.859533787    0.119844601    0.156250417
    0.672033906    0.057344597    0.234375596
    0.484533906    0.994844615    0.312500745
    0.297033846    0.932344615    0.390625983
    0.484533846    0.494844615    0.000000019
    0.297033846    0.432344615    0.078125209
    0.109533817    0.369844615    0.156250417
    0.922033846    0.307344615    0.234375596
    0.734533906    0.244844615    0.312500745
    0.547033846    0.182344615    0.390625983
    0.734533846    0.744844615    0.000000019
    0.547033846    0.682344615    0.078125209
    0.359533787    0.619844615    0.156250417
    0.172033831    0.557344615    0.234375596
    0.984533846    0.494844645    0.312500775
    0.797033846    0.432344615    0.390625983
    0.484533876    0.994844615    0.000000009
    0.297033876    0.932344615    0.078125201
    0.109533831    0.869844615    0.156250417
    0.922033846    0.807344615    0.234375596
    0.734533906    0.744844675    0.312500775
    0.547033846    0.682344615    0.390625954
    0.734533846    0.244844615    0.000000008
    0.547033846    0.182344645    0.078125201
    0.359533817    0.119844623    0.156250417
    0.172033846    0.057344630    0.234375596
    0.984533846    0.994844615    0.312500775
    0.797033846    0.932344615    0.390625983
    0.109533846    0.869844615    0.000000003
    0.922033846    0.807344615    0.078125201
    0.734533787    0.744844615    0.156250402
    0.547033846    0.682344615    0.234375566
    0.359533906    0.619844615    0.312500745
    0.172033846    0.557344615    0.390625983
    0.109533854    0.369844645    0.000000020
    0.922033846    0.307344615    0.078125216
    0.734533787    0.244844615    0.156250417
    0.547033846    0.182344615    0.234375596
    0.359533906    0.119844623    0.312500775
    0.172033846    0.057344612    0.390625954
    0.359533846    0.619844615    0.000000020
    0.172033831    0.557344615    0.078125216
    0.984533787    0.494844645    0.156250417
    0.797033846    0.432344615    0.234375596
    0.609533906    0.369844615    0.312500745
    0.422033846    0.307344615    0.390625954
    0.609533846    0.869844615    0.000000021
    0.422033846    0.807344615    0.078125224
    0.234533802    0.744844556    0.156250432
    0.047033843    0.682344615    0.234375596
    0.859533906    0.619844615    0.312500775
    0.672033846    0.557344556    0.390625983
    0.359533846    0.119844638    0.000000017
    0.172033861    0.057344627    0.078125209
    0.984533787    0.994844615    0.156250417
    0.797033846    0.932344615    0.234375596
    0.609533906    0.869844675    0.312500775
    0.422033846    0.807344615    0.390625954
    0.609533846    0.369844615    0.000000017
    0.422033846    0.307344615    0.078125209
    0.234533846    0.244844586    0.156250417
    0.047033876    0.182344601    0.234375596
    0.859533906    0.119844601    0.312500745
    0.672033906    0.057344589    0.390625983
    0.859533846    0.619844615    0.000000017
    0.672033846    0.557344615    0.078125209
    0.484533846    0.494844586    0.156250417
    0.297033876    0.432344586    0.234375596
    0.109533899    0.369844586    0.312500745
    0.922033846    0.307344586    0.390625983
    0.859533846    0.119844563    0.000000022
    0.672033846    0.057344586    0.078125224
    0.484533846    0.994844556    0.156250417
    0.297033906    0.932344556    0.234375596
    0.109533928    0.869844556    0.312500805
    0.922033906    0.807344556    0.390625983
    0.109533869    0.744844675    0.000000009
    0.922033846    0.682344615    0.078125209
    0.734533846    0.619844615    0.156250417
    0.547033906    0.557344615    0.234375596
    0.359533906    0.494844645    0.312500745
    0.172033846    0.432344645    0.390625983
    0.109533839    0.244844615    0.000000019
    0.922033846    0.182344615    0.078125201
    0.734533787    0.119844608    0.156250417
    0.547033787    0.057344612    0.234375596
    0.359533846    0.994844615    0.312500775
    0.172033787    0.932344615    0.390625954
    0.359533846    0.494844615    0.000000019
    0.172033802    0.432344586    0.078125216
    0.984533787    0.369844586    0.156250417
    0.797033787    0.307344586    0.234375596
    0.609533846    0.244844601    0.312500775
    0.422033846    0.182344586    0.390625954
    0.609533846    0.744844615    0.000000020
    0.422033846    0.682344615    0.078125209
    0.234533831    0.619844615    0.156250417
    0.047033835    0.557344615    0.234375596
    0.859533906    0.494844615    0.312500775
    0.672033846    0.432344615    0.390625983
    0.359533846    0.994844615    0.000000016
    0.172033846    0.932344615    0.078125209
    0.984533846    0.869844615    0.156250432
    0.797033846    0.807344615    0.234375596
    0.609533906    0.744844615    0.312500775
    0.422033787    0.682344556    0.390625983
    0.609533846    0.244844645    0.000000016
    0.422033846    0.182344615    0.078125209
    0.234533831    0.119844623    0.156250432
    0.047033869    0.057344630    0.234375596
    0.859533906    0.994844615    0.312500775
    0.672033906    0.932344675    0.390625983
    0.859533846    0.494844615    0.000000017
    0.672033846    0.432344615    0.078125209
    0.484533846    0.369844586    0.156250432
    0.297033876    0.307344586    0.234375596
    0.109533891    0.244844586    0.312500775
    0.922033846    0.182344586    0.390625983
    0.859533906    0.994844615    0.000000000
    0.672033846    0.932344615    0.078125201
    0.484533846    0.869844615    0.156250387
    0.297033876    0.807344615    0.234375566
    0.109533943    0.744844556    0.312500775
    0.922033906    0.682344615    0.390625954
    0.984533846    0.869844675    0.000000024
    0.797033787    0.807344615    0.078125224
    0.609533787    0.744844615    0.156250417
    0.422033787    0.682344675    0.234375626
    0.234533906    0.619844675    0.312500805
    0.047033846    0.557344615    0.390625983
    0.984533846    0.369844615    0.000000007
    0.797033846    0.307344615    0.078125209
    0.609533787    0.244844601    0.156250417
    0.422033846    0.182344586    0.234375596
    0.234533846    0.119844586    0.312500745
    0.047033846    0.057344574    0.390625954
    0.234533876    0.619844615    0.000000007
    0.047033843    0.557344615    0.078125209
    0.859533846    0.494844615    0.156250417
    0.672033906    0.432344615    0.234375596
    0.484533906    0.369844615    0.312500745
    0.297033906    0.307344615    0.390625954
    0.484533846    0.869844615    0.000000007
    0.297033846    0.807344615    0.078125209
    0.109533831    0.744844615    0.156250417
    0.922033846    0.682344615    0.234375596
    0.734533906    0.619844615    0.312500745
    0.547033906    0.557344615    0.390625954
    0.234533846    0.119844615    0.000000017
    0.047033846    0.057344612    0.078125209
    0.859533787    0.994844615    0.156250402
    0.672033846    0.932344615    0.234375596
    0.484533846    0.869844615    0.312500775
    0.297033846    0.807344556    0.390625954
    0.484533876    0.369844645    0.000000017
    0.297033846    0.307344615    0.078125209
    0.109533839    0.244844630    0.156250402
    0.922033846    0.182344630    0.234375596
    0.734533906    0.119844630    0.312500775
    0.547033906    0.057344627    0.390625954
    0.734533846    0.619844615    0.000000017
    0.547033846    0.557344615    0.078125209
    0.359533817    0.494844645    0.156250417
    0.172033846    0.432344615    0.234375596
    0.984533846    0.369844615    0.312500745
    0.797033846    0.307344615    0.390625983
    0.734533846    0.119844615    0.000000014
    0.547033787    0.057344597    0.078125216
    0.359533787    0.994844556    0.156250417
    0.172033817    0.932344615    0.234375596
    0.984533846    0.869844615    0.312500775
    0.797033846    0.807344556    0.390625954
    0.258109272    0.374452710    0.471299171
    0.299776018    0.999452710    0.560904741
    0.341442794    0.624452591    0.650510252
    0.383109450    0.249452710    0.740115702
    0.424776226    0.874452591    0.829721272
    0.466443002    0.499452591    0.919326723
    0.591442585    0.374452710    0.471299171
    0.633109331    0.999452710    0.560904741
    0.674776077    0.624452591    0.650510252
    0.716442883    0.249452710    0.740115702
    0.758109629    0.874452591    0.829721272
    0.799776316    0.499452591    0.919326723
    0.924775898    0.374452710    0.471299171
    0.966442645    0.999452710    0.560904741
    0.008109450    0.624452591    0.650510252
    0.049776196    0.249452710    0.740115702
    0.091442890    0.874452591    0.829721272
    0.133109748    0.499452591    0.919326723
    0.091442585    0.874452710    0.471299171
    0.133109331    0.499452591    0.560904741
    0.174776092    0.124452591    0.650510252
    0.216442794    0.749452591    0.740115702
    0.258109540    0.374452591    0.829721272
    0.299776375    0.999452531    0.919326782
    0.424775928    0.874452710    0.471299171
    0.466442734    0.499452591    0.560904741
    0.508109450    0.124452591    0.650510252
    0.549776137    0.749452591    0.740115702
    0.591442883    0.374452591    0.829721272
    0.633109689    0.999452531    0.919326782
    0.758109212    0.874452710    0.471299171
    0.799776137    0.499452591    0.560904741
    0.841442704    0.124452591    0.650510252
    0.883109570    0.749452591    0.740115702
    0.924776256    0.374452591    0.829721272
    0.966443002    0.999452531    0.919326782
    0.341442585    0.624452710    0.471299201
    0.383109331    0.249452710    0.560904741
    0.424776077    0.874452591    0.650510252
    0.466442794    0.499452591    0.740115702
    0.508109570    0.124452591    0.829721272
    0.549776375    0.749452591    0.919326782
    0.674776018    0.624452710    0.471299201
    0.716442764    0.249452710    0.560904741
    0.758109450    0.874452591    0.650510252
    0.799776137    0.499452591    0.740115702
    0.841442943    0.124452591    0.829721272
    0.883109689    0.749452591    0.919326782
    0.008109212    0.624452710    0.471299201
    0.049776196    0.249452710    0.560904741
    0.091442652    0.874452591    0.650510252
    0.133109629    0.499452591    0.740115702
    0.174776256    0.124452591    0.829721272
    0.216443002    0.749452591    0.919326782
    0.174775928    0.124452710    0.471299171
    0.216442674    0.749452591    0.560904741
    0.258109421    0.374452591    0.650510252
    0.299776107    0.999452651    0.740115702
    0.341442883    0.624452591    0.829721272
    0.383109689    0.249452591    0.919326723
    0.508109331    0.124452710    0.471299171
    0.549776077    0.749452591    0.560904741
    0.591442823    0.374452591    0.650510252
    0.633109510    0.999452651    0.740115702
    0.674776256    0.624452591    0.829721272
    0.716443002    0.249452591    0.919326723
    0.841442585    0.124452710    0.471299171
    0.883109450    0.749452591    0.560904741
    0.924776077    0.374452591    0.650510252
    0.966442943    0.999452651    0.740115702
    0.008109570    0.624452591    0.829721272
    0.049776435    0.249452591    0.919326723
    0.216442585    0.499452710    0.471299171
    0.258109331    0.124452710    0.560904741
    0.299776077    0.749452591    0.650510252
    0.341442823    0.374452591    0.740115702
    0.383109540    0.999452472    0.829721272
    0.424776316    0.624452591    0.919326782
    0.549775958    0.499452710    0.471299171
    0.591442704    0.124452710    0.560904741
    0.633109450    0.749452591    0.650510252
    0.674776196    0.374452591    0.740115702
    0.716442943    0.999452472    0.829721272
    0.758109689    0.624452591    0.919326782
    0.883109331    0.499452710    0.471299171
    0.924776137    0.124452710    0.560904741
    0.966442943    0.749452591    0.650510252
    0.008109570    0.374452591    0.740115702
    0.049776316    0.999452472    0.829721272
    0.091443129    0.624452591    0.919326782
    0.383109301    0.999452710    0.471299171
    0.424776018    0.624452591    0.560904741
    0.466442734    0.249452591    0.650510252
    0.508109570    0.874452591    0.740115702
    0.549776316    0.499452591    0.829721272
    0.591442943    0.124452591    0.919326782
    0.716442645    0.999452710    0.471299171
    0.758109331    0.624452591    0.560904741
    0.799776137    0.249452591    0.650510252
    0.841442943    0.874452591    0.740115702
    0.883109629    0.499452591    0.829721272
    0.924776316    0.124452591    0.919326782
    0.049776077    0.999452710    0.471299171
    0.091442771    0.624452591    0.560904741
    0.133109510    0.249452591    0.650510252
    0.174776256    0.874452591    0.740115702
    0.216443002    0.499452591    0.829721272
    0.258109629    0.124452591    0.919326782
    0.299775928    0.749452829    0.471299201
    0.341442645    0.374452710    0.560904741
    0.383109421    0.999452651    0.650510252
    0.424776137    0.624452591    0.740115702
    0.466442853    0.249452591    0.829721272
    0.508109689    0.874452591    0.919326723
    0.633109272    0.749452829    0.471299201
    0.674775958    0.374452710    0.560904741
    0.716442704    0.999452651    0.650510252
    0.758109450    0.624452591    0.740115702
    0.799776256    0.249452591    0.829721272
    0.841442943    0.874452591    0.919326723
    0.966442585    0.749452829    0.471299201
    0.008109331    0.374452710    0.560904741
    0.049776077    0.999452651    0.650510252
    0.091442890    0.624452591    0.740115702
    0.133109629    0.249452591    0.829721272
    0.174776256    0.874452591    0.919326723
    0.133109242    0.249452710    0.471299171
    0.174775988    0.874452591    0.560904741
    0.216442734    0.499452591    0.650510252
    0.258109480    0.124452591    0.740115702
    0.299776196    0.749452591    0.829721212
    0.341442943    0.374452591    0.919326782
    0.466442615    0.249452710    0.471299171
    0.508109391    0.874452591    0.560904741
    0.549776137    0.499452591    0.650510252
    0.591442823    0.124452591    0.740115702
    0.633109510    0.749452591    0.829721212
    0.674776316    0.374452591    0.919326782
    0.799775958    0.249452710    0.471299171
    0.841442764    0.874452591    0.560904741
    0.883109450    0.499452591    0.650510252
    0.924776196    0.124452591    0.740115702
    0.966443002    0.749452591    0.829721212
    0.008109689    0.374452591    0.919326782
