fcc Si+fcc Ge                           
   1.00000000000000     
     7.7498903219999997    0.0000000000000000    0.0000000000000000
     0.0000000000000000   16.4400000000000013    0.0000000000000000
     0.0000000000000000    0.0000000000000000   16.0346819210000007
   Si   Ge
    24    72
Direct
  0.0000000000000000  0.0000000000000000  0.0000000000000000
  0.7500000000000000  0.6111111109999996  0.0402767069999967
  0.5000000000000000  0.2222222219999992  0.0805534149999971
  0.2500000000000000  0.8333333329999988  0.1208301220000010
  0.0000000000000000  0.4444444439999984  0.1611068300000014
  0.7500000000000000  0.0555555560000016  0.2013835369999981
  0.5000000000000000  0.0000000000000000  0.0000000000000000
  0.2500000000000000  0.6111111109999996  0.0402767069999967
  0.0000000000000000  0.2222222219999992  0.0805534149999971
  0.7500000000000000  0.8333333329999988  0.1208301220000010
  0.5000000000000000  0.4444444439999984  0.1611068300000014
  0.2500000000000000  0.0555555560000016  0.2013835369999981
  0.7500000000000000  0.7500000000000000  0.0000000000000000
  0.5000000000000000  0.3611111109999996  0.0402767069999967
  0.2500000000000000  0.9722222219999992  0.0805534149999971
  0.0000000000000000  0.5833333329999988  0.1208301220000010
  0.7500000000000000  0.1944444439999984  0.1611068300000014
  0.5000000000000000  0.8055555560000016  0.2013835369999981
  0.2500000000000000  0.7500000000000000  0.0000000000000000
  0.0000000000000000  0.3611111109999996  0.0402767069999967
  0.7500000000000000  0.9722222219999992  0.0805534149999971
  0.5000000000000000  0.5833333329999988  0.1208301220000010
  0.2500000000000000  0.1944444439999984  0.1611068300000014
  0.0000000000000000  0.8055555560000016  0.2013835369999981
  0.5526315789999998  0.6932515339999981  0.2886942809999979
  0.8026315789999998  0.5265848669999968  0.4134932759999970
  0.0526315789999998  0.3599182000000027  0.5382922710000031
  0.3026315789999998  0.1932515339999981  0.6630912660000021
  0.5526315789999998  0.0265848669999968  0.7878902610000011
  0.8026315789999998  0.8599182000000027  0.9126892569999967
  0.5526315789999998  0.0265848669999968  0.2886942809999979
  0.8026315789999998  0.8599182000000027  0.4134932759999970
  0.0526315789999998  0.6932515339999981  0.5382922710000031
  0.3026315789999998  0.5265848669999968  0.6630912660000021
  0.5526315789999998  0.3599182000000027  0.7878902610000011
  0.8026315789999998  0.1932515339999981  0.9126892569999967
  0.5526315789999998  0.3599182000000027  0.2886942809999979
  0.8026315789999998  0.1932515339999981  0.4134932759999970
  0.0526315789999998  0.0265848669999968  0.5382922710000031
  0.3026315789999998  0.8599182000000027  0.6630912660000021
  0.5526315789999998  0.6932515339999981  0.7878902610000011
  0.8026315789999998  0.5265848669999968  0.9126892569999967
  0.0526315789999998  0.6932515339999981  0.2886942809999979
  0.3026315789999998  0.5265848669999968  0.4134932759999970
  0.5526315789999998  0.3599182000000027  0.5382922710000031
  0.8026315789999998  0.1932515339999981  0.6630912660000021
  0.0526315789999998  0.0265848669999968  0.7878902610000011
  0.3026315789999998  0.8599182000000027  0.9126892569999967
  0.0526315789999998  0.0265848669999968  0.2886942809999979
  0.3026315789999998  0.8599182000000027  0.4134932759999970
  0.5526315789999998  0.6932515339999981  0.5382922710000031
  0.8026315789999998  0.5265848669999968  0.6630912660000021
  0.0526315789999998  0.3599182000000027  0.7878902610000011
  0.3026315789999998  0.1932515339999981  0.9126892569999967
  0.0526315789999998  0.3599182000000027  0.2886942809999979
  0.3026315789999998  0.1932515339999981  0.4134932759999970
  0.5526315789999998  0.0265848669999968  0.5382922710000031
  0.8026315789999998  0.8599182000000027  0.6630912660000021
  0.0526315789999998  0.6932515339999981  0.7878902610000011
  0.3026315789999998  0.5265848669999968  0.9126892569999967
  0.3026315789999998  0.9432515339999981  0.2886942809999979
  0.5526315789999998  0.7765848669999968  0.4134932759999970
  0.8026315789999998  0.6099182000000027  0.5382922710000031
  0.0526315789999998  0.4432515339999981  0.6630912660000021
  0.3026315789999998  0.2765848669999968  0.7878902610000011
  0.5526315789999998  0.1099182000000027  0.9126892569999967
  0.3026315789999998  0.2765848669999968  0.2886942809999979
  0.5526315789999998  0.1099182000000027  0.4134932759999970
  0.8026315789999998  0.9432515339999981  0.5382922710000031
  0.0526315789999998  0.7765848669999968  0.6630912660000021
  0.3026315789999998  0.6099182000000027  0.7878902610000011
  0.5526315789999998  0.4432515339999981  0.9126892569999967
  0.3026315789999998  0.6099182000000027  0.2886942809999979
  0.5526315789999998  0.4432515339999981  0.4134932759999970
  0.8026315789999998  0.2765848669999968  0.5382922710000031
  0.0526315789999998  0.1099182000000027  0.6630912660000021
  0.3026315789999998  0.9432515339999981  0.7878902610000011
  0.5526315789999998  0.7765848669999968  0.9126892569999967
  0.8026315789999998  0.9432515339999981  0.2886942809999979
  0.0526315789999998  0.7765848669999968  0.4134932759999970
  0.3026315789999998  0.6099182000000027  0.5382922710000031
  0.5526315789999998  0.4432515339999981  0.6630912660000021
  0.8026315789999998  0.2765848669999968  0.7878902610000011
  0.0526315789999998  0.1099182000000027  0.9126892569999967
  0.8026315789999998  0.2765848669999968  0.2886942809999979
  0.0526315789999998  0.1099182000000027  0.4134932759999970
  0.3026315789999998  0.9432515339999981  0.5382922710000031
  0.5526315789999998  0.7765848669999968  0.6630912660000021
  0.8026315789999998  0.6099182000000027  0.7878902610000011
  0.0526315789999998  0.4432515339999981  0.9126892569999967
  0.8026315789999998  0.6099182000000027  0.2886942809999979
  0.0526315789999998  0.4432515339999981  0.4134932759999970
  0.3026315789999998  0.2765848669999968  0.5382922710000031
  0.5526315789999998  0.1099182000000027  0.6630912660000021
  0.8026315789999998  0.9432515339999981  0.7878902610000011
  0.0526315789999998  0.7765848669999968  0.9126892569999967
 
  0.00000000E+00  0.00000000E+00  0.00000000E+00
  0.00000000E+00  0.00000000E+00  0.00000000E+00
  0.00000000E+00  0.00000000E+00  0.00000000E+00
  0.00000000E+00  0.00000000E+00  0.00000000E+00
  0.00000000E+00  0.00000000E+00  0.00000000E+00
  0.00000000E+00  0.00000000E+00  0.00000000E+00
  0.00000000E+00  0.00000000E+00  0.00000000E+00
  0.00000000E+00  0.00000000E+00  0.00000000E+00
  0.00000000E+00  0.00000000E+00  0.00000000E+00
  0.00000000E+00  0.00000000E+00  0.00000000E+00
  0.00000000E+00  0.00000000E+00  0.00000000E+00
  0.00000000E+00  0.00000000E+00  0.00000000E+00
  0.00000000E+00  0.00000000E+00  0.00000000E+00
  0.00000000E+00  0.00000000E+00  0.00000000E+00
  0.00000000E+00  0.00000000E+00  0.00000000E+00
  0.00000000E+00  0.00000000E+00  0.00000000E+00
  0.00000000E+00  0.00000000E+00  0.00000000E+00
  0.00000000E+00  0.00000000E+00  0.00000000E+00
  0.00000000E+00  0.00000000E+00  0.00000000E+00
  0.00000000E+00  0.00000000E+00  0.00000000E+00
  0.00000000E+00  0.00000000E+00  0.00000000E+00
  0.00000000E+00  0.00000000E+00  0.00000000E+00
  0.00000000E+00  0.00000000E+00  0.00000000E+00
  0.00000000E+00  0.00000000E+00  0.00000000E+00
  0.00000000E+00  0.00000000E+00  0.00000000E+00
  0.00000000E+00  0.00000000E+00  0.00000000E+00
  0.00000000E+00  0.00000000E+00  0.00000000E+00
  0.00000000E+00  0.00000000E+00  0.00000000E+00
  0.00000000E+00  0.00000000E+00  0.00000000E+00
  0.00000000E+00  0.00000000E+00  0.00000000E+00
  0.00000000E+00  0.00000000E+00  0.00000000E+00
  0.00000000E+00  0.00000000E+00  0.00000000E+00
  0.00000000E+00  0.00000000E+00  0.00000000E+00
  0.00000000E+00  0.00000000E+00  0.00000000E+00
  0.00000000E+00  0.00000000E+00  0.00000000E+00
  0.00000000E+00  0.00000000E+00  0.00000000E+00
  0.00000000E+00  0.00000000E+00  0.00000000E+00
  0.00000000E+00  0.00000000E+00  0.00000000E+00
  0.00000000E+00  0.00000000E+00  0.00000000E+00
  0.00000000E+00  0.00000000E+00  0.00000000E+00
  0.00000000E+00  0.00000000E+00  0.00000000E+00
  0.00000000E+00  0.00000000E+00  0.00000000E+00
  0.00000000E+00  0.00000000E+00  0.00000000E+00
  0.00000000E+00  0.00000000E+00  0.00000000E+00
  0.00000000E+00  0.00000000E+00  0.00000000E+00
  0.00000000E+00  0.00000000E+00  0.00000000E+00
  0.00000000E+00  0.00000000E+00  0.00000000E+00
  0.00000000E+00  0.00000000E+00  0.00000000E+00
  0.00000000E+00  0.00000000E+00  0.00000000E+00
  0.00000000E+00  0.00000000E+00  0.00000000E+00
  0.00000000E+00  0.00000000E+00  0.00000000E+00
  0.00000000E+00  0.00000000E+00  0.00000000E+00
  0.00000000E+00  0.00000000E+00  0.00000000E+00
  0.00000000E+00  0.00000000E+00  0.00000000E+00
  0.00000000E+00  0.00000000E+00  0.00000000E+00
  0.00000000E+00  0.00000000E+00  0.00000000E+00
  0.00000000E+00  0.00000000E+00  0.00000000E+00
  0.00000000E+00  0.00000000E+00  0.00000000E+00
  0.00000000E+00  0.00000000E+00  0.00000000E+00
  0.00000000E+00  0.00000000E+00  0.00000000E+00
  0.00000000E+00  0.00000000E+00  0.00000000E+00
  0.00000000E+00  0.00000000E+00  0.00000000E+00
  0.00000000E+00  0.00000000E+00  0.00000000E+00
  0.00000000E+00  0.00000000E+00  0.00000000E+00
  0.00000000E+00  0.00000000E+00  0.00000000E+00
  0.00000000E+00  0.00000000E+00  0.00000000E+00
  0.00000000E+00  0.00000000E+00  0.00000000E+00
  0.00000000E+00  0.00000000E+00  0.00000000E+00
  0.00000000E+00  0.00000000E+00  0.00000000E+00
  0.00000000E+00  0.00000000E+00  0.00000000E+00
  0.00000000E+00  0.00000000E+00  0.00000000E+00
  0.00000000E+00  0.00000000E+00  0.00000000E+00
  0.00000000E+00  0.00000000E+00  0.00000000E+00
  0.00000000E+00  0.00000000E+00  0.00000000E+00
  0.00000000E+00  0.00000000E+00  0.00000000E+00
  0.00000000E+00  0.00000000E+00  0.00000000E+00
  0.00000000E+00  0.00000000E+00  0.00000000E+00
  0.00000000E+00  0.00000000E+00  0.00000000E+00
  0.00000000E+00  0.00000000E+00  0.00000000E+00
  0.00000000E+00  0.00000000E+00  0.00000000E+00
  0.00000000E+00  0.00000000E+00  0.00000000E+00
  0.00000000E+00  0.00000000E+00  0.00000000E+00
  0.00000000E+00  0.00000000E+00  0.00000000E+00
  0.00000000E+00  0.00000000E+00  0.00000000E+00
  0.00000000E+00  0.00000000E+00  0.00000000E+00
  0.00000000E+00  0.00000000E+00  0.00000000E+00
  0.00000000E+00  0.00000000E+00  0.00000000E+00
  0.00000000E+00  0.00000000E+00  0.00000000E+00
  0.00000000E+00  0.00000000E+00  0.00000000E+00
  0.00000000E+00  0.00000000E+00  0.00000000E+00
  0.00000000E+00  0.00000000E+00  0.00000000E+00
  0.00000000E+00  0.00000000E+00  0.00000000E+00
  0.00000000E+00  0.00000000E+00  0.00000000E+00
  0.00000000E+00  0.00000000E+00  0.00000000E+00
  0.00000000E+00  0.00000000E+00  0.00000000E+00
  0.00000000E+00  0.00000000E+00  0.00000000E+00
