Si+C
    1.000000000
   13.303179741    0.000000000    0.000000000
   -6.651589394   11.520891190    0.000000000
    0.000000000    0.000000000   21.679416656
Si  C  
72     308
Direct
    0.348160356    0.681493700    0.000000013
    0.681493759    0.014827132    0.144634396
    0.014827251    0.348160625    0.289268821
    0.014827028    0.014827028    0.000000014
    0.348160386    0.348160386    0.144634396
    0.681493878    0.681493878    0.289268821
    0.681493700    0.348160356    0.000000000
    0.014827132    0.681493759    0.144634396
    0.348160625    0.014827251    0.289268792
    0.014827013    0.681493759    0.036158606
    0.348160386    0.014827132    0.180793017
    0.681493878    0.348160625    0.325427473
    0.348160416    0.348160416    0.036158621
    0.681493759    0.681493819    0.180793032
    0.014827251    0.014827251    0.325427473
    0.681493759    0.014827013    0.036158606
    0.014827132    0.348160386    0.180793017
    0.348160625    0.681493878    0.325427443
    0.014827028    0.514827013    0.000000017
    0.348160416    0.848160446    0.144634411
    0.681493819    0.181493878    0.289268821
    0.681493759    0.848160386    0.000000038
    0.014827132    0.181493759    0.144634396
    0.348160625    0.514827251    0.289268821
    0.348160386    0.181493685    0.000000008
    0.681493759    0.514827073    0.144634396
    0.014827132    0.848160505    0.289268792
    0.348160416    0.848160267    0.036158569
    0.681493878    0.181493759    0.180793002
    0.014827132    0.514827013    0.325427413
    0.014827132    0.181493700    0.036158592
    0.348160505    0.514827132    0.180793002
    0.681493759    0.848160446    0.325427353
    0.681493819    0.514827073    0.036158577
    0.014827251    0.848160505    0.180793017
    0.348160625    0.181493878    0.325427413
    0.181493700    0.848160386    0.000000024
    0.514827073    0.181493759    0.144634396
    0.848160565    0.514827251    0.289268821
    0.514827013    0.514827013    0.000000014
    0.848160446    0.848160386    0.144634396
    0.181493878    0.181493878    0.289268821
    0.848160386    0.181493700    0.000000005
    0.181493759    0.514827073    0.144634381
    0.514827251    0.848160565    0.289268821
    0.181493685    0.514827013    0.036158577
    0.514827132    0.848160505    0.180793017
    0.848160446    0.181493759    0.325427413
    0.848160386    0.848160386    0.036158562
    0.181493878    0.181493878    0.180793017
    0.514827251    0.514827251    0.325427413
    0.514827073    0.181493670    0.036158577
    0.848160505    0.514827132    0.180793017
    0.181493759    0.848160446    0.325427413
    0.181493700    0.348160356    0.000000013
    0.514827073    0.681493759    0.144634396
    0.848160505    0.014827132    0.289268821
    0.848160386    0.681493759    0.000000027
    0.181493759    0.014827132    0.144634396
    0.514827251    0.348160625    0.289268821
    0.514827013    0.014827021    0.000000013
    0.848160386    0.348160416    0.144634396
    0.181493878    0.681493819    0.289268821
    0.514827013    0.681493640    0.036158621
    0.848160386    0.014827013    0.180793017
    0.181493878    0.348160505    0.325427473
    0.181493655    0.014827013    0.036158614
    0.514827013    0.348160386    0.180793017
    0.848160446    0.681493878    0.325427473
    0.848160446    0.348160386    0.036158606
    0.181493878    0.681493759    0.180793017
    0.514827251    0.014827251    0.325427443
    0.849946618    0.020766631    0.876437604
    0.611851513    0.973147631    0.496484011
    0.421375275    0.735052407    0.591472447
    0.230899006    0.496957064    0.686460853
    0.040422678    0.258861780    0.781449199
    0.992803752    0.449338078    0.876437724
    0.754708648    0.401719153    0.496484041
    0.564232409    0.163623914    0.591472447
    0.373756111    0.925528526    0.686460853
    0.183279842    0.687433243    0.781449258
    0.564232290    0.163623765    0.876437724
    0.326137185    0.116004840    0.496484011
    0.135660976    0.877909601    0.591472447
    0.945184708    0.639814258    0.686460853
    0.754708469    0.401718915    0.781449258
    0.707089484    0.592195153    0.876437604
    0.468994379    0.544576287    0.496484011
    0.278518140    0.306481063    0.591472447
    0.088041827    0.068385668    0.686460853
    0.897565603    0.830290318    0.781449258
    0.135660872    0.877909541    0.876437604
    0.897565782    0.830290496    0.496484011
    0.707089543    0.592195272    0.591472447
    0.516613245    0.354099929    0.686460853
    0.326137006    0.116004661    0.781449199
    0.278518021    0.306480885    0.876437604
    0.040422916    0.258861959    0.496484011
    0.849946678    0.020766728    0.591472447
    0.659470439    0.782671392    0.686460853
    0.468994141    0.544576049    0.781449199
    0.421375155    0.735052347    0.876437604
    0.183280051    0.687433422    0.496484011
    0.992803872    0.449338198    0.591472447
    0.802327573    0.211242810    0.686460853
    0.611851275    0.973147452    0.781449199
    0.088041767    0.068385616    0.900184691
    0.040422916    0.258861989    0.425242722
    0.849946678    0.020766696    0.520231128
    0.659470499    0.782671392    0.615219593
    0.468994200    0.544576049    0.710207939
    0.278517902    0.306480765    0.805196404
    0.802327454    0.211242750    0.900184691
    0.754708707    0.401719213    0.425242692
    0.564232469    0.163623914    0.520231068
    0.373756170    0.925528586    0.615219533
    0.183279887    0.687433243    0.710207939
    0.992803693    0.449338019    0.805196345
    0.945184708    0.639814258    0.900184751
    0.897565901    0.830290675    0.425242692
    0.707089663    0.592195332    0.520231128
    0.516613364    0.354100049    0.615219533
    0.326137066    0.116004705    0.710207939
    0.135660887    0.877909422    0.805196404
    0.373756051    0.925528526    0.900184691
    0.326137245    0.116004884    0.425242722
    0.135660976    0.877909541    0.520231128
    0.945184767    0.639814258    0.615219593
    0.754708469    0.401718915    0.710207939
    0.564232171    0.163623706    0.805196464
    0.516613185    0.354099929    0.900184691
    0.468994439    0.544576287    0.425242722
    0.278518140    0.306481063    0.520231128
    0.088041902    0.068385728    0.615219593
    0.897565603    0.830290318    0.710207939
    0.707089365    0.592195094    0.805196404
    0.659470379    0.782671332    0.900184751
    0.611851573    0.973147750    0.425242722
    0.421375334    0.735052466    0.520231128
    0.230899066    0.496957242    0.615219593
    0.040422797    0.258861840    0.710207939
    0.849946558    0.020766616    0.805196404
    0.230898902    0.496957064    0.900184751
    0.183280081    0.687433422    0.425242722
    0.992803812    0.449338138    0.520231128
    0.802327573    0.211242855    0.615219593
    0.611851275    0.973147511    0.710207939
    0.421375096    0.735052228    0.805196464
    0.064232387    0.163623765    0.876437604
    0.826137304    0.116004854    0.496484011
    0.635661125    0.877909601    0.591472447
    0.445184767    0.639814258    0.686460853
    0.254708529    0.401718974    0.781449199
    0.635660887    0.877909422    0.876437604
    0.397565782    0.830290556    0.496484011
    0.207089558    0.592195272    0.591472447
    0.016613245    0.354099929    0.686460853
    0.826137006    0.116004601    0.781449258
    0.778518021    0.306480944    0.876437604
    0.540422976    0.258861959    0.496484041
    0.349946737    0.020766739    0.591472447
    0.159470454    0.782671392    0.686460853
    0.968994200    0.544576049    0.781449258
    0.921375096    0.735052347    0.876437724
    0.683280051    0.687433422    0.496484041
    0.492803812    0.449338138    0.591472447
    0.302327514    0.211242795    0.686460853
    0.111851230    0.973147452    0.781449258
    0.349946558    0.020766571    0.876437604
    0.111851469    0.973147690    0.496484011
    0.921375275    0.735052466    0.591472447
    0.730898976    0.496957004    0.686460853
    0.540422738    0.258861721    0.781449258
    0.492803693    0.449338019    0.876437604
    0.254708588    0.401719093    0.496484041
    0.064232409    0.163623899    0.591472447
    0.873756111    0.925528526    0.686460853
    0.683279872    0.687433183    0.781449258
    0.207089409    0.592195153    0.876437604
    0.968994319    0.544576228    0.496484011
    0.778518140    0.306481004    0.591472447
    0.588041842    0.068385676    0.686460853
    0.397565544    0.830290318    0.781449199
    0.873756111    0.925528407    0.900184751
    0.826137304    0.116004892    0.425242722
    0.635661125    0.877909601    0.520231128
    0.445184886    0.639814258    0.615219593
    0.254708499    0.401718915    0.710207939
    0.064232290    0.163623706    0.805196404
    0.016613245    0.354099870    0.900184751
    0.968994498    0.544576287    0.425242722
    0.778518260    0.306481004    0.520231128
    0.588042021    0.068385720    0.615219593
    0.397565663    0.830290318    0.710207939
    0.207089454    0.592195094    0.805196404
    0.588041842    0.068385616    0.900184691
    0.540422976    0.258862019    0.425242692
    0.349946737    0.020766720    0.520231068
    0.159470528    0.782671511    0.615219474
    0.968994200    0.544576108    0.710207939
    0.778518021    0.306480885    0.805196345
    0.730898976    0.496957064    0.900184691
    0.683280170    0.687433481    0.425242662
    0.492803872    0.449338198    0.520231068
    0.302327693    0.211242974    0.615219474
    0.111851372    0.973147571    0.710207939
    0.921375155    0.735052288    0.805196345
    0.302327514    0.211242750    0.900184691
    0.254708648    0.401719153    0.425242692
    0.064232409    0.163623869    0.520231068
    0.873756230    0.925528646    0.615219474
    0.683279932    0.687433243    0.710207939
    0.492803752    0.449338078    0.805196345
    0.445184708    0.639814258    0.900184691
    0.397565842    0.830290675    0.425242692
    0.207089573    0.592195332    0.520231068
    0.016613364    0.354100108    0.615219474
    0.826137066    0.116004713    0.710207939
    0.635660827    0.877909422    0.805196345
    0.159470305    0.782671392    0.900184691
    0.111851513    0.973147810    0.425242692
    0.921375275    0.735052466    0.520231068
    0.730899036    0.496957302    0.615219474
    0.540422738    0.258861840    0.710207939
    0.349946499    0.020766616    0.805196345
    0.992803812    0.949338078    0.876437724
    0.754708707    0.901719093    0.496484041
    0.564232528    0.663623869    0.591472447
    0.373756170    0.425528526    0.686460853
    0.183279917    0.187433258    0.781449258
    0.707089484    0.092195228    0.876437724
    0.468994379    0.044576287    0.496484041
    0.278518170    0.806481004    0.591472447
    0.088041887    0.568385720    0.686460853
    0.897565663    0.330290377    0.781449258
    0.849946618    0.520766616    0.876437604
    0.611851513    0.473147690    0.496484011
    0.421375275    0.235052437    0.591472447
    0.230898991    0.996957064    0.686460853
    0.040422678    0.758861780    0.781449199
    0.421375155    0.235052302    0.876437604
    0.183280051    0.187433392    0.496484011
    0.992803872    0.949338138    0.591472447
    0.802327573    0.711242795    0.686460853
    0.611851335    0.473147452    0.781449199
    0.564232290    0.663623691    0.876437604
    0.326137245    0.616004825    0.496484011
    0.135661006    0.377909601    0.591472447
    0.945184708    0.139814228    0.686460853
    0.754708469    0.901718855    0.781449199
    0.135660812    0.377909422    0.876437604
    0.897565782    0.330290556    0.496484011
    0.707089543    0.092195310    0.591472447
    0.516613245    0.854099929    0.686460853
    0.326136947    0.616004586    0.781449199
    0.278517962    0.806480885    0.876437724
    0.040422916    0.758862019    0.496483982
    0.849946678    0.520766735    0.591472447
    0.659470499    0.282671571    0.686460793
    0.468994081    0.044576064    0.781449258
    0.945184648    0.139814094    0.900184751
    0.897565901    0.330290556    0.425242722
    0.707089663    0.092195258    0.520231128
    0.516613364    0.854099929    0.615219593
    0.326137066    0.616004586    0.710207939
    0.135660857    0.377909362    0.805196404
    0.088041827    0.568385601    0.900184691
    0.040423036    0.758862019    0.425242722
    0.849946737    0.520766735    0.520231128
    0.659470499    0.282671452    0.615219593
    0.468994200    0.044576071    0.710207939
    0.278517962    0.806480765    0.805196404
    0.659470379    0.282671332    0.900184751
    0.611851573    0.473147810    0.425242692
    0.421375334    0.235052466    0.520231128
    0.230899125    0.996957242    0.615219533
    0.040422797    0.758861840    0.710207939
    0.849946558    0.520766616    0.805196404
    0.802327573    0.711242795    0.900184691
    0.754708707    0.901719153    0.425242692
    0.564232469    0.663623869    0.520231068
    0.373756289    0.425528646    0.615219474
    0.183279961    0.187433258    0.710207939
    0.992803752    0.949337959    0.805196345
    0.230898961    0.996956944    0.900184691
    0.183280110    0.187433422    0.425242692
    0.992803872    0.949338078    0.520231068
    0.802327693    0.711242855    0.615219474
    0.611851394    0.473147511    0.710207939
    0.421375155    0.235052302    0.805196345
    0.373756111    0.425528526    0.900184691
    0.326137245    0.616004944    0.425242692
    0.135661006    0.377909601    0.520231068
    0.945184827    0.139814392    0.615219474
    0.754708469    0.901718974    0.710207939
    0.564232290    0.663623691    0.805196345
    0.516613245    0.854099870    0.900184691
    0.468994379    0.044576287    0.425242692
    0.278518140    0.806480944    0.520231068
    0.088041946    0.568385720    0.615219474
    0.897565663    0.330290377    0.710207939
    0.707089424    0.092195168    0.805196345
    0.921375275    0.235052362    0.876437724
    0.683280170    0.187433392    0.496484041
    0.492803931    0.949338138    0.591472447
    0.302327633    0.711242795    0.686460853
    0.111851335    0.473147452    0.781449318
    0.064232349    0.663623750    0.876437604
    0.826137304    0.616004825    0.496483982
    0.635661066    0.377909601    0.591472447
    0.445184767    0.139814258    0.686460853
    0.254708469    0.901718915    0.781449199
    0.492803752    0.949337959    0.876437604
    0.254708618    0.901719093    0.496484011
    0.064232416    0.663623810    0.591472447
    0.873756111    0.425528467    0.686460853
    0.683279812    0.187433198    0.781449258
    0.635660946    0.377909482    0.876437604
    0.397565722    0.330290556    0.496484011
    0.207089558    0.092195310    0.591472447
    0.016613245    0.854099989    0.686460853
    0.826137006    0.616004586    0.781449258
    0.778518081    0.806480944    0.876437604
    0.540422976    0.758862019    0.496483982
    0.349946737    0.520766795    0.591472447
    0.159470454    0.282671452    0.686460853
    0.968994200    0.044576101    0.781449258
    0.207089409    0.092195228    0.876437604
    0.968994319    0.044576257    0.496484011
    0.778518140    0.806481004    0.591472447
    0.588041842    0.568385601    0.686460853
    0.397565544    0.330290318    0.781449258
    0.349946618    0.520766616    0.876437604
    0.111851469    0.473147750    0.496484011
    0.921375275    0.235052526    0.591472447
    0.730898976    0.996957183    0.686460853
    0.540422738    0.758861899    0.781449199
    0.730898917    0.996957064    0.900184751
    0.683280170    0.187433481    0.425242722
    0.492803931    0.949338198    0.520231128
    0.302327693    0.711242914    0.615219593
    0.111851387    0.473147571    0.710207939
    0.921375215    0.235052243    0.805196404
    0.873756230    0.425528467    0.900184691
    0.826137364    0.616004944    0.425242692
    0.635661125    0.377909601    0.520231068
    0.445184827    0.139814317    0.615219533
    0.254708558    0.901718974    0.710207939
    0.064232342    0.663623691    0.805196345
    0.016613245    0.854099870    0.900184691
    0.968994439    0.044576317    0.425242692
    0.778518200    0.806481004    0.520231068
    0.588042021    0.568385720    0.615219593
    0.397565603    0.330290318    0.710207939
    0.207089439    0.092195049    0.805196404
    0.445184648    0.139814153    0.900184751
    0.397565842    0.330290616    0.425242722
    0.207089603    0.092195317    0.520231128
    0.016613364    0.854099989    0.615219593
    0.826137066    0.616004705    0.710207939
    0.635660887    0.377909422    0.805196404
    0.588041723    0.568385601    0.900184691
    0.540422976    0.758862019    0.425242692
    0.349946737    0.520766735    0.520231068
    0.159470469    0.282671452    0.615219533
    0.968994200    0.044576086    0.710207939
    0.778518021    0.806480825    0.805196404
    0.159470364    0.282671392    0.900184691
    0.111851543    0.473147750    0.425242722
    0.921375334    0.235052496    0.520231128
    0.730899036    0.996957183    0.615219593
    0.540422738    0.758861780    0.710207939
    0.349946499    0.520766556    0.805196404
    0.302327514    0.711242795    0.900184691
    0.254708707    0.901719213    0.425242692
    0.064232461    0.663623869    0.520231068
    0.873756230    0.425528586    0.615219593
    0.683279932    0.187433273    0.710207939
    0.492803752    0.949338019    0.805196345
