Ge+Si
    1.000000000
   12.651226044    0.000000000    0.000000000
    2.530244589   17.711715698    0.000000000
    0.000000000    0.000000000   12.615246773
Ge  Si 
84     72
Direct
    0.997559488    0.995119035    0.000000000
    0.926130831    0.852261782    0.224244535
    0.854702175    0.709404588    0.448489100
    0.140416637    0.280833274    0.000000000
    0.068987980    0.137976080    0.224244535
    0.997559309    0.995118916    0.448489100
    0.568988085    0.137976155    0.000000000
    0.497559398    0.995118916    0.224244535
    0.426130742    0.852261782    0.448489100
    0.283273786    0.566547573    0.000000000
    0.211845115    0.423690379    0.224244535
    0.140416458    0.280833185    0.448489100
    0.711845219    0.423690468    0.000000000
    0.640416563    0.280833274    0.224244535
    0.568987906    0.137976080    0.448489100
    0.426130950    0.852261901    0.000000000
    0.354702294    0.709404707    0.224244535
    0.283273637    0.566547513    0.448489100
    0.854702413    0.709404707    0.000000000
    0.783273816    0.566547513    0.224244535
    0.711845100    0.423690349    0.448489100
    0.140416652    0.030833293    0.112122267
    0.068987988    0.887976050    0.336366832
    0.997559309    0.745118856    0.560611367
    0.283273786    0.316547602    0.112122267
    0.211845130    0.173690408    0.336366832
    0.140416458    0.030833198    0.560611367
    0.711845219    0.173690423    0.112122267
    0.640416503    0.030833229    0.336366832
    0.568987906    0.887975991    0.560611367
    0.997559488    0.745118976    0.112122267
    0.926130831    0.602261782    0.336366832
    0.854702175    0.459404558    0.560611367
    0.426130950    0.602261841    0.112122267
    0.354702294    0.459404647    0.336366832
    0.283273607    0.316547424    0.560611367
    0.854702294    0.459404767    0.112122267
    0.783273697    0.316547573    0.336366832
    0.711845040    0.173690334    0.560611367
    0.568988085    0.887976289    0.112122267
    0.497559428    0.745119035    0.336366832
    0.426130742    0.602261841    0.560611367
    0.283273786    0.066547580    0.000000000
    0.211845115    0.923690379    0.224244535
    0.140416458    0.780833185    0.448489100
    0.997559488    0.495119035    0.000000000
    0.926130831    0.352261811    0.224244535
    0.854702175    0.209404632    0.448489100
    0.426130980    0.352261871    0.000000000
    0.354702294    0.209404647    0.224244535
    0.283273637    0.066547468    0.448489100
    0.854702413    0.209404737    0.000000000
    0.783273697    0.066547513    0.224244535
    0.711845100    0.923690319    0.448489100
    0.140416622    0.780833304    0.000000000
    0.068987951    0.637976110    0.224244535
    0.997559309    0.495118916    0.448489100
    0.568988025    0.637976170    0.000000000
    0.497559398    0.495118976    0.224244535
    0.426130742    0.352261782    0.448489100
    0.711845219    0.923690557    0.000000000
    0.640416563    0.780833364    0.224244535
    0.568987906    0.637976170    0.448489100
    0.997559488    0.245118991    0.112122267
    0.926130831    0.102261782    0.336366832
    0.854702175    0.959404588    0.560611367
    0.426130950    0.102261871    0.112122267
    0.354702294    0.959404647    0.336366832
    0.283273637    0.816547453    0.560611367
    0.140416637    0.530833304    0.112122267
    0.068987980    0.387976110    0.336366832
    0.997559309    0.245118886    0.560611367
    0.568988025    0.387976170    0.112122267
    0.497559398    0.245118961    0.336366832
    0.426130772    0.102261730    0.560611367
    0.283273757    0.816547573    0.112122267
    0.211845115    0.673690379    0.336366832
    0.140416458    0.530833185    0.560611367
    0.711845160    0.673690438    0.112122267
    0.640416563    0.530833244    0.336366832
    0.568987906    0.387976050    0.560611367
    0.854702473    0.959404767    0.112122267
    0.783273816    0.816547573    0.336366832
    0.711845100    0.673690379    0.560611367
    0.741898179    0.603009343    0.560611367
    0.103009462    0.297453642    0.648489118
    0.464120746    0.991897881    0.736366868
    0.825231791    0.686342239    0.824244499
    0.186342955    0.380786479    0.912122130
    0.547454357    0.075230718    1.000000000
    0.408564806    0.269675940    0.560611367
    0.769676089    0.964120209    0.648489118
    0.130787373    0.658564508    0.736366868
    0.491898417    0.353008866    0.824244499
    0.853009701    0.047453105    0.912122369
    0.214120865    0.741897464    1.000000000
    0.075231500    0.936342597    0.560611367
    0.436342746    0.630786896    0.648489118
    0.797453940    0.325231075    0.736366868
    0.158565044    0.019675493    0.824244499
    0.519676328    0.714119792    0.912122130
    0.880787611    0.408563972    1.000000000
    0.075231485    0.686342716    0.560611367
    0.436342746    0.380787015    0.648489118
    0.797453940    0.075231291    0.736366868
    0.158565164    0.769675612    0.824244499
    0.519676328    0.464119911    0.912122369
    0.880787730    0.158564150    0.999999881
    0.741898119    0.353009284    0.560611367
    0.103009343    0.047453564    0.648489118
    0.464120507    0.741897821    0.736366868
    0.825231671    0.436342239    0.824244499
    0.186342955    0.130786359    0.912122369
    0.547454119    0.825230718    1.000000000
    0.408564866    0.019675912    0.560611367
    0.769676089    0.714120150    0.648489118
    0.130787373    0.408564389    0.736366868
    0.491898537    0.103008866    0.824244618
    0.853009701    0.797453165    0.912122369
    0.214120865    0.491897225    1.000000000
    0.908564866    0.769676030    0.560611486
    0.269676208    0.464120358    0.648489118
    0.630787373    0.158564568    0.736366868
    0.991898417    0.853008926    0.824244499
    0.353009939    0.547453225    0.912122369
    0.714120865    0.241897523    1.000000000
    0.575231552    0.436342627    0.560611367
    0.936342716    0.130786896    0.648489118
    0.297454000    0.825231194    0.736366868
    0.658565164    0.519675553    0.824244499
    0.019676447    0.214119852    0.912122130
    0.380787611    0.908564091    1.000000000
    0.241898149    0.103009269    0.560611367
    0.603009403    0.797453523    0.648489118
    0.964120626    0.491897762    0.736366868
    0.325231791    0.186342180    0.824244499
    0.686342955    0.880786419    0.912122369
    0.047454119    0.575230718    1.000000000
    0.241898149    0.853009343    0.560611367
    0.603009343    0.547453642    0.648489118
    0.964120626    0.241897911    0.736366868
    0.325231791    0.936342239    0.824244499
    0.686343074    0.630786538    0.912122369
    0.047454357    0.325230837    1.000000000
    0.908564866    0.519675970    0.560611486
    0.269676089    0.214120299    0.648489118
    0.630787373    0.908564568    0.736366868
    0.991898537    0.603008926    0.824244499
    0.353009701    0.297453225    0.912122369
    0.714121103    0.991897464    1.000000000
    0.575231493    0.186342612    0.560611367
    0.936342776    0.880786896    0.648489118
    0.297454000    0.575231135    0.736366868
    0.658565164    0.269675553    0.824244499
    0.019676208    0.964119792    0.912122369
    0.380787611    0.658564091    1.000000000
