Ge+Si                                   
   1.00000000000000     
     8.0013380049999991    0.0000000000000000    0.0000000000000000
     0.0000000000000000   16.0026760099999983    0.0000000000000000
     0.0000000000000000    0.0000000000000000   10.2725009919999994
   Ge   Si
    48    24
Direct
  0.9914582970000012  0.9957291480000023  0.0000000000000000
  0.7414582970000012  0.8707291480000023  0.2753857080000017
  0.4914582970000012  0.7457291480000023  0.5507714149999998
  0.9914582370000034  0.4957290890000010  0.0000000000000000
  0.7414582970000012  0.3707291190000035  0.2753857080000017
  0.4914582970000012  0.2457291190000035  0.5507714149999998
  0.4914582370000034  0.2457291190000035  0.0000000000000000
  0.2414582669999987  0.1207291329999975  0.2753857080000017
  0.9914582970000012  0.9957291480000023  0.5507714149999998
  0.4914582370000034  0.7457290890000010  0.0000000000000000
  0.2414582820000035  0.6207290890000010  0.2753857080000017
  0.9914582370000034  0.4957290890000010  0.5507714149999998
  0.2414582820000035  0.9957291480000023  0.1376928540000009
  0.9914582970000012  0.8707291480000023  0.4130785759999966
  0.7414582970000012  0.7457291480000023  0.6884643440000033
  0.2414582370000034  0.4957290890000010  0.1376928540000009
  0.9914582370000034  0.3707290890000010  0.4130785759999966
  0.7414582370000034  0.2457290890000010  0.6884643440000033
  0.7414582970000012  0.2457291480000023  0.1376928540000009
  0.4914582970000012  0.1207291480000023  0.4130785759999966
  0.2414582820000035  0.9957291480000023  0.6884643440000033
  0.7414582970000012  0.7457290890000010  0.1376928540000009
  0.4914582669999987  0.6207290890000010  0.4130785759999966
  0.2414582669999987  0.4957291190000035  0.6884643440000033
  0.9914582970000012  0.2457291329999975  0.0000000000000000
  0.7414582970000012  0.1207291329999975  0.2753857080000017
  0.4914582970000012  0.9957291480000023  0.5507714149999998
  0.4914582669999987  0.9957291480000023  0.0000000000000000
  0.2414582669999987  0.8707291480000023  0.2753857080000017
  0.9914582970000012  0.7457291480000023  0.5507714149999998
  0.9914582370000034  0.7457291480000023  0.0000000000000000
  0.7414582970000012  0.6207291480000023  0.2753857080000017
  0.4914582970000012  0.4957291480000023  0.5507714149999998
  0.4914582669999987  0.4957291190000035  0.0000000000000000
  0.2414583119999989  0.3707291480000023  0.2753857080000017
  0.9914582970000012  0.2457291480000023  0.5507714149999998
  0.2414582820000035  0.2457291190000035  0.1376928540000009
  0.9914582970000012  0.1207291329999975  0.4130785759999966
  0.7414582970000012  0.9957291480000023  0.6884643440000033
  0.7414582370000034  0.9957291480000023  0.1376928540000009
  0.4914582669999987  0.8707291480000023  0.4130785759999966
  0.2414582520000010  0.7457290890000010  0.6884643440000033
  0.2414582820000035  0.7457290890000010  0.1376928540000009
  0.9914582970000012  0.6207290890000010  0.4130785759999966
  0.7414582970000012  0.4957290890000010  0.6884643440000033
  0.7414582370000034  0.4957290890000010  0.1376928540000009
  0.4914582669999987  0.3707291190000035  0.4130785759999966
  0.2414582520000010  0.2457290890000010  0.6884643440000033
  0.9435140490000009  0.9121329780000025  0.6884642839999984
  0.6935139890000031  0.5232440229999966  0.7507715229999974
  0.4435139890000031  0.1343551280000028  0.8130786420000007
  0.1935139300000017  0.7454661129999991  0.8753856419999977
  0.9435138699999968  0.3565771580000003  0.9376928809999967
  0.6935137509999976  0.9676878450000004  0.0000000000000000
  0.1935140790000034  0.6621330380000003  0.6884642839999984
  0.9435140490000009  0.2732440229999966  0.7507715229999974
  0.6935140490000009  0.8843551280000028  0.8130786420000007
  0.4435138699999968  0.4954660530000012  0.8753857609999969
  0.1935138110000025  0.1065770390000012  0.9376927610000010
  0.9435137509999976  0.7176879639999996  0.0000001189999992
  0.6935141680000001  0.6621330380000003  0.6884642839999984
  0.4435140490000009  0.2732439939999978  0.7507715229999974
  0.1935140340000032  0.8843550679999979  0.8130786420000007
  0.9435139890000031  0.4954660530000012  0.8753857609999969
  0.6935138699999968  0.1065770390000012  0.9376927610000010
  0.4435138110000025  0.7176879639999996  0.0000000000000000
  0.4435140790000034  0.9121329780000025  0.6884642839999984
  0.1935139890000031  0.5232440229999966  0.7507715229999974
  0.9435139890000031  0.1343551280000028  0.8130786420000007
  0.6935139890000031  0.7454661129999991  0.8753856419999977
  0.4435139300000017  0.3565770390000012  0.9376928809999967
  0.1935136909999997  0.9676880840000024  0.0000001189999992
 
  0.00000000E+00  0.00000000E+00  0.00000000E+00
  0.00000000E+00  0.00000000E+00  0.00000000E+00
  0.00000000E+00  0.00000000E+00  0.00000000E+00
  0.00000000E+00  0.00000000E+00  0.00000000E+00
  0.00000000E+00  0.00000000E+00  0.00000000E+00
  0.00000000E+00  0.00000000E+00  0.00000000E+00
  0.00000000E+00  0.00000000E+00  0.00000000E+00
  0.00000000E+00  0.00000000E+00  0.00000000E+00
  0.00000000E+00  0.00000000E+00  0.00000000E+00
  0.00000000E+00  0.00000000E+00  0.00000000E+00
  0.00000000E+00  0.00000000E+00  0.00000000E+00
  0.00000000E+00  0.00000000E+00  0.00000000E+00
  0.00000000E+00  0.00000000E+00  0.00000000E+00
  0.00000000E+00  0.00000000E+00  0.00000000E+00
  0.00000000E+00  0.00000000E+00  0.00000000E+00
  0.00000000E+00  0.00000000E+00  0.00000000E+00
  0.00000000E+00  0.00000000E+00  0.00000000E+00
  0.00000000E+00  0.00000000E+00  0.00000000E+00
  0.00000000E+00  0.00000000E+00  0.00000000E+00
  0.00000000E+00  0.00000000E+00  0.00000000E+00
  0.00000000E+00  0.00000000E+00  0.00000000E+00
  0.00000000E+00  0.00000000E+00  0.00000000E+00
  0.00000000E+00  0.00000000E+00  0.00000000E+00
  0.00000000E+00  0.00000000E+00  0.00000000E+00
  0.00000000E+00  0.00000000E+00  0.00000000E+00
  0.00000000E+00  0.00000000E+00  0.00000000E+00
  0.00000000E+00  0.00000000E+00  0.00000000E+00
  0.00000000E+00  0.00000000E+00  0.00000000E+00
  0.00000000E+00  0.00000000E+00  0.00000000E+00
  0.00000000E+00  0.00000000E+00  0.00000000E+00
  0.00000000E+00  0.00000000E+00  0.00000000E+00
  0.00000000E+00  0.00000000E+00  0.00000000E+00
  0.00000000E+00  0.00000000E+00  0.00000000E+00
  0.00000000E+00  0.00000000E+00  0.00000000E+00
  0.00000000E+00  0.00000000E+00  0.00000000E+00
  0.00000000E+00  0.00000000E+00  0.00000000E+00
  0.00000000E+00  0.00000000E+00  0.00000000E+00
  0.00000000E+00  0.00000000E+00  0.00000000E+00
  0.00000000E+00  0.00000000E+00  0.00000000E+00
  0.00000000E+00  0.00000000E+00  0.00000000E+00
  0.00000000E+00  0.00000000E+00  0.00000000E+00
  0.00000000E+00  0.00000000E+00  0.00000000E+00
  0.00000000E+00  0.00000000E+00  0.00000000E+00
  0.00000000E+00  0.00000000E+00  0.00000000E+00
  0.00000000E+00  0.00000000E+00  0.00000000E+00
  0.00000000E+00  0.00000000E+00  0.00000000E+00
  0.00000000E+00  0.00000000E+00  0.00000000E+00
  0.00000000E+00  0.00000000E+00  0.00000000E+00
  0.00000000E+00  0.00000000E+00  0.00000000E+00
  0.00000000E+00  0.00000000E+00  0.00000000E+00
  0.00000000E+00  0.00000000E+00  0.00000000E+00
  0.00000000E+00  0.00000000E+00  0.00000000E+00
  0.00000000E+00  0.00000000E+00  0.00000000E+00
  0.00000000E+00  0.00000000E+00  0.00000000E+00
  0.00000000E+00  0.00000000E+00  0.00000000E+00
  0.00000000E+00  0.00000000E+00  0.00000000E+00
  0.00000000E+00  0.00000000E+00  0.00000000E+00
  0.00000000E+00  0.00000000E+00  0.00000000E+00
  0.00000000E+00  0.00000000E+00  0.00000000E+00
  0.00000000E+00  0.00000000E+00  0.00000000E+00
  0.00000000E+00  0.00000000E+00  0.00000000E+00
  0.00000000E+00  0.00000000E+00  0.00000000E+00
  0.00000000E+00  0.00000000E+00  0.00000000E+00
  0.00000000E+00  0.00000000E+00  0.00000000E+00
  0.00000000E+00  0.00000000E+00  0.00000000E+00
  0.00000000E+00  0.00000000E+00  0.00000000E+00
  0.00000000E+00  0.00000000E+00  0.00000000E+00
  0.00000000E+00  0.00000000E+00  0.00000000E+00
  0.00000000E+00  0.00000000E+00  0.00000000E+00
  0.00000000E+00  0.00000000E+00  0.00000000E+00
  0.00000000E+00  0.00000000E+00  0.00000000E+00
  0.00000000E+00  0.00000000E+00  0.00000000E+00
