Sn+Sn
    1.000000000
    9.177114487    0.000000000    0.000000000
    4.588557720   13.765672684    0.000000000
    0.000000000    0.000000000   10.815333366
Sn 
48
Direct
    0.995035112    0.995035112    0.000000000
    0.828368425    0.828368425    0.300000042
    0.661701798    0.661701798    0.599999964
    0.328368455    0.328368425    0.000000000
    0.161701769    0.161701739    0.300000042
    0.995035112    0.995035112    0.599999964
    0.661701798    0.661701798    0.000000000
    0.495035142    0.495035112    0.300000042
    0.328368485    0.328368455    0.599999964
    0.245035097    0.995035112    0.149999991
    0.078368470    0.828368425    0.450000018
    0.911701739    0.661701739    0.750000060
    0.578368485    0.328368425    0.149999991
    0.411701828    0.161701784    0.450000018
    0.245035127    0.995035052    0.750000060
    0.911701739    0.661701739    0.149999991
    0.745035112    0.495035052    0.450000018
    0.578368425    0.328368366    0.750000060
    0.495035052    0.995035112    0.000000000
    0.328368396    0.828368425    0.300000042
    0.161701739    0.661701798    0.599999964
    0.161701724    0.661701739    0.000000000
    0.995035052    0.495035052    0.300000042
    0.828368425    0.328368425    0.599999964
    0.828368485    0.328368455    0.000000000
    0.661701798    0.161701769    0.300000042
    0.495035142    0.995035112    0.599999964
    0.078368410    0.328368425    0.149999991
    0.911701798    0.161701769    0.450000018
    0.745035052    0.995035052    0.750000060
    0.745035112    0.995035112    0.149999991
    0.578368485    0.828368425    0.450000018
    0.411701739    0.661701739    0.750000060
    0.411701739    0.661701739    0.149999991
    0.245035127    0.495035112    0.450000018
    0.078368396    0.328368396    0.750000060
    0.962846637    0.026538122    0.750000060
    0.573957622    0.304316014    0.850000143
    0.185068667    0.582093835    0.950000167
    0.462846667    0.026538121    0.750000060
    0.073957659    0.304316014    0.850000143
    0.685068727    0.582093835    0.950000167
    0.768402100    0.915427089    0.800000012
    0.379513144    0.193204999    0.900000095
    0.990624070    0.470983028    1.000000238
    0.268402129    0.915427089    0.800000012
    0.879513144    0.193204999    0.900000095
    0.490624130    0.470983028    1.000000238
