Si+Si                                   
   1.00000000000000     
     7.6805944439999996    0.0000000000000000    0.0000000000000000
     3.8402969840000001   11.5208911900000004    0.0000000000000000
     0.0000000000000000    0.0000000000000000    9.0516681670000008
   Si
    48
Direct
  0.9940677290000011  0.9940677290000011  0.0000000000000000
  0.8274010419999982  0.8274010419999982  0.2999999230000014
  0.6607342960000011  0.6607342960000011  0.5999999049999971
  0.3274010419999982  0.3274010419999982  0.0000000000000000
  0.1607343700000001  0.1607343550000024  0.2999999230000014
  0.9940676690000032  0.9940676690000032  0.5999999049999971
  0.6607344150000003  0.6607344150000003  0.0000000000000000
  0.4940676690000032  0.4940676690000032  0.2999999230000014
  0.3274009820000003  0.3274009820000003  0.5999999049999971
  0.2440677140000034  0.9940677290000011  0.1499999759999966
  0.0774010049999987  0.8274009820000003  0.4499999279999969
  0.9107342960000011  0.6607342960000011  0.7499998810000008
  0.5774011020000032  0.3274010120000028  0.1499999759999966
  0.4107343849999978  0.1607343259999965  0.4499999279999969
  0.2440676539999984  0.9940676089999982  0.7499998810000008
  0.9107343550000024  0.6607343550000024  0.1499999759999966
  0.7440676690000032  0.4940676690000032  0.4499999279999969
  0.5774009229999990  0.3274009530000015  0.7499998810000008
  0.4940677290000011  0.9940677290000011  0.0000000000000000
  0.3274010419999982  0.8274010419999982  0.2999999230000014
  0.1607343109999988  0.6607342960000011  0.5999999049999971
  0.1607343550000024  0.6607344150000003  0.0000000000000000
  0.9940676690000032  0.4940677290000011  0.2999999230000014
  0.8274009229999990  0.3274010120000028  0.5999999049999971
  0.8274011020000032  0.3274010720000007  0.0000000000000000
  0.6607344150000003  0.1607343700000001  0.2999999230000014
  0.4940676690000032  0.9940676690000032  0.5999999049999971
  0.0774010049999987  0.3274010419999982  0.1499999759999966
  0.9107342960000011  0.1607343410000013  0.4499999279999969
  0.7440675499999969  0.9940676089999982  0.7499998810000008
  0.7440677290000011  0.9940677290000011  0.1499999759999966
  0.5774010419999982  0.8274010419999982  0.4499999279999969
  0.4107342960000011  0.6607342960000011  0.7499998810000008
  0.4107343849999978  0.6607344150000003  0.1499999759999966
  0.2440676690000032  0.4940676690000032  0.4499999279999969
  0.0774009300000031  0.3274009229999990  0.7499998810000008
  0.9628466369999984  0.0265381170000012  0.7499998810000008
  0.5739576220000018  0.3043159540000033  0.8499999639999984
  0.1850686069999981  0.5820937749999970  0.9499999880000018
  0.4628466070000030  0.0265381130000009  0.7499998810000008
  0.0739575919999993  0.3043159540000033  0.8499998449999993
  0.6850686069999981  0.5820937749999970  0.9499999880000018
  0.7684021000000030  0.9154269699999986  0.7999998929999990
  0.3795130849999993  0.1932049990000024  0.8999999170000024
  0.9906240700000026  0.4709826710000016  0.9999999400000021
  0.2684021000000030  0.9154270289999999  0.7999998929999990
  0.8795130250000014  0.1932048800000032  0.8999999170000024
  0.4906240110000013  0.4709826710000016  0.9999999400000021
 
  0.00000000E+00  0.00000000E+00  0.00000000E+00
  0.00000000E+00  0.00000000E+00  0.00000000E+00
  0.00000000E+00  0.00000000E+00  0.00000000E+00
  0.00000000E+00  0.00000000E+00  0.00000000E+00
  0.00000000E+00  0.00000000E+00  0.00000000E+00
  0.00000000E+00  0.00000000E+00  0.00000000E+00
  0.00000000E+00  0.00000000E+00  0.00000000E+00
  0.00000000E+00  0.00000000E+00  0.00000000E+00
  0.00000000E+00  0.00000000E+00  0.00000000E+00
  0.00000000E+00  0.00000000E+00  0.00000000E+00
  0.00000000E+00  0.00000000E+00  0.00000000E+00
  0.00000000E+00  0.00000000E+00  0.00000000E+00
  0.00000000E+00  0.00000000E+00  0.00000000E+00
  0.00000000E+00  0.00000000E+00  0.00000000E+00
  0.00000000E+00  0.00000000E+00  0.00000000E+00
  0.00000000E+00  0.00000000E+00  0.00000000E+00
  0.00000000E+00  0.00000000E+00  0.00000000E+00
  0.00000000E+00  0.00000000E+00  0.00000000E+00
  0.00000000E+00  0.00000000E+00  0.00000000E+00
  0.00000000E+00  0.00000000E+00  0.00000000E+00
  0.00000000E+00  0.00000000E+00  0.00000000E+00
  0.00000000E+00  0.00000000E+00  0.00000000E+00
  0.00000000E+00  0.00000000E+00  0.00000000E+00
  0.00000000E+00  0.00000000E+00  0.00000000E+00
  0.00000000E+00  0.00000000E+00  0.00000000E+00
  0.00000000E+00  0.00000000E+00  0.00000000E+00
  0.00000000E+00  0.00000000E+00  0.00000000E+00
  0.00000000E+00  0.00000000E+00  0.00000000E+00
  0.00000000E+00  0.00000000E+00  0.00000000E+00
  0.00000000E+00  0.00000000E+00  0.00000000E+00
  0.00000000E+00  0.00000000E+00  0.00000000E+00
  0.00000000E+00  0.00000000E+00  0.00000000E+00
  0.00000000E+00  0.00000000E+00  0.00000000E+00
  0.00000000E+00  0.00000000E+00  0.00000000E+00
  0.00000000E+00  0.00000000E+00  0.00000000E+00
  0.00000000E+00  0.00000000E+00  0.00000000E+00
  0.00000000E+00  0.00000000E+00  0.00000000E+00
  0.00000000E+00  0.00000000E+00  0.00000000E+00
  0.00000000E+00  0.00000000E+00  0.00000000E+00
  0.00000000E+00  0.00000000E+00  0.00000000E+00
  0.00000000E+00  0.00000000E+00  0.00000000E+00
  0.00000000E+00  0.00000000E+00  0.00000000E+00
  0.00000000E+00  0.00000000E+00  0.00000000E+00
  0.00000000E+00  0.00000000E+00  0.00000000E+00
  0.00000000E+00  0.00000000E+00  0.00000000E+00
  0.00000000E+00  0.00000000E+00  0.00000000E+00
  0.00000000E+00  0.00000000E+00  0.00000000E+00
  0.00000000E+00  0.00000000E+00  0.00000000E+00
