Si+Si
    1.000000000
    7.680594444    0.000000000    0.000000000
    3.840296984   11.520891190    0.000000000
    0.000000000    0.000000000    9.051668167
Si 
48
Direct
    0.994067729    0.994067729    0.000000000
    0.827401042    0.827401042    0.299999923
    0.660734296    0.660734296    0.599999905
    0.327401042    0.327401042    0.000000000
    0.160734370    0.160734355    0.299999923
    0.994067669    0.994067669    0.599999905
    0.660734415    0.660734415    0.000000000
    0.494067669    0.494067669    0.299999923
    0.327400982    0.327400982    0.599999905
    0.244067714    0.994067729    0.149999976
    0.077401005    0.827400982    0.449999928
    0.910734296    0.660734296    0.749999881
    0.577401102    0.327401012    0.149999976
    0.410734385    0.160734326    0.449999928
    0.244067654    0.994067609    0.749999881
    0.910734355    0.660734355    0.149999976
    0.744067669    0.494067669    0.449999928
    0.577400923    0.327400953    0.749999881
    0.494067729    0.994067729    0.000000000
    0.327401042    0.827401042    0.299999923
    0.160734311    0.660734296    0.599999905
    0.160734355    0.660734415    0.000000000
    0.994067669    0.494067729    0.299999923
    0.827400923    0.327401012    0.599999905
    0.827401102    0.327401072    0.000000000
    0.660734415    0.160734370    0.299999923
    0.494067669    0.994067669    0.599999905
    0.077401005    0.327401042    0.149999976
    0.910734296    0.160734341    0.449999928
    0.744067550    0.994067609    0.749999881
    0.744067729    0.994067729    0.149999976
    0.577401042    0.827401042    0.449999928
    0.410734296    0.660734296    0.749999881
    0.410734385    0.660734415    0.149999976
    0.244067669    0.494067669    0.449999928
    0.077400930    0.327400923    0.749999881
    0.962846637    0.026538117    0.749999881
    0.573957622    0.304315954    0.849999964
    0.185068607    0.582093775    0.949999988
    0.462846607    0.026538113    0.749999881
    0.073957592    0.304315954    0.849999845
    0.685068607    0.582093775    0.949999988
    0.768402100    0.915426970    0.799999893
    0.379513085    0.193204999    0.899999917
    0.990624070    0.470982671    0.999999940
    0.268402100    0.915427029    0.799999893
    0.879513025    0.193204880    0.899999917
    0.490624011    0.470982671    0.999999940
