Sn+Si
    1.000000000
   19.467599869    0.000000000    0.000000000
    0.000000000   19.467599869    0.000000000
    0.000000000    0.000000000   19.100252151
Sn  Si 
108     156
Direct
    0.995035112    0.666666687    0.000000000
    0.828368425    0.666666687    0.169872105
    0.661701739    0.666666687    0.339744180
    0.995035112    0.333333343    0.000000000
    0.828368425    0.333333343    0.169872105
    0.661701739    0.333333343    0.339744180
    0.995035112    0.000000000    0.000000000
    0.828368425    0.000000000    0.169872105
    0.661701739    0.000000000    0.339744180
    0.328368455    0.666666687    0.000000000
    0.161701739    0.666666687    0.169872105
    0.995035112    0.666666687    0.339744180
    0.328368455    0.333333343    0.000000000
    0.161701739    0.333333343    0.169872105
    0.995035112    0.333333343    0.339744180
    0.328368455    0.000000000    0.000000000
    0.161701739    0.000000000    0.169872105
    0.995035112    0.000000000    0.339744180
    0.661701798    0.666666687    0.000000000
    0.495035112    0.666666687    0.169872105
    0.328368455    0.666666687    0.339744180
    0.661701798    0.333333343    0.000000000
    0.495035112    0.333333343    0.169872105
    0.328368455    0.333333343    0.339744180
    0.661701798    0.000000000    0.000000000
    0.495035112    0.000000000    0.169872105
    0.328368455    0.000000000    0.339744180
    0.078368433    0.916666746    0.084936053
    0.911701798    0.916666746    0.254808098
    0.745035052    0.916666746    0.424680233
    0.078368433    0.583333433    0.084936053
    0.911701798    0.583333433    0.254808098
    0.745035052    0.583333433    0.424680233
    0.078368433    0.250000000    0.084936053
    0.911701798    0.250000000    0.254808098
    0.745035052    0.250000000    0.424680233
    0.411701769    0.916666746    0.084936053
    0.245035097    0.916666746    0.254808098
    0.078368381    0.916666746    0.424680233
    0.411701769    0.583333433    0.084936053
    0.245035097    0.583333433    0.254808098
    0.078368381    0.583333433    0.424680233
    0.411701769    0.250000000    0.084936053
    0.245035097    0.250000000    0.254808098
    0.078368381    0.250000000    0.424680233
    0.745035172    0.916666746    0.084936053
    0.578368545    0.916666746    0.254808098
    0.411701798    0.916666746    0.424680233
    0.745035172    0.583333433    0.084936053
    0.578368545    0.583333433    0.254808098
    0.411701798    0.583333433    0.424680233
    0.745035172    0.250000000    0.084936053
    0.578368545    0.250000000    0.254808098
    0.411701798    0.250000000    0.424680233
    0.161701769    0.833333313    0.000000000
    0.995035052    0.833333313    0.169872105
    0.828368425    0.833333313    0.339744180
    0.161701769    0.500000000    0.000000000
    0.995035052    0.500000000    0.169872105
    0.828368425    0.500000000    0.339744180
    0.161701769    0.166666672    0.000000000
    0.995035052    0.166666672    0.169872105
    0.828368425    0.166666672    0.339744180
    0.495035112    0.833333313    0.000000000
    0.328368425    0.833333313    0.169872105
    0.161701754    0.833333313    0.339744180
    0.495035112    0.500000000    0.000000000
    0.328368425    0.500000000    0.169872105
    0.161701754    0.500000000    0.339744180
    0.495035112    0.166666672    0.000000000
    0.328368425    0.166666672    0.169872105
    0.161701754    0.166666672    0.339744180
    0.828368545    0.833333313    0.000000000
    0.661701858    0.833333313    0.169872105
    0.495035201    0.833333313    0.339744180
    0.828368545    0.500000000    0.000000000
    0.661701858    0.500000000    0.169872105
    0.495035201    0.500000000    0.339744180
    0.828368545    0.166666672    0.000000000
    0.661701858    0.166666672    0.169872105
    0.495035201    0.166666672    0.339744180
    0.245035097    0.750000060    0.084936053
    0.078368433    0.750000060    0.254808098
    0.911701739    0.750000060    0.424680233
    0.245035097    0.416666716    0.084936053
    0.078368433    0.416666716    0.254808098
    0.911701739    0.416666716    0.424680233
    0.245035097    0.083333343    0.084936053
    0.078368433    0.083333343    0.254808098
    0.911701739    0.083333343    0.424680233
    0.578368485    0.750000060    0.084936053
    0.411701858    0.750000060    0.254808098
    0.245035127    0.750000060    0.424680233
    0.578368485    0.416666716    0.084936053
    0.411701858    0.416666716    0.254808098
    0.245035127    0.416666716    0.424680233
    0.578368485    0.083333343    0.084936053
    0.411701858    0.083333343    0.254808098
    0.245035127    0.083333343    0.424680233
    0.911701739    0.750000060    0.084936053
    0.745035052    0.750000060    0.254808098
    0.578368366    0.750000060    0.424680233
    0.911701739    0.416666716    0.084936053
    0.745035052    0.416666716    0.254808098
    0.578368366    0.416666716    0.424680233
    0.911701739    0.083333343    0.084936053
    0.745035052    0.083333343    0.254808098
    0.578368366    0.083333343    0.424680233
    0.842443466    0.239058375    0.534626484
    0.727058768    0.315981507    0.676797330
    0.611674070    0.392904669    0.818968296
    0.996289611    0.469827592    0.534626484
    0.880904913    0.546750665    0.676797330
    0.765520215    0.623673856    0.818968296
    0.457828045    0.162135303    0.534626484
    0.342443347    0.239058435    0.676797330
    0.227058649    0.315981567    0.818968296
    0.611674190    0.392904580    0.534626484
    0.496289492    0.469827712    0.676797330
    0.380904794    0.546750844    0.818968296
    0.765520275    0.623673797    0.534626484
    0.650135577    0.700596929    0.676797330
    0.534750879    0.777520061    0.818968296
    0.919366419    0.854443133    0.534626484
    0.803981721    0.931366265    0.676797330
    0.688597023    0.008289337    0.818968296
    0.073212624    0.085212208    0.534626484
    0.957827866    0.162135333    0.676797330
    0.842443168    0.239058465    0.818968296
    0.227058768    0.315981477    0.534626484
    0.111674070    0.392904609    0.676797330
    0.996289313    0.469827741    0.818968296
    0.380904943    0.546750724    0.534626484
    0.265520215    0.623673856    0.676797330
    0.150135517    0.700596988    0.818968296
    0.534751117    0.777519882    0.534626484
    0.419366419    0.854443014    0.676797330
    0.303981692    0.931366146    0.818968296
    0.688597202    0.008289218    0.534626484
    0.573212504    0.085212342    0.676797330
    0.457827836    0.162135482    0.818968296
    0.150135666    0.700596869    0.534626484
    0.034750938    0.777520001    0.676797330
    0.919366241    0.854443192    0.818968296
    0.303981870    0.931366086    0.534626484
    0.188597172    0.008289099    0.676797330
    0.073212385    0.085212342    0.818968296
    0.053981781    0.181366086    0.605711937
    0.938597083    0.258289218    0.747882783
    0.823212326    0.335212380    0.890053868
    0.669366419    0.104443066    0.605711937
    0.553981781    0.181366205    0.747882783
    0.438597023    0.258289337    0.890053868
    0.823212683    0.335212231    0.605711937
    0.707827985    0.412135392    0.747882783
    0.592443287    0.489058524    0.890053868
    0.977058768    0.565981448    0.605711937
    0.861674070    0.642904639    0.747882783
    0.746289313    0.719827771    0.890053868
    0.438597262    0.258289158    0.605711937
    0.323212564    0.335212290    0.747882783
    0.207827836    0.412135422    0.890053868
    0.592443347    0.489058465    0.605711937
    0.477058679    0.565981567    0.747882783
    0.361673951    0.642904758    0.890053868
    0.746289492    0.719827652    0.605711937
    0.630904794    0.796750784    0.747882783
    0.515520096    0.873673916    0.890053868
    0.900135636    0.950596929    0.605711937
    0.784750938    0.027520061    0.747882783
    0.669366241    0.104443185    0.890053868
    0.207827985    0.412135333    0.605711937
    0.092443295    0.489058435    0.747882783
    0.977058530    0.565981567    0.890053868
    0.361674130    0.642904639    0.605711937
    0.246289432    0.719827712    0.747882783
    0.130904704    0.796750903    0.890053868
    0.515520275    0.873673797    0.605711937
    0.400135577    0.950596929    0.747882783
    0.284750849    0.027520061    0.890053868
    0.130904898    0.796750724    0.605711937
    0.015520215    0.873673916    0.747882783
    0.900135458    0.950596988    0.890053868
    0.284751058    0.027519941    0.605711937
    0.169366330    0.104443066    0.747882783
    0.053981662    0.181366205    0.890053868
    0.034751058    0.277519971    0.534626484
    0.919366360    0.354443103    0.676797330
    0.803981662    0.431366265    0.818968296
    0.650135636    0.200596869    0.534626484
    0.534750938    0.277520001    0.676797330
    0.419366270    0.354443133    0.818968296
    0.803981900    0.431366175    0.534626484
    0.688597143    0.508289278    0.676797330
    0.573212504    0.585212469    0.818968296
    0.957828045    0.662135422    0.534626484
    0.842443287    0.739058554    0.676797330
    0.727058589    0.815981686    0.818968296
    0.265520334    0.123673767    0.534626484
    0.150135636    0.200596899    0.676797330
    0.034750938    0.277520031    0.818968296
    0.419366509    0.354443043    0.534626484
    0.303981811    0.431366175    0.676797330
    0.188597083    0.508289278    0.818968296
    0.573212624    0.585212350    0.534626484
    0.457827926    0.662135482    0.676797330
    0.342443228    0.739058614    0.818968296
    0.727058709    0.815981507    0.534626484
    0.611674011    0.892904639    0.676797330
    0.496289343    0.969827771    0.818968296
    0.880904913    0.046750784    0.534626484
    0.765520215    0.123673908    0.676797330
    0.650135517    0.200597048    0.818968296
    0.188597232    0.508289218    0.534626484
    0.073212504    0.585212350    0.676797330
    0.957827806    0.662135482    0.818968296
    0.342443407    0.739058495    0.534626484
    0.227058709    0.815981627    0.676797330
    0.111674003    0.892904758    0.818968296
    0.496289581    0.969827712    0.534626484
    0.380904853    0.046750784    0.676797330
    0.265520155    0.123673908    0.818968296
    0.111674130    0.892904580    0.534626484
    0.996289432    0.969827712    0.676797330
    0.880904675    0.046750784    0.818968296
    0.861674249    0.142904535    0.605711937
    0.746289492    0.219827682    0.747882783
    0.630904794    0.296750814    0.890053868
    0.015520215    0.373673767    0.605711937
    0.900135517    0.450596929    0.747882783
    0.784750760    0.527520061    0.890053868
    0.630904973    0.296750695    0.605711937
    0.515520275    0.373673826    0.747882783
    0.400135577    0.450596988    0.890053868
    0.784751177    0.527519941    0.605711937
    0.669366479    0.604443073    0.747882783
    0.553981781    0.681366205    0.890053868
    0.938597381    0.758289218    0.605711937
    0.823212683    0.835212350    0.747882783
    0.707827926    0.912135482    0.890053868
    0.246289551    0.219827563    0.605711937
    0.130904838    0.296750695    0.747882783
    0.015520096    0.373673856    0.890053868
    0.400135726    0.450596869    0.605711937
    0.284751028    0.527520001    0.747882783
    0.169366300    0.604443133    0.890053868
    0.553981841    0.681366086    0.605711937
    0.438597172    0.758289218    0.747882783
    0.323212415    0.835212350    0.890053868
    0.707828045    0.912135422    0.605711937
    0.592443347    0.989058554    0.747882783
    0.477058619    0.065981627    0.890053868
    0.169366419    0.604443014    0.605711937
    0.053981781    0.681366146    0.747882783
    0.938596964    0.758289278    0.890053868
    0.323212594    0.835212231    0.605711937
    0.207827896    0.912135363    0.747882783
    0.092443161    0.989058554    0.890053868
    0.477058828    0.065981507    0.605711937
    0.361674130    0.142904758    0.747882783
    0.246289402    0.219827890    0.890053868
    0.092443362    0.989058375    0.605711937
    0.977058589    0.065981507    0.747882783
    0.861673892    0.142904639    0.890053868
