Si+C                                    
   1.00000000000000     
    16.2930011750000006    0.0000000000000000    0.0000000000000000
   -10.8620004649999995   12.1440858840000008    0.0000000000000000
     0.0000000000000000    0.0000000000000000    7.0064740179999996
   Si   C 
    36    84
Direct
  0.9743584989999974  0.9829056259999973  0.0000000020000002
  0.6743584279999979  0.7829055790000012  0.1733267010000006
  0.3743584159999997  0.5829055310000015  0.3466534020000012
  0.3076917830000028  0.9829056259999973  0.0000000020000002
  0.0076917259999973  0.7829055790000012  0.1733267010000006
  0.7076916689999990  0.5829055310000015  0.3466534020000012
  0.6410250659999974  0.9829056259999973  0.0000000020000002
  0.3410250250000004  0.7829055790000012  0.1733267010000006
  0.0410249870000001  0.5829055310000015  0.3466534020000012
  0.1576919700000019  0.6329056020000010  0.0866631720000015
  0.8576919440000026  0.4329055250000025  0.2599898870000033
  0.5576919319999973  0.2329055069999981  0.4333165290000025
  0.4910252090000000  0.6329056020000010  0.0866631720000015
  0.1910251529999982  0.4329055250000025  0.2599898870000033
  0.8910251860000002  0.2329055069999981  0.4333165290000025
  0.8243584630000029  0.6329056020000010  0.0866631720000015
  0.5243583920000034  0.4329055250000025  0.2599898870000033
  0.2243584989999974  0.2329055069999981  0.4333165290000025
  0.1410251559999978  0.4829055960000019  0.0000000000000000
  0.8410251139999971  0.2829054890000009  0.1733267010000006
  0.5410251019999990  0.0829054339999971  0.3466534020000012
  0.4743584389999995  0.4829055960000019  0.0000000000000000
  0.1743583829999977  0.2829054890000009  0.1733267010000006
  0.8743583560000019  0.0829054339999971  0.3466534020000012
  0.8076916930000024  0.4829055960000019  0.0000000000000000
  0.5076916809999972  0.2829054890000009  0.1733267010000006
  0.2076916250000025  0.0829054339999971  0.3466534020000012
  0.9910252090000000  0.1329056619999989  0.0866631789999985
  0.6910251380000005  0.9329056139999992  0.2599898870000033
  0.3910251860000002  0.7329055670000031  0.4333165290000025
  0.3243584630000029  0.1329056619999989  0.0866631789999985
  0.0243584139999982  0.9329056139999992  0.2599898870000033
  0.7243584389999995  0.7329055670000031  0.4333165290000025
  0.6576916579999974  0.1329056619999989  0.0866631789999985
  0.3576916159999968  0.9329056139999992  0.2599898870000033
  0.0576916520000026  0.7329055670000031  0.4333165290000025
  0.1359258889999992  0.2007843259999973  0.5743682980000031
  0.3787831069999967  0.1722128389999966  0.6882002950000015
  0.6216403250000013  0.1436413529999996  0.8020323510000011
  0.4216401580000024  0.3436414600000006  0.5743682980000031
  0.6644973750000034  0.3150699729999999  0.6882002950000015
  0.9073545930000009  0.2864984870000029  0.8020323510000011
  0.7073543670000007  0.4864985640000015  0.5743682980000031
  0.9502116439999995  0.4579270779999973  0.6882002950000015
  0.1930689220000019  0.4293556209999991  0.8020323510000011
  0.9930687550000030  0.6293557879999980  0.5743682980000031
  0.2359259719999969  0.6007843020000010  0.6882002950000015
  0.4787833090000007  0.5722128150000003  0.8020323510000011
  0.2787830230000026  0.7722128630000000  0.5743682980000031
  0.5216402410000001  0.7436414359999972  0.6882002950000015
  0.7644974589999975  0.7150699500000002  0.8020323510000011
  0.5644973519999965  0.9150700570000012  0.5743682980000031
  0.8073545689999975  0.8864985700000005  0.6882002950000015
  0.0502117870000021  0.8579270839999964  0.8020323510000011
  0.8502115610000018  0.0579271320000032  0.5743682980000031
  0.0930688380000007  0.0293556450000025  0.6882002950000015
  0.3359259960000003  0.0007841589999984  0.8020323510000011
  0.9716400499999978  0.2936414480000025  0.6312842370000027
  0.2144973870000015  0.2650699909999972  0.7451161740000032
  0.4573546049999990  0.2364984749999977  0.8589482309999994
  0.2573542590000031  0.4364985819999987  0.6312841769999977
  0.5002115369999984  0.4079271259999970  0.7451162930000024
  0.7430687550000030  0.3793556090000010  0.8589482309999994
  0.5430686469999984  0.5793557759999999  0.6312841769999977
  0.7859258650000029  0.5507842900000028  0.7451162930000024
  0.0287832019999996  0.5222128030000022  0.8589482309999994
  0.8287829759999994  0.7222129109999997  0.6312841769999977
  0.0716402529999982  0.6936414239999991  0.7451162930000024
  0.3144975299999970  0.6650699970000034  0.8589482309999994
  0.1144971330000004  0.8650700450000031  0.6312841769999977
  0.3573544620000035  0.8364985589999989  0.7451162930000024
  0.6002115610000018  0.8079270719999982  0.8589482309999994
  0.4002115730000000  0.0079271789999993  0.6312842370000027
  0.6430688499999988  0.9793556329999973  0.7451162930000024
  0.8859260680000034  0.9507842060000016  0.8589482309999994
  0.6859257220000003  0.1507842540000013  0.6312842370000027
  0.9287829399999978  0.1222128870000034  0.7451162930000024
  0.1716402169999967  0.0936412809999965  0.8589482309999994
  0.7787831429999983  0.2722129229999979  0.5743682980000031
  0.0216403009999979  0.2436414060000018  0.6882002950000015
  0.2644975779999967  0.2150699789999990  0.8020323510000011
  0.0644974710000028  0.4150700570000012  0.5743682980000031
  0.3073546290000024  0.3864985410000017  0.6882002950000015
  0.5502117280000007  0.3579270540000010  0.8020323510000011
  0.3502116200000032  0.5579271909999974  0.5743682980000031
  0.5930688380000007  0.5293557050000004  0.6882002950000015
  0.8359260559999981  0.5007842179999997  0.8020323510000011
  0.6359258290000014  0.7007843259999973  0.5743682980000031
  0.8787831069999967  0.6722128389999966  0.6882002950000015
  0.1216403920000033  0.6436413529999996  0.8020323510000011
  0.9216401580000024  0.8436414600000006  0.5743682980000031
  0.1644974350000012  0.8150700329999978  0.6882002950000015
  0.4073545339999995  0.7864984870000029  0.8020323510000011
  0.2073544559999974  0.9864986540000018  0.5743682980000031
  0.4502116740000019  0.9579272269999990  0.6882003549999993
  0.6930689810000032  0.9293557410000020  0.8020323510000011
  0.4930687250000005  0.1293557879999980  0.5743682980000031
  0.7359259130000027  0.1007843020000010  0.6882003549999993
  0.9787832499999993  0.0722129339999995  0.8020323510000011
  0.3287830350000007  0.2222128960000020  0.6312841769999977
  0.5716403130000032  0.1936414239999991  0.7451162930000024
  0.8144975900000020  0.1650699380000020  0.8589482309999994
  0.6144971849999976  0.3650700450000031  0.6312841769999977
  0.8573544620000035  0.3364985589999989  0.7451162930000024
  0.1002117399999989  0.3079271020000007  0.8589482309999994
  0.9002114529999972  0.5079271789999993  0.6312841769999977
  0.1430688499999988  0.4793557229999976  0.7451162930000024
  0.3859260680000034  0.4507842659999994  0.8589482309999994
  0.1859256629999990  0.6507843139999991  0.6312841769999977
  0.4287830000000028  0.6222128870000034  0.7451161740000032
  0.6716402169999967  0.5936413410000014  0.8589482309999994
  0.4716401100000027  0.7936413879999975  0.6312841769999977
  0.7144974469999994  0.7650699020000005  0.7451162930000024
  0.9573546649999969  0.7364984749999977  0.8589482309999994
  0.7573544380000001  0.9364985819999987  0.6312841769999977
  0.0002117160000026  0.9079270960000017  0.7451162930000024
  0.2430689930000014  0.8793557289999967  0.8589482309999994
  0.0430686469999984  0.0793557169999985  0.6312841769999977
  0.2859259250000008  0.0507843489999971  0.7451162930000024
  0.5287831429999983  0.0222127440000008  0.8589482309999994
 
  0.00000000E+00  0.00000000E+00  0.00000000E+00
  0.00000000E+00  0.00000000E+00  0.00000000E+00
  0.00000000E+00  0.00000000E+00  0.00000000E+00
  0.00000000E+00  0.00000000E+00  0.00000000E+00
  0.00000000E+00  0.00000000E+00  0.00000000E+00
  0.00000000E+00  0.00000000E+00  0.00000000E+00
  0.00000000E+00  0.00000000E+00  0.00000000E+00
  0.00000000E+00  0.00000000E+00  0.00000000E+00
  0.00000000E+00  0.00000000E+00  0.00000000E+00
  0.00000000E+00  0.00000000E+00  0.00000000E+00
  0.00000000E+00  0.00000000E+00  0.00000000E+00
  0.00000000E+00  0.00000000E+00  0.00000000E+00
  0.00000000E+00  0.00000000E+00  0.00000000E+00
  0.00000000E+00  0.00000000E+00  0.00000000E+00
  0.00000000E+00  0.00000000E+00  0.00000000E+00
  0.00000000E+00  0.00000000E+00  0.00000000E+00
  0.00000000E+00  0.00000000E+00  0.00000000E+00
  0.00000000E+00  0.00000000E+00  0.00000000E+00
  0.00000000E+00  0.00000000E+00  0.00000000E+00
  0.00000000E+00  0.00000000E+00  0.00000000E+00
  0.00000000E+00  0.00000000E+00  0.00000000E+00
  0.00000000E+00  0.00000000E+00  0.00000000E+00
  0.00000000E+00  0.00000000E+00  0.00000000E+00
  0.00000000E+00  0.00000000E+00  0.00000000E+00
  0.00000000E+00  0.00000000E+00  0.00000000E+00
  0.00000000E+00  0.00000000E+00  0.00000000E+00
  0.00000000E+00  0.00000000E+00  0.00000000E+00
  0.00000000E+00  0.00000000E+00  0.00000000E+00
  0.00000000E+00  0.00000000E+00  0.00000000E+00
  0.00000000E+00  0.00000000E+00  0.00000000E+00
  0.00000000E+00  0.00000000E+00  0.00000000E+00
  0.00000000E+00  0.00000000E+00  0.00000000E+00
  0.00000000E+00  0.00000000E+00  0.00000000E+00
  0.00000000E+00  0.00000000E+00  0.00000000E+00
  0.00000000E+00  0.00000000E+00  0.00000000E+00
  0.00000000E+00  0.00000000E+00  0.00000000E+00
  0.00000000E+00  0.00000000E+00  0.00000000E+00
  0.00000000E+00  0.00000000E+00  0.00000000E+00
  0.00000000E+00  0.00000000E+00  0.00000000E+00
  0.00000000E+00  0.00000000E+00  0.00000000E+00
  0.00000000E+00  0.00000000E+00  0.00000000E+00
  0.00000000E+00  0.00000000E+00  0.00000000E+00
  0.00000000E+00  0.00000000E+00  0.00000000E+00
  0.00000000E+00  0.00000000E+00  0.00000000E+00
  0.00000000E+00  0.00000000E+00  0.00000000E+00
  0.00000000E+00  0.00000000E+00  0.00000000E+00
  0.00000000E+00  0.00000000E+00  0.00000000E+00
  0.00000000E+00  0.00000000E+00  0.00000000E+00
  0.00000000E+00  0.00000000E+00  0.00000000E+00
  0.00000000E+00  0.00000000E+00  0.00000000E+00
  0.00000000E+00  0.00000000E+00  0.00000000E+00
  0.00000000E+00  0.00000000E+00  0.00000000E+00
  0.00000000E+00  0.00000000E+00  0.00000000E+00
  0.00000000E+00  0.00000000E+00  0.00000000E+00
  0.00000000E+00  0.00000000E+00  0.00000000E+00
  0.00000000E+00  0.00000000E+00  0.00000000E+00
  0.00000000E+00  0.00000000E+00  0.00000000E+00
  0.00000000E+00  0.00000000E+00  0.00000000E+00
  0.00000000E+00  0.00000000E+00  0.00000000E+00
  0.00000000E+00  0.00000000E+00  0.00000000E+00
  0.00000000E+00  0.00000000E+00  0.00000000E+00
  0.00000000E+00  0.00000000E+00  0.00000000E+00
  0.00000000E+00  0.00000000E+00  0.00000000E+00
  0.00000000E+00  0.00000000E+00  0.00000000E+00
  0.00000000E+00  0.00000000E+00  0.00000000E+00
  0.00000000E+00  0.00000000E+00  0.00000000E+00
  0.00000000E+00  0.00000000E+00  0.00000000E+00
  0.00000000E+00  0.00000000E+00  0.00000000E+00
  0.00000000E+00  0.00000000E+00  0.00000000E+00
  0.00000000E+00  0.00000000E+00  0.00000000E+00
  0.00000000E+00  0.00000000E+00  0.00000000E+00
  0.00000000E+00  0.00000000E+00  0.00000000E+00
  0.00000000E+00  0.00000000E+00  0.00000000E+00
  0.00000000E+00  0.00000000E+00  0.00000000E+00
  0.00000000E+00  0.00000000E+00  0.00000000E+00
  0.00000000E+00  0.00000000E+00  0.00000000E+00
  0.00000000E+00  0.00000000E+00  0.00000000E+00
  0.00000000E+00  0.00000000E+00  0.00000000E+00
  0.00000000E+00  0.00000000E+00  0.00000000E+00
  0.00000000E+00  0.00000000E+00  0.00000000E+00
  0.00000000E+00  0.00000000E+00  0.00000000E+00
  0.00000000E+00  0.00000000E+00  0.00000000E+00
  0.00000000E+00  0.00000000E+00  0.00000000E+00
  0.00000000E+00  0.00000000E+00  0.00000000E+00
  0.00000000E+00  0.00000000E+00  0.00000000E+00
  0.00000000E+00  0.00000000E+00  0.00000000E+00
  0.00000000E+00  0.00000000E+00  0.00000000E+00
  0.00000000E+00  0.00000000E+00  0.00000000E+00
  0.00000000E+00  0.00000000E+00  0.00000000E+00
  0.00000000E+00  0.00000000E+00  0.00000000E+00
  0.00000000E+00  0.00000000E+00  0.00000000E+00
  0.00000000E+00  0.00000000E+00  0.00000000E+00
  0.00000000E+00  0.00000000E+00  0.00000000E+00
  0.00000000E+00  0.00000000E+00  0.00000000E+00
  0.00000000E+00  0.00000000E+00  0.00000000E+00
  0.00000000E+00  0.00000000E+00  0.00000000E+00
  0.00000000E+00  0.00000000E+00  0.00000000E+00
  0.00000000E+00  0.00000000E+00  0.00000000E+00
  0.00000000E+00  0.00000000E+00  0.00000000E+00
  0.00000000E+00  0.00000000E+00  0.00000000E+00
  0.00000000E+00  0.00000000E+00  0.00000000E+00
  0.00000000E+00  0.00000000E+00  0.00000000E+00
  0.00000000E+00  0.00000000E+00  0.00000000E+00
  0.00000000E+00  0.00000000E+00  0.00000000E+00
  0.00000000E+00  0.00000000E+00  0.00000000E+00
  0.00000000E+00  0.00000000E+00  0.00000000E+00
  0.00000000E+00  0.00000000E+00  0.00000000E+00
  0.00000000E+00  0.00000000E+00  0.00000000E+00
  0.00000000E+00  0.00000000E+00  0.00000000E+00
  0.00000000E+00  0.00000000E+00  0.00000000E+00
  0.00000000E+00  0.00000000E+00  0.00000000E+00
  0.00000000E+00  0.00000000E+00  0.00000000E+00
  0.00000000E+00  0.00000000E+00  0.00000000E+00
  0.00000000E+00  0.00000000E+00  0.00000000E+00
  0.00000000E+00  0.00000000E+00  0.00000000E+00
  0.00000000E+00  0.00000000E+00  0.00000000E+00
  0.00000000E+00  0.00000000E+00  0.00000000E+00
  0.00000000E+00  0.00000000E+00  0.00000000E+00
  0.00000000E+00  0.00000000E+00  0.00000000E+00
  0.00000000E+00  0.00000000E+00  0.00000000E+00
