Sn+Sn
    1.000000000
   19.467599869    0.000000000    0.000000000
   -6.489200115   18.354230881    0.000000000
    0.000000000    0.000000000   22.942790985
Sn 
288
Direct
    0.991010249    0.985017061    0.000000005
    0.866010249    0.776683688    0.099999994
    0.741010189    0.568350196    0.200000033
    0.616010189    0.360016763    0.299999982
    0.491010129    0.151683390    0.400000006
    0.366010129    0.943349957    0.500000060
    0.991010249    0.318350405    0.000000005
    0.866010249    0.110017046    0.099999994
    0.741010189    0.901683569    0.200000033
    0.616010189    0.693350196    0.299999982
    0.491010129    0.485016763    0.400000006
    0.366010129    0.276683390    0.500000060
    0.991010249    0.651683807    0.000000005
    0.866010249    0.443350375    0.099999994
    0.741010189    0.235016942    0.200000033
    0.616010189    0.026683522    0.299999982
    0.491010129    0.818350136    0.400000006
    0.366010129    0.610016704    0.500000060
    0.491010249    0.151683748    0.000000009
    0.366010249    0.943350375    0.099999994
    0.241010204    0.735016942    0.200000018
    0.116010167    0.526683450    0.299999982
    0.991010189    0.318350077    0.400000006
    0.866010129    0.110016644    0.500000000
    0.491010249    0.485017061    0.000000009
    0.366010249    0.276683688    0.099999994
    0.241010204    0.068350248    0.200000018
    0.116010167    0.860016823    0.299999982
    0.991010189    0.651683450    0.400000006
    0.866010129    0.443350077    0.500000000
    0.491010249    0.818350375    0.000000009
    0.366010249    0.610017002    0.099999994
    0.241010204    0.401683569    0.200000018
    0.116010167    0.193350136    0.299999982
    0.991010189    0.985016763    0.400000006
    0.866010129    0.776683331    0.500000000
    0.241010249    0.068350412    0.000000003
    0.116010241    0.860017061    0.099999994
    0.991010189    0.651683569    0.200000018
    0.866010189    0.443350077    0.299999982
    0.741010189    0.235016763    0.400000006
    0.616010129    0.026683331    0.500000060
    0.241010249    0.401683748    0.000000003
    0.116010241    0.193350390    0.099999994
    0.991010189    0.985016942    0.200000018
    0.866010189    0.776683509    0.299999982
    0.741010189    0.568350077    0.400000006
    0.616010129    0.360016704    0.500000060
    0.241010249    0.735017121    0.000000003
    0.116010241    0.526683748    0.099999994
    0.991010189    0.318350255    0.200000018
    0.866010189    0.110016860    0.299999982
    0.741010189    0.901683509    0.400000006
    0.616010129    0.693350077    0.500000060
    0.741010249    0.235017091    0.000000009
    0.616010249    0.026683707    0.100000009
    0.491010219    0.818350196    0.200000033
    0.366010159    0.610016763    0.300000042
    0.241010159    0.401683450    0.400000036
    0.116010115    0.193350017    0.500000060
    0.741010249    0.568350375    0.000000009
    0.616010249    0.360017031    0.100000009
    0.491010219    0.151683584    0.200000033
    0.366010159    0.943350136    0.300000042
    0.241010159    0.735016763    0.400000036
    0.116010115    0.526683331    0.500000060
    0.741010249    0.901683807    0.000000009
    0.616010249    0.693350375    0.100000009
    0.491010219    0.485016942    0.200000033
    0.366010159    0.276683509    0.300000042
    0.241010159    0.068350151    0.400000036
    0.116010115    0.860016704    0.500000060
    0.366010249    0.026683766    0.000000018
    0.241010234    0.818350375    0.100000001
    0.116010197    0.610016942    0.200000033
    0.991010129    0.401683509    0.300000042
    0.866010129    0.193350136    0.400000036
    0.741010129    0.985016704    0.500000060
    0.366010249    0.360017091    0.000000018
    0.241010234    0.151683733    0.100000001
    0.116010197    0.943350315    0.200000033
    0.991010129    0.735016823    0.300000042
    0.866010129    0.526683450    0.400000036
    0.741010129    0.318350077    0.500000060
    0.366010249    0.693350494    0.000000018
    0.241010234    0.485017091    0.100000001
    0.116010197    0.276683658    0.200000033
    0.991010129    0.068350218    0.300000042
    0.866010129    0.860016823    0.400000036
    0.741010129    0.651683390    0.500000060
    0.866010308    0.193350419    0.000000000
    0.741010308    0.985017061    0.100000001
    0.616010249    0.776683569    0.200000033
    0.491010189    0.568350196    0.300000042
    0.366010189    0.360016763    0.400000036
    0.241010144    0.151683331    0.500000060
    0.866010308    0.526683807    0.000000000
    0.741010308    0.318350405    0.100000001
    0.616010249    0.110016957    0.200000033
    0.491010189    0.901683569    0.300000042
    0.366010189    0.693350196    0.400000036
    0.241010144    0.485016704    0.500000060
    0.866010308    0.860017121    0.000000000
    0.741010308    0.651683688    0.100000001
    0.616010249    0.443350285    0.200000033
    0.491010189    0.235016838    0.300000042
    0.366010189    0.026683476    0.400000036
    0.241010144    0.818350077    0.500000060
    0.116010249    0.276683748    0.000000004
    0.991010249    0.068350360    0.100000001
    0.866010189    0.860016942    0.200000033
    0.741010129    0.651683450    0.300000042
    0.616010189    0.443350077    0.400000006
    0.491010129    0.235016644    0.500000060
    0.116010249    0.610017121    0.000000004
    0.991010249    0.401683718    0.100000001
    0.866010189    0.193350270    0.200000033
    0.741010129    0.985016823    0.300000042
    0.616010189    0.776683450    0.400000006
    0.491010129    0.568350017    0.500000060
    0.116010249    0.943350375    0.000000004
    0.991010249    0.735016942    0.100000001
    0.866010189    0.526683509    0.200000033
    0.741010129    0.318350136    0.300000042
    0.616010189    0.110016756    0.400000006
    0.491010129    0.901683331    0.500000060
    0.616010249    0.110017069    0.000000015
    0.491010249    0.901683688    0.100000001
    0.366010189    0.693350196    0.200000033
    0.241010159    0.485016763    0.300000042
    0.116010159    0.276683450    0.400000036
    0.991010129    0.068350017    0.500000060
    0.616010249    0.443350375    0.000000015
    0.491010249    0.235017002    0.100000001
    0.366010189    0.026683571    0.200000033
    0.241010159    0.818350136    0.300000042
    0.116010159    0.610016704    0.400000036
    0.991010129    0.401683331    0.500000060
    0.616010249    0.776683748    0.000000015
    0.491010249    0.568350375    0.100000001
    0.366010189    0.360016853    0.200000033
    0.241010159    0.151683450    0.300000042
    0.116010159    0.943350077    0.400000036
    0.991010129    0.735016644    0.500000060
    0.985017061    0.991010249    0.500000060
    0.776683688    0.866010249    0.600000024
    0.568350196    0.741010189    0.700000048
    0.360016763    0.616010189    0.800000012
    0.151683390    0.491010129    0.900000036
    0.943349957    0.366010129    1.000000000
    0.318350405    0.991010249    0.500000060
    0.110017046    0.866010249    0.600000024
    0.901683569    0.741010189    0.700000048
    0.693350196    0.616010189    0.800000012
    0.485016763    0.491010129    0.900000036
    0.276683390    0.366010129    1.000000000
    0.651683807    0.991010249    0.500000060
    0.443350375    0.866010249    0.600000024
    0.235016942    0.741010189    0.700000048
    0.026683522    0.616010189    0.800000012
    0.818350136    0.491010129    0.900000036
    0.610016704    0.366010129    1.000000000
    0.151683748    0.491010249    0.500000060
    0.943350375    0.366010249    0.600000024
    0.735016942    0.241010204    0.700000048
    0.526683450    0.116010167    0.800000012
    0.318350077    0.991010189    0.900000036
    0.110016644    0.866010129    1.000000000
    0.485017061    0.491010249    0.500000060
    0.276683688    0.366010249    0.600000024
    0.068350248    0.241010204    0.700000048
    0.860016823    0.116010167    0.800000012
    0.651683450    0.991010189    0.900000036
    0.443350077    0.866010129    1.000000000
    0.818350375    0.491010249    0.500000060
    0.610017002    0.366010249    0.600000024
    0.401683569    0.241010204    0.700000048
    0.193350136    0.116010167    0.800000012
    0.985016763    0.991010189    0.900000036
    0.776683331    0.866010129    1.000000000
    0.068350412    0.241010249    0.500000060
    0.860017061    0.116010241    0.600000024
    0.651683569    0.991010189    0.700000048
    0.443350077    0.866010189    0.800000012
    0.235016763    0.741010189    0.900000036
    0.026683331    0.616010129    1.000000000
    0.401683778    0.241010249    0.500000060
    0.193350419    0.116010241    0.600000024
    0.985016942    0.991010189    0.700000048
    0.776683569    0.866010189    0.800000012
    0.568350136    0.741010189    0.900000036
    0.360016763    0.616010129    1.000000000
    0.735017121    0.241010249    0.500000060
    0.526683748    0.116010241    0.600000024
    0.318350255    0.991010189    0.700000048
    0.110016860    0.866010189    0.800000012
    0.901683509    0.741010189    0.900000036
    0.693350077    0.616010129    1.000000000
    0.235017076    0.741010249    0.500000060
    0.026683692    0.616010249    0.600000024
    0.818350196    0.491010219    0.700000048
    0.610016763    0.366010159    0.800000072
    0.401683450    0.241010159    0.900000036
    0.193350017    0.116010115    1.000000000
    0.568350375    0.741010249    0.500000060
    0.360017002    0.616010249    0.600000024
    0.151683554    0.491010219    0.700000048
    0.943350136    0.366010159    0.800000072
    0.735016704    0.241010159    0.900000036
    0.526683331    0.116010115    1.000000000
    0.901683807    0.741010249    0.500000060
    0.693350375    0.616010249    0.600000024
    0.485016942    0.491010219    0.700000048
    0.276683509    0.366010159    0.800000072
    0.068350151    0.241010159    0.900000036
    0.860016704    0.116010115    1.000000000
    0.026683759    0.366010249    0.500000060
    0.818350375    0.241010234    0.600000024
    0.610016942    0.116010197    0.700000048
    0.401683509    0.991010129    0.800000072
    0.193350077    0.866010129    0.900000036
    0.985016704    0.741010129    1.000000000
    0.360017091    0.366010249    0.500000060
    0.151683733    0.241010234    0.600000024
    0.943350315    0.116010197    0.700000048
    0.735016823    0.991010129    0.800000072
    0.526683450    0.866010129    0.900000036
    0.318350077    0.741010129    1.000000000
    0.693350494    0.366010249    0.500000060
    0.485017091    0.241010234    0.600000024
    0.276683658    0.116010197    0.700000048
    0.068350218    0.991010129    0.800000072
    0.860016823    0.866010129    0.900000036
    0.651683390    0.741010129    1.000000000
    0.193350434    0.866010308    0.500000060
    0.985017061    0.741010308    0.600000024
    0.776683569    0.616010249    0.700000048
    0.568350196    0.491010189    0.800000072
    0.360016763    0.366010189    0.900000036
    0.151683331    0.241010144    1.000000000
    0.526683807    0.866010308    0.500000060
    0.318350405    0.741010308    0.600000024
    0.110016957    0.616010249    0.700000048
    0.901683569    0.491010189    0.800000072
    0.693350196    0.366010189    0.900000036
    0.485016704    0.241010144    1.000000000
    0.860017061    0.866010308    0.500000060
    0.651683629    0.741010308    0.600000024
    0.443350226    0.616010249    0.700000048
    0.235016793    0.491010189    0.800000072
    0.026683431    0.366010189    0.900000036
    0.818349957    0.241010144    1.000000000
    0.276683718    0.116010249    0.500000060
    0.068350337    0.991010249    0.600000024
    0.860016882    0.866010189    0.700000048
    0.651683450    0.741010129    0.800000072
    0.443350077    0.616010189    0.900000036
    0.235016644    0.491010129    1.000000000
    0.610017121    0.116010249    0.500000060
    0.401683718    0.991010249    0.600000024
    0.193350270    0.866010189    0.700000048
    0.985016823    0.741010129    0.800000072
    0.776683450    0.616010189    0.900000036
    0.568350017    0.491010129    1.000000000
    0.943350494    0.116010249    0.500000060
    0.735017061    0.991010249    0.600000024
    0.526683629    0.866010189    0.700000048
    0.318350226    0.741010129    0.800000072
    0.110016845    0.616010189    0.900000036
    0.901683390    0.491010129    1.000000000
    0.110017054    0.616010249    0.500000060
    0.901683688    0.491010249    0.600000024
    0.693350196    0.366010189    0.700000048
    0.485016763    0.241010159    0.800000072
    0.276683450    0.116010159    0.900000036
    0.068350017    0.991010129    1.000000000
    0.443350375    0.616010249    0.500000060
    0.235017002    0.491010249    0.600000024
    0.026683571    0.366010189    0.700000048
    0.818350136    0.241010159    0.800000072
    0.610016704    0.116010159    0.900000036
    0.401683331    0.991010129    1.000000000
    0.776683748    0.616010249    0.500000060
    0.568350375    0.491010249    0.600000024
    0.360016853    0.366010189    0.700000048
    0.151683450    0.241010159    0.800000072
    0.943350077    0.116010159    0.900000036
    0.735016644    0.991010129    1.000000000
