Ge+Ge
    1.000000000
   17.891534805    0.000000000    0.000000000
  -16.102380753    7.798739433    0.000000000
    0.000000300   -0.000000069   14.628616333
Ge 
96
Direct
    0.496497840    0.003502190    0.266188323
    0.022813324    0.977186680    0.000000009
    0.180708155    0.819291830    0.088729464
    0.338602990    0.661396980    0.177458927
    0.496497810    0.503502190    0.266188383
    0.140790924    0.696287751    0.499999940
    0.943866372    0.556133509    0.377100348
    0.312287062    0.687712908    0.022182392
    0.470181882    0.529818058    0.110911824
    0.798685551    0.538392961    0.588729322
    0.785971582    0.214028403    0.288370788
    0.601761460    0.898238719    0.465829730
    0.312287331    0.687712610    0.443647206
    0.522813261    0.477186650    0.000000000
    0.680708110    0.319291830    0.088729456
    0.838602960    0.161397010    0.177458897
    0.996497810    0.003502154    0.266188323
    0.812287509    0.687712491    0.443647265
    0.601761222    0.398238838    0.465829760
    0.812287092    0.187712908    0.022182550
    0.970181823    0.029818127    0.110911943
    0.128076673    0.871923268    0.199641466
    0.285971522    0.714028358    0.288370907
    0.614475191    0.722603261    0.766188323
    0.312287450    0.187712491    0.443647295
    0.522813261    0.977186680    0.000000011
    0.680708110    0.819291890    0.088729456
    0.838602960    0.661397040    0.177458897
    0.996497750    0.503502250    0.266188323
    0.154392600    0.345607400    0.354917854
    0.943866432    0.056133550    0.377100229
    0.812287271    0.687712848    0.022182524
    0.970182121    0.529818058    0.110911980
    0.128076911    0.371923238    0.199641392
    0.430264592    0.906814039    0.522182286
    0.443866730    0.056133520    0.377100319
    0.154392600    0.845607400    0.354917854
    0.022813387    0.477186650    0.000000013
    0.180708200    0.319291830    0.088729449
    0.338603050    0.161396980    0.177458927
    0.812287450    0.187712550    0.443647265
    0.654392660    0.845607340    0.354917854
    0.588159323    0.748919249    0.610911727
    0.312287062    0.187712878    0.022182537
    0.470181882    0.029818086    0.110911980
    0.628076732    0.871923268    0.199641451
    0.785971522    0.714028418    0.288370878
    0.101761222    0.898238838    0.465829611
    0.930264711    0.406813681    0.943647206
    0.298685670    0.538392901    0.588729322
    0.640790820    0.196287870    0.499999940
    0.456580430    0.880498111    0.677458823
    0.443866372    0.556133628    0.377100348
    0.772369981    0.564708412    0.854917765
    0.219738513    0.117339849    0.965829670
    0.746054173    0.091024399    0.699641347
    0.101761222    0.398238778    0.465829760
    0.746054173    0.591024339    0.699641168
    0.903949022    0.433129489    0.788370669
    0.061843753    0.275234640    0.877100170
    0.430264622    0.906813681    0.943647206
    0.640790820    0.696287751    0.499999940
    0.628076732    0.371923268    0.199641317
    0.956580400    0.380498081    0.677458823
    0.114475131    0.222603261    0.766188323
    0.272369891    0.064708471    0.854917705
    0.719738483    0.617339849    0.965829790
    0.930264592    0.406814069    0.522182465
    0.430264592    0.406814009    0.522182465
    0.246054202    0.091024399    0.699641287
    0.403948933    0.933129549    0.788370788
    0.561843753    0.775234640    0.877100229
    0.930264831    0.906813562    0.943647087
    0.654392600    0.345607400    0.354917854
    0.140790850    0.196287870    0.499999940
    0.456580490    0.380498052    0.677458823
    0.614475250    0.222603261    0.766188323
    0.772370100    0.064708471    0.854917765
    0.219738513    0.617339790    0.965829790
    0.088159323    0.248919204    0.610911846
    0.588159382    0.248919204    0.610911846
    0.430264592    0.906814039    0.522182286
    0.903948903    0.933129549    0.788370728
    0.061843753    0.775234640    0.877100229
    0.430264741    0.406813622    0.943647087
    0.298685640    0.038393021    0.588729382
    0.798685551    0.038393021    0.588729382
    0.812287450    0.187712550    0.443647265
    0.114475131    0.722603381    0.766188323
    0.272369891    0.564708471    0.854917705
    0.719738722    0.117339849    0.965829790
    0.930264831    0.906813979    0.522182465
    0.088159561    0.748919129    0.610911846
    0.246054441    0.591024280    0.699641287
    0.403949171    0.433129489    0.788370728
    0.561843991    0.275234580    0.877100229
