Si+C                                    
   1.00000000000000     
    16.2930011750000006    0.0000000000000000    0.0000000000000000
   -10.8620004649999995   12.1440858840000008    0.0000000000000000
     0.0000000000000000    0.0000000000000000    8.1924037930000004
   Si   C 
    36    84
Direct
  0.9743584989999974  0.9829056259999973  0.0000000020000002
  0.6743584279999979  0.7829055790000012  0.1482359769999988
  0.3743584159999997  0.5829055310000015  0.2964719530000011
  0.3076917830000028  0.9829056259999973  0.0000000020000002
  0.0076917259999973  0.7829055790000012  0.1482359769999988
  0.7076916689999990  0.5829055310000015  0.2964719530000011
  0.6410250659999974  0.9829056259999973  0.0000000020000002
  0.3410250250000004  0.7829055790000012  0.1482359769999988
  0.0410249870000001  0.5829055310000015  0.2964719530000011
  0.1576919700000019  0.6329056020000010  0.0741178390000030
  0.8576919440000026  0.4329055250000025  0.2223538160000018
  0.5576919319999973  0.2329055069999981  0.3705897629999981
  0.4910252090000000  0.6329056020000010  0.0741178390000030
  0.1910251529999982  0.4329055250000025  0.2223538160000018
  0.8910251860000002  0.2329055069999981  0.3705897629999981
  0.8243584630000029  0.6329056020000010  0.0741178390000030
  0.5243583920000034  0.4329055250000025  0.2223538160000018
  0.2243584989999974  0.2329055069999981  0.3705897629999981
  0.1410251559999978  0.4829055960000019  0.0000000000000000
  0.8410251139999971  0.2829054890000009  0.1482359769999988
  0.5410251019999990  0.0829054339999971  0.2964719530000011
  0.4743584389999995  0.4829055960000019  0.0000000000000000
  0.1743583829999977  0.2829054890000009  0.1482359769999988
  0.8743583560000019  0.0829054339999971  0.2964719530000011
  0.8076916930000024  0.4829055960000019  0.0000000000000000
  0.5076916809999972  0.2829054890000009  0.1482359769999988
  0.2076916250000025  0.0829054339999971  0.2964719530000011
  0.9910252090000000  0.1329056619999989  0.0741178469999966
  0.6910251380000005  0.9329056139999992  0.2223538160000018
  0.3910251860000002  0.7329055670000031  0.3705897629999981
  0.3243584630000029  0.1329056619999989  0.0741178469999966
  0.0243584139999982  0.9329056139999992  0.2223538160000018
  0.7243584389999995  0.7329055670000031  0.3705897629999981
  0.6576916579999974  0.1329056619999989  0.0741178469999966
  0.3576916159999968  0.9329056139999992  0.2223538160000018
  0.0576916520000026  0.7329055670000031  0.3705897629999981
  0.7389953730000016  0.3220145700000003  0.7583101390000024
  0.9675667879999992  0.3791570659999977  0.5636027460000008
  0.8532810809999987  0.8505858779999969  0.6609565019999977
  0.5961381790000004  0.0363001819999980  0.7583101390000024
  0.8247096540000030  0.0934427979999981  0.5636027460000008
  0.7104238869999975  0.5648715499999994  0.6609565019999977
  0.4532810449999971  0.7505859729999997  0.7583101390000024
  0.6818524600000018  0.8077285889999999  0.5636027460000008
  0.5675666930000034  0.2791574000000026  0.6609565019999977
  0.3104239700000022  0.4648716450000023  0.7583101390000024
  0.5389953849999998  0.5220142599999988  0.5636027460000008
  0.4247096779999993  0.9934430719999980  0.6609565019999977
  0.1675668359999989  0.1791574949999983  0.7583101390000024
  0.3961382509999964  0.2362999919999993  0.5636027460000008
  0.2818525429999994  0.7077288030000020  0.6609565019999977
  0.0247097020000027  0.8934431670000009  0.7583101390000024
  0.2532811159999966  0.9505857230000032  0.5636027460000008
  0.1389953640000030  0.4220144749999974  0.6609565019999977
  0.8818525670000028  0.6077288390000035  0.7583101390000024
  0.1104240419999982  0.6648714540000000  0.5636027460000008
  0.9961382749999999  0.1363002060000014  0.6609565019999977
  0.7889954449999976  0.7720145580000022  0.8069869280000006
  0.0175669189999965  0.8291570539999995  0.6122795340000025
  0.9032812120000031  0.3005859849999979  0.7096332309999980
  0.6461382509999964  0.4863002299999977  0.8069869280000006
  0.8747096060000032  0.5434429649999970  0.6122795340000025
  0.7604238990000027  0.0148715970000026  0.7096332309999980
  0.5032811760000016  0.2005856039999969  0.8069869280000006
  0.7318525310000012  0.2577283379999997  0.6122795940000003
  0.6175668839999986  0.7291570309999997  0.7096332309999980
  0.3604240120000028  0.9148715139999979  0.8069869280000006
  0.5889953969999979  0.9720141290000015  0.6122795940000003
  0.4747096899999974  0.4434428220000015  0.7096332309999980
  0.2175668180000017  0.6291572450000018  0.8069869280000006
  0.4461382630000017  0.6862999800000011  0.6122795340000025
  0.3318524960000033  0.1577286719999975  0.7096332309999980
  0.0747097730000021  0.3434431550000028  0.8069869280000006
  0.3032812180000022  0.4005858900000021  0.6122795340000025
  0.1889955099999980  0.8720144629999993  0.7096332309999980
  0.9318525199999996  0.0577285290000020  0.8069869280000006
  0.1604240090000033  0.1148712640000014  0.6122795340000025
  0.0461382869999980  0.5862998959999999  0.7096332309999980
  0.8104238510000030  0.9648717050000002  0.7583101390000024
  0.0389953849999998  0.0220143800000017  0.5636027460000008
  0.9247095580000035  0.4934430120000002  0.6609565019999977
  0.6675666570000018  0.6791574359999970  0.7583101390000024
  0.8961381319999973  0.7363000510000006  0.5636028050000021
  0.7818523649999989  0.2077287440000006  0.6609565019999977
  0.5247095819999998  0.3934431079999996  0.7583101390000024
  0.7532810570000024  0.4505856039999969  0.5636027460000008
  0.6389953489999982  0.9220145339999988  0.6609565019999977
  0.3818524479999965  0.1077287199999972  0.7583101390000024
  0.6104239820000004  0.1648714540000000  0.5636027460000008
  0.4961382150000020  0.6363001470000000  0.6609565019999977
  0.2389954029999970  0.8220146299999982  0.7583101390000024
  0.4675668479999970  0.8791571860000005  0.5636027460000008
  0.3532810809999987  0.3505859380000018  0.6609565019999977
  0.0961382389999983  0.5363001819999980  0.7583101390000024
  0.3247096540000030  0.5934427979999981  0.5636028050000021
  0.2104239909999990  0.0648715499999994  0.6609565019999977
  0.9532811050000021  0.2505857940000027  0.7583101390000024
  0.1818525340000008  0.3077285290000020  0.5636028050000021
  0.0675669909999996  0.7791574600000004  0.6609565019999977
  0.8604239820000004  0.4148714540000000  0.8069869280000006
  0.0889954570000029  0.4720141889999994  0.6122795340000025
  0.9747096899999974  0.9434427619999965  0.7096332309999980
  0.7175668479999970  0.1291575429999980  0.8069869280000006
  0.9461381440000025  0.1862999200000033  0.6122795340000025
  0.8318524960000033  0.6577287320000025  0.7096332309999980
  0.5747097129999972  0.8434427380000002  0.8069869280000006
  0.8032810690000005  0.9005854130000017  0.6122795340000025
  0.6889953610000035  0.3720140459999968  0.7096332309999980
  0.4318525790000010  0.5577285290000020  0.8069869280000006
  0.6604239939999985  0.6148712039999964  0.6122795340000025
  0.5461383459999993  0.0862998959999999  0.7096332309999980
  0.2889954150000023  0.2720143800000017  0.8069869280000006
  0.5175668600000023  0.3291571139999974  0.6122795340000025
  0.4032811519999981  0.8005856870000017  0.7096332309999980
  0.1461382660000012  0.9863002900000026  0.8069869280000006
  0.3747097250000024  0.0434429649999970  0.6122795340000025
  0.2604240180000019  0.5148715970000026  0.7096332309999980
  0.0032812359999994  0.7005857830000011  0.8069869280000006
  0.2318526509999970  0.7577282789999984  0.6122795340000025
  0.1175670619999991  0.2291572090000003  0.7096331719999966
 
  0.00000000E+00  0.00000000E+00  0.00000000E+00
  0.00000000E+00  0.00000000E+00  0.00000000E+00
  0.00000000E+00  0.00000000E+00  0.00000000E+00
  0.00000000E+00  0.00000000E+00  0.00000000E+00
  0.00000000E+00  0.00000000E+00  0.00000000E+00
  0.00000000E+00  0.00000000E+00  0.00000000E+00
  0.00000000E+00  0.00000000E+00  0.00000000E+00
  0.00000000E+00  0.00000000E+00  0.00000000E+00
  0.00000000E+00  0.00000000E+00  0.00000000E+00
  0.00000000E+00  0.00000000E+00  0.00000000E+00
  0.00000000E+00  0.00000000E+00  0.00000000E+00
  0.00000000E+00  0.00000000E+00  0.00000000E+00
  0.00000000E+00  0.00000000E+00  0.00000000E+00
  0.00000000E+00  0.00000000E+00  0.00000000E+00
  0.00000000E+00  0.00000000E+00  0.00000000E+00
  0.00000000E+00  0.00000000E+00  0.00000000E+00
  0.00000000E+00  0.00000000E+00  0.00000000E+00
  0.00000000E+00  0.00000000E+00  0.00000000E+00
  0.00000000E+00  0.00000000E+00  0.00000000E+00
  0.00000000E+00  0.00000000E+00  0.00000000E+00
  0.00000000E+00  0.00000000E+00  0.00000000E+00
  0.00000000E+00  0.00000000E+00  0.00000000E+00
  0.00000000E+00  0.00000000E+00  0.00000000E+00
  0.00000000E+00  0.00000000E+00  0.00000000E+00
  0.00000000E+00  0.00000000E+00  0.00000000E+00
  0.00000000E+00  0.00000000E+00  0.00000000E+00
  0.00000000E+00  0.00000000E+00  0.00000000E+00
  0.00000000E+00  0.00000000E+00  0.00000000E+00
  0.00000000E+00  0.00000000E+00  0.00000000E+00
  0.00000000E+00  0.00000000E+00  0.00000000E+00
  0.00000000E+00  0.00000000E+00  0.00000000E+00
  0.00000000E+00  0.00000000E+00  0.00000000E+00
  0.00000000E+00  0.00000000E+00  0.00000000E+00
  0.00000000E+00  0.00000000E+00  0.00000000E+00
  0.00000000E+00  0.00000000E+00  0.00000000E+00
  0.00000000E+00  0.00000000E+00  0.00000000E+00
  0.00000000E+00  0.00000000E+00  0.00000000E+00
  0.00000000E+00  0.00000000E+00  0.00000000E+00
  0.00000000E+00  0.00000000E+00  0.00000000E+00
  0.00000000E+00  0.00000000E+00  0.00000000E+00
  0.00000000E+00  0.00000000E+00  0.00000000E+00
  0.00000000E+00  0.00000000E+00  0.00000000E+00
  0.00000000E+00  0.00000000E+00  0.00000000E+00
  0.00000000E+00  0.00000000E+00  0.00000000E+00
  0.00000000E+00  0.00000000E+00  0.00000000E+00
  0.00000000E+00  0.00000000E+00  0.00000000E+00
  0.00000000E+00  0.00000000E+00  0.00000000E+00
  0.00000000E+00  0.00000000E+00  0.00000000E+00
  0.00000000E+00  0.00000000E+00  0.00000000E+00
  0.00000000E+00  0.00000000E+00  0.00000000E+00
  0.00000000E+00  0.00000000E+00  0.00000000E+00
  0.00000000E+00  0.00000000E+00  0.00000000E+00
  0.00000000E+00  0.00000000E+00  0.00000000E+00
  0.00000000E+00  0.00000000E+00  0.00000000E+00
  0.00000000E+00  0.00000000E+00  0.00000000E+00
  0.00000000E+00  0.00000000E+00  0.00000000E+00
  0.00000000E+00  0.00000000E+00  0.00000000E+00
  0.00000000E+00  0.00000000E+00  0.00000000E+00
  0.00000000E+00  0.00000000E+00  0.00000000E+00
  0.00000000E+00  0.00000000E+00  0.00000000E+00
  0.00000000E+00  0.00000000E+00  0.00000000E+00
  0.00000000E+00  0.00000000E+00  0.00000000E+00
  0.00000000E+00  0.00000000E+00  0.00000000E+00
  0.00000000E+00  0.00000000E+00  0.00000000E+00
  0.00000000E+00  0.00000000E+00  0.00000000E+00
  0.00000000E+00  0.00000000E+00  0.00000000E+00
  0.00000000E+00  0.00000000E+00  0.00000000E+00
  0.00000000E+00  0.00000000E+00  0.00000000E+00
  0.00000000E+00  0.00000000E+00  0.00000000E+00
  0.00000000E+00  0.00000000E+00  0.00000000E+00
  0.00000000E+00  0.00000000E+00  0.00000000E+00
  0.00000000E+00  0.00000000E+00  0.00000000E+00
  0.00000000E+00  0.00000000E+00  0.00000000E+00
  0.00000000E+00  0.00000000E+00  0.00000000E+00
  0.00000000E+00  0.00000000E+00  0.00000000E+00
  0.00000000E+00  0.00000000E+00  0.00000000E+00
  0.00000000E+00  0.00000000E+00  0.00000000E+00
  0.00000000E+00  0.00000000E+00  0.00000000E+00
  0.00000000E+00  0.00000000E+00  0.00000000E+00
  0.00000000E+00  0.00000000E+00  0.00000000E+00
  0.00000000E+00  0.00000000E+00  0.00000000E+00
  0.00000000E+00  0.00000000E+00  0.00000000E+00
  0.00000000E+00  0.00000000E+00  0.00000000E+00
  0.00000000E+00  0.00000000E+00  0.00000000E+00
  0.00000000E+00  0.00000000E+00  0.00000000E+00
  0.00000000E+00  0.00000000E+00  0.00000000E+00
  0.00000000E+00  0.00000000E+00  0.00000000E+00
  0.00000000E+00  0.00000000E+00  0.00000000E+00
  0.00000000E+00  0.00000000E+00  0.00000000E+00
  0.00000000E+00  0.00000000E+00  0.00000000E+00
  0.00000000E+00  0.00000000E+00  0.00000000E+00
  0.00000000E+00  0.00000000E+00  0.00000000E+00
  0.00000000E+00  0.00000000E+00  0.00000000E+00
  0.00000000E+00  0.00000000E+00  0.00000000E+00
  0.00000000E+00  0.00000000E+00  0.00000000E+00
  0.00000000E+00  0.00000000E+00  0.00000000E+00
  0.00000000E+00  0.00000000E+00  0.00000000E+00
  0.00000000E+00  0.00000000E+00  0.00000000E+00
  0.00000000E+00  0.00000000E+00  0.00000000E+00
  0.00000000E+00  0.00000000E+00  0.00000000E+00
  0.00000000E+00  0.00000000E+00  0.00000000E+00
  0.00000000E+00  0.00000000E+00  0.00000000E+00
  0.00000000E+00  0.00000000E+00  0.00000000E+00
  0.00000000E+00  0.00000000E+00  0.00000000E+00
  0.00000000E+00  0.00000000E+00  0.00000000E+00
  0.00000000E+00  0.00000000E+00  0.00000000E+00
  0.00000000E+00  0.00000000E+00  0.00000000E+00
  0.00000000E+00  0.00000000E+00  0.00000000E+00
  0.00000000E+00  0.00000000E+00  0.00000000E+00
  0.00000000E+00  0.00000000E+00  0.00000000E+00
  0.00000000E+00  0.00000000E+00  0.00000000E+00
  0.00000000E+00  0.00000000E+00  0.00000000E+00
  0.00000000E+00  0.00000000E+00  0.00000000E+00
  0.00000000E+00  0.00000000E+00  0.00000000E+00
  0.00000000E+00  0.00000000E+00  0.00000000E+00
  0.00000000E+00  0.00000000E+00  0.00000000E+00
  0.00000000E+00  0.00000000E+00  0.00000000E+00
  0.00000000E+00  0.00000000E+00  0.00000000E+00
  0.00000000E+00  0.00000000E+00  0.00000000E+00
  0.00000000E+00  0.00000000E+00  0.00000000E+00
