Ge+Sn                                   
   1.00000000000000     
    13.8587245939999999    0.0000000000000000    0.0000000000000000
     0.0000000000000000   19.5991954799999988    0.0000000000000000
     0.0000000000000000    0.0000000000000000   17.6031303410000000
   Ge   Sn
   144    36
Direct
  0.9793784619999997  0.4999999699999975  0.0000000149999977
  0.7293783430000005  0.4999999400000021  0.1136352199999990
  0.4793782229999977  0.4999998810000008  0.2272704239999968
  0.2293782229999977  0.4999998210000030  0.3409055770000009
  0.9793782229999977  0.4999997319999991  0.4545407299999980
  0.7293779849999993  0.4999997019999967  0.5681759120000009
  0.3127117749999968  0.6666666870000029  0.0000000149999977
  0.0627116710000024  0.6666666269999979  0.1136352050000013
  0.8127115959999998  0.6666665670000000  0.2272704089999991
  0.5627115369999984  0.6666665079999987  0.3409055170000030
  0.3127114770000006  0.6666664480000009  0.4545407000000026
  0.0627113580000014  0.6666663889999995  0.5681759120000009
  0.6460450289999997  0.8333333129999971  0.0000000149999977
  0.3960449699999984  0.8333332540000029  0.1136352050000013
  0.1460448349999979  0.8333331939999979  0.2272704089999991
  0.8960448500000027  0.8333331939999979  0.3409055170000030
  0.6460447310000035  0.8333330749999988  0.4545407000000026
  0.3960446720000022  0.8333330150000009  0.5681759120000009
  0.9793784619999997  0.0000000000000000  0.0000000200000017
  0.7293783430000005  0.9999999400000021  0.1136351899999966
  0.4793782830000026  0.9999998810000008  0.2272704089999991
  0.2293782830000026  0.9999998210000030  0.3409055170000030
  0.9793782229999977  0.9999997620000016  0.4545407000000026
  0.7293781039999985  0.9999997019999967  0.5681759120000009
  0.3127117749999968  0.1666666570000004  0.0000000200000017
  0.0627116929999971  0.1666666120000002  0.1136351899999966
  0.8127115959999998  0.1666665380000012  0.2272703800000002
  0.5627115369999984  0.1666664780000033  0.3409055170000030
  0.3127114770000006  0.1666664330000032  0.4545407299999980
  0.0627113580000014  0.1666663589999970  0.5681759120000009
  0.6460451479999989  0.3333333429999996  0.0000000200000017
  0.3960449989999972  0.3333332839999983  0.1136352050000013
  0.1460449249999982  0.3333332240000004  0.2272703800000002
  0.8960448500000027  0.3333331349999966  0.3409055170000030
  0.6460448500000027  0.3333331050000012  0.4545407299999980
  0.3960447310000035  0.3333330450000034  0.5681759120000009
  0.1460451040000024  0.8333333730000021  0.0000000060000005
  0.8960449699999984  0.8333333129999971  0.1136351820000030
  0.6460448500000027  0.8333332540000029  0.2272704089999991
  0.3960447910000013  0.8333331939999979  0.3409055770000009
  0.1460448500000027  0.8333331349999966  0.4545407589999968
  0.8960447310000035  0.8333330150000009  0.5681758520000031
  0.1460451040000024  0.3333333129999971  0.0000000220000018
  0.8960450289999997  0.3333332839999983  0.1136352119999984
  0.6460449100000005  0.3333332240000004  0.2272704089999991
  0.3960449100000005  0.3333331349999966  0.3409055770000009
  0.1460448500000027  0.3333330749999988  0.4545407000000026
  0.8960447310000035  0.3333330150000009  0.5681758520000031
  0.4793784920000022  0.5000000000000000  0.0000000220000018
  0.2293783579999982  0.4999999400000021  0.1136352119999984
  0.9793782229999977  0.4999998810000008  0.2272704089999991
  0.7293782229999977  0.4999997910000005  0.3409055770000009
  0.4793781640000034  0.4999997620000016  0.4545407000000026
  0.2293780449999971  0.4999996720000013  0.5681758520000031
  0.8127116559999976  0.6666666870000029  0.0000000209999982
  0.5627116559999976  0.6666666269999979  0.1136352119999984
  0.3127115369999984  0.6666665079999987  0.2272703800000002
  0.0627114999999989  0.6666665079999987  0.3409055770000009
  0.8127114179999992  0.6666664480000009  0.4545407299999980
  0.5627113580000014  0.6666663290000017  0.5681758520000031
  0.4793784319999972  0.0000000000000000  0.0000000169999979
  0.2293783579999982  0.9999999400000021  0.1136352050000013
  0.9793782229999977  0.9999998810000008  0.2272703800000002
  0.7293782229999977  0.9999998210000030  0.3409055770000009
  0.4793781640000034  0.9999997620000016  0.4545407299999980
  0.2293780449999971  0.9999997019999967  0.5681759120000009
  0.8127117749999968  0.1666666719999981  0.0000000169999979
  0.5627117160000026  0.1666665970000025  0.1136352050000013
  0.3127116559999976  0.1666665670000000  0.2272703800000002
  0.0627116040000004  0.1666665079999987  0.3409055770000009
  0.8127115959999998  0.1666664330000032  0.4545407000000026
  0.5627114770000006  0.1666664030000007  0.5681759120000009
  0.1460451479999989  0.7083333730000021  0.0000000000000000
  0.8960449699999984  0.7083333129999971  0.1136352119999984
  0.6460449100000005  0.7083332540000029  0.2272704239999968
  0.3960448500000027  0.7083331939999979  0.3409055770000009
  0.1460448500000027  0.7083331349999966  0.4545407000000026
  0.8960447310000035  0.7083330749999988  0.5681758520000031
  0.4793784319999972  0.8750000599999979  0.0000000000000000
  0.2293783869999970  0.8750000000000000  0.1136352119999984
  0.9793782229999977  0.8749999400000021  0.2272704239999968
  0.7293782229999977  0.8749998810000008  0.3409055770000009
  0.4793782229999977  0.8749997620000016  0.4545407000000026
  0.2293781039999985  0.8749997620000016  0.5681758520000031
  0.1460450889999976  0.2083333280000019  0.0000000200000017
  0.8960450289999997  0.2083332690000006  0.1136351899999966
  0.6460449100000005  0.2083332090000027  0.2272703800000002
  0.3960448500000027  0.2083331500000014  0.3409055770000009
  0.1460448500000027  0.2083331050000012  0.4545407299999980
  0.8960447310000035  0.2083330450000034  0.5681758520000031
  0.4793784920000022  0.3750000000000000  0.0000000209999982
  0.2293783719999993  0.3749999400000021  0.1136352050000013
  0.9793782830000026  0.3749998810000008  0.2272704089999991
  0.7293782229999977  0.3749998210000030  0.3409055770000009
  0.4793782229999977  0.3749997620000016  0.4545407299999980
  0.2293780449999971  0.3749997019999967  0.5681758520000031
  0.8127117749999968  0.5416666870000029  0.0000000209999982
  0.5627117749999968  0.5416666269999979  0.1136352050000013
  0.3127116260000022  0.5416665670000000  0.2272704089999991
  0.0627115819999986  0.5416665079999987  0.3409055770000009
  0.8127115369999984  0.5416664480000009  0.4545407299999980
  0.5627114770000006  0.5416663889999995  0.5681758520000031
  0.8127118350000018  0.0416666599999971  0.0000000109999974
  0.5627117160000026  0.0416665899999984  0.1136352050000013
  0.3127116260000022  0.0416665260000002  0.2272704089999991
  0.0627115739999979  0.0416664930000010  0.3409055770000009
  0.8127115369999984  0.0416664219999987  0.4545407299999980
  0.5627114770000006  0.0416663439999994  0.5681759120000009
  0.9793785210000010  0.8750000599999979  0.0000000140000012
  0.7293783430000005  0.8749999400000021  0.1136351820000030
  0.4793782830000026  0.8749998810000008  0.2272704089999991
  0.2293782229999977  0.8749998210000030  0.3409055770000009
  0.9793782229999977  0.8749997620000016  0.4545407589999968
  0.7293781039999985  0.8749997019999967  0.5681758520000031
  0.9793784619999997  0.3749999699999975  0.0000000100000008
  0.7293783430000005  0.3749999110000033  0.1136352050000013
  0.4793782830000026  0.3749998509999983  0.2272704089999991
  0.2293782229999977  0.3749997910000005  0.3409055170000030
  0.9793782229999977  0.3749997319999991  0.4545407000000026
  0.7293781039999985  0.3749996720000013  0.5681758520000031
  0.3127118350000018  0.5416666870000029  0.0000000080000007
  0.0627116860000001  0.5416666269999979  0.1136352050000013
  0.8127115959999998  0.5416665670000000  0.2272704239999968
  0.5627115369999984  0.5416665079999987  0.3409055770000009
  0.3127115369999984  0.5416664480000009  0.4545407299999980
  0.0627114179999992  0.5416663889999995  0.5681759120000009
  0.6460450889999976  0.7083333129999971  0.0000000100000008
  0.3960449989999972  0.7083332540000029  0.1136352050000013
  0.1460448950000028  0.7083331939999979  0.2272704089999991
  0.8960448500000027  0.7083331349999966  0.3409055170000030
  0.6460448500000027  0.7083330749999988  0.4545407000000026
  0.3960447310000035  0.7083330150000009  0.5681758520000031
  0.3127117459999980  0.0416666489999997  0.0000000180000015
  0.0627116860000001  0.0416665930000022  0.1136351899999966
  0.8127115959999998  0.0416665380000012  0.2272703800000002
  0.5627115369999984  0.0416664819999966  0.3409055770000009
  0.3127115369999984  0.0416664330000032  0.4545407299999980
  0.0627114179999992  0.0416663700000015  0.5681758520000031
  0.6460452079999968  0.2083333579999973  0.0000000180000015
  0.3960450590000022  0.2083332839999983  0.1136351899999966
  0.1460449400000030  0.2083332090000027  0.2272703800000002
  0.8960449100000005  0.2083331640000026  0.3409055770000009
  0.6460448500000027  0.2083331050000012  0.4545407299999980
  0.3960447310000035  0.2083330450000034  0.5681758520000031
  0.4756592510000033  0.7703700069999968  0.6810502410000012
  0.2756592040000001  0.6037033200000010  0.7634804839999987
  0.0756590370000012  0.4370366039999993  0.8459107879999976
  0.4756592510000033  0.4370367229999985  0.6810502410000012
  0.2756592040000001  0.2703700360000028  0.7634804839999987
  0.0756590370000012  0.1037033799999989  0.8459107879999976
  0.4756592510000033  0.1037034989999981  0.6810502410000012
  0.2756592040000001  0.9370367530000010  0.7634804839999987
  0.0756590370000012  0.7703700069999968  0.8459107879999976
  0.1256592269999999  0.0203701260000031  0.7222653030000004
  0.9256591799999967  0.8537034390000002  0.8046955470000015
  0.7256590719999991  0.6870367530000010  0.8871257309999976
  0.1256592269999999  0.6870366930000031  0.7222653030000004
  0.9256591799999967  0.5203700069999968  0.8046955470000015
  0.7256590719999991  0.3537033200000010  0.8871257309999976
  0.1256592269999999  0.3537034690000027  0.7222653030000004
  0.9256591799999967  0.1870367830000035  0.8046955470000015
  0.7256590719999991  0.0203701260000031  0.8871257309999976
  0.9756592510000033  0.9370366329999982  0.6810502410000012
  0.7756590839999973  0.7703699469999989  0.7634804839999987
  0.5756589770000033  0.6037033200000010  0.8459107879999976
  0.9756592510000033  0.6037033799999989  0.6810502410000012
  0.7756590839999973  0.4370366930000031  0.7634804839999987
  0.5756589770000033  0.2703700069999968  0.8459107879999976
  0.9756592510000033  0.2703700659999981  0.6810502410000012
  0.7756590839999973  0.1037033799999989  0.7634804839999987
  0.5756589770000033  0.9370366930000031  0.8459107879999976
  0.6256592869999977  0.8537033799999989  0.7222653030000004
  0.4256591799999967  0.6870366930000031  0.8046955470000015
  0.2256591319999970  0.5203700069999968  0.8871257309999976
  0.6256592869999977  0.5203701260000031  0.7222653030000004
  0.4256591799999967  0.3537034390000002  0.8046955470000015
  0.2256591319999970  0.1870367229999985  0.8871257309999976
  0.6256592869999977  0.1870367229999985  0.7222653030000004
  0.4256591799999967  0.0203701260000031  0.8046955470000015
  0.2256591319999970  0.8537033200000010  0.8871257309999976
 
  0.00000000E+00  0.00000000E+00  0.00000000E+00
  0.00000000E+00  0.00000000E+00  0.00000000E+00
  0.00000000E+00  0.00000000E+00  0.00000000E+00
  0.00000000E+00  0.00000000E+00  0.00000000E+00
  0.00000000E+00  0.00000000E+00  0.00000000E+00
  0.00000000E+00  0.00000000E+00  0.00000000E+00
  0.00000000E+00  0.00000000E+00  0.00000000E+00
  0.00000000E+00  0.00000000E+00  0.00000000E+00
  0.00000000E+00  0.00000000E+00  0.00000000E+00
  0.00000000E+00  0.00000000E+00  0.00000000E+00
  0.00000000E+00  0.00000000E+00  0.00000000E+00
  0.00000000E+00  0.00000000E+00  0.00000000E+00
  0.00000000E+00  0.00000000E+00  0.00000000E+00
  0.00000000E+00  0.00000000E+00  0.00000000E+00
  0.00000000E+00  0.00000000E+00  0.00000000E+00
  0.00000000E+00  0.00000000E+00  0.00000000E+00
  0.00000000E+00  0.00000000E+00  0.00000000E+00
  0.00000000E+00  0.00000000E+00  0.00000000E+00
  0.00000000E+00  0.00000000E+00  0.00000000E+00
  0.00000000E+00  0.00000000E+00  0.00000000E+00
  0.00000000E+00  0.00000000E+00  0.00000000E+00
  0.00000000E+00  0.00000000E+00  0.00000000E+00
  0.00000000E+00  0.00000000E+00  0.00000000E+00
  0.00000000E+00  0.00000000E+00  0.00000000E+00
  0.00000000E+00  0.00000000E+00  0.00000000E+00
  0.00000000E+00  0.00000000E+00  0.00000000E+00
  0.00000000E+00  0.00000000E+00  0.00000000E+00
  0.00000000E+00  0.00000000E+00  0.00000000E+00
  0.00000000E+00  0.00000000E+00  0.00000000E+00
  0.00000000E+00  0.00000000E+00  0.00000000E+00
  0.00000000E+00  0.00000000E+00  0.00000000E+00
  0.00000000E+00  0.00000000E+00  0.00000000E+00
  0.00000000E+00  0.00000000E+00  0.00000000E+00
  0.00000000E+00  0.00000000E+00  0.00000000E+00
  0.00000000E+00  0.00000000E+00  0.00000000E+00
  0.00000000E+00  0.00000000E+00  0.00000000E+00
  0.00000000E+00  0.00000000E+00  0.00000000E+00
  0.00000000E+00  0.00000000E+00  0.00000000E+00
  0.00000000E+00  0.00000000E+00  0.00000000E+00
  0.00000000E+00  0.00000000E+00  0.00000000E+00
  0.00000000E+00  0.00000000E+00  0.00000000E+00
  0.00000000E+00  0.00000000E+00  0.00000000E+00
  0.00000000E+00  0.00000000E+00  0.00000000E+00
  0.00000000E+00  0.00000000E+00  0.00000000E+00
  0.00000000E+00  0.00000000E+00  0.00000000E+00
  0.00000000E+00  0.00000000E+00  0.00000000E+00
  0.00000000E+00  0.00000000E+00  0.00000000E+00
  0.00000000E+00  0.00000000E+00  0.00000000E+00
  0.00000000E+00  0.00000000E+00  0.00000000E+00
  0.00000000E+00  0.00000000E+00  0.00000000E+00
  0.00000000E+00  0.00000000E+00  0.00000000E+00
  0.00000000E+00  0.00000000E+00  0.00000000E+00
  0.00000000E+00  0.00000000E+00  0.00000000E+00
  0.00000000E+00  0.00000000E+00  0.00000000E+00
  0.00000000E+00  0.00000000E+00  0.00000000E+00
  0.00000000E+00  0.00000000E+00  0.00000000E+00
  0.00000000E+00  0.00000000E+00  0.00000000E+00
  0.00000000E+00  0.00000000E+00  0.00000000E+00
  0.00000000E+00  0.00000000E+00  0.00000000E+00
  0.00000000E+00  0.00000000E+00  0.00000000E+00
  0.00000000E+00  0.00000000E+00  0.00000000E+00
  0.00000000E+00  0.00000000E+00  0.00000000E+00
  0.00000000E+00  0.00000000E+00  0.00000000E+00
  0.00000000E+00  0.00000000E+00  0.00000000E+00
  0.00000000E+00  0.00000000E+00  0.00000000E+00
  0.00000000E+00  0.00000000E+00  0.00000000E+00
  0.00000000E+00  0.00000000E+00  0.00000000E+00
  0.00000000E+00  0.00000000E+00  0.00000000E+00
  0.00000000E+00  0.00000000E+00  0.00000000E+00
  0.00000000E+00  0.00000000E+00  0.00000000E+00
  0.00000000E+00  0.00000000E+00  0.00000000E+00
  0.00000000E+00  0.00000000E+00  0.00000000E+00
  0.00000000E+00  0.00000000E+00  0.00000000E+00
  0.00000000E+00  0.00000000E+00  0.00000000E+00
  0.00000000E+00  0.00000000E+00  0.00000000E+00
  0.00000000E+00  0.00000000E+00  0.00000000E+00
  0.00000000E+00  0.00000000E+00  0.00000000E+00
  0.00000000E+00  0.00000000E+00  0.00000000E+00
  0.00000000E+00  0.00000000E+00  0.00000000E+00
  0.00000000E+00  0.00000000E+00  0.00000000E+00
  0.00000000E+00  0.00000000E+00  0.00000000E+00
  0.00000000E+00  0.00000000E+00  0.00000000E+00
  0.00000000E+00  0.00000000E+00  0.00000000E+00
  0.00000000E+00  0.00000000E+00  0.00000000E+00
  0.00000000E+00  0.00000000E+00  0.00000000E+00
  0.00000000E+00  0.00000000E+00  0.00000000E+00
  0.00000000E+00  0.00000000E+00  0.00000000E+00
  0.00000000E+00  0.00000000E+00  0.00000000E+00
  0.00000000E+00  0.00000000E+00  0.00000000E+00
  0.00000000E+00  0.00000000E+00  0.00000000E+00
  0.00000000E+00  0.00000000E+00  0.00000000E+00
  0.00000000E+00  0.00000000E+00  0.00000000E+00
  0.00000000E+00  0.00000000E+00  0.00000000E+00
  0.00000000E+00  0.00000000E+00  0.00000000E+00
  0.00000000E+00  0.00000000E+00  0.00000000E+00
  0.00000000E+00  0.00000000E+00  0.00000000E+00
  0.00000000E+00  0.00000000E+00  0.00000000E+00
  0.00000000E+00  0.00000000E+00  0.00000000E+00
  0.00000000E+00  0.00000000E+00  0.00000000E+00
  0.00000000E+00  0.00000000E+00  0.00000000E+00
  0.00000000E+00  0.00000000E+00  0.00000000E+00
  0.00000000E+00  0.00000000E+00  0.00000000E+00
  0.00000000E+00  0.00000000E+00  0.00000000E+00
  0.00000000E+00  0.00000000E+00  0.00000000E+00
  0.00000000E+00  0.00000000E+00  0.00000000E+00
  0.00000000E+00  0.00000000E+00  0.00000000E+00
  0.00000000E+00  0.00000000E+00  0.00000000E+00
  0.00000000E+00  0.00000000E+00  0.00000000E+00
  0.00000000E+00  0.00000000E+00  0.00000000E+00
  0.00000000E+00  0.00000000E+00  0.00000000E+00
  0.00000000E+00  0.00000000E+00  0.00000000E+00
  0.00000000E+00  0.00000000E+00  0.00000000E+00
  0.00000000E+00  0.00000000E+00  0.00000000E+00
  0.00000000E+00  0.00000000E+00  0.00000000E+00
  0.00000000E+00  0.00000000E+00  0.00000000E+00
  0.00000000E+00  0.00000000E+00  0.00000000E+00
  0.00000000E+00  0.00000000E+00  0.00000000E+00
  0.00000000E+00  0.00000000E+00  0.00000000E+00
  0.00000000E+00  0.00000000E+00  0.00000000E+00
  0.00000000E+00  0.00000000E+00  0.00000000E+00
  0.00000000E+00  0.00000000E+00  0.00000000E+00
  0.00000000E+00  0.00000000E+00  0.00000000E+00
  0.00000000E+00  0.00000000E+00  0.00000000E+00
  0.00000000E+00  0.00000000E+00  0.00000000E+00
  0.00000000E+00  0.00000000E+00  0.00000000E+00
  0.00000000E+00  0.00000000E+00  0.00000000E+00
  0.00000000E+00  0.00000000E+00  0.00000000E+00
  0.00000000E+00  0.00000000E+00  0.00000000E+00
  0.00000000E+00  0.00000000E+00  0.00000000E+00
  0.00000000E+00  0.00000000E+00  0.00000000E+00
  0.00000000E+00  0.00000000E+00  0.00000000E+00
  0.00000000E+00  0.00000000E+00  0.00000000E+00
  0.00000000E+00  0.00000000E+00  0.00000000E+00
  0.00000000E+00  0.00000000E+00  0.00000000E+00
  0.00000000E+00  0.00000000E+00  0.00000000E+00
  0.00000000E+00  0.00000000E+00  0.00000000E+00
  0.00000000E+00  0.00000000E+00  0.00000000E+00
  0.00000000E+00  0.00000000E+00  0.00000000E+00
  0.00000000E+00  0.00000000E+00  0.00000000E+00
  0.00000000E+00  0.00000000E+00  0.00000000E+00
  0.00000000E+00  0.00000000E+00  0.00000000E+00
  0.00000000E+00  0.00000000E+00  0.00000000E+00
  0.00000000E+00  0.00000000E+00  0.00000000E+00
  0.00000000E+00  0.00000000E+00  0.00000000E+00
  0.00000000E+00  0.00000000E+00  0.00000000E+00
  0.00000000E+00  0.00000000E+00  0.00000000E+00
  0.00000000E+00  0.00000000E+00  0.00000000E+00
  0.00000000E+00  0.00000000E+00  0.00000000E+00
  0.00000000E+00  0.00000000E+00  0.00000000E+00
  0.00000000E+00  0.00000000E+00  0.00000000E+00
  0.00000000E+00  0.00000000E+00  0.00000000E+00
  0.00000000E+00  0.00000000E+00  0.00000000E+00
  0.00000000E+00  0.00000000E+00  0.00000000E+00
  0.00000000E+00  0.00000000E+00  0.00000000E+00
  0.00000000E+00  0.00000000E+00  0.00000000E+00
  0.00000000E+00  0.00000000E+00  0.00000000E+00
  0.00000000E+00  0.00000000E+00  0.00000000E+00
  0.00000000E+00  0.00000000E+00  0.00000000E+00
  0.00000000E+00  0.00000000E+00  0.00000000E+00
  0.00000000E+00  0.00000000E+00  0.00000000E+00
  0.00000000E+00  0.00000000E+00  0.00000000E+00
  0.00000000E+00  0.00000000E+00  0.00000000E+00
  0.00000000E+00  0.00000000E+00  0.00000000E+00
  0.00000000E+00  0.00000000E+00  0.00000000E+00
  0.00000000E+00  0.00000000E+00  0.00000000E+00
  0.00000000E+00  0.00000000E+00  0.00000000E+00
  0.00000000E+00  0.00000000E+00  0.00000000E+00
  0.00000000E+00  0.00000000E+00  0.00000000E+00
  0.00000000E+00  0.00000000E+00  0.00000000E+00
  0.00000000E+00  0.00000000E+00  0.00000000E+00
  0.00000000E+00  0.00000000E+00  0.00000000E+00
  0.00000000E+00  0.00000000E+00  0.00000000E+00
  0.00000000E+00  0.00000000E+00  0.00000000E+00
  0.00000000E+00  0.00000000E+00  0.00000000E+00
  0.00000000E+00  0.00000000E+00  0.00000000E+00
  0.00000000E+00  0.00000000E+00  0.00000000E+00
  0.00000000E+00  0.00000000E+00  0.00000000E+00
  0.00000000E+00  0.00000000E+00  0.00000000E+00
  0.00000000E+00  0.00000000E+00  0.00000000E+00
  0.00000000E+00  0.00000000E+00  0.00000000E+00
