Si+Sn
    1.000000000
    9.406767845    0.000000000    0.000000000
    0.000000000   15.361189842    0.000000000
    0.000000000    0.000000000   16.934631348
Si  Sn 
48     48
Direct
    0.069444448    0.921875000    0.000000004
    0.402777851    0.546875000    0.065463416
    0.736111283    0.171875000    0.130926833
    0.069444656    0.796875000    0.196390286
    0.402778029    0.421875119    0.261853635
    0.736111641    0.046874881    0.327317119
    0.069444455    0.421874970    0.000000002
    0.402777851    0.046874985    0.065463424
    0.736111283    0.671875000    0.130926833
    0.069444656    0.296875000    0.196390301
    0.402778029    0.921875000    0.261853635
    0.736111641    0.546874762    0.327317119
    0.819444478    0.171875015    0.000000000
    0.152777910    0.796875000    0.065463409
    0.486111283    0.421875000    0.130926833
    0.819444776    0.046874940    0.196390212
    0.152778149    0.671875000    0.261853665
    0.486111641    0.296874881    0.327317178
    0.819444478    0.671874940    0.000000000
    0.152777910    0.296874970    0.065463394
    0.486111283    0.921874940    0.130926833
    0.819444776    0.546874881    0.196390241
    0.152777910    0.171875000    0.261853665
    0.486111641    0.796874762    0.327317178
    0.069444448    0.171875000    0.000000006
    0.402777851    0.796875000    0.065463424
    0.736111283    0.421875000    0.130926833
    0.069444776    0.046874940    0.196390241
    0.402778029    0.671875000    0.261853635
    0.736111522    0.296874881    0.327317178
    0.069444455    0.671875000    0.000000004
    0.402777851    0.296875000    0.065463424
    0.736111283    0.921875000    0.130926833
    0.069444656    0.546874940    0.196390256
    0.402778029    0.171875000    0.261853635
    0.736111522    0.796874881    0.327317178
    0.819444478    0.921875000    0.000000000
    0.152777791    0.546875000    0.065463409
    0.486111283    0.171875000    0.130926833
    0.819444895    0.796875000    0.196390212
    0.152778149    0.421875000    0.261853635
    0.486111879    0.046874762    0.327317119
    0.819444478    0.421875000    0.000000000
    0.152777910    0.046874970    0.065463409
    0.486111283    0.671875000    0.130926833
    0.819444656    0.296875000    0.196390241
    0.152778149    0.921875119    0.261853665
    0.486111641    0.546874881    0.327317178
    0.362699777    0.144122243    0.414768666
    0.862699747    0.977455497    0.636004150
    0.362699717    0.810788810    0.857239604
    0.862699747    0.644122183    0.414768666
    0.362699717    0.477455497    0.636004150
    0.862699747    0.310788751    0.857239604
    0.362699717    0.477455556    0.470077544
    0.862699747    0.310788780    0.691313028
    0.362699598    0.144122124    0.912548482
    0.862699747    0.977455497    0.470077544
    0.362699717    0.810788751    0.691312909
    0.862699747    0.644122064    0.912548482
    0.862699747    0.144122243    0.414768696
    0.362699717    0.977455437    0.636004150
    0.862699747    0.810788751    0.857239604
    0.362699777    0.644122183    0.414768666
    0.862699747    0.477455497    0.636004150
    0.362699836    0.310788751    0.857239664
    0.862699747    0.477455556    0.470077485
    0.362699717    0.310788870    0.691312909
    0.862699866    0.144122124    0.912548482
    0.362699717    0.977455556    0.470077485
    0.862699747    0.810788810    0.691312909
    0.362699836    0.644122124    0.912548363
    0.112699747    0.394122183    0.414768696
    0.612699747    0.227455452    0.636004150
    0.112699747    0.060788751    0.857239604
    0.612699747    0.894122243    0.414768696
    0.112699747    0.727455556    0.636004150
    0.612699747    0.560788810    0.857239604
    0.612699747    0.227455556    0.470077485
    0.112699747    0.060788870    0.691312909
    0.612699866    0.894122064    0.912548482
    0.112699747    0.727455556    0.470077485
    0.612699747    0.560788810    0.691312909
    0.112699866    0.394122124    0.912548363
    0.612699747    0.394122183    0.414768666
    0.112699747    0.227455497    0.636004150
    0.612699747    0.060788751    0.857239604
    0.112699747    0.894122243    0.414768666
    0.612699747    0.727455556    0.636004150
    0.112699747    0.560788810    0.857239544
    0.112699628    0.227455556    0.470077544
    0.612699628    0.060788870    0.691313028
    0.112699628    0.894122124    0.912548482
    0.612699747    0.727455556    0.470077485
    0.112699747    0.560788810    0.691312909
    0.612699747    0.394122124    0.912548482
