C+Si
    1.000000000
   16.345130920    0.000000000    0.000000000
  -10.896755219   12.182942390    0.000000000
    0.000000000    0.000000000    7.994749069
C   Si 
84     36
Direct
    0.867875099    0.471500456    0.000000041
    0.967875242    0.871500492    0.099760577
    0.067875385    0.271500587    0.199521154
    0.582160771    0.328643292    0.000000039
    0.682160854    0.728643298    0.099760577
    0.782160938    0.128643394    0.199521154
    0.296446532    0.185786158    0.000000040
    0.396446586    0.585786164    0.099760592
    0.496446639    0.985786200    0.199521154
    0.010732261    0.042929024    0.000000041
    0.110732324    0.442929059    0.099760592
    0.210732400    0.842929125    0.199521169
    0.725017905    0.900071800    0.000000034
    0.825018048    0.300071836    0.099760577
    0.925018132    0.700071931    0.199521154
    0.439303696    0.757214725    0.000000034
    0.539303720    0.157214761    0.099760577
    0.639303803    0.557214737    0.199521154
    0.153589383    0.614357531    0.000000034
    0.253589451    0.014357567    0.099760577
    0.353589505    0.414357543    0.199521154
    0.989303827    0.207214475    0.049880248
    0.089303851    0.607214451    0.149640769
    0.189303875    0.007214546    0.249401435
    0.703589439    0.064357400    0.049880259
    0.803589463    0.464357376    0.149640769
    0.903589547    0.864357471    0.249401435
    0.846446574    0.635786176    0.049880221
    0.946446598    0.035786271    0.149640799
    0.046446562    0.435786247    0.249401391
    0.560732245    0.492928684    0.049880248
    0.660732269    0.892928720    0.149640799
    0.760732353    0.292928696    0.249401361
    0.275017917    0.350071609    0.049880221
    0.375018001    0.750071704    0.149640799
    0.475018054    0.150071621    0.249401361
    0.417875111    0.921500325    0.049880262
    0.517875195    0.321500421    0.149640769
    0.617875278    0.721500397    0.249401316
    0.132160708    0.778643191    0.049880214
    0.232160792    0.178643346    0.149640873
    0.332160860    0.578643322    0.249401316
    0.939303637    0.257214785    0.000000031
    0.039303660    0.657214820    0.099760599
    0.139303923    0.057214856    0.199521154
    0.653589487    0.114357650    0.000000026
    0.753589571    0.514357686    0.099760592
    0.853589594    0.914357722    0.199521154
    0.796446502    0.685786068    0.000000033
    0.896446586    0.085786104    0.099760622
    0.996446669    0.485786200    0.199521154
    0.510732234    0.542928994    0.000000036
    0.610732257    0.942929029    0.099760644
    0.710732341    0.342929006    0.199521154
    0.225017980    0.400071859    0.000000036
    0.325018048    0.800071895    0.099760644
    0.425018102    0.200071931    0.199521154
    0.367875099    0.971500337    0.000000000
    0.467875153    0.371500373    0.099760577
    0.567875266    0.771500349    0.199521154
    0.082160808    0.828643203    0.000000000
    0.182160854    0.228643179    0.099760577
    0.282160938    0.628643274    0.199521154
    0.917875111    0.421500385    0.049880221
    0.017875195    0.821500480    0.149640843
    0.117875218    0.221500516    0.249401391
    0.632160783    0.278643340    0.049880221
    0.732160866    0.678643405    0.149640843
    0.832160830    0.078643322    0.249401316
    0.346446425    0.135785818    0.049880259
    0.446446508    0.535785913    0.149640948
    0.546446562    0.935785890    0.249401361
    0.775017917    0.850071549    0.049880251
    0.875018001    0.250071645    0.149640843
    0.975018024    0.650071502    0.249401361
    0.489303589    0.707214475    0.049880221
    0.589303732    0.107214570    0.149640769
    0.689303756    0.507214546    0.249401361
    0.203589380    0.564357400    0.049880199
    0.303589463    0.964357495    0.149640843
    0.403589487    0.364357352    0.249401361
    0.060732193    0.992928565    0.049880233
    0.160732284    0.392928600    0.149640799
    0.260732323    0.792928696    0.249401450
    0.171889305    0.538461208    0.434824765
    0.871889293    0.338461161    0.586725593
    0.571889281    0.138461113    0.738626480
    0.505222678    0.538461208    0.434824765
    0.205222592    0.338461161    0.586725593
    0.905222535    0.138461113    0.738626480
    0.838555932    0.538461208    0.434824765
    0.538555861    0.338461161    0.586725593
    0.238555849    0.138461113    0.738626480
    0.355222821    0.188461185    0.510775089
    0.055222750    0.988461137    0.662675858
    0.755222797    0.788461089    0.814576626
    0.688556075    0.188461185    0.510775089
    0.388556004    0.988461137    0.662675858
    0.088556051    0.788461089    0.814576626
    0.021889329    0.188461185    0.510775089
    0.721889257    0.988461137    0.662675858
    0.421889365    0.788461089    0.814576626
    0.338556021    0.038461208    0.434824765
    0.038555980    0.838461041    0.586725593
    0.738555968    0.638460994    0.738626480
    0.671889305    0.038461208    0.434824765
    0.371889234    0.838461041    0.586725593
    0.071889162    0.638460994    0.738626480
    0.005222559    0.038461208    0.434824765
    0.705222547    0.838461041    0.586725593
    0.405222476    0.638460994    0.738626480
    0.188556075    0.688461244    0.510775089
    0.888556004    0.488461256    0.662675858
    0.588556051    0.288461208    0.814576626
    0.521889329    0.688461244    0.510775089
    0.221889287    0.488461256    0.662675858
    0.921889305    0.288461208    0.814576626
    0.855222523    0.688461244    0.510775089
    0.555222511    0.488461256    0.662675858
    0.255222529    0.288461208    0.814576626
