Si+C                                    
   1.00000000000000     
    13.3031797409999992    0.0000000000000000    0.0000000000000000
     6.6515893940000002   14.8734064099999994    0.0000000000000000
     0.0000000000000000    0.0000000000000000    7.9947524070000000
   Si   C 
    36    84
Direct
  0.2832494969999999  0.6416247490000018  0.0000000470000003
  0.8165827990000025  0.4082912800000003  0.1519008280000023
  0.3499159810000023  0.1749577670000022  0.3038016559999974
  0.6165827510000028  0.3082913759999997  0.0000000570000012
  0.1499160529999983  0.0749579299999965  0.1519008280000023
  0.6832492349999981  0.8416244390000003  0.3038016260000020
  0.9499161239999978  0.9749580619999989  0.0000000400000033
  0.4832494850000018  0.7416245940000010  0.1519008280000023
  0.0165826679999981  0.5082911249999995  0.3038016260000020
  0.7999162670000004  0.7749580139999992  0.0759502869999977
  0.3332495089999981  0.5416245460000013  0.2278510929999982
  0.8665827510000028  0.3082910780000034  0.3797519510000029
  0.1332496850000027  0.4416247609999999  0.0759503020000025
  0.6665829419999980  0.2082912770000007  0.2278510929999982
  0.1999162440000006  0.9749577640000027  0.3797519510000029
  0.4665828939999983  0.1082915369999995  0.0759503020000025
  0.9999161360000031  0.8749580380000026  0.2278510929999982
  0.5332493780000007  0.6416245699999976  0.3797519510000029
  0.7832495569999978  0.6416247490000018  0.0000000000000000
  0.3165828289999979  0.4082912800000003  0.1519008129999975
  0.8499160410000002  0.1749577819999999  0.3038016559999974
  0.1165827960000030  0.3082914049999985  0.0000000570000012
  0.6499160529999983  0.0749579519999983  0.1519008579999976
  0.1832492950000031  0.8416244980000016  0.3038016559999974
  0.4499161239999978  0.9749580619999989  0.0000000570000012
  0.9832494260000004  0.7416245940000010  0.1519008579999976
  0.5165826679999981  0.5082911249999995  0.3038016559999974
  0.2999161779999966  0.7749581340000020  0.0759503020000025
  0.8332494499999967  0.5416246650000005  0.2278511519999995
  0.3665826920000015  0.3082911970000026  0.3797519210000004
  0.6332494019999970  0.4416247309999974  0.0759503170000002
  0.1665826440000018  0.2082912620000030  0.2278511519999995
  0.6999159459999973  0.9749578240000005  0.3797518909999980
  0.9665827159999978  0.1082915510000007  0.0759503020000025
  0.4999159569999989  0.8749580380000026  0.2278511519999995
  0.0332492590000015  0.6416246289999989  0.3797519510000029
  0.2491574290000003  0.8888399000000007  0.7646964790000013
  0.5920144919999970  0.9174115659999984  0.5651752950000031
  0.9205859899999993  0.9031257629999985  0.6649358869999986
  0.5348715780000006  0.7459828260000023  0.7646964790000013
  0.8777288200000015  0.7745544309999985  0.5651752950000031
  0.2063002590000025  0.7602686290000022  0.6649358869999986
  0.8205858469999967  0.6031256910000025  0.7646964790000013
  0.1634429690000019  0.6316972970000023  0.5651752950000031
  0.4920144379999982  0.6174114940000024  0.6649358869999986
  0.1063002349999991  0.4602684970000013  0.7646964790000013
  0.4491573569999971  0.4888401030000011  0.5651752349999981
  0.7777287959999981  0.4745543299999966  0.6649358869999986
  0.3920145330000011  0.3174113629999979  0.7646964790000013
  0.7348716260000003  0.3459829689999978  0.5651752349999981
  0.0634430650000013  0.3316971960000004  0.6649358869999986
  0.6777287720000018  0.1745542589999971  0.7646964790000013
  0.0205858950000035  0.2031258640000004  0.5651752349999981
  0.3491573630000033  0.1888400910000030  0.6649358869999986
  0.9634431599999971  0.0316971539999997  0.7646965380000026
  0.3063002230000009  0.0602686410000004  0.5651752349999981
  0.6348717210000032  0.0459829569999997  0.6649358869999986
  0.6991572379999980  0.9888399239999970  0.8145766849999987
  0.0420143600000031  0.0174114699999990  0.6150555010000005
  0.3705858289999995  0.0031256680000027  0.7148161530000010
  0.9848715070000011  0.8459827900000008  0.8145766849999987
  0.3277286590000017  0.8745543960000006  0.6150555010000005
  0.6563000680000002  0.8602685330000028  0.7148161530000010
  0.2705857750000007  0.7031256559999974  0.8145768050000015
  0.6134429569999966  0.7316972610000008  0.6150554419999992
  0.9420144560000026  0.7174114580000008  0.7148160930000031
  0.5563001630000031  0.5602685810000025  0.8145766849999987
  0.8991572859999977  0.5888401269999974  0.6150554419999992
  0.2277287240000021  0.5745543840000025  0.7148161530000010
  0.8420145509999983  0.4174114469999992  0.8145768050000015
  0.1848716740000000  0.4459830220000001  0.6150554419999992
  0.5134429929999982  0.4316972490000026  0.7148160930000031
  0.1277287010000023  0.2745542529999980  0.8145768050000015
  0.4705858829999983  0.3031258580000014  0.6150555010000005
  0.7991573810000006  0.2888400550000014  0.7148161530000010
  0.4134431180000036  0.1316971179999982  0.8145766849999987
  0.7563002110000028  0.1602687239999980  0.6150555010000005
  0.0848716499999966  0.1459829209999981  0.7148160930000031
  0.7491573100000011  0.8888399599999985  0.7646964790000013
  0.0920144319999991  0.9174114469999992  0.5651752349999981
  0.4205857809999998  0.9031257629999985  0.6649359459999999
  0.0348718170000026  0.7459828260000023  0.7646965380000026
  0.3777288200000015  0.7745544309999985  0.5651752349999981
  0.7063002590000025  0.7602686290000022  0.6649358869999986
  0.3205861149999976  0.6031256910000025  0.7646965380000026
  0.6634430889999976  0.6316972970000023  0.5651752349999981
  0.9920145270000020  0.6174114940000024  0.6649358869999986
  0.6063002349999991  0.4602685569999991  0.7646965380000026
  0.9491573569999971  0.4888401329999965  0.5651752349999981
  0.2777287070000014  0.4745543599999991  0.6649358869999986
  0.8920143839999994  0.3174114819999971  0.7646965380000026
  0.2348716260000003  0.3459829990000003  0.5651752349999981
  0.5634430650000013  0.3316971960000004  0.6649358869999986
  0.1777288910000010  0.1745542729999983  0.7646965380000026
  0.5205858949999964  0.2031258339999980  0.5651752950000031
  0.8491574529999966  0.1888400320000017  0.6649358869999986
  0.4634430710000004  0.0316971539999997  0.7646965380000026
  0.8063001630000031  0.0602687599999996  0.5651752950000031
  0.1348716019999969  0.0459829569999997  0.6649358869999986
  0.1991573569999971  0.9888400439999998  0.8145766849999987
  0.5420144799999989  0.0174115900000018  0.6150555010000005
  0.8705857989999970  0.0031256680000027  0.7148160930000031
  0.4848716560000028  0.8459828499999986  0.8145766849999987
  0.8277287479999984  0.8745544550000020  0.6150555010000005
  0.1563001869999994  0.8602685930000007  0.7148160930000031
  0.7705858949999964  0.7031256559999974  0.8145766849999987
  0.1134431360000008  0.7316972610000008  0.6150555010000005
  0.4420146049999971  0.7174113989999995  0.7148160930000031
  0.0563000439999968  0.5602685810000025  0.8145766259999974
  0.3991573149999965  0.5888400669999996  0.6150554419999992
  0.7277287240000021  0.5745543239999975  0.7148160930000031
  0.3420145810000008  0.4174113870000014  0.8145766849999987
  0.6848717330000014  0.4459829629999987  0.6150554419999992
  0.0134431119999974  0.4316971900000013  0.7148160930000031
  0.6277285809999995  0.2745542230000027  0.8145766849999987
  0.9705858230000004  0.3031258290000025  0.6150554419999992
  0.2991571720000010  0.2888400550000014  0.7148160930000031
  0.9134429690000019  0.1316971930000008  0.8145766849999987
  0.2563002110000028  0.1602686940000027  0.6150555010000005
  0.5848715309999974  0.1459829209999981  0.7148161530000010
 
  0.00000000E+00  0.00000000E+00  0.00000000E+00
  0.00000000E+00  0.00000000E+00  0.00000000E+00
  0.00000000E+00  0.00000000E+00  0.00000000E+00
  0.00000000E+00  0.00000000E+00  0.00000000E+00
  0.00000000E+00  0.00000000E+00  0.00000000E+00
  0.00000000E+00  0.00000000E+00  0.00000000E+00
  0.00000000E+00  0.00000000E+00  0.00000000E+00
  0.00000000E+00  0.00000000E+00  0.00000000E+00
  0.00000000E+00  0.00000000E+00  0.00000000E+00
  0.00000000E+00  0.00000000E+00  0.00000000E+00
  0.00000000E+00  0.00000000E+00  0.00000000E+00
  0.00000000E+00  0.00000000E+00  0.00000000E+00
  0.00000000E+00  0.00000000E+00  0.00000000E+00
  0.00000000E+00  0.00000000E+00  0.00000000E+00
  0.00000000E+00  0.00000000E+00  0.00000000E+00
  0.00000000E+00  0.00000000E+00  0.00000000E+00
  0.00000000E+00  0.00000000E+00  0.00000000E+00
  0.00000000E+00  0.00000000E+00  0.00000000E+00
  0.00000000E+00  0.00000000E+00  0.00000000E+00
  0.00000000E+00  0.00000000E+00  0.00000000E+00
  0.00000000E+00  0.00000000E+00  0.00000000E+00
  0.00000000E+00  0.00000000E+00  0.00000000E+00
  0.00000000E+00  0.00000000E+00  0.00000000E+00
  0.00000000E+00  0.00000000E+00  0.00000000E+00
  0.00000000E+00  0.00000000E+00  0.00000000E+00
  0.00000000E+00  0.00000000E+00  0.00000000E+00
  0.00000000E+00  0.00000000E+00  0.00000000E+00
  0.00000000E+00  0.00000000E+00  0.00000000E+00
  0.00000000E+00  0.00000000E+00  0.00000000E+00
  0.00000000E+00  0.00000000E+00  0.00000000E+00
  0.00000000E+00  0.00000000E+00  0.00000000E+00
  0.00000000E+00  0.00000000E+00  0.00000000E+00
  0.00000000E+00  0.00000000E+00  0.00000000E+00
  0.00000000E+00  0.00000000E+00  0.00000000E+00
  0.00000000E+00  0.00000000E+00  0.00000000E+00
  0.00000000E+00  0.00000000E+00  0.00000000E+00
  0.00000000E+00  0.00000000E+00  0.00000000E+00
  0.00000000E+00  0.00000000E+00  0.00000000E+00
  0.00000000E+00  0.00000000E+00  0.00000000E+00
  0.00000000E+00  0.00000000E+00  0.00000000E+00
  0.00000000E+00  0.00000000E+00  0.00000000E+00
  0.00000000E+00  0.00000000E+00  0.00000000E+00
  0.00000000E+00  0.00000000E+00  0.00000000E+00
  0.00000000E+00  0.00000000E+00  0.00000000E+00
  0.00000000E+00  0.00000000E+00  0.00000000E+00
  0.00000000E+00  0.00000000E+00  0.00000000E+00
  0.00000000E+00  0.00000000E+00  0.00000000E+00
  0.00000000E+00  0.00000000E+00  0.00000000E+00
  0.00000000E+00  0.00000000E+00  0.00000000E+00
  0.00000000E+00  0.00000000E+00  0.00000000E+00
  0.00000000E+00  0.00000000E+00  0.00000000E+00
  0.00000000E+00  0.00000000E+00  0.00000000E+00
  0.00000000E+00  0.00000000E+00  0.00000000E+00
  0.00000000E+00  0.00000000E+00  0.00000000E+00
  0.00000000E+00  0.00000000E+00  0.00000000E+00
  0.00000000E+00  0.00000000E+00  0.00000000E+00
  0.00000000E+00  0.00000000E+00  0.00000000E+00
  0.00000000E+00  0.00000000E+00  0.00000000E+00
  0.00000000E+00  0.00000000E+00  0.00000000E+00
  0.00000000E+00  0.00000000E+00  0.00000000E+00
  0.00000000E+00  0.00000000E+00  0.00000000E+00
  0.00000000E+00  0.00000000E+00  0.00000000E+00
  0.00000000E+00  0.00000000E+00  0.00000000E+00
  0.00000000E+00  0.00000000E+00  0.00000000E+00
  0.00000000E+00  0.00000000E+00  0.00000000E+00
  0.00000000E+00  0.00000000E+00  0.00000000E+00
  0.00000000E+00  0.00000000E+00  0.00000000E+00
  0.00000000E+00  0.00000000E+00  0.00000000E+00
  0.00000000E+00  0.00000000E+00  0.00000000E+00
  0.00000000E+00  0.00000000E+00  0.00000000E+00
  0.00000000E+00  0.00000000E+00  0.00000000E+00
  0.00000000E+00  0.00000000E+00  0.00000000E+00
  0.00000000E+00  0.00000000E+00  0.00000000E+00
  0.00000000E+00  0.00000000E+00  0.00000000E+00
  0.00000000E+00  0.00000000E+00  0.00000000E+00
  0.00000000E+00  0.00000000E+00  0.00000000E+00
  0.00000000E+00  0.00000000E+00  0.00000000E+00
  0.00000000E+00  0.00000000E+00  0.00000000E+00
  0.00000000E+00  0.00000000E+00  0.00000000E+00
  0.00000000E+00  0.00000000E+00  0.00000000E+00
  0.00000000E+00  0.00000000E+00  0.00000000E+00
  0.00000000E+00  0.00000000E+00  0.00000000E+00
  0.00000000E+00  0.00000000E+00  0.00000000E+00
  0.00000000E+00  0.00000000E+00  0.00000000E+00
  0.00000000E+00  0.00000000E+00  0.00000000E+00
  0.00000000E+00  0.00000000E+00  0.00000000E+00
  0.00000000E+00  0.00000000E+00  0.00000000E+00
  0.00000000E+00  0.00000000E+00  0.00000000E+00
  0.00000000E+00  0.00000000E+00  0.00000000E+00
  0.00000000E+00  0.00000000E+00  0.00000000E+00
  0.00000000E+00  0.00000000E+00  0.00000000E+00
  0.00000000E+00  0.00000000E+00  0.00000000E+00
  0.00000000E+00  0.00000000E+00  0.00000000E+00
  0.00000000E+00  0.00000000E+00  0.00000000E+00
  0.00000000E+00  0.00000000E+00  0.00000000E+00
  0.00000000E+00  0.00000000E+00  0.00000000E+00
  0.00000000E+00  0.00000000E+00  0.00000000E+00
  0.00000000E+00  0.00000000E+00  0.00000000E+00
  0.00000000E+00  0.00000000E+00  0.00000000E+00
  0.00000000E+00  0.00000000E+00  0.00000000E+00
  0.00000000E+00  0.00000000E+00  0.00000000E+00
  0.00000000E+00  0.00000000E+00  0.00000000E+00
  0.00000000E+00  0.00000000E+00  0.00000000E+00
  0.00000000E+00  0.00000000E+00  0.00000000E+00
  0.00000000E+00  0.00000000E+00  0.00000000E+00
  0.00000000E+00  0.00000000E+00  0.00000000E+00
  0.00000000E+00  0.00000000E+00  0.00000000E+00
  0.00000000E+00  0.00000000E+00  0.00000000E+00
  0.00000000E+00  0.00000000E+00  0.00000000E+00
  0.00000000E+00  0.00000000E+00  0.00000000E+00
  0.00000000E+00  0.00000000E+00  0.00000000E+00
  0.00000000E+00  0.00000000E+00  0.00000000E+00
  0.00000000E+00  0.00000000E+00  0.00000000E+00
  0.00000000E+00  0.00000000E+00  0.00000000E+00
  0.00000000E+00  0.00000000E+00  0.00000000E+00
  0.00000000E+00  0.00000000E+00  0.00000000E+00
  0.00000000E+00  0.00000000E+00  0.00000000E+00
  0.00000000E+00  0.00000000E+00  0.00000000E+00
  0.00000000E+00  0.00000000E+00  0.00000000E+00
  0.00000000E+00  0.00000000E+00  0.00000000E+00
