Sn+Ge
    1.000000000
   12.978400230    0.000000000    0.000000000
    0.000000000   12.978400230    0.000000000
    0.000000000    0.000000000   19.583751678
Sn  Ge 
48     60
Direct
    0.992552638    0.499999970    0.000000000
    0.742552638    0.499999970    0.165678188
    0.492552757    0.499999970    0.331356287
    0.992552638    0.000000000    0.000000000
    0.742552638    0.000000000    0.165678188
    0.492552757    0.000000000    0.331356287
    0.492552608    0.499999970    0.000000000
    0.242552638    0.499999970    0.165678188
    0.992552698    0.499999970    0.331356287
    0.492552608    0.000000000    0.000000000
    0.242552638    0.000000000    0.165678188
    0.992552698    0.000000000    0.331356287
    0.117552646    0.874999940    0.082839087
    0.867552757    0.874999940    0.248517260
    0.617552698    0.874999940    0.414195418
    0.117552646    0.374999970    0.082839087
    0.867552757    0.374999970    0.248517260
    0.617552698    0.374999970    0.414195418
    0.617552578    0.874999940    0.082839087
    0.367552698    0.874999940    0.248517260
    0.117552668    0.874999940    0.414195418
    0.617552578    0.374999970    0.082839087
    0.367552698    0.374999970    0.248517260
    0.117552668    0.374999970    0.414195418
    0.242552638    0.749999940    0.000000000
    0.992552638    0.749999940    0.165678188
    0.742552757    0.749999940    0.331356287
    0.242552638    0.249999985    0.000000000
    0.992552638    0.249999985    0.165678188
    0.742552757    0.249999985    0.331356287
    0.742552578    0.749999940    0.000000000
    0.492552608    0.749999940    0.165678188
    0.242552698    0.749999940    0.331356287
    0.742552578    0.249999985    0.000000000
    0.492552608    0.249999985    0.165678188
    0.242552698    0.249999985    0.331356287
    0.367552638    0.624999940    0.082839087
    0.117552713    0.624999940    0.248517260
    0.867552698    0.624999940    0.414195418
    0.367552638    0.124999993    0.082839087
    0.117552713    0.124999993    0.248517260
    0.867552698    0.124999993    0.414195418
    0.867552638    0.624999940    0.082839087
    0.617552757    0.624999940    0.248517260
    0.367552698    0.624999940    0.414195418
    0.867552638    0.124999993    0.082839087
    0.617552757    0.124999993    0.248517260
    0.367552698    0.124999993    0.414195418
    0.221073627    0.327447712    0.526533484
    0.021073580    0.427447706    0.670984805
    0.821073532    0.527447701    0.815436304
    0.421073556    0.727447689    0.526533484
    0.221073508    0.827447653    0.670984805
    0.021073461    0.927447736    0.815436304
    0.621073604    0.127447695    0.526533484
    0.421073556    0.227447718    0.670984805
    0.221073508    0.327447742    0.815436304
    0.821073592    0.527447701    0.526533484
    0.621073484    0.627447665    0.670984805
    0.421073437    0.727447689    0.815436304
    0.021073580    0.927447677    0.526533484
    0.821073532    0.027447701    0.670984805
    0.621073484    0.127447665    0.815436304
    0.571073532    0.277447701    0.598759174
    0.371073484    0.377447724    0.743210614
    0.171073437    0.477447748    0.887661994
    0.171073675    0.477447689    0.598759174
    0.971073508    0.577447772    0.743210614
    0.771073461    0.677447736    0.887661994
    0.371073604    0.877447665    0.598759174
    0.171073556    0.977447689    0.743210614
    0.971073508    0.077447653    0.887661994
    0.771073580    0.677447677    0.598759174
    0.571073532    0.777447760    0.743210614
    0.371073484    0.877447784    0.887661994
    0.971073568    0.077447653    0.598759174
    0.771073520    0.177447736    0.743210614
    0.571073532    0.277447760    0.887661994
    0.521073461    0.427447647    0.526533484
    0.321073532    0.527447641    0.670984805
    0.121073365    0.627447665    0.815436304
    0.921073556    0.227447703    0.526533484
    0.721073568    0.327447712    0.670984805
    0.521073580    0.427447736    0.815436304
    0.121073604    0.627447724    0.526533484
    0.921073556    0.727447748    0.670984805
    0.721073508    0.827447772    0.815436304
    0.321073532    0.027447701    0.526533484
    0.121073484    0.127447784    0.670984805
    0.921073437    0.227447808    0.815436304
    0.721073627    0.827447712    0.526533484
    0.521073580    0.927447736    0.670984805
    0.321073532    0.027447701    0.815436304
    0.271073580    0.177447721    0.598759174
    0.071073532    0.277447760    0.743210614
    0.871073484    0.377447784    0.887661994
    0.471073627    0.577447712    0.598759174
    0.271073580    0.677447736    0.743210614
    0.071073532    0.777447760    0.887661994
    0.871073604    0.377447695    0.598759174
    0.671073556    0.477447748    0.743210614
    0.471073508    0.577447772    0.887661994
    0.071073532    0.777447701    0.598759174
    0.871073544    0.877447724    0.743210614
    0.671073496    0.977447748    0.887661994
    0.671073556    0.977447689    0.598759174
    0.471073508    0.077447653    0.743210614
    0.271073461    0.177447736    0.887661994
