fcc Si+fcc Ge
    1.000000000
    7.749890322    0.000000000    0.000000000
    3.874945161   11.624835483    0.000000000
    0.000000000    0.000000000   18.433333333
Si    Ge   
12     66
Direct
    0.000000000    0.000000000    0.000000000
    0.111111111    0.277777778    0.049547920
    0.222222222    0.555555556    0.099095841
    0.500000000    0.000000000    0.000000000
    0.611111111    0.277777778    0.049547920
    0.722222222    0.555555556    0.099095841
    0.805555556    0.888888889    0.024773960
    0.916666667    0.166666667    0.074321881
    0.027777778    0.444444444    0.123869801
    0.305555556    0.888888889    0.024773960
    0.416666667    0.166666667    0.074321881
    0.527777778    0.444444444    0.123869801
    0.000000000    0.049180328    0.178119349
    0.333333333    0.882513661    0.331645570
    0.666666667    0.715846995    0.485171790
    0.000000000    0.549180328    0.638698011
    0.333333333    0.382513661    0.792224231
    0.666666667    0.215846995    0.945750452
    0.333333333    0.382513661    0.178119349
    0.666666667    0.215846995    0.331645570
    0.000000000    0.049180328    0.485171790
    0.333333333    0.882513661    0.638698011
    0.666666667    0.715846995    0.792224231
    0.000000000    0.549180328    0.945750452
    0.666666667    0.715846995    0.178119349
    0.000000000    0.549180328    0.331645570
    0.333333333    0.382513661    0.485171790
    0.666666667    0.215846995    0.638698011
    0.000000000    0.049180328    0.792224231
    0.333333333    0.882513661    0.945750452
    0.500000000    0.049180328    0.178119349
    0.833333333    0.882513661    0.331645570
    0.166666667    0.715846995    0.485171790
    0.500000000    0.549180328    0.638698011
    0.833333333    0.382513661    0.792224231
    0.166666667    0.215846995    0.945750452
    0.833333333    0.382513661    0.178119349
    0.166666667    0.215846995    0.331645570
    0.500000000    0.049180328    0.485171790
    0.833333333    0.882513661    0.638698011
    0.166666667    0.715846995    0.792224231
    0.500000000    0.549180328    0.945750452
    0.166666667    0.715846995    0.178119349
    0.500000000    0.549180328    0.331645570
    0.833333333    0.382513661    0.485171790
    0.166666667    0.215846995    0.638698011
    0.500000000    0.049180328    0.792224231
    0.833333333    0.882513661    0.945750452
    0.916666667    0.215846995    0.254882459
    0.250000000    0.049180328    0.408408680
    0.583333333    0.882513661    0.561934901
    0.916666667    0.715846995    0.715461121
    0.250000000    0.549180328    0.868987342
    0.250000000    0.549180328    0.254882459
    0.583333333    0.382513661    0.408408680
    0.916666667    0.215846995    0.561934901
    0.250000000    0.049180328    0.715461121
    0.583333333    0.882513661    0.868987342
    0.583333333    0.882513661    0.254882459
    0.916666667    0.715846995    0.408408680
    0.250000000    0.549180328    0.561934901
    0.583333333    0.382513661    0.715461121
    0.916666667    0.215846995    0.868987342
    0.416666667    0.215846995    0.254882459
    0.750000000    0.049180328    0.408408680
    0.083333333    0.882513661    0.561934901
    0.416666667    0.715846995    0.715461121
    0.750000000    0.549180328    0.868987342
    0.750000000    0.549180328    0.254882459
    0.083333333    0.382513661    0.408408680
    0.416666667    0.215846995    0.561934901
    0.750000000    0.049180328    0.715461121
    0.083333333    0.882513661    0.868987342
    0.083333333    0.882513661    0.254882459
    0.416666667    0.715846995    0.408408680
    0.750000000    0.549180328    0.561934901
    0.083333333    0.382513661    0.715461121
    0.416666667    0.215846995    0.868987342
