Si+C
    1.000000000
   13.303179741    0.000000000    0.000000000
   -6.651589394   11.520891190    0.000000000
    0.000000000    0.000000000   21.679418564
Si  C  
72     308
Direct
    0.348160356    0.681493700    0.000000013
    0.681493759    0.014827132    0.144634396
    0.014827251    0.348160625    0.289268821
    0.014827028    0.014827028    0.000000014
    0.348160386    0.348160386    0.144634396
    0.681493878    0.681493878    0.289268821
    0.681493700    0.348160356    0.000000000
    0.014827132    0.681493759    0.144634381
    0.348160625    0.014827251    0.289268792
    0.014827013    0.681493759    0.036158606
    0.348160386    0.014827132    0.180793002
    0.681493878    0.348160625    0.325427443
    0.348160416    0.348160416    0.036158621
    0.681493759    0.681493819    0.180793017
    0.014827251    0.014827251    0.325427443
    0.681493759    0.014827013    0.036158606
    0.014827132    0.348160386    0.180793002
    0.348160625    0.681493878    0.325427413
    0.014827028    0.514827013    0.000000017
    0.348160416    0.848160446    0.144634411
    0.681493819    0.181493878    0.289268821
    0.681493759    0.848160386    0.000000038
    0.014827132    0.181493759    0.144634396
    0.348160625    0.514827251    0.289268821
    0.348160386    0.181493685    0.000000008
    0.681493759    0.514827073    0.144634381
    0.014827132    0.848160505    0.289268792
    0.348160416    0.848160267    0.036158569
    0.681493878    0.181493759    0.180792972
    0.014827132    0.514827013    0.325427353
    0.014827132    0.181493700    0.036158592
    0.348160505    0.514827132    0.180792972
    0.681493759    0.848160446    0.325427324
    0.681493819    0.514827073    0.036158577
    0.014827251    0.848160505    0.180793002
    0.348160625    0.181493878    0.325427383
    0.181493700    0.848160386    0.000000024
    0.514827073    0.181493759    0.144634396
    0.848160565    0.514827251    0.289268821
    0.514827013    0.514827013    0.000000014
    0.848160446    0.848160386    0.144634396
    0.181493878    0.181493878    0.289268821
    0.848160386    0.181493700    0.000000005
    0.181493759    0.514827073    0.144634381
    0.514827251    0.848160565    0.289268821
    0.181493685    0.514827013    0.036158577
    0.514827132    0.848160505    0.180793002
    0.848160446    0.181493759    0.325427353
    0.848160386    0.848160386    0.036158558
    0.181493878    0.181493878    0.180793002
    0.514827251    0.514827251    0.325427383
    0.514827073    0.181493670    0.036158577
    0.848160505    0.514827132    0.180793002
    0.181493759    0.848160446    0.325427383
    0.181493700    0.348160356    0.000000013
    0.514827073    0.681493759    0.144634396
    0.848160505    0.014827132    0.289268821
    0.848160386    0.681493759    0.000000027
    0.181493759    0.014827132    0.144634396
    0.514827251    0.348160625    0.289268821
    0.514827013    0.014827021    0.000000013
    0.848160386    0.348160416    0.144634396
    0.181493878    0.681493819    0.289268821
    0.514827013    0.681493640    0.036158621
    0.848160386    0.014827013    0.180793002
    0.181493878    0.348160505    0.325427443
    0.181493655    0.014827013    0.036158614
    0.514827013    0.348160386    0.180793002
    0.848160446    0.681493878    0.325427443
    0.848160446    0.348160386    0.036158606
    0.181493878    0.681493759    0.180793002
    0.514827251    0.014827251    0.325427413
    0.809903204    0.211242676    0.900184751
    0.762284517    0.401719213    0.425242633
    0.571808219    0.163623810    0.520231068
    0.381331980    0.925528586    0.615219474
    0.190855652    0.687433183    0.710207880
    0.000379443    0.449337959    0.805196285
    0.952760339    0.639814138    0.900184751
    0.905141652    0.830290675    0.425242662
    0.714665353    0.592195392    0.520231068
    0.524189115    0.354100078    0.615219533
    0.333712816    0.116004705    0.710207939
    0.143236578    0.877909422    0.805196345
    0.524188876    0.354099810    0.900184751
    0.476570189    0.544576406    0.425242633
    0.286093920    0.306481034    0.520231068
    0.095617667    0.068385720    0.615219474
    0.905141294    0.830290318    0.710207939
    0.714665115    0.592195153    0.805196345
    0.667046010    0.782671273    0.900184751
    0.619427323    0.973147750    0.425242633
    0.428951085    0.735052466    0.520231068
    0.238474846    0.496957183    0.615219474
    0.047998428    0.258861780    0.710207880
    0.857522309    0.020766497    0.805196345
    0.095617466    0.068385482    0.900184751
    0.047998667    0.258862019    0.425242633
    0.857522488    0.020766735    0.520231068
    0.667046249    0.782671452    0.615219474
    0.476569891    0.544576108    0.710207880
    0.286093712    0.306480825    0.805196285
    0.238474607    0.496956944    0.900184751
    0.190855891    0.687433481    0.425242633
    0.000379562    0.449338168    0.520231068
    0.809903383    0.211242914    0.615219474
    0.619427025    0.973147511    0.710207939
    0.428950846    0.735052288    0.805196285
    0.381331742    0.925528407    0.900184751
    0.333713025    0.116004944    0.425242633
    0.143236771    0.877909601    0.520231068
    0.952760518    0.639814377    0.615219474
    0.762284219    0.401718944    0.710207939
    0.571808040    0.163623691    0.805196285
    0.000379682    0.449338198    0.448989779
    0.809903443    0.211242914    0.543978214
    0.619427204    0.973147631    0.638966620
    0.428950846    0.735052228    0.733955085
    0.238474548    0.496956885    0.828943491
    0.714665413    0.592195392    0.448989749
    0.524189174    0.354100108    0.543978155
    0.333712935    0.116004825    0.638966560
    0.143236637    0.877909482    0.733955026
    0.952760279    0.639814019    0.828943491
    0.857522607    0.020766854    0.448989749
    0.667046368    0.782671571    0.543978155
    0.476570100    0.544576287    0.638966620
    0.286093801    0.306480885    0.733955026
    0.095617473    0.068385482    0.828943491
    0.286093980    0.306481093    0.448989779
    0.095617719    0.068385839    0.543978214
    0.905141473    0.830290496    0.638966620
    0.714665115    0.592195094    0.733955085
    0.524188817    0.354099751    0.828943491
    0.428951144    0.735052526    0.448989779
    0.238474876    0.496957242    0.543978214
    0.047998667    0.258861899    0.638966620
    0.857522309    0.020766497    0.733955026
    0.667046010    0.782671154    0.828943491
    0.571808279    0.163624048    0.448989779
    0.381332070    0.925528705    0.543978214
    0.190855801    0.687433422    0.638966620
    0.000379443    0.449338019    0.733955026
    0.809903145    0.211242676    0.828943491
    0.143236801    0.877909660    0.448989779
    0.952760577    0.639814377    0.543978214
    0.762284338    0.401719064    0.638966620
    0.571808040    0.163623691    0.733955085
    0.381331682    0.925528288    0.828943491
    0.024188995    0.354099870    0.900184751
    0.976570249    0.544576406    0.425242633
    0.786094010    0.306481063    0.520231068
    0.595617771    0.068385839    0.615219474
    0.405141413    0.830290318    0.710207880
    0.214665234    0.592195153    0.805196345
    0.595617473    0.068385482    0.900184751
    0.547998786    0.258862019    0.425242633
    0.357522517    0.020766735    0.520231068
    0.167046249    0.782671452    0.615219474
    0.976569951    0.544576049    0.710207939
    0.786093712    0.306480765    0.805196345
    0.738474667    0.496956944    0.900184751
    0.690855920    0.687433481    0.425242662
    0.500379682    0.449338198    0.520231068
    0.309903443    0.211242914    0.615219533
    0.119427107    0.973147511    0.710207939
    0.928950846    0.735052288    0.805196345
    0.881331742    0.925528407    0.900184751
    0.833713055    0.116004944    0.425242633
    0.643236756    0.877909601    0.520231068
    0.452760518    0.639814317    0.615219533
    0.262284189    0.401718915    0.710207939
    0.071807973    0.163623691    0.805196345
    0.309903145    0.211242676    0.900184751
    0.262284458    0.401719213    0.425242633
    0.071808189    0.163623810    0.520231068
    0.881331980    0.925528646    0.615219474
    0.690855622    0.687433183    0.710207880
    0.500379443    0.449337900    0.805196345
    0.452760279    0.639814079    0.900184751
    0.405141592    0.830290675    0.425242633
    0.214665323    0.592195332    0.520231068
    0.024189115    0.354100049    0.615219474
    0.833712757    0.116004705    0.710207939
    0.643236578    0.877909422    0.805196345
    0.167046010    0.782671213    0.900184751
    0.119427308    0.973147750    0.425242633
    0.928951025    0.735052466    0.520231068
    0.738474786    0.496957183    0.615219474
    0.547998488    0.258861780    0.710207939
    0.357522249    0.020766497    0.805196345
    0.786094069    0.306481123    0.448989749
    0.595617831    0.068385839    0.543978214
    0.405141532    0.830290496    0.638966560
    0.214665204    0.592195153    0.733955026
    0.024188876    0.354099810    0.828943491
    0.928951204    0.735052466    0.448989749
    0.738474965    0.496957183    0.543978214
    0.547998667    0.258861899    0.638966620
    0.357522398    0.020766497    0.733955026
    0.167046025    0.782671154    0.828943491
    0.500379682    0.449338257    0.448989719
    0.309903413    0.211242914    0.543978155
    0.119427174    0.973147631    0.638966560
    0.928950965    0.735052347    0.733955026
    0.738474607    0.496957004    0.828943431
    0.643236876    0.877909720    0.448989719
    0.452760577    0.639814377    0.543978155
    0.262284368    0.401719093    0.638966560
    0.071808085    0.163623810    0.733955026
    0.881331861    0.925528407    0.828943372
    0.214665413    0.592195392    0.448989749
    0.024189115    0.354100049    0.543978214
    0.833712876    0.116004705    0.638966620
    0.643236637    0.877909482    0.733955026
    0.452760339    0.639814138    0.828943431
    0.357522547    0.020766854    0.448989749
    0.167046279    0.782671511    0.543978214
    0.976570070    0.544576228    0.638966560
    0.786093771    0.306480885    0.733955026
    0.595617533    0.068385601    0.828943491
    0.071808241    0.163624048    0.448989749
    0.881331980    0.925528705    0.543978214
    0.690855682    0.687433362    0.638966560
    0.500379443    0.449338078    0.733955026
    0.309903145    0.211242676    0.828943491
    0.952760398    0.139814138    0.900184751
    0.905141652    0.330290645    0.425242662
    0.714665413    0.092195272    0.520231068
    0.524189174    0.854100049    0.615219533
    0.333712816    0.616004646    0.710207939
    0.143236622    0.377909422    0.805196345
    0.667046130    0.282671273    0.900184751
    0.619427383    0.473147810    0.425242662
    0.428951114    0.235052466    0.520231068
    0.238474876    0.996957183    0.615219533
    0.047998548    0.758861840    0.710207939
    0.857522309    0.520766616    0.805196345
    0.809903204    0.711242616    0.900184751
    0.762284517    0.901719213    0.425242633
    0.571808219    0.663623869    0.520231068
    0.381331980    0.425528586    0.615219474
    0.190855652    0.187433243    0.710207880
    0.000379443    0.949337959    0.805196285
    0.381331801    0.425528347    0.900184751
    0.333713055    0.616004944    0.425242633
    0.143236771    0.377909601    0.520231068
    0.952760518    0.139814377    0.615219474
    0.762284219    0.901718915    0.710207939
    0.571808040    0.663623691    0.805196345
    0.524188936    0.854099810    0.900184751
    0.476570189    0.044576406    0.425242633
    0.286093920    0.806481063    0.520231068
    0.095617697    0.568385720    0.615219474
    0.905141354    0.330290347    0.710207880
    0.714665174    0.092195034    0.805196285
    0.095617406    0.568385541    0.900184751
    0.047998667    0.758862019    0.425242633
    0.857522488    0.520766735    0.520231068
    0.667046249    0.282671452    0.615219474
    0.476569891    0.044576049    0.710207939
    0.286093712    0.806480825    0.805196285
    0.238474607    0.996956944    0.900184751
    0.190855891    0.187433481    0.425242633
    0.000379562    0.949338198    0.520231068
    0.809903324    0.711242914    0.615219474
    0.619427145    0.473147690    0.710207820
    0.428950846    0.235052347    0.805196345
    0.857522607    0.520766735    0.448989779
    0.667046368    0.282671452    0.543978214
    0.476570070    0.044576168    0.638966620
    0.286093771    0.806480825    0.733955085
    0.095617428    0.568385363    0.828943491
    0.000379682    0.949338257    0.448989779
    0.809903443    0.711242914    0.543978214
    0.619427204    0.473147631    0.638966620
    0.428950906    0.235052347    0.733955085
    0.238474607    0.996956885    0.828943491
    0.571808279    0.663623989    0.448989749
    0.381332010    0.425528646    0.543978214
    0.190855801    0.187433362    0.638966620
    0.000379443    0.949338078    0.733955085
    0.809903204    0.711242735    0.828943491
    0.714665473    0.092195392    0.448989749
    0.524189115    0.854100049    0.543978214
    0.333712935    0.616004765    0.638966560
    0.143236697    0.377909452    0.733955026
    0.952760398    0.139814138    0.828943431
    0.143236846    0.377909631    0.448989749
    0.952760518    0.139814258    0.543978214
    0.762284338    0.901718974    0.638966560
    0.571808040    0.663623750    0.733955026
    0.381331801    0.425528407    0.828943431
    0.286094010    0.806481123    0.448989749
    0.095617712    0.568385720    0.543978214
    0.905141473    0.330290496    0.638966560
    0.714665234    0.092195153    0.733955026
    0.524188936    0.854099870    0.828943431
    0.428951144    0.235052466    0.448989719
    0.238474846    0.996957183    0.543978155
    0.047998548    0.758861899    0.638966560
    0.857522368    0.520766556    0.733955026
    0.667046070    0.282671213    0.828943372
    0.881331861    0.425528347    0.900184751
    0.833713114    0.616004944    0.425242662
    0.643236876    0.377909601    0.520231068
    0.452760637    0.139814377    0.615219533
    0.262284279    0.901718915    0.710207939
    0.071808048    0.663623631    0.805196404
    0.024188995    0.854099810    0.900184751
    0.976570308    0.044576406    0.425242633
    0.786094010    0.806481063    0.520231068
    0.595617771    0.568385780    0.615219474
    0.405141443    0.330290377    0.710207880
    0.214665234    0.092195153    0.805196285
    0.452760279    0.139814019    0.900184751
    0.405141622    0.330290616    0.425242633
    0.214665353    0.092195272    0.520231068
    0.024189115    0.854099989    0.615219474
    0.833712757    0.616004586    0.710207880
    0.643236578    0.377909362    0.805196345
    0.595617414    0.568385482    0.900184751
    0.547998726    0.758862019    0.425242633
    0.357522488    0.520766735    0.520231068
    0.167046249    0.282671452    0.615219474
    0.976569951    0.044576049    0.710207939
    0.786093652    0.806480825    0.805196345
    0.738474667    0.996957004    0.900184751
    0.690855980    0.187433481    0.425242633
    0.500379682    0.949338198    0.520231068
    0.309903443    0.711242914    0.615219474
    0.119427115    0.473147541    0.710207880
    0.928950906    0.235052347    0.805196285
    0.167046010    0.282671213    0.900184751
    0.119427316    0.473147780    0.425242633
    0.928951025    0.235052466    0.520231068
    0.738474786    0.996957183    0.615219474
    0.547998428    0.758861780    0.710207880
    0.357522249    0.520766556    0.805196345
    0.309903204    0.711242735    0.900184751
    0.262284458    0.901719272    0.425242633
    0.071808204    0.663623929    0.520231068
    0.881331980    0.425528675    0.615219474
    0.690855622    0.187433243    0.710207880
    0.500379443    0.949338078    0.805196285
    0.643236935    0.377909720    0.448989779
    0.452760637    0.139814377    0.543978214
    0.262284398    0.901719093    0.638966620
    0.071808100    0.663623750    0.733955085
    0.881331801    0.425528347    0.828943491
    0.786094069    0.806481123    0.448989749
    0.595617831    0.568385839    0.543978155
    0.405141562    0.330290496    0.638966620
    0.214665294    0.092195153    0.733955026
    0.024188876    0.854099751    0.828943491
    0.928951204    0.235052586    0.448989749
    0.738474965    0.996957183    0.543978214
    0.547998607    0.758861899    0.638966560
    0.357522368    0.520766556    0.733955026
    0.167046040    0.282671213    0.828943491
    0.357522607    0.520766854    0.448989749
    0.167046338    0.282671511    0.543978214
    0.976570070    0.044576168    0.638966620
    0.786093771    0.806480885    0.733955085
    0.595617473    0.568385482    0.828943491
    0.500379682    0.949338198    0.448989749
    0.309903443    0.711242914    0.543978214
    0.119427182    0.473147631    0.638966620
    0.928950906    0.235052347    0.733955026
    0.738474548    0.996956825    0.828943491
    0.071808286    0.663623989    0.448989749
    0.881332040    0.425528705    0.543978214
    0.690855801    0.187433362    0.638966620
    0.500379443    0.949338019    0.733955085
    0.309903145    0.711242616    0.828943491
    0.214665443    0.092195392    0.448989749
    0.024189115    0.854100108    0.543978214
    0.833712935    0.616004825    0.638966620
    0.643236697    0.377909482    0.733955026
    0.452760339    0.139814138    0.828943491
