Sn+Ge
    1.000000000
   12.978400230    0.000000000    0.000000000
    0.000000000   12.978400230    0.000000000
    0.000000000    0.000000000   19.583751678
Sn  Ge 
48     60
Direct
    0.992552638    0.499999970    0.000000000
    0.742552638    0.499999970    0.165678188
    0.492552757    0.499999970    0.331356287
    0.992552638    0.000000000    0.000000000
    0.742552638    0.000000000    0.165678188
    0.492552757    0.000000000    0.331356287
    0.492552608    0.499999970    0.000000000
    0.242552638    0.499999970    0.165678188
    0.992552698    0.499999970    0.331356287
    0.492552608    0.000000000    0.000000000
    0.242552638    0.000000000    0.165678188
    0.992552698    0.000000000    0.331356287
    0.117552646    0.874999940    0.082839087
    0.867552757    0.874999940    0.248517260
    0.617552698    0.874999940    0.414195418
    0.117552646    0.374999970    0.082839087
    0.867552757    0.374999970    0.248517260
    0.617552698    0.374999970    0.414195418
    0.617552578    0.874999940    0.082839087
    0.367552698    0.874999940    0.248517260
    0.117552668    0.874999940    0.414195418
    0.617552578    0.374999970    0.082839087
    0.367552698    0.374999970    0.248517260
    0.117552668    0.374999970    0.414195418
    0.242552638    0.749999940    0.000000000
    0.992552638    0.749999940    0.165678188
    0.742552757    0.749999940    0.331356287
    0.242552638    0.249999985    0.000000000
    0.992552638    0.249999985    0.165678188
    0.742552757    0.249999985    0.331356287
    0.742552578    0.749999940    0.000000000
    0.492552608    0.749999940    0.165678188
    0.242552698    0.749999940    0.331356287
    0.742552578    0.249999985    0.000000000
    0.492552608    0.249999985    0.165678188
    0.242552698    0.249999985    0.331356287
    0.367552638    0.624999940    0.082839087
    0.117552713    0.624999940    0.248517260
    0.867552698    0.624999940    0.414195418
    0.367552638    0.124999993    0.082839087
    0.117552713    0.124999993    0.248517260
    0.867552698    0.124999993    0.414195418
    0.867552638    0.624999940    0.082839087
    0.617552757    0.624999940    0.248517260
    0.367552698    0.624999940    0.414195418
    0.867552638    0.124999993    0.082839087
    0.617552757    0.124999993    0.248517260
    0.367552698    0.124999993    0.414195418
    0.317829460    0.220561355    0.526533484
    0.317829520    0.720561385    0.670984805
    0.317829549    0.220561415    0.815436304
    0.517829418    0.820561290    0.526533484
    0.517829478    0.320561320    0.670984805
    0.517829597    0.820561290    0.815436304
    0.717829466    0.420561343    0.526533484
    0.717829466    0.920561314    0.670984805
    0.717829585    0.420561343    0.815436304
    0.917829514    0.020561337    0.526533484
    0.917829514    0.520561337    0.670984805
    0.917829633    0.020561337    0.815436304
    0.117829442    0.620561361    0.526533484
    0.117829442    0.120561242    0.670984805
    0.117829442    0.620561361    0.815436304
    0.467829466    0.170561194    0.598759174
    0.467829525    0.670561314    0.743210614
    0.467829525    0.170561314    0.887661994
    0.667829454    0.770561337    0.598759174
    0.667829514    0.270561367    0.743210614
    0.667829633    0.770561337    0.887661994
    0.867829442    0.370561272    0.598759174
    0.867829442    0.870561361    0.743210614
    0.867829442    0.370561272    0.887661994
    0.067829490    0.970561385    0.598759174
    0.067829609    0.470561415    0.743210614
    0.067829609    0.970561385    0.887661994
    0.267829537    0.570561349    0.598759174
    0.267829537    0.070561290    0.743210614
    0.267829657    0.570561290    0.887661994
    0.417829484    0.520561337    0.526533484
    0.417829543    0.020561337    0.670984805
    0.417829603    0.520561218    0.815436304
    0.617829502    0.120561242    0.526533484
    0.617829561    0.620561242    0.670984805
    0.617829680    0.120561242    0.815436304
    0.817829490    0.720561385    0.526533484
    0.817829490    0.220561296    0.670984805
    0.817829609    0.720561385    0.815436304
    0.017829418    0.320561349    0.526533484
    0.017829537    0.820561290    0.670984805
    0.017829657    0.320561320    0.815436304
    0.217829466    0.920561314    0.526533484
    0.217829466    0.420561343    0.670984805
    0.217829585    0.920561194    0.815436304
    0.367829472    0.870561361    0.598759174
    0.367829531    0.370561391    0.743210614
    0.367829621    0.870561361    0.887661994
    0.567829490    0.470561355    0.598759174
    0.567829490    0.970561385    0.743210614
    0.567829609    0.470561415    0.887661994
    0.767829418    0.070561290    0.598759174
    0.767829418    0.570561290    0.743210614
    0.767829597    0.070561290    0.887661994
    0.967829466    0.670561373    0.598759174
    0.967829466    0.170561314    0.743210614
    0.967829585    0.670561433    0.887661994
    0.167829514    0.270561367    0.598759174
    0.167829633    0.770561337    0.743210614
    0.167829752    0.270561367    0.887661994
