Si+Ge                                   
   1.00000000000000     
    12.1440858840000008    0.0000000000000000    0.0000000000000000
     2.4288170340000002   17.8480892179999984    0.0000000000000000
     0.0000000000000000    0.0000000000000000   12.6152477259999998
   Si   Ge
    72    84
Direct
  0.7418981790000032  0.6030093429999965  0.0000000000000000
  0.1030094620000028  0.2974536420000007  0.0878777060000004
  0.4641207459999990  0.9918978809999999  0.1757554559999974
  0.8252317910000002  0.6863422389999982  0.2636331619999979
  0.1863429550000006  0.3807864790000011  0.3515107930000028
  0.5474543569999994  0.0752307180000003  0.4393885730000022
  0.4085648060000011  0.2696759399999991  0.0000000160000013
  0.7696760890000007  0.9641202090000007  0.0878777280000023
  0.1307873729999969  0.6585645079999978  0.1757554559999974
  0.4918984170000016  0.3530088660000033  0.2636331619999979
  0.8530097009999977  0.0474531050000024  0.3515109120000020
  0.2141208649999982  0.7418974639999973  0.4393885730000022
  0.0752315000000010  0.9363425969999994  0.0000000269999987
  0.4363427460000011  0.6307868960000036  0.0878777280000023
  0.7974539399999969  0.3252310749999978  0.1757554559999974
  0.1585650439999995  0.0196754930000012  0.2636331619999979
  0.5196763280000027  0.7141197919999982  0.3515107930000028
  0.8807876110000024  0.4085639720000032  0.4393886630000026
  0.0752314850000033  0.6863427159999986  0.0000000260000022
  0.4363427460000011  0.3807870150000028  0.0878777060000004
  0.7974539399999969  0.0752312910000015  0.1757554109999973
  0.1585651640000023  0.7696756120000003  0.2636331320000025
  0.5196763280000027  0.4641199109999974  0.3515108530000006
  0.8807877300000015  0.1585641499999966  0.4393884839999984
  0.7418981189999982  0.3530092840000023  0.0000000169999979
  0.1030093429999965  0.0474535640000013  0.0878777579999976
  0.4641205069999970  0.7418978210000020  0.1757554260000020
  0.8252316709999974  0.4363422389999982  0.2636331320000025
  0.1863429550000006  0.1307863589999982  0.3515108530000006
  0.5474541190000011  0.8252307180000003  0.4393885429999997
  0.4085648659999990  0.0196759119999967  0.0000000249999985
  0.7696760890000007  0.7141201499999994  0.0878777280000023
  0.1307873729999969  0.4085643889999986  0.1757555009999976
  0.4918985369999973  0.1030088660000033  0.2636332510000017
  0.8530097009999977  0.7974531650000003  0.3515108530000006
  0.2141208649999982  0.4918972250000024  0.4393886630000026
  0.9085648659999990  0.7696760299999994  0.0000000579999977
  0.2696762079999999  0.4641203580000024  0.0878777579999976
  0.6307873729999969  0.1585645680000027  0.1757554559999974
  0.9918984170000016  0.8530089260000011  0.2636331619999979
  0.3530099390000032  0.5474532249999982  0.3515109120000020
  0.7141208649999982  0.2418975229999987  0.4393885730000022
  0.5752315519999982  0.4363426270000019  0.0000000329999992
  0.9363427159999986  0.1307868959999965  0.0878777280000023
  0.2974540000000019  0.8252311939999970  0.1757554559999974
  0.6585651640000023  0.5196755529999990  0.2636331619999979
  0.0196764470000019  0.2141198520000032  0.3515107930000028
  0.3807876110000024  0.9085640910000023  0.4393886630000026
  0.2418981490000007  0.1030092689999975  0.0000000220000018
  0.6030094030000015  0.7974535230000015  0.0878777579999976
  0.9641206260000033  0.4918977620000007  0.1757554559999974
  0.3252317910000002  0.1863421799999969  0.2636331619999979
  0.6863429550000006  0.8807864190000032  0.3515109120000020
  0.0474541190000011  0.5752307180000003  0.4393885730000022
  0.2418981490000007  0.8530093429999965  0.0000000260000022
  0.6030093429999965  0.5474536420000007  0.0878777499999970
  0.9641206260000033  0.2418979110000024  0.1757554559999974
  0.3252317910000002  0.9363422389999982  0.2636331619999979
  0.6863430739999998  0.6307865380000024  0.3515108530000006
  0.0474543569999994  0.3252308369999994  0.4393885730000022
  0.9085648659999990  0.5196759700000015  0.0000000400000033
  0.2696760890000007  0.2141202990000011  0.0878777650000018
  0.6307873729999969  0.9085645680000027  0.1757554559999974
  0.9918985369999973  0.6030089260000011  0.2636331320000025
  0.3530097009999977  0.2974532249999982  0.3515108530000006
  0.7141211029999965  0.9918974639999973  0.4393886630000026
  0.5752314929999969  0.1863426119999971  0.0000000220000018
  0.9363427760000036  0.8807868960000036  0.0878777650000018
  0.2974540000000019  0.5752311350000028  0.1757554559999974
  0.6585651640000023  0.2696755529999990  0.2636331320000025
  0.0196762079999999  0.9641197919999982  0.3515108530000006
  0.3807876110000024  0.6585640910000023  0.4393886630000026
  0.4630863069999975  0.8571428659999967  0.4393886330000001
  0.9630863670000025  0.8571428059999988  0.6636331679999969
  0.4630863670000025  0.8571428059999988  0.8878777030000009
  0.8916578290000032  0.7142857309999968  0.4393886330000001
  0.3916578290000032  0.7142856720000026  0.6636331679999969
  0.8916579480000024  0.7142856119999976  0.8878777030000009
  0.3202291130000035  0.5714285370000027  0.4393886330000001
  0.8202291130000035  0.5714284780000014  0.6636331679999969
  0.3202292920000005  0.5714284780000014  0.8878777030000009
  0.7488005760000007  0.4285714629999973  0.4393886330000001
  0.2488006350000020  0.4285713729999969  0.6636331679999969
  0.7488007549999978  0.4285713140000027  0.8878777030000009
  0.1773719939999978  0.2857142980000020  0.4393886330000001
  0.6773719790000001  0.2857141790000028  0.6636331679999969
  0.1773720979999993  0.2857141490000004  0.8878777030000009
  0.6059433819999995  0.1428571340000033  0.4393886330000001
  0.1059434410000009  0.1428570599999972  0.6636331679999969
  0.6059435609999966  0.1428569850000017  0.8878777030000009
  0.0345148480000006  0.0000000000000000  0.4393886330000001
  0.5345149039999981  0.9999999400000021  0.6636331679999969
  0.0345149039999981  0.9999998810000008  0.8878777030000009
  0.1059434410000009  0.8928571340000033  0.5515108700000013
  0.6059434410000009  0.8928570750000020  0.7757554650000031
  0.1059436800000029  0.8928570149999970  0.0000000000000000
  0.5345149039999981  0.7500000599999979  0.5515108700000013
  0.0345150229999973  0.7500000000000000  0.7757554650000031
  0.5345150229999973  0.7499999400000021  0.0000000000000000
  0.9630864259999967  0.6071428659999967  0.5515108700000013
  0.4630864860000017  0.6071428059999988  0.7757554650000031
  0.9630866050000009  0.6071427460000010  0.0000000000000000
  0.3916577399999994  0.4642857019999980  0.5515108700000013
  0.8916578290000032  0.4642856420000001  0.7757554650000031
  0.3916578290000032  0.4642855820000023  0.0000000000000000
  0.8202292320000026  0.3214285970000006  0.5515108700000013
  0.3202292920000005  0.3214285370000027  0.7757554650000031
  0.8202292920000005  0.3214284479999989  0.0000000000000000
  0.2488006350000020  0.1785714179999971  0.5515108700000013
  0.7488007549999978  0.1785713290000004  0.7757554650000031
  0.2488007549999978  0.1785712390000000  0.0000000000000000
  0.6773720380000015  0.0357142840000009  0.5515108700000013
  0.1773720979999993  0.0357142200000027  0.7757554650000031
  0.6773720979999993  0.0357141719999987  0.0000000000000000
  0.7488005160000029  0.9285714629999973  0.4393886330000001
  0.2488005160000029  0.9285714029999994  0.6636331679999969
  0.7488006350000020  0.9285713430000015  0.8878777030000009
  0.1773719640000024  0.7857142690000032  0.4393886330000001
  0.6773720380000015  0.7857142089999982  0.6636331679999969
  0.1773720979999993  0.7857141490000004  0.8878777030000009
  0.6059435009999987  0.6428571340000033  0.4393886330000001
  0.1059435609999966  0.6428570149999970  0.6636331679999969
  0.6059435609999966  0.6428570149999970  0.8878777030000009
  0.0345148299999991  0.4999999699999975  0.4393886330000001
  0.5345148440000003  0.4999998810000008  0.6636331679999969
  0.0345150229999973  0.4999998210000030  0.8878777030000009
  0.4630863069999975  0.3571428659999967  0.4393886330000001
  0.9630863670000025  0.3571427460000010  0.6636331679999969
  0.4630864860000017  0.3571427170000021  0.8878777030000009
  0.8916577099999969  0.2142857159999991  0.4393886330000001
  0.3916578290000032  0.2142856270000024  0.6636331679999969
  0.8916578290000032  0.2142856119999976  0.8878777030000009
  0.3202291730000013  0.0714285520000004  0.4393886330000001
  0.8202292320000026  0.0714284780000014  0.6636331679999969
  0.3202292920000005  0.0714284330000012  0.8878777030000009
  0.3916577399999994  0.9642858509999996  0.5515108700000013
  0.8916578290000032  0.9642857910000018  0.7757554650000031
  0.3916578290000032  0.9642857309999968  0.0000000000000000
  0.8202291730000013  0.8214285970000006  0.5515108700000013
  0.3202292920000005  0.8214285370000027  0.7757554650000031
  0.8202292920000005  0.8214284780000014  0.0000000000000000
  0.2488006350000020  0.6785714629999973  0.5515108700000013
  0.7488007549999978  0.6785714029999994  0.7757554650000031
  0.2488007549999978  0.6785713430000015  0.0000000000000000
  0.6773720380000015  0.5357143279999974  0.5515108700000013
  0.1773720979999993  0.5357142690000032  0.7757554650000031
  0.6773722169999985  0.5357142089999982  0.0000000000000000
  0.1059433220000017  0.3928571340000033  0.5515108700000013
  0.6059434410000009  0.3928570750000020  0.7757554650000031
  0.1059434410000009  0.3928570149999970  0.0000000000000000
  0.5345148440000003  0.2499999549999998  0.5515108700000013
  0.0345149039999981  0.2499999249999973  0.7757554650000031
  0.5345149039999981  0.2499998059999982  0.0000000000000000
  0.9630863069999975  0.1071428730000008  0.5515108700000013
  0.4630864860000017  0.1071428139999995  0.7757554650000031
  0.9630866050000009  0.1071427170000021  0.0000000000000000
 
  0.00000000E+00  0.00000000E+00  0.00000000E+00
  0.00000000E+00  0.00000000E+00  0.00000000E+00
  0.00000000E+00  0.00000000E+00  0.00000000E+00
  0.00000000E+00  0.00000000E+00  0.00000000E+00
  0.00000000E+00  0.00000000E+00  0.00000000E+00
  0.00000000E+00  0.00000000E+00  0.00000000E+00
  0.00000000E+00  0.00000000E+00  0.00000000E+00
  0.00000000E+00  0.00000000E+00  0.00000000E+00
  0.00000000E+00  0.00000000E+00  0.00000000E+00
  0.00000000E+00  0.00000000E+00  0.00000000E+00
  0.00000000E+00  0.00000000E+00  0.00000000E+00
  0.00000000E+00  0.00000000E+00  0.00000000E+00
  0.00000000E+00  0.00000000E+00  0.00000000E+00
  0.00000000E+00  0.00000000E+00  0.00000000E+00
  0.00000000E+00  0.00000000E+00  0.00000000E+00
  0.00000000E+00  0.00000000E+00  0.00000000E+00
  0.00000000E+00  0.00000000E+00  0.00000000E+00
  0.00000000E+00  0.00000000E+00  0.00000000E+00
  0.00000000E+00  0.00000000E+00  0.00000000E+00
  0.00000000E+00  0.00000000E+00  0.00000000E+00
  0.00000000E+00  0.00000000E+00  0.00000000E+00
  0.00000000E+00  0.00000000E+00  0.00000000E+00
  0.00000000E+00  0.00000000E+00  0.00000000E+00
  0.00000000E+00  0.00000000E+00  0.00000000E+00
  0.00000000E+00  0.00000000E+00  0.00000000E+00
  0.00000000E+00  0.00000000E+00  0.00000000E+00
  0.00000000E+00  0.00000000E+00  0.00000000E+00
  0.00000000E+00  0.00000000E+00  0.00000000E+00
  0.00000000E+00  0.00000000E+00  0.00000000E+00
  0.00000000E+00  0.00000000E+00  0.00000000E+00
  0.00000000E+00  0.00000000E+00  0.00000000E+00
  0.00000000E+00  0.00000000E+00  0.00000000E+00
  0.00000000E+00  0.00000000E+00  0.00000000E+00
  0.00000000E+00  0.00000000E+00  0.00000000E+00
  0.00000000E+00  0.00000000E+00  0.00000000E+00
  0.00000000E+00  0.00000000E+00  0.00000000E+00
  0.00000000E+00  0.00000000E+00  0.00000000E+00
  0.00000000E+00  0.00000000E+00  0.00000000E+00
  0.00000000E+00  0.00000000E+00  0.00000000E+00
  0.00000000E+00  0.00000000E+00  0.00000000E+00
  0.00000000E+00  0.00000000E+00  0.00000000E+00
  0.00000000E+00  0.00000000E+00  0.00000000E+00
  0.00000000E+00  0.00000000E+00  0.00000000E+00
  0.00000000E+00  0.00000000E+00  0.00000000E+00
  0.00000000E+00  0.00000000E+00  0.00000000E+00
  0.00000000E+00  0.00000000E+00  0.00000000E+00
  0.00000000E+00  0.00000000E+00  0.00000000E+00
  0.00000000E+00  0.00000000E+00  0.00000000E+00
  0.00000000E+00  0.00000000E+00  0.00000000E+00
  0.00000000E+00  0.00000000E+00  0.00000000E+00
  0.00000000E+00  0.00000000E+00  0.00000000E+00
  0.00000000E+00  0.00000000E+00  0.00000000E+00
  0.00000000E+00  0.00000000E+00  0.00000000E+00
  0.00000000E+00  0.00000000E+00  0.00000000E+00
  0.00000000E+00  0.00000000E+00  0.00000000E+00
  0.00000000E+00  0.00000000E+00  0.00000000E+00
  0.00000000E+00  0.00000000E+00  0.00000000E+00
  0.00000000E+00  0.00000000E+00  0.00000000E+00
  0.00000000E+00  0.00000000E+00  0.00000000E+00
  0.00000000E+00  0.00000000E+00  0.00000000E+00
  0.00000000E+00  0.00000000E+00  0.00000000E+00
  0.00000000E+00  0.00000000E+00  0.00000000E+00
  0.00000000E+00  0.00000000E+00  0.00000000E+00
  0.00000000E+00  0.00000000E+00  0.00000000E+00
  0.00000000E+00  0.00000000E+00  0.00000000E+00
  0.00000000E+00  0.00000000E+00  0.00000000E+00
  0.00000000E+00  0.00000000E+00  0.00000000E+00
  0.00000000E+00  0.00000000E+00  0.00000000E+00
  0.00000000E+00  0.00000000E+00  0.00000000E+00
  0.00000000E+00  0.00000000E+00  0.00000000E+00
  0.00000000E+00  0.00000000E+00  0.00000000E+00
  0.00000000E+00  0.00000000E+00  0.00000000E+00
  0.00000000E+00  0.00000000E+00  0.00000000E+00
  0.00000000E+00  0.00000000E+00  0.00000000E+00
  0.00000000E+00  0.00000000E+00  0.00000000E+00
  0.00000000E+00  0.00000000E+00  0.00000000E+00
  0.00000000E+00  0.00000000E+00  0.00000000E+00
  0.00000000E+00  0.00000000E+00  0.00000000E+00
  0.00000000E+00  0.00000000E+00  0.00000000E+00
  0.00000000E+00  0.00000000E+00  0.00000000E+00
  0.00000000E+00  0.00000000E+00  0.00000000E+00
  0.00000000E+00  0.00000000E+00  0.00000000E+00
  0.00000000E+00  0.00000000E+00  0.00000000E+00
  0.00000000E+00  0.00000000E+00  0.00000000E+00
  0.00000000E+00  0.00000000E+00  0.00000000E+00
  0.00000000E+00  0.00000000E+00  0.00000000E+00
  0.00000000E+00  0.00000000E+00  0.00000000E+00
  0.00000000E+00  0.00000000E+00  0.00000000E+00
  0.00000000E+00  0.00000000E+00  0.00000000E+00
  0.00000000E+00  0.00000000E+00  0.00000000E+00
  0.00000000E+00  0.00000000E+00  0.00000000E+00
  0.00000000E+00  0.00000000E+00  0.00000000E+00
  0.00000000E+00  0.00000000E+00  0.00000000E+00
  0.00000000E+00  0.00000000E+00  0.00000000E+00
  0.00000000E+00  0.00000000E+00  0.00000000E+00
  0.00000000E+00  0.00000000E+00  0.00000000E+00
  0.00000000E+00  0.00000000E+00  0.00000000E+00
  0.00000000E+00  0.00000000E+00  0.00000000E+00
  0.00000000E+00  0.00000000E+00  0.00000000E+00
  0.00000000E+00  0.00000000E+00  0.00000000E+00
  0.00000000E+00  0.00000000E+00  0.00000000E+00
  0.00000000E+00  0.00000000E+00  0.00000000E+00
  0.00000000E+00  0.00000000E+00  0.00000000E+00
  0.00000000E+00  0.00000000E+00  0.00000000E+00
  0.00000000E+00  0.00000000E+00  0.00000000E+00
  0.00000000E+00  0.00000000E+00  0.00000000E+00
  0.00000000E+00  0.00000000E+00  0.00000000E+00
  0.00000000E+00  0.00000000E+00  0.00000000E+00
  0.00000000E+00  0.00000000E+00  0.00000000E+00
  0.00000000E+00  0.00000000E+00  0.00000000E+00
  0.00000000E+00  0.00000000E+00  0.00000000E+00
  0.00000000E+00  0.00000000E+00  0.00000000E+00
  0.00000000E+00  0.00000000E+00  0.00000000E+00
  0.00000000E+00  0.00000000E+00  0.00000000E+00
  0.00000000E+00  0.00000000E+00  0.00000000E+00
  0.00000000E+00  0.00000000E+00  0.00000000E+00
  0.00000000E+00  0.00000000E+00  0.00000000E+00
  0.00000000E+00  0.00000000E+00  0.00000000E+00
  0.00000000E+00  0.00000000E+00  0.00000000E+00
  0.00000000E+00  0.00000000E+00  0.00000000E+00
  0.00000000E+00  0.00000000E+00  0.00000000E+00
  0.00000000E+00  0.00000000E+00  0.00000000E+00
  0.00000000E+00  0.00000000E+00  0.00000000E+00
  0.00000000E+00  0.00000000E+00  0.00000000E+00
  0.00000000E+00  0.00000000E+00  0.00000000E+00
  0.00000000E+00  0.00000000E+00  0.00000000E+00
  0.00000000E+00  0.00000000E+00  0.00000000E+00
  0.00000000E+00  0.00000000E+00  0.00000000E+00
  0.00000000E+00  0.00000000E+00  0.00000000E+00
  0.00000000E+00  0.00000000E+00  0.00000000E+00
  0.00000000E+00  0.00000000E+00  0.00000000E+00
  0.00000000E+00  0.00000000E+00  0.00000000E+00
  0.00000000E+00  0.00000000E+00  0.00000000E+00
  0.00000000E+00  0.00000000E+00  0.00000000E+00
  0.00000000E+00  0.00000000E+00  0.00000000E+00
  0.00000000E+00  0.00000000E+00  0.00000000E+00
  0.00000000E+00  0.00000000E+00  0.00000000E+00
  0.00000000E+00  0.00000000E+00  0.00000000E+00
  0.00000000E+00  0.00000000E+00  0.00000000E+00
  0.00000000E+00  0.00000000E+00  0.00000000E+00
  0.00000000E+00  0.00000000E+00  0.00000000E+00
  0.00000000E+00  0.00000000E+00  0.00000000E+00
  0.00000000E+00  0.00000000E+00  0.00000000E+00
  0.00000000E+00  0.00000000E+00  0.00000000E+00
  0.00000000E+00  0.00000000E+00  0.00000000E+00
  0.00000000E+00  0.00000000E+00  0.00000000E+00
  0.00000000E+00  0.00000000E+00  0.00000000E+00
  0.00000000E+00  0.00000000E+00  0.00000000E+00
  0.00000000E+00  0.00000000E+00  0.00000000E+00
  0.00000000E+00  0.00000000E+00  0.00000000E+00
  0.00000000E+00  0.00000000E+00  0.00000000E+00
  0.00000000E+00  0.00000000E+00  0.00000000E+00
  0.00000000E+00  0.00000000E+00  0.00000000E+00
  0.00000000E+00  0.00000000E+00  0.00000000E+00
  0.00000000E+00  0.00000000E+00  0.00000000E+00
  0.00000000E+00  0.00000000E+00  0.00000000E+00
