Si+Ge
    1.000000000
   12.144085884    0.000000000    0.000000000
    2.428817034   17.848089218    0.000000000
    0.000000000    0.000000000   12.615247726
Si  Ge 
72     84
Direct
    0.741898179    0.603009343    0.000000000
    0.103009462    0.297453642    0.087877706
    0.464120746    0.991897881    0.175755456
    0.825231791    0.686342239    0.263633162
    0.186342955    0.380786479    0.351510793
    0.547454357    0.075230718    0.439388573
    0.408564806    0.269675940    0.000000016
    0.769676089    0.964120209    0.087877728
    0.130787373    0.658564508    0.175755456
    0.491898417    0.353008866    0.263633162
    0.853009701    0.047453105    0.351510912
    0.214120865    0.741897464    0.439388573
    0.075231500    0.936342597    0.000000027
    0.436342746    0.630786896    0.087877728
    0.797453940    0.325231075    0.175755456
    0.158565044    0.019675493    0.263633162
    0.519676328    0.714119792    0.351510793
    0.880787611    0.408563972    0.439388663
    0.075231485    0.686342716    0.000000026
    0.436342746    0.380787015    0.087877706
    0.797453940    0.075231291    0.175755411
    0.158565164    0.769675612    0.263633132
    0.519676328    0.464119911    0.351510853
    0.880787730    0.158564150    0.439388484
    0.741898119    0.353009284    0.000000017
    0.103009343    0.047453564    0.087877758
    0.464120507    0.741897821    0.175755426
    0.825231671    0.436342239    0.263633132
    0.186342955    0.130786359    0.351510853
    0.547454119    0.825230718    0.439388543
    0.408564866    0.019675912    0.000000025
    0.769676089    0.714120150    0.087877728
    0.130787373    0.408564389    0.175755501
    0.491898537    0.103008866    0.263633251
    0.853009701    0.797453165    0.351510853
    0.214120865    0.491897225    0.439388663
    0.908564866    0.769676030    0.000000058
    0.269676208    0.464120358    0.087877758
    0.630787373    0.158564568    0.175755456
    0.991898417    0.853008926    0.263633162
    0.353009939    0.547453225    0.351510912
    0.714120865    0.241897523    0.439388573
    0.575231552    0.436342627    0.000000033
    0.936342716    0.130786896    0.087877728
    0.297454000    0.825231194    0.175755456
    0.658565164    0.519675553    0.263633162
    0.019676447    0.214119852    0.351510793
    0.380787611    0.908564091    0.439388663
    0.241898149    0.103009269    0.000000022
    0.603009403    0.797453523    0.087877758
    0.964120626    0.491897762    0.175755456
    0.325231791    0.186342180    0.263633162
    0.686342955    0.880786419    0.351510912
    0.047454119    0.575230718    0.439388573
    0.241898149    0.853009343    0.000000026
    0.603009343    0.547453642    0.087877750
    0.964120626    0.241897911    0.175755456
    0.325231791    0.936342239    0.263633162
    0.686343074    0.630786538    0.351510853
    0.047454357    0.325230837    0.439388573
    0.908564866    0.519675970    0.000000040
    0.269676089    0.214120299    0.087877765
    0.630787373    0.908564568    0.175755456
    0.991898537    0.603008926    0.263633132
    0.353009701    0.297453225    0.351510853
    0.714121103    0.991897464    0.439388663
    0.575231493    0.186342612    0.000000022
    0.936342776    0.880786896    0.087877765
    0.297454000    0.575231135    0.175755456
    0.658565164    0.269675553    0.263633132
    0.019676208    0.964119792    0.351510853
    0.380787611    0.658564091    0.439388663
    0.463086307    0.857142866    0.439388633
    0.963086367    0.857142806    0.663633168
    0.463086367    0.857142806    0.887877703
    0.891657829    0.714285731    0.439388633
    0.391657829    0.714285672    0.663633168
    0.891657948    0.714285612    0.887877703
    0.320229113    0.571428537    0.439388633
    0.820229113    0.571428478    0.663633168
    0.320229292    0.571428478    0.887877703
    0.748800576    0.428571463    0.439388633
    0.248800635    0.428571373    0.663633168
    0.748800755    0.428571314    0.887877703
    0.177371994    0.285714298    0.439388633
    0.677371979    0.285714179    0.663633168
    0.177372098    0.285714149    0.887877703
    0.605943382    0.142857134    0.439388633
    0.105943441    0.142857060    0.663633168
    0.605943561    0.142856985    0.887877703
    0.034514848    0.000000000    0.439388633
    0.534514904    0.999999940    0.663633168
    0.034514904    0.999999881    0.887877703
    0.105943441    0.892857134    0.551510870
    0.605943441    0.892857075    0.775755465
    0.105943680    0.892857015    1.000000000
    0.534514904    0.750000060    0.551510870
    0.034515023    0.750000000    0.775755465
    0.534515023    0.749999940    1.000000000
    0.963086426    0.607142866    0.551510870
    0.463086486    0.607142806    0.775755465
    0.963086605    0.607142746    1.000000000
    0.391657740    0.464285702    0.551510870
    0.891657829    0.464285642    0.775755465
    0.391657829    0.464285582    1.000000000
    0.820229232    0.321428597    0.551510870
    0.320229292    0.321428537    0.775755465
    0.820229292    0.321428448    1.000000000
    0.248800635    0.178571418    0.551510870
    0.748800755    0.178571329    0.775755465
    0.248800755    0.178571239    1.000000000
    0.677372038    0.035714284    0.551510870
    0.177372098    0.035714220    0.775755465
    0.677372098    0.035714172    1.000000000
    0.748800516    0.928571463    0.439388633
    0.248800516    0.928571403    0.663633168
    0.748800635    0.928571343    0.887877703
    0.177371964    0.785714269    0.439388633
    0.677372038    0.785714209    0.663633168
    0.177372098    0.785714149    0.887877703
    0.605943501    0.642857134    0.439388633
    0.105943561    0.642857015    0.663633168
    0.605943561    0.642857015    0.887877703
    0.034514830    0.499999970    0.439388633
    0.534514844    0.499999881    0.663633168
    0.034515023    0.499999821    0.887877703
    0.463086307    0.357142866    0.439388633
    0.963086367    0.357142746    0.663633168
    0.463086486    0.357142717    0.887877703
    0.891657710    0.214285716    0.439388633
    0.391657829    0.214285627    0.663633168
    0.891657829    0.214285612    0.887877703
    0.320229173    0.071428552    0.439388633
    0.820229232    0.071428478    0.663633168
    0.320229292    0.071428433    0.887877703
    0.391657740    0.964285851    0.551510870
    0.891657829    0.964285791    0.775755465
    0.391657829    0.964285731    1.000000000
    0.820229173    0.821428597    0.551510870
    0.320229292    0.821428537    0.775755465
    0.820229292    0.821428478    1.000000000
    0.248800635    0.678571463    0.551510870
    0.748800755    0.678571403    0.775755465
    0.248800755    0.678571343    1.000000000
    0.677372038    0.535714328    0.551510870
    0.177372098    0.535714269    0.775755465
    0.677372217    0.535714209    1.000000000
    0.105943322    0.392857134    0.551510870
    0.605943441    0.392857075    0.775755465
    0.105943441    0.392857015    1.000000000
    0.534514844    0.249999955    0.551510870
    0.034514904    0.249999925    0.775755465
    0.534514904    0.249999806    1.000000000
    0.963086307    0.107142873    0.551510870
    0.463086486    0.107142814    0.775755465
    0.963086605    0.107142717    1.000000000
