Si+Sn
    1.000000000
    9.406767845    0.000000000    0.000000000
    0.000000000   15.361189842    0.000000000
    0.000000000    0.000000000   17.132093430
Si  Sn 
48     48
Direct
    0.069444448    0.921875000    0.000000004
    0.402777851    0.546875000    0.064708896
    0.736111283    0.171875000    0.129417792
    0.069444656    0.796875000    0.194126725
    0.402778029    0.421875119    0.258835524
    0.736111641    0.046874881    0.323544472
    0.069444455    0.421874970    0.000000002
    0.402777851    0.046874985    0.064708903
    0.736111283    0.671875000    0.129417792
    0.069444656    0.296875000    0.194126725
    0.402778029    0.921875000    0.258835524
    0.736111641    0.546874762    0.323544472
    0.819444478    0.171875015    0.000000000
    0.152777910    0.796875000    0.064708881
    0.486111283    0.421875000    0.129417777
    0.819444776    0.046874940    0.194126651
    0.152778149    0.671875000    0.258835554
    0.486111641    0.296874881    0.323544532
    0.819444478    0.671874940    0.000000000
    0.152777910    0.296874970    0.064708874
    0.486111283    0.921874940    0.129417777
    0.819444776    0.546874881    0.194126680
    0.152777910    0.171875000    0.258835584
    0.486111641    0.796874762    0.323544532
    0.069444448    0.171875000    0.000000006
    0.402777851    0.796875000    0.064708903
    0.736111283    0.421875000    0.129417792
    0.069444776    0.046874940    0.194126680
    0.402778029    0.671875000    0.258835524
    0.736111522    0.296874881    0.323544532
    0.069444455    0.671875000    0.000000004
    0.402777851    0.296875000    0.064708903
    0.736111283    0.921875000    0.129417792
    0.069444656    0.546874940    0.194126695
    0.402778029    0.171875000    0.258835524
    0.736111522    0.796874881    0.323544532
    0.819444478    0.921875000    0.000000000
    0.152777791    0.546875000    0.064708881
    0.486111283    0.171875000    0.129417777
    0.819444895    0.796875000    0.194126651
    0.152778149    0.421875000    0.258835524
    0.486111879    0.046874762    0.323544472
    0.819444478    0.421875000    0.000000000
    0.152777910    0.046874970    0.064708881
    0.486111283    0.671875000    0.129417777
    0.819444656    0.296875000    0.194126680
    0.152778149    0.921875119    0.258835584
    0.486111641    0.546874881    0.323544592
    0.537634432    0.170597434    0.415751040
    0.537634432    0.837263942    0.634436548
    0.537634432    0.503930509    0.853122175
    0.037634373    0.670597374    0.415751040
    0.037634373    0.337263942    0.634436548
    0.037634373    0.003930569    0.853122175
    0.037634373    0.337264001    0.470422447
    0.037634373    0.003930569    0.689107955
    0.037634373    0.670597196    0.907793581
    0.537634432    0.837263942    0.470422447
    0.537634432    0.503930569    0.689107955
    0.537634432    0.170597196    0.907793581
    0.287634373    0.420597374    0.415751040
    0.287634373    0.087263942    0.634436607
    0.287634373    0.753930569    0.853122175
    0.787634432    0.920597315    0.415751070
    0.787634432    0.587263942    0.634436607
    0.787634373    0.253930539    0.853122175
    0.787634373    0.587264001    0.470422387
    0.787634432    0.253930628    0.689107955
    0.787634373    0.920597196    0.907793581
    0.287634373    0.087264061    0.470422387
    0.287634373    0.753930628    0.689107955
    0.287634373    0.420597196    0.907793522
    0.787634432    0.420597374    0.415751040
    0.787634432    0.087263942    0.634436607
    0.787634432    0.753930569    0.853122175
    0.287634373    0.920597315    0.415751070
    0.287634373    0.587263942    0.634436607
    0.287634373    0.253930539    0.853122175
    0.287634373    0.587264001    0.470422387
    0.287634373    0.253930628    0.689107955
    0.287634373    0.920597196    0.907793581
    0.787634432    0.087264061    0.470422387
    0.787634432    0.753930628    0.689107955
    0.787634432    0.420597196    0.907793581
    0.037634373    0.170597434    0.415751040
    0.037634373    0.837263942    0.634436548
    0.037634373    0.503930509    0.853122175
    0.537634432    0.670597374    0.415751040
    0.537634432    0.337263942    0.634436548
    0.537634432    0.003930569    0.853122175
    0.537634432    0.337264061    0.470422447
    0.537634432    0.003930688    0.689107955
    0.537634432    0.670597255    0.907793581
    0.037634373    0.837264121    0.470422387
    0.037634373    0.503930748    0.689107955
    0.037634373    0.170597315    0.907793581
