Si+C
    1.000000000
   13.303179741    0.000000000    0.000000000
   -6.651589394   11.520891190    0.000000000
    0.000000000    0.000000000   21.679418564
Si  C  
72     308
Direct
    0.348160356    0.681493700    0.000000013
    0.681493759    0.014827132    0.144634396
    0.014827251    0.348160625    0.289268821
    0.014827028    0.014827028    0.000000014
    0.348160386    0.348160386    0.144634396
    0.681493878    0.681493878    0.289268821
    0.681493700    0.348160356    0.000000000
    0.014827132    0.681493759    0.144634381
    0.348160625    0.014827251    0.289268792
    0.014827013    0.681493759    0.036158606
    0.348160386    0.014827132    0.180793002
    0.681493878    0.348160625    0.325427443
    0.348160416    0.348160416    0.036158621
    0.681493759    0.681493819    0.180793017
    0.014827251    0.014827251    0.325427443
    0.681493759    0.014827013    0.036158606
    0.014827132    0.348160386    0.180793002
    0.348160625    0.681493878    0.325427413
    0.014827028    0.514827013    0.000000017
    0.348160416    0.848160446    0.144634411
    0.681493819    0.181493878    0.289268821
    0.681493759    0.848160386    0.000000038
    0.014827132    0.181493759    0.144634396
    0.348160625    0.514827251    0.289268821
    0.348160386    0.181493685    0.000000008
    0.681493759    0.514827073    0.144634381
    0.014827132    0.848160505    0.289268792
    0.348160416    0.848160267    0.036158569
    0.681493878    0.181493759    0.180792972
    0.014827132    0.514827013    0.325427353
    0.014827132    0.181493700    0.036158592
    0.348160505    0.514827132    0.180792972
    0.681493759    0.848160446    0.325427324
    0.681493819    0.514827073    0.036158577
    0.014827251    0.848160505    0.180793002
    0.348160625    0.181493878    0.325427383
    0.181493700    0.848160386    0.000000024
    0.514827073    0.181493759    0.144634396
    0.848160565    0.514827251    0.289268821
    0.514827013    0.514827013    0.000000014
    0.848160446    0.848160386    0.144634396
    0.181493878    0.181493878    0.289268821
    0.848160386    0.181493700    0.000000005
    0.181493759    0.514827073    0.144634381
    0.514827251    0.848160565    0.289268821
    0.181493685    0.514827013    0.036158577
    0.514827132    0.848160505    0.180793002
    0.848160446    0.181493759    0.325427353
    0.848160386    0.848160386    0.036158558
    0.181493878    0.181493878    0.180793002
    0.514827251    0.514827251    0.325427383
    0.514827073    0.181493670    0.036158577
    0.848160505    0.514827132    0.180793002
    0.181493759    0.848160446    0.325427383
    0.181493700    0.348160356    0.000000013
    0.514827073    0.681493759    0.144634396
    0.848160505    0.014827132    0.289268821
    0.848160386    0.681493759    0.000000027
    0.181493759    0.014827132    0.144634396
    0.514827251    0.348160625    0.289268821
    0.514827013    0.014827021    0.000000013
    0.848160386    0.348160416    0.144634396
    0.181493878    0.681493819    0.289268821
    0.514827013    0.681493640    0.036158621
    0.848160386    0.014827013    0.180793002
    0.181493878    0.348160505    0.325427443
    0.181493655    0.014827013    0.036158614
    0.514827013    0.348160386    0.180793002
    0.848160446    0.681493878    0.325427443
    0.848160446    0.348160386    0.036158606
    0.181493878    0.681493759    0.180793002
    0.514827251    0.014827251    0.325427413
    0.893236518    0.158212423    0.900184751
    0.845617831    0.348688900    0.425242633
    0.655141532    0.110593557    0.520231068
    0.464665294    0.872498274    0.615219474
    0.274188995    0.634402871    0.710207880
    0.083712816    0.396307677    0.805196285
    0.036093712    0.586783886    0.900184751
    0.988474965    0.777260423    0.425242662
    0.797998667    0.539165080    0.520231068
    0.607522428    0.301069796    0.615219533
    0.417046130    0.062974453    0.710207939
    0.226569921    0.824879169    0.805196345
    0.607522190    0.301069528    0.900184751
    0.559903502    0.491546094    0.425242633
    0.369427264    0.253450751    0.520231068
    0.178950995    0.015355468    0.615219474
    0.988474607    0.777260065    0.710207939
    0.797998428    0.539164901    0.805196345
    0.750379324    0.729640961    0.900184751
    0.702760637    0.920117497    0.425242633
    0.512284398    0.682022214    0.520231068
    0.321808159    0.443926901    0.615219474
    0.131331801    0.205831528    0.710207880
    0.940855622    0.967736244    0.805196345
    0.178950801    0.015355229    0.900184751
    0.131332040    0.205831766    0.425242633
    0.940855801    0.967736483    0.520231068
    0.750379562    0.729641199    0.615219474
    0.559903204    0.491545826    0.710207880
    0.369427025    0.253450543    0.805196285
    0.321807921    0.443926662    0.900184751
    0.274189234    0.634403229    0.425242633
    0.083712935    0.396307886    0.520231068
    0.893236697    0.158212662    0.615219474
    0.702760339    0.920117259    0.710207939
    0.512284160    0.682021976    0.805196285
    0.464665055    0.872498155    0.900184751
    0.417046368    0.062974691    0.425242633
    0.226570100    0.824879289    0.520231068
    0.036093831    0.586784065    0.615219474
    0.845617533    0.348688662    0.710207939
    0.655141354    0.110593438    0.805196285
    0.083713055    0.396307915    0.448989779
    0.893236756    0.158212662    0.543978214
    0.702760518    0.920117378    0.638966620
    0.512284160    0.682021976    0.733955085
    0.321807861    0.443926603    0.828943491
    0.797998726    0.539165139    0.448989749
    0.607522488    0.301069826    0.543978155
    0.417046249    0.062974572    0.638966560
    0.226569980    0.824879169    0.733955026
    0.036093593    0.586783767    0.828943491
    0.940855920    0.967736602    0.448989749
    0.750379682    0.729641318    0.543978155
    0.559903443    0.491545975    0.638966620
    0.369427145    0.253450632    0.733955026
    0.178950816    0.015355229    0.828943491
    0.369427323    0.253450811    0.448989779
    0.178951055    0.015355468    0.543978214
    0.988474786    0.777260184    0.638966620
    0.797998428    0.539164782    0.733955085
    0.607522130    0.301069468    0.828943491
    0.512284458    0.682022214    0.448989779
    0.321808219    0.443926930    0.543978214
    0.131332040    0.205831647    0.638966620
    0.940855622    0.967736244    0.733955026
    0.750379324    0.729640841    0.828943491
    0.655141592    0.110593677    0.448989779
    0.464665413    0.872498393    0.543978214
    0.274189115    0.634403110    0.638966620
    0.083712816    0.396307766    0.733955026
    0.893236458    0.158212304    0.828943491
    0.226570129    0.824879408    0.448989779
    0.036093950    0.586784065    0.543978214
    0.845617652    0.348688781    0.638966620
    0.655141354    0.110593438    0.733955085
    0.464664996    0.872498035    0.828943491
    0.107522368    0.301069587    0.900184751
    0.059903622    0.491546094    0.425242633
    0.869427323    0.253450781    0.520231068
    0.678951085    0.015355468    0.615219474
    0.488474727    0.777260065    0.710207880
    0.297998548    0.539164901    0.805196345
    0.678950787    0.015355229    0.900184751
    0.631332099    0.205831766    0.425242633
    0.440855861    0.967736483    0.520231068
    0.250379592    0.729641199    0.615219474
    0.059903264    0.491545767    0.710207939
    0.869427025    0.253450483    0.805196345
    0.821807981    0.443926662    0.900184751
    0.774189234    0.634403229    0.425242662
    0.583712995    0.396307886    0.520231068
    0.393236756    0.158212662    0.615219533
    0.202760443    0.920117259    0.710207939
    0.012284160    0.682021976    0.805196345
    0.964665055    0.872498155    0.900184751
    0.917046368    0.062974691    0.425242633
    0.726570070    0.824879289    0.520231068
    0.536093831    0.586784005    0.615219533
    0.345617533    0.348688632    0.710207939
    0.155141309    0.110593438    0.805196345
    0.393236458    0.158212423    0.900184751
    0.345617801    0.348688930    0.425242633
    0.155141532    0.110593557    0.520231068
    0.964665294    0.872498393    0.615219474
    0.774188936    0.634402871    0.710207880
    0.583712757    0.396307617    0.805196345
    0.536093593    0.586783767    0.900184751
    0.488474905    0.777260423    0.425242633
    0.297998667    0.539165020    0.520231068
    0.107522488    0.301069766    0.615219474
    0.917046070    0.062974334    0.710207939
    0.726569891    0.824879169    0.805196345
    0.250379324    0.729640961    0.900184751
    0.202760637    0.920117497    0.425242633
    0.012284398    0.682022214    0.520231068
    0.821808100    0.443926871    0.615219474
    0.631331801    0.205831528    0.710207939
    0.440855563    0.967736244    0.805196345
    0.869427383    0.253450841    0.448989749
    0.678951144    0.015355468    0.543978214
    0.488474846    0.777260184    0.638966560
    0.297998548    0.539164901    0.733955026
    0.107522249    0.301069528    0.828943491
    0.012284517    0.682022214    0.448989749
    0.821808279    0.443926930    0.543978214
    0.631331980    0.205831647    0.638966620
    0.440855742    0.967736244    0.733955026
    0.250379354    0.729640841    0.828943491
    0.583713055    0.396307945    0.448989719
    0.393236756    0.158212662    0.543978155
    0.202760518    0.920117378    0.638966560
    0.012284279    0.682022095    0.733955026
    0.821807921    0.443926722    0.828943431
    0.726570189    0.824879408    0.448989719
    0.536093891    0.586784124    0.543978155
    0.345617712    0.348688811    0.638966560
    0.155141428    0.110593438    0.733955026
    0.964665174    0.872498155    0.828943372
    0.297998726    0.539165139    0.448989749
    0.107522488    0.301069766    0.543978214
    0.917046189    0.062974453    0.638966620
    0.726569951    0.824879169    0.733955026
    0.536093652    0.586783886    0.828943431
    0.440855861    0.967736602    0.448989749
    0.250379622    0.729641199    0.543978214
    0.059903383    0.491545945    0.638966560
    0.869427085    0.253450632    0.733955026
    0.678950846    0.015355229    0.828943491
    0.155141577    0.110593677    0.448989749
    0.964665294    0.872498393    0.543978214
    0.774188995    0.634403110    0.638966560
    0.583712757    0.396307766    0.733955026
    0.393236458    0.158212423    0.828943491
    0.036093712    0.086783886    0.900184751
    0.988474965    0.277260363    0.425242662
    0.797998726    0.039165020    0.520231068
    0.607522547    0.801069736    0.615219533
    0.417046130    0.562974334    0.710207939
    0.226569951    0.324879140    0.805196345
    0.750379443    0.229640990    0.900184751
    0.702760696    0.420117527    0.425242662
    0.512284458    0.182022214    0.520231068
    0.321808219    0.943926930    0.615219533
    0.131331921    0.705831528    0.710207939
    0.940855622    0.467736334    0.805196345
    0.893236518    0.658212304    0.900184751
    0.845617831    0.848688960    0.425242633
    0.655141532    0.610593557    0.520231068
    0.464665294    0.372498333    0.615219474
    0.274188995    0.134402990    0.710207880
    0.083712816    0.896307707    0.805196285
    0.464665115    0.372498065    0.900184751
    0.417046368    0.562974632    0.425242633
    0.226570100    0.324879318    0.520231068
    0.036093831    0.086784005    0.615219474
    0.845617533    0.848688602    0.710207939
    0.655141354    0.610593438    0.805196345
    0.607522249    0.801069498    0.900184751
    0.559903502    0.991546035    0.425242633
    0.369427264    0.753450751    0.520231068
    0.178951025    0.515355468    0.615219474
    0.988474667    0.277260065    0.710207880
    0.797998488    0.039164782    0.805196285
    0.178950742    0.515355229    0.900184751
    0.131332040    0.705831766    0.425242633
    0.940855801    0.467736453    0.520231068
    0.750379562    0.229641169    0.615219474
    0.559903204    0.991545796    0.710207939
    0.369427025    0.753450513    0.805196285
    0.321807921    0.943926692    0.900184751
    0.274189234    0.134403229    0.425242633
    0.083712935    0.896307945    0.520231068
    0.893236637    0.658212662    0.615219474
    0.702760458    0.420117378    0.710207820
    0.512284160    0.182021976    0.805196345
    0.940855920    0.467736453    0.448989779
    0.750379682    0.229641169    0.543978214
    0.559903383    0.991545916    0.638966620
    0.369427115    0.753450513    0.733955085
    0.178950757    0.515355110    0.828943491
    0.083713055    0.896307945    0.448989779
    0.893236756    0.658212662    0.543978214
    0.702760518    0.420117378    0.638966620
    0.512284219    0.182021976    0.733955085
    0.321807921    0.943926573    0.828943491
    0.655141592    0.610593677    0.448989749
    0.464665353    0.372498333    0.543978214
    0.274189115    0.134403110    0.638966620
    0.083712816    0.896307826    0.733955085
    0.893236518    0.658212423    0.828943491
    0.797998786    0.039165139    0.448989749
    0.607522488    0.801069736    0.543978214
    0.417046249    0.562974453    0.638966560
    0.226570025    0.324879169    0.733955026
    0.036093712    0.086783886    0.828943431
    0.226570174    0.324879348    0.448989749
    0.036093831    0.086784005    0.543978214
    0.845617652    0.848688722    0.638966560
    0.655141354    0.610593438    0.733955026
    0.464665115    0.372498125    0.828943431
    0.369427323    0.753450871    0.448989749
    0.178951055    0.515355468    0.543978214
    0.988474786    0.277260214    0.638966560
    0.797998548    0.039164901    0.733955026
    0.607522249    0.801069617    0.828943431
    0.512284458    0.182022214    0.448989719
    0.321808159    0.943926930    0.543978155
    0.131331921    0.705831647    0.638966560
    0.940855682    0.467736274    0.733955026
    0.750379384    0.229640931    0.828943372
    0.964665174    0.372498065    0.900184751
    0.917046428    0.562974632    0.425242662
    0.726570189    0.324879318    0.520231068
    0.536093950    0.086784005    0.615219533
    0.345617622    0.848688602    0.710207939
    0.155141383    0.610593319    0.805196404
    0.107522368    0.801069498    0.900184751
    0.059903622    0.991546035    0.425242633
    0.869427323    0.753450751    0.520231068
    0.678951085    0.515355468    0.615219474
    0.488474786    0.277260095    0.710207880
    0.297998577    0.039164901    0.805196285
    0.536093593    0.086783767    0.900184751
    0.488474965    0.277260333    0.425242633
    0.297998667    0.039165020    0.520231068
    0.107522488    0.801069736    0.615219474
    0.917046070    0.562974334    0.710207880
    0.726569891    0.324879080    0.805196345
    0.678950727    0.515355229    0.900184751
    0.631332099    0.705831766    0.425242633
    0.440855801    0.467736453    0.520231068
    0.250379592    0.229641184    0.615219474
    0.059903264    0.991545796    0.710207939
    0.869426966    0.753450513    0.805196345
    0.821807981    0.943926692    0.900184751
    0.774189293    0.134403229    0.425242633
    0.583712995    0.896307945    0.520231068
    0.393236756    0.658212662    0.615219474
    0.202760458    0.420117259    0.710207880
    0.012284279    0.182022095    0.805196285
    0.250379324    0.229640931    0.900184751
    0.202760652    0.420117497    0.425242633
    0.012284398    0.182022214    0.520231068
    0.821808100    0.943926930    0.615219474
    0.631331742    0.705831528    0.710207880
    0.440855563    0.467736274    0.805196345
    0.393236518    0.658212423    0.900184751
    0.345617771    0.848688960    0.425242633
    0.155141532    0.610593677    0.520231068
    0.964665294    0.372498393    0.615219474
    0.774188936    0.134402990    0.710207880
    0.583712757    0.896307826    0.805196285
    0.726570249    0.324879408    0.448989779
    0.536093950    0.086784124    0.543978214
    0.345617741    0.848688841    0.638966620
    0.155141443    0.610593438    0.733955085
    0.964665115    0.372498065    0.828943491
    0.869427383    0.753450871    0.448989749
    0.678951144    0.515355527    0.543978155
    0.488474905    0.277260244    0.638966620
    0.297998637    0.039164901    0.733955026
    0.107522249    0.801069498    0.828943491
    0.012284517    0.182022214    0.448989749
    0.821808279    0.943926930    0.543978214
    0.631331980    0.705831647    0.638966560
    0.440855682    0.467736274    0.733955026
    0.250379384    0.229640931    0.828943491
    0.440855920    0.467736542    0.448989749
    0.250379682    0.229641244    0.543978214
    0.059903383    0.991545916    0.638966620
    0.869427085    0.753450632    0.733955085
    0.678950787    0.515355229    0.828943491
    0.583712995    0.896307945    0.448989749
    0.393236756    0.658212662    0.543978214
    0.202760518    0.420117348    0.638966620
    0.012284279    0.182021976    0.733955026
    0.821807861    0.943926573    0.828943491
    0.155141622    0.610593677    0.448989749
    0.964665353    0.372498393    0.543978214
    0.774189115    0.134403110    0.638966620
    0.583712757    0.896307707    0.733955085
    0.393236458    0.658212304    0.828943491
    0.297998786    0.039165139    0.448989749
    0.107522488    0.801069856    0.543978214
    0.917046249    0.562974513    0.638966620
    0.726570010    0.324879169    0.733955026
    0.536093652    0.086783767    0.828943491
