Si+C                                    
   1.00000000000000     
    16.2930011750000006    0.0000000000000000    0.0000000000000000
   -10.8620004649999995   12.1440858840000008    0.0000000000000000
     0.0000000000000000    0.0000000000000000    7.4017848969999998
   Si   C 
    36    84
Direct
  0.9829056259999973  0.6410251260000024  0.0000000020000002
  0.7829055790000012  0.3410250250000004  0.1640697570000000
  0.5829054120000023  0.0410249350000029  0.3281395140000001
  0.9829056259999973  0.3076917830000028  0.0000000020000002
  0.7829055790000012  0.0076917150000000  0.1640697570000000
  0.5829054120000023  0.7076916689999990  0.3281395140000001
  0.9829056259999973  0.9743584989999974  0.0000000020000002
  0.7829055790000012  0.6743583680000000  0.1640697570000000
  0.5829054120000023  0.3743582959999969  0.3281395140000001
  0.6329056619999989  0.6576917169999987  0.0820347069999983
  0.4329055850000003  0.3576916159999968  0.2461044790000031
  0.2329055220000029  0.0576915779999965  0.4101742209999983
  0.6329056619999989  0.3243584630000029  0.0820347069999983
  0.4329055850000003  0.0243583689999980  0.2461044790000031
  0.2329055220000029  0.7243583200000003  0.4101742209999983
  0.6329056619999989  0.9910252090000000  0.0820347069999983
  0.4329055850000003  0.6910251380000005  0.2461044790000031
  0.2329055220000029  0.3910250659999974  0.4101742209999983
  0.4829056259999973  0.8076917530000003  0.0000000000000000
  0.2829055489999988  0.5076916220000030  0.1640697570000000
  0.0829054419999977  0.2076916099999977  0.3281395140000001
  0.4829056259999973  0.4743584389999995  0.0000000000000000
  0.2829055489999988  0.1743583530000024  0.1640697570000000
  0.0829054419999977  0.8743582959999969  0.3281395140000001
  0.4829056259999973  0.1410251410000001  0.0000000000000000
  0.2829055489999988  0.8410250539999993  0.1640697570000000
  0.0829054419999977  0.5410249829999998  0.3281395140000001
  0.1329056769999966  0.8243585230000008  0.0820347220000031
  0.9329055549999978  0.5243583920000034  0.2461044790000031
  0.7329055069999981  0.2243583799999982  0.4101742209999983
  0.1329056769999966  0.4910252090000000  0.0820347220000031
  0.9329055549999978  0.1910251079999981  0.2461044790000031
  0.7329055069999981  0.8910251260000024  0.4101742209999983
  0.1329056769999966  0.1576919560000007  0.0820347220000031
  0.9329055549999978  0.8576918839999976  0.2461044790000031
  0.7329055069999981  0.5576919319999973  0.4101742209999983
  0.8951851730000016  0.0341176989999994  0.5703964229999983
  0.1380424500000004  0.0055462119999987  0.6781489850000000
  0.3808996679999979  0.9769746659999967  0.7859014869999967
  0.1808993819999998  0.1769748030000002  0.5703964229999983
  0.4237565990000007  0.1484033019999984  0.6781489850000000
  0.6666138169999982  0.1198318380000032  0.7859014869999967
  0.4666136499999993  0.3198319079999976  0.5703964229999983
  0.7094709870000031  0.2912604209999969  0.6781489850000000
  0.9523282050000006  0.2626889650000024  0.7859014869999967
  0.7523280380000017  0.4626891019999988  0.5703964229999983
  0.9951852559999992  0.4341176149999981  0.6781489850000000
  0.2380425930000030  0.4055461589999965  0.7859014869999967
  0.0380423069999978  0.6055461759999972  0.5703964229999983
  0.2808995250000024  0.5769747499999980  0.6781489850000000
  0.5237567420000033  0.5484032629999973  0.7859014869999967
  0.3237565760000010  0.7484033699999983  0.5703964229999983
  0.5666139129999976  0.7198318840000013  0.6781489850000000
  0.8094711299999986  0.6912603970000006  0.7859014869999967
  0.6094708440000005  0.8912605049999982  0.5703964229999983
  0.8523280619999980  0.8626889590000033  0.6781489850000000
  0.0951852800000026  0.8341175320000005  0.7859014869999967
  0.7308993340000001  0.1269747910000021  0.6242726449999978
  0.9737566709999967  0.0984033200000027  0.7320250869999967
  0.2166138890000013  0.0698318110000002  0.8397776480000019
  0.0166134830000004  0.2698319260000019  0.6242725849999999
  0.2594708199999971  0.2412604689999966  0.7320250869999967
  0.5023280380000017  0.2126889529999971  0.8397777079999997
  0.3023278710000028  0.4126891200000031  0.6242725849999999
  0.5451850890000003  0.3841176330000025  0.7320250869999967
  0.7880424259999970  0.3555461469999983  0.8397777079999997
  0.5880422589999981  0.5555462239999969  0.6242725849999999
  0.8308994770000027  0.5269747379999998  0.7320250869999967
  0.0737568139999993  0.4984033409999995  0.8397777079999997
  0.8737564090000021  0.6984033580000002  0.6242725849999999
  0.1166137459999987  0.6698318720000032  0.7320250869999967
  0.3594708440000005  0.6412603859999990  0.8397777079999997
  0.1594707969999973  0.8412604930000001  0.6242726449999978
  0.4023281340000011  0.8126889469999981  0.7320250869999967
  0.6451853510000021  0.7841175200000023  0.8397776480000019
  0.4451849459999977  0.9841175680000021  0.6242726449999978
  0.6880421640000023  0.9555461409999992  0.7320250869999967
  0.9308995009999990  0.9269746539999986  0.8397776480000019
  0.5380424259999970  0.1055462429999992  0.5703964229999983
  0.7808995250000024  0.0769747350000003  0.6781489850000000
  0.0237568619999990  0.0484033119999978  0.7859014869999967
  0.8237566950000001  0.2484034000000008  0.5703964229999983
  0.0666139129999976  0.2198318840000013  0.6781489850000000
  0.3094710109999994  0.1912603970000006  0.7859014869999967
  0.1094708440000005  0.3912605350000007  0.5703964229999983
  0.3523280619999980  0.3626890480000000  0.6781489850000000
  0.5951852800000026  0.3341175620000030  0.7859014869999967
  0.3951851129999966  0.5341176390000015  0.5703964229999983
  0.6380424500000004  0.5055461529999974  0.6781489850000000
  0.8808996679999979  0.4769747260000017  0.7859014869999967
  0.6808993819999998  0.6769747729999978  0.5703964229999983
  0.9237567189999965  0.6484033469999986  0.6781489850000000
  0.1666138169999982  0.6198318000000000  0.7859014869999967
  0.9666137099999972  0.8198319669999989  0.5703964229999983
  0.2094709870000031  0.7912605400000032  0.6781489850000000
  0.4523282050000006  0.7626890539999991  0.7859014869999967
  0.2523280380000017  0.9626891019999988  0.5703964229999983
  0.4951851370000000  0.9341176750000031  0.6781489850000000
  0.7380425930000030  0.9055461880000024  0.7859014869999967
  0.0880422589999981  0.0555462350000013  0.6242725849999999
  0.3308995960000018  0.0269746780000020  0.7320250869999967
  0.5737569329999985  0.9984032509999992  0.8397777079999997
  0.3737564090000021  0.1984033880000027  0.6242725849999999
  0.6166137459999987  0.1698318720000032  0.7320250869999967
  0.8594709629999997  0.1412604300000027  0.8397776480000019
  0.6594707969999973  0.3412604930000001  0.6242725849999999
  0.9023281340000011  0.3126890659999972  0.7320251459999980
  0.1451853510000021  0.2841176089999990  0.8397776480000019
  0.9451849459999977  0.4841176569999988  0.6242725849999999
  0.1880422830000015  0.4555462000000006  0.7320250869999967
  0.4308995009999990  0.4269746840000010  0.8397776480000019
  0.2308993340000001  0.6269747019999983  0.6242725849999999
  0.4737567900000030  0.5984032149999976  0.7320250869999967
  0.7166140080000005  0.5698317889999984  0.8397777079999997
  0.5166137220000024  0.7698318959999995  0.6242725849999999
  0.7594709399999999  0.7412604089999988  0.7320250869999967
  0.0023282769999966  0.7126890420000009  0.8397777079999997
  0.8023278710000028  0.9126890300000028  0.6242725849999999
  0.0451852079999995  0.8841176030000000  0.7320250869999967
  0.2880424259999970  0.8555461170000029  0.8397777079999997
 
  0.00000000E+00  0.00000000E+00  0.00000000E+00
  0.00000000E+00  0.00000000E+00  0.00000000E+00
  0.00000000E+00  0.00000000E+00  0.00000000E+00
  0.00000000E+00  0.00000000E+00  0.00000000E+00
  0.00000000E+00  0.00000000E+00  0.00000000E+00
  0.00000000E+00  0.00000000E+00  0.00000000E+00
  0.00000000E+00  0.00000000E+00  0.00000000E+00
  0.00000000E+00  0.00000000E+00  0.00000000E+00
  0.00000000E+00  0.00000000E+00  0.00000000E+00
  0.00000000E+00  0.00000000E+00  0.00000000E+00
  0.00000000E+00  0.00000000E+00  0.00000000E+00
  0.00000000E+00  0.00000000E+00  0.00000000E+00
  0.00000000E+00  0.00000000E+00  0.00000000E+00
  0.00000000E+00  0.00000000E+00  0.00000000E+00
  0.00000000E+00  0.00000000E+00  0.00000000E+00
  0.00000000E+00  0.00000000E+00  0.00000000E+00
  0.00000000E+00  0.00000000E+00  0.00000000E+00
  0.00000000E+00  0.00000000E+00  0.00000000E+00
  0.00000000E+00  0.00000000E+00  0.00000000E+00
  0.00000000E+00  0.00000000E+00  0.00000000E+00
  0.00000000E+00  0.00000000E+00  0.00000000E+00
  0.00000000E+00  0.00000000E+00  0.00000000E+00
  0.00000000E+00  0.00000000E+00  0.00000000E+00
  0.00000000E+00  0.00000000E+00  0.00000000E+00
  0.00000000E+00  0.00000000E+00  0.00000000E+00
  0.00000000E+00  0.00000000E+00  0.00000000E+00
  0.00000000E+00  0.00000000E+00  0.00000000E+00
  0.00000000E+00  0.00000000E+00  0.00000000E+00
  0.00000000E+00  0.00000000E+00  0.00000000E+00
  0.00000000E+00  0.00000000E+00  0.00000000E+00
  0.00000000E+00  0.00000000E+00  0.00000000E+00
  0.00000000E+00  0.00000000E+00  0.00000000E+00
  0.00000000E+00  0.00000000E+00  0.00000000E+00
  0.00000000E+00  0.00000000E+00  0.00000000E+00
  0.00000000E+00  0.00000000E+00  0.00000000E+00
  0.00000000E+00  0.00000000E+00  0.00000000E+00
  0.00000000E+00  0.00000000E+00  0.00000000E+00
  0.00000000E+00  0.00000000E+00  0.00000000E+00
  0.00000000E+00  0.00000000E+00  0.00000000E+00
  0.00000000E+00  0.00000000E+00  0.00000000E+00
  0.00000000E+00  0.00000000E+00  0.00000000E+00
  0.00000000E+00  0.00000000E+00  0.00000000E+00
  0.00000000E+00  0.00000000E+00  0.00000000E+00
  0.00000000E+00  0.00000000E+00  0.00000000E+00
  0.00000000E+00  0.00000000E+00  0.00000000E+00
  0.00000000E+00  0.00000000E+00  0.00000000E+00
  0.00000000E+00  0.00000000E+00  0.00000000E+00
  0.00000000E+00  0.00000000E+00  0.00000000E+00
  0.00000000E+00  0.00000000E+00  0.00000000E+00
  0.00000000E+00  0.00000000E+00  0.00000000E+00
  0.00000000E+00  0.00000000E+00  0.00000000E+00
  0.00000000E+00  0.00000000E+00  0.00000000E+00
  0.00000000E+00  0.00000000E+00  0.00000000E+00
  0.00000000E+00  0.00000000E+00  0.00000000E+00
  0.00000000E+00  0.00000000E+00  0.00000000E+00
  0.00000000E+00  0.00000000E+00  0.00000000E+00
  0.00000000E+00  0.00000000E+00  0.00000000E+00
  0.00000000E+00  0.00000000E+00  0.00000000E+00
  0.00000000E+00  0.00000000E+00  0.00000000E+00
  0.00000000E+00  0.00000000E+00  0.00000000E+00
  0.00000000E+00  0.00000000E+00  0.00000000E+00
  0.00000000E+00  0.00000000E+00  0.00000000E+00
  0.00000000E+00  0.00000000E+00  0.00000000E+00
  0.00000000E+00  0.00000000E+00  0.00000000E+00
  0.00000000E+00  0.00000000E+00  0.00000000E+00
  0.00000000E+00  0.00000000E+00  0.00000000E+00
  0.00000000E+00  0.00000000E+00  0.00000000E+00
  0.00000000E+00  0.00000000E+00  0.00000000E+00
  0.00000000E+00  0.00000000E+00  0.00000000E+00
  0.00000000E+00  0.00000000E+00  0.00000000E+00
  0.00000000E+00  0.00000000E+00  0.00000000E+00
  0.00000000E+00  0.00000000E+00  0.00000000E+00
  0.00000000E+00  0.00000000E+00  0.00000000E+00
  0.00000000E+00  0.00000000E+00  0.00000000E+00
  0.00000000E+00  0.00000000E+00  0.00000000E+00
  0.00000000E+00  0.00000000E+00  0.00000000E+00
  0.00000000E+00  0.00000000E+00  0.00000000E+00
  0.00000000E+00  0.00000000E+00  0.00000000E+00
  0.00000000E+00  0.00000000E+00  0.00000000E+00
  0.00000000E+00  0.00000000E+00  0.00000000E+00
  0.00000000E+00  0.00000000E+00  0.00000000E+00
  0.00000000E+00  0.00000000E+00  0.00000000E+00
  0.00000000E+00  0.00000000E+00  0.00000000E+00
  0.00000000E+00  0.00000000E+00  0.00000000E+00
  0.00000000E+00  0.00000000E+00  0.00000000E+00
  0.00000000E+00  0.00000000E+00  0.00000000E+00
  0.00000000E+00  0.00000000E+00  0.00000000E+00
  0.00000000E+00  0.00000000E+00  0.00000000E+00
  0.00000000E+00  0.00000000E+00  0.00000000E+00
  0.00000000E+00  0.00000000E+00  0.00000000E+00
  0.00000000E+00  0.00000000E+00  0.00000000E+00
  0.00000000E+00  0.00000000E+00  0.00000000E+00
  0.00000000E+00  0.00000000E+00  0.00000000E+00
  0.00000000E+00  0.00000000E+00  0.00000000E+00
  0.00000000E+00  0.00000000E+00  0.00000000E+00
  0.00000000E+00  0.00000000E+00  0.00000000E+00
  0.00000000E+00  0.00000000E+00  0.00000000E+00
  0.00000000E+00  0.00000000E+00  0.00000000E+00
  0.00000000E+00  0.00000000E+00  0.00000000E+00
  0.00000000E+00  0.00000000E+00  0.00000000E+00
  0.00000000E+00  0.00000000E+00  0.00000000E+00
  0.00000000E+00  0.00000000E+00  0.00000000E+00
  0.00000000E+00  0.00000000E+00  0.00000000E+00
  0.00000000E+00  0.00000000E+00  0.00000000E+00
  0.00000000E+00  0.00000000E+00  0.00000000E+00
  0.00000000E+00  0.00000000E+00  0.00000000E+00
  0.00000000E+00  0.00000000E+00  0.00000000E+00
  0.00000000E+00  0.00000000E+00  0.00000000E+00
  0.00000000E+00  0.00000000E+00  0.00000000E+00
  0.00000000E+00  0.00000000E+00  0.00000000E+00
  0.00000000E+00  0.00000000E+00  0.00000000E+00
  0.00000000E+00  0.00000000E+00  0.00000000E+00
  0.00000000E+00  0.00000000E+00  0.00000000E+00
  0.00000000E+00  0.00000000E+00  0.00000000E+00
  0.00000000E+00  0.00000000E+00  0.00000000E+00
  0.00000000E+00  0.00000000E+00  0.00000000E+00
  0.00000000E+00  0.00000000E+00  0.00000000E+00
  0.00000000E+00  0.00000000E+00  0.00000000E+00
  0.00000000E+00  0.00000000E+00  0.00000000E+00
  0.00000000E+00  0.00000000E+00  0.00000000E+00
