Si+C
    1.000000000
   16.293001175    0.000000000    0.000000000
  -10.862000465   12.144085884    0.000000000
    0.000000000    0.000000000    7.994749546
Si  C  
36     84
Direct
    0.982905626    0.641025126    0.000000002
    0.782905579    0.341025025    0.151900828
    0.582905412    0.041024935    0.303801656
    0.982905626    0.307691783    0.000000002
    0.782905579    0.007691715    0.151900828
    0.582905412    0.707691669    0.303801656
    0.982905626    0.974358499    0.000000002
    0.782905579    0.674358368    0.151900828
    0.582905412    0.374358296    0.303801656
    0.632905662    0.657691717    0.075950257
    0.432905585    0.357691616    0.227851093
    0.232905522    0.057691578    0.379751921
    0.632905662    0.324358463    0.075950257
    0.432905585    0.024358369    0.227851093
    0.232905522    0.724358320    0.379751921
    0.632905662    0.991025209    0.075950257
    0.432905585    0.691025138    0.227851093
    0.232905522    0.391025066    0.379751921
    0.482905626    0.807691753    0.000000000
    0.282905549    0.507691622    0.151900828
    0.082905442    0.207691610    0.303801656
    0.482905626    0.474358439    0.000000000
    0.282905549    0.174358353    0.151900828
    0.082905442    0.874358296    0.303801656
    0.482905626    0.141025141    0.000000000
    0.282905549    0.841025054    0.151900828
    0.082905442    0.541024983    0.303801656
    0.132905677    0.824358523    0.075950272
    0.932905555    0.524358392    0.227851093
    0.732905507    0.224358380    0.379751921
    0.132905677    0.491025209    0.075950272
    0.932905555    0.191025108    0.227851093
    0.732905507    0.891025126    0.379751921
    0.132905677    0.157691956    0.075950272
    0.932905555    0.857691884    0.227851093
    0.732905507    0.557691932    0.379751921
    0.771728337    0.114364624    0.565175176
    0.014585495    0.085793138    0.664935827
    0.257442713    0.057221651    0.764696479
    0.057442665    0.257221699    0.565175176
    0.300299883    0.228650212    0.664935827
    0.543157101    0.200078756    0.764696479
    0.343156815    0.400078803    0.565175176
    0.586014032    0.371507317    0.664935827
    0.828871369    0.342935860    0.764696479
    0.628871202    0.542936027    0.565175176
    0.871728420    0.514364541    0.664935827
    0.114585757    0.485793054    0.764696479
    0.914585471    0.685793102    0.565175176
    0.157442689    0.657221675    0.664935827
    0.400299907    0.628650188    0.764696479
    0.200299740    0.828650296    0.565175176
    0.443156958    0.800078809    0.664935827
    0.686014175    0.771507323    0.764696479
    0.486014009    0.971507430    0.565175176
    0.728871226    0.942935884    0.664935827
    0.971728444    0.914364457    0.764696479
    0.607442498    0.207221717    0.615055442
    0.850299835    0.178650230    0.714816093
    0.093157053    0.150078714    0.814576626
    0.893156707    0.350078851    0.615055442
    0.136013985    0.321507365    0.714816093
    0.378871202    0.292935848    0.814576745
    0.178871036    0.492936015    0.615055442
    0.421728373    0.464364529    0.714816093
    0.664585590    0.435793042    0.814576745
    0.464585423    0.635793149    0.615055442
    0.707442760    0.607221663    0.714816093
    0.950299978    0.578650236    0.814576745
    0.750299573    0.778650284    0.615055442
    0.993156910    0.750078797    0.714816093
    0.236014009    0.721507311    0.814576745
    0.036014080    0.921507418    0.615055442
    0.278871298    0.892935872    0.714816093
    0.521728516    0.864364445    0.814576626
    0.321728230    0.064364552    0.615055442
    0.564585447    0.035793066    0.714816093
    0.807442665    0.007221580    0.814576626
    0.414585590    0.185793161    0.565175176
    0.657442689    0.157221645    0.664935827
    0.900300026    0.128650218    0.764696479
    0.700299978    0.328650296    0.565175176
    0.943157077    0.300078779    0.664935827
    0.186014175    0.271507293    0.764696479
    0.986014068    0.471507430    0.565175176
    0.228871346    0.442935944    0.664935827
    0.471728563    0.414364457    0.764696479
    0.271728277    0.614364564    0.565175176
    0.514585495    0.585793078    0.664935827
    0.757442832    0.557221651    0.764696479
    0.557442665    0.757221699    0.565175176
    0.800299883    0.728650272    0.664935827
    0.043156981    0.700078726    0.764696479
    0.843156874    0.900078893    0.565175176
    0.086014152    0.871507466    0.664935827
    0.328871489    0.842935979    0.764696479
    0.128871202    0.042936087    0.565175176
    0.371728420    0.014364600    0.664935827
    0.614585638    0.985793114    0.764696479
    0.964585483    0.135793149    0.615055442
    0.207442760    0.107221603    0.714816093
    0.450299978    0.078650236    0.814576745
    0.250299692    0.278650284    0.615055442
    0.493156910    0.250078797    0.714816093
    0.736014128    0.221507341    0.814576626
    0.536013842    0.421507388    0.615055442
    0.778871298    0.392935961    0.714816093
    0.021728516    0.364364505    0.814576626
    0.821728110    0.564364552    0.615055442
    0.064585447    0.535793126    0.714816093
    0.307442665    0.507221580    0.814576626
    0.107442617    0.707221627    0.615055442
    0.350299835    0.678650141    0.714816093
    0.593157053    0.650078714    0.814576745
    0.393156886    0.850078821    0.615055442
    0.636014223    0.821507335    0.714816093
    0.878871441    0.792935967    0.814576745
    0.678871036    0.992935956    0.615055442
    0.921728373    0.964364529    0.714816093
    0.164585590    0.935793042    0.814576745
