C+Si
    1.000000000
   13.345744133    0.000000000    0.000000000
    6.672872066   11.557753563    0.000000000
    0.000000506   -0.000000292   21.497346878
C   Si 
308     72
Direct
    0.401211977    0.401212335    0.455016434
    0.734545588    0.734545708    0.071844772
    0.401212335    0.401212394    0.167637661
    0.067878723    0.067878902    0.263430655
    0.734545469    0.734545588    0.359223515
    0.686926365    0.544069409    0.455016464
    0.020259926    0.877402782    0.071844772
    0.686926603    0.544069529    0.167637691
    0.353593051    0.210736036    0.263430655
    0.020259678    0.877402663    0.359223545
    0.544069171    0.972640753    0.455016494
    0.877402782    0.305974215    0.071844757
    0.544069409    0.972640932    0.167637661
    0.210735857    0.639307439    0.263430655
    0.877402544    0.305974066    0.359223545
    0.972640514    0.686926484    0.455016494
    0.305974185    0.020259930    0.071844779
    0.972640872    0.686926603    0.167637691
    0.639307380    0.353593171    0.263430655
    0.305973947    0.020259798    0.359223574
    0.829783320    0.115497887    0.455016464
    0.163117096    0.448831409    0.071844742
    0.829783678    0.115498066    0.167637661
    0.496450305    0.782164693    0.263430625
    0.163116753    0.448831260    0.359223515
    0.258354843    0.829783559    0.455016464
    0.591688514    0.163117111    0.071844742
    0.258355141    0.829783738    0.167637661
    0.925021768    0.496450424    0.263430595
    0.591688216    0.163116992    0.359223515
    0.115497708    0.258355081    0.455016464
    0.448831320    0.591688454    0.071844772
    0.115497999    0.258355170    0.167637661
    0.782164454    0.925021708    0.263430655
    0.448831081    0.591688335    0.359223545
    0.496450186    0.782164693    0.478964657
    0.163117111    0.448831350    0.000000069
    0.829783738    0.115498036    0.095792986
    0.496450245    0.782164633    0.191585928
    0.163116813    0.448831141    0.287378877
    0.829783440    0.115497828    0.383171797
    0.925021648    0.496450424    0.478964657
    0.591688514    0.163117126    0.000000057
    0.258355170    0.829783797    0.095792972
    0.925021708    0.496450424    0.191585913
    0.591688156    0.163116872    0.287378877
    0.258354843    0.829783559    0.383171767
    0.782164454    0.925021768    0.478964657
    0.448831350    0.591688514    0.000000048
    0.115498006    0.258355170    0.095792972
    0.782164574    0.925021768    0.191585913
    0.448831022    0.591688275    0.287378877
    0.115497649    0.258354962    0.383171767
    0.210735798    0.639307499    0.478964657
    0.877402782    0.305974245    0.000000048
    0.544069409    0.972640872    0.095792972
    0.210735977    0.639307499    0.191585913
    0.877402425    0.305974007    0.287378877
    0.544069052    0.972640753    0.383171767
    0.639307261    0.353593349    0.478964627
    0.305974245    0.020259961    0.000000063
    0.972640872    0.686926603    0.095792972
    0.639307380    0.353593230    0.191585928
    0.305973887    0.020259738    0.287378877
    0.972640514    0.686926365    0.383171767
    0.067878783    0.067878902    0.478964627
    0.734545708    0.734545648    0.000000095
    0.401212335    0.401212305    0.095793001
    0.067878902    0.067878895    0.191585928
    0.734545350    0.734545410    0.287378877
    0.401212037    0.401212096    0.383171797
    0.353592873    0.210736096    0.478964627
    0.020260012    0.877402782    0.000000023
    0.686926603    0.544069469    0.095792957
    0.353593290    0.210736170    0.191585869
    0.020259678    0.877402663    0.287378848
    0.686926246    0.544069290    0.383171737
    0.615497708    0.758355141    0.455016464
    0.948831320    0.091688499    0.071844757
    0.615497947    0.758355200    0.167637661
    0.282164454    0.425021708    0.263430655
    0.948831081    0.091688395    0.359223545
    0.044069171    0.472640753    0.455016464
    0.377402753    0.805974245    0.071844742
    0.044069424    0.472640932    0.167637661
    0.710735917    0.139307439    0.263430655
    0.377402544    0.805974126    0.359223545
    0.472640634    0.186926425    0.455016464
    0.805974245    0.520259917    0.071844734
    0.472640812    0.186926574    0.167637676
    0.139307439    0.853593230    0.263430625
    0.805973887    0.520259738    0.359223545
    0.901211977    0.901212215    0.455016464
    0.234545648    0.234545678    0.071844749
    0.901212215    0.901212335    0.167637676
    0.567878842    0.567878962    0.263430625
    0.234545290    0.234545469    0.359223545
    0.329783380    0.615497828    0.455016464
    0.663117111    0.948831439    0.071844727
    0.329783708    0.615498066    0.167637646
    0.996450305    0.282164752    0.263430595
    0.663116813    0.948831320    0.359223485
    0.758354902    0.329783618    0.455016464
    0.091688484    0.663117051    0.071844757
    0.758355141    0.329783797    0.167637661
    0.425021589    0.996450305    0.263430655
    0.091688275    0.663116932    0.359223545
    0.186926365    0.044069350    0.455016494
    0.520259917    0.377402782    0.071844786
    0.186926618    0.044069488    0.167637676
    0.853593051    0.710736036    0.263430655
    0.520259678    0.377402663    0.359223545
    0.567878604    0.567878842    0.478964657
    0.234545678    0.234545663    0.000000042
    0.901212275    0.901212335    0.095792957
    0.567878962    0.567879021    0.191585883
    0.234545350    0.234545469    0.287378848
    0.901211977    0.901212215    0.383171767
    0.425021529    0.996450305    0.478964657
    0.091688558    0.663117051    0.000000038
    0.758355141    0.329783738    0.095792964
    0.425021827    0.996450424    0.191585869
    0.091688216    0.663116932    0.287378848
    0.758354902    0.329783559    0.383171767
    0.853592992    0.710735917    0.478964657
    0.520259976    0.377402812    0.000000038
    0.186926559    0.044069443    0.095792957
    0.853593230    0.710736156    0.191585869
    0.520259619    0.377402604    0.287378848
    0.186926246    0.044069290    0.383171737
    0.282164335    0.425021648    0.478964627
    0.948831379    0.091688514    0.000000038
    0.615497947    0.758355141    0.095792964
    0.282164663    0.425021887    0.191585869
    0.948831081    0.091688335    0.287378848
    0.615497708    0.758355021    0.383171767
    0.710735798    0.139307439    0.478964657
    0.377402842    0.805974245    0.000000034
    0.044069409    0.472640872    0.095792957
    0.710736096    0.139307573    0.191585869
    0.377402484    0.805974066    0.287378848
    0.044069111    0.472640753    0.383171707
    0.139307261    0.853593111    0.478964657
    0.805974305    0.520259917    0.000000067
    0.472640902    0.186926559    0.095792994
    0.139307573    0.853593290    0.191585898
    0.805974007    0.520259738    0.287378848
    0.472640634    0.186926425    0.383171767
    0.996450067    0.282164514    0.478964657
    0.663117111    0.948831320    0.000000055
    0.329783678    0.615497947    0.095793001
    0.996450365    0.282164663    0.191585883
    0.663116813    0.948831141    0.287378877
    0.329783380    0.615497768    0.383171767
    0.544069171    0.472640753    0.455016494
    0.877402782    0.805974245    0.071844772
    0.544069409    0.472640932    0.167637676
    0.210735857    0.139307439    0.263430655
    0.877402544    0.805974126    0.359223545
    0.401212096    0.901212215    0.455016494
    0.734545648    0.234545648    0.071844772
    0.401212275    0.901212335    0.167637676
    0.067878723    0.567878842    0.263430685
    0.734545350    0.234545529    0.359223545
    0.829783440    0.615497947    0.455016494
    0.163117066    0.948831379    0.071844757
    0.829783738    0.615498066    0.167637676
    0.496450186    0.282164574    0.263430655
    0.163116813    0.948831201    0.359223545
    0.686926246    0.044069350    0.455016494
    0.020259935    0.377402902    0.071844727
    0.686926484    0.044069521    0.167637661
    0.353593171    0.710736156    0.263430595
    0.020259619    0.377402782    0.359223515
    0.115497649    0.758355021    0.455016464
    0.448831409    0.091688573    0.071844727
    0.115498006    0.758355200    0.167637661
    0.782164633    0.425021887    0.263430625
    0.448831141    0.091688454    0.359223515
    0.972640514    0.186926544    0.455016464
    0.305974185    0.520259917    0.071844779
    0.972640872    0.186926633    0.167637661
    0.639307320    0.853593171    0.263430655
    0.305973947    0.520259857    0.359223545
    0.258354902    0.329783618    0.455016494
    0.591688454    0.663117051    0.071844772
    0.258355141    0.329783767    0.167637676
    0.925021589    0.996450305    0.263430655
    0.591688275    0.663116932    0.359223545
    0.782164216    0.425021648    0.478964686
    0.448831350    0.091688514    0.000000046
    0.115497947    0.758355141    0.095792972
    0.782164633    0.425021887    0.191585883
    0.448831022    0.091688335    0.287378848
    0.115497649    0.758354902    0.383171797
    0.639307261    0.853593111    0.478964657
    0.305974275    0.520259917    0.000000038
    0.972640872    0.186926559    0.095792964
    0.639307559    0.853593290    0.191585883
    0.305973947    0.520259738    0.287378848
    0.972640634    0.186926365    0.383171767
    0.067878664    0.567878842    0.478964686
    0.734545708    0.234545663    0.000000055
    0.401212305    0.901212275    0.095792972
    0.067878962    0.567879021    0.191585883
    0.734545350    0.234545469    0.287378848
    0.401211977    0.901212096    0.383171767
    0.496450067    0.282164574    0.478964686
    0.163117126    0.948831439    0.000000067
    0.829783738    0.615498066    0.095792994
    0.496450365    0.282164752    0.191585883
    0.163116753    0.948831201    0.287378877
    0.829783440    0.615497947    0.383171767
    0.925021529    0.996450305    0.478964627
    0.591688514    0.663117111    0.000000000
    0.258355111    0.329783708    0.095792942
    0.925021768    0.996450424    0.191585854
    0.591688156    0.663116932    0.287378788
    0.258354783    0.329783618    0.383171707
    0.353592992    0.710735917    0.478964657
    0.020260066    0.377402812    0.000000038
    0.686926663    0.044069428    0.095792957
    0.353593349    0.710736156    0.191585869
    0.020259738    0.377402604    0.287378848
    0.686926365    0.044069290    0.383171767
    0.210735798    0.139307380    0.478964657
    0.877402842    0.805974245    0.000000063
    0.544069409    0.472640872    0.095792972
    0.210736111    0.139307573    0.191585898
    0.877402484    0.805974007    0.287378877
    0.544069171    0.472640693    0.383171767
    0.472640753    0.686926603    0.455016464
    0.805974185    0.020259941    0.071844757
    0.472640872    0.686926603    0.167637676
    0.139307261    0.353593171    0.263430655
    0.805974007    0.020259857    0.359223545
    0.901211977    0.401212215    0.455016434
    0.234545603    0.734545708    0.071844757
    0.901212275    0.401212335    0.167637676
    0.567878723    0.067878902    0.263430655
    0.234545350    0.734545588    0.359223545
    0.758354783    0.829783678    0.455016464
    0.091688506    0.163117155    0.071844734
    0.758355081    0.829783797    0.167637676
    0.425021708    0.496450424    0.263430625
    0.091688156    0.163116992    0.359223545
    0.186926186    0.544069409    0.455016464
    0.520259857    0.877402842    0.071844742
    0.186926484    0.544069409    0.167637676
    0.853593111    0.210736156    0.263430625
    0.520259619    0.877402663    0.359223515
    0.615497708    0.258354962    0.455016464
    0.948831379    0.591688395    0.071844757
    0.615498006    0.258355170    0.167637676
    0.282164454    0.925021648    0.263430655
    0.948831081    0.591688395    0.359223515
    0.044069111    0.972640872    0.455016434
    0.377402753    0.305974215    0.071844749
    0.044069450    0.972640932    0.167637646
    0.710735917    0.639307380    0.263430655
    0.377402544    0.305974126    0.359223515
    0.329783499    0.115497887    0.455016464
    0.663117051    0.448831290    0.071844794
    0.329783708    0.115498021    0.167637691
    0.996450186    0.782164574    0.263430655
    0.663116813    0.448831201    0.359223545
    0.425021768    0.496450424    0.478964627
    0.091688566    0.163117170    0.000000058
    0.758355200    0.829783857    0.095792972
    0.425021768    0.496450424    0.191585928
    0.091688216    0.163116992    0.287378848
    0.758354783    0.829783559    0.383171797
    0.710735917    0.639307499    0.478964657
    0.377402872    0.305974305    0.000000061
    0.044069469    0.972640991    0.095792972
    0.710736036    0.639307559    0.191585928
    0.377402484    0.305974066    0.287378877
    0.044069171    0.972640753    0.383171797
    0.567878842    0.067879021    0.478964657
    0.234545738    0.734545708    0.000000040
    0.901212335    0.401212364    0.095792964
    0.567878902    0.067878962    0.191585913
    0.234545350    0.734545469    0.287378877
    0.901211977    0.401212096    0.383171797
    0.996450186    0.782164693    0.478964627
    0.663117111    0.448831439    0.000000057
    0.329783708    0.115498096    0.095792964
    0.996450245    0.782164693    0.191585913
    0.663116753    0.448831201    0.287378877
    0.329783380    0.115497828    0.383171797
    0.853592992    0.210736096    0.478964627
    0.520259917    0.877402782    0.000000027
    0.186926529    0.544069469    0.095792949
    0.853593111    0.210736051    0.191585883
    0.520259559    0.877402604    0.287378877
    0.186926246    0.544069290    0.383171767
    0.282164335    0.925021768    0.478964657
    0.948831320    0.591688454    0.000000053
    0.615498006    0.258355141    0.095792994
    0.282164514    0.925021768    0.191585928
    0.948830962    0.591688275    0.287378877
    0.615497589    0.258354962    0.383171797
    0.139307320    0.353593349    0.478964686
    0.805974245    0.020260081    0.000000082
    0.472640902    0.686926723    0.095792994
    0.139307454    0.353593349    0.191585928
    0.805973887    0.020259798    0.287378907
    0.472640514    0.686926484    0.383171797
    0.810281634    0.681818187    0.575390458
    0.143615007    0.681818187    0.721249878
    0.476948380    0.681818187    0.867109299
    0.476948231    0.348484874    0.575390458
    0.810281634    0.348484874    0.721249878
    0.143615127    0.348484874    0.867109299
    0.143614903    0.015151516    0.575390458
    0.476948261    0.015151516    0.721249878
    0.810281754    0.015151516    0.867109299
    0.143614888    0.681818187    0.611855268
    0.476948380    0.681818187    0.757714748
    0.810281754    0.681818187    0.903574109
    0.810281575    0.348484874    0.611855268
    0.143615007    0.348484874    0.757714689
    0.476948500    0.348484874    0.903574109
    0.476948291    0.015151516    0.611855268
    0.810281634    0.015151516    0.757714748
    0.143615127    0.015151516    0.903574169
    0.476948291    0.848484814    0.575390518
    0.810281634    0.848484814    0.721249878
    0.143615127    0.848484814    0.867109299
    0.143614903    0.515151501    0.575390458
    0.476948291    0.515151501    0.721249878
    0.810281694    0.515151501    0.867109299
    0.810281634    0.181818172    0.575390458
    0.143614888    0.181818172    0.721249878
    0.476948380    0.181818172    0.867109299
    0.810281634    0.848484814    0.611855268
    0.143614888    0.848484814    0.757714689
    0.476948380    0.848484814    0.903574109
    0.476948291    0.515151501    0.611855268
    0.810281754    0.515151501    0.757714748
    0.143615127    0.515151501    0.903574109
    0.143614888    0.181818157    0.611855268
    0.476948261    0.181818157    0.757714689
    0.810281754    0.181818157    0.903574109
    0.310281575    0.681818187    0.575390458
    0.643614948    0.681818187    0.721249878
    0.976948440    0.681818187    0.867109299
    0.976948321    0.348484874    0.575390458
    0.310281634    0.348484874    0.721249878
    0.643615007    0.348484874    0.867109239
    0.643614888    0.015151516    0.575390458
    0.976948321    0.015151516    0.721249878
    0.310281754    0.015151516    0.867109299
    0.643614888    0.681818247    0.611855209
    0.976948380    0.681818247    0.757714689
    0.310281754    0.681818247    0.903574049
    0.310281515    0.348484814    0.611855268
    0.643614948    0.348484814    0.757714689
    0.976948321    0.348484814    0.903574049
    0.976948261    0.015151501    0.611855209
    0.310281754    0.015151501    0.757714689
    0.643615127    0.015151501    0.903574049
    0.976948321    0.848484874    0.575390518
    0.310281634    0.848484874    0.721249878
    0.643615127    0.848484874    0.867109239
    0.643614948    0.515151501    0.575390458
    0.976948261    0.515151501    0.721249878
    0.310281754    0.515151501    0.867109299
    0.310281575    0.181818187    0.575390458
    0.643614948    0.181818187    0.721249878
    0.976948380    0.181818187    0.867109299
    0.310281515    0.848484933    0.611855268
    0.643614888    0.848484933    0.757714689
    0.976948321    0.848484933    0.903574169
    0.976948261    0.515151560    0.611855268
    0.310281634    0.515151560    0.757714689
    0.643615127    0.515151560    0.903574109
    0.643614888    0.181818172    0.611855268
    0.976948261    0.181818172    0.757714689
    0.310281754    0.181818172    0.903574169
