Sn+Si
    1.000000000
   19.467599869    0.000000000    0.000000000
    0.000000000   19.467599869    0.000000000
    0.000000000    0.000000000   19.300252914
Sn  Si 
108     156
Direct
    0.896566927    0.014831781    0.886011779
    0.915797710    0.918677926    0.815662920
    0.531182528    0.841754675    0.534267545
    0.995035112    0.333333343    0.000000000
    0.627336025    0.360985577    0.886011779
    0.661701739    0.333333343    0.336223543
    0.088874578    0.053293228    0.886011779
    0.828368425    0.000000000    0.168111786
    0.915797889    0.918677747    0.534267545
    0.550413132    0.745600939    0.886011779
    0.161701739    0.666666687    0.168111786
    0.995035112    0.666666687    0.336223543
    0.050413132    0.245601088    0.886011779
    0.161701739    0.333333343    0.168111786
    0.995035112    0.333333343    0.336223543
    0.328368455    0.000000000    0.000000000
    0.161701739    0.000000000    0.168111786
    0.995035112    0.000000000    0.336223543
    0.661701798    0.666666687    0.000000000
    0.495035112    0.666666687    0.168111786
    0.328368455    0.666666687    0.336223543
    0.661701798    0.333333343    0.000000000
    0.495035112    0.333333343    0.168111786
    0.328368455    0.333333343    0.336223543
    0.661701798    0.000000000    0.000000000
    0.588874578    0.553293228    0.886011779
    0.328368455    0.000000000    0.336223543
    0.078368433    0.916666746    0.084055893
    0.911701798    0.916666746    0.252167612
    0.646567225    0.264831573    0.534267545
    0.242720723    0.284062535    0.886011779
    0.911701798    0.583333433    0.252167612
    0.745035052    0.583333433    0.420279443
    0.078368433    0.250000000    0.084055893
    0.911701798    0.250000000    0.252167612
    0.838874817    0.303293169    0.534267545
    0.411701769    0.916666746    0.084055893
    0.245035097    0.916666746    0.252167612
    0.300413370    0.995600879    0.534267545
    0.281182289    0.091754913    0.886011779
    0.245035097    0.583333433    0.252167612
    0.800413370    0.495600790    0.534267545
    0.411701769    0.250000000    0.084055893
    0.338874817    0.803293049    0.534267545
    0.078368381    0.250000000    0.420279443
    0.704259157    0.976370156    0.886011779
    0.665797949    0.168677732    0.604616404
    0.411701798    0.916666746    0.420279443
    0.745035172    0.583333433    0.084055893
    0.377336383    0.610985518    0.534267545
    0.411701798    0.583333433    0.420279443
    0.665797710    0.168677837    0.886011779
    0.578368545    0.250000000    0.252167612
    0.411701798    0.250000000    0.420279443
    0.161701769    0.833333313    0.000000000
    0.995035052    0.833333313    0.168111786
    0.992720962    0.534062386    0.534267545
    0.935028434    0.822524071    0.886011779
    0.473490000    0.130216390    0.886011779
    0.828368425    0.500000000    0.336223543
    0.161701769    0.166666672    0.000000000
    0.995035052    0.166666672    0.168111786
    0.828368425    0.166666672    0.336223543
    0.495035112    0.833333313    0.000000000
    0.819643855    0.399447054    0.886011779
    0.031182528    0.341754675    0.534267545
    0.495035112    0.500000000    0.000000000
    0.396567106    0.514831722    0.886011779
    0.161701754    0.500000000    0.336223543
    0.495035112    0.166666672    0.000000000
    0.328368425    0.166666672    0.168111786
    0.161701754    0.166666672    0.336223543
    0.828368545    0.833333313    0.000000000
    0.011951566    0.437908620    0.886011779
    0.495035201    0.833333313    0.336223543
    0.531182289    0.841754854    0.815662920
    0.661701858    0.500000000    0.168111786
    0.415797949    0.418677777    0.534267545
    0.828368545    0.166666672    0.000000000
    0.661701858    0.166666672    0.168111786
    0.454259396    0.226370066    0.534267545
    0.245035097    0.750000060    0.084055893
    0.146567106    0.764831662    0.534267545
    0.685028672    0.072524071    0.534267545
    0.245035097    0.416666716    0.084055893
    0.078368433    0.416666716    0.252167612
    0.911701739    0.416666716    0.420279443
    0.245035097    0.083333343    0.084055893
    0.569643974    0.649446964    0.534267545
    0.911701739    0.083333343    0.420279443
    0.578368485    0.750000060    0.084055893
    0.411701858    0.750000060    0.252167612
    0.245035127    0.750000060    0.420279443
    0.578368485    0.416666716    0.084055893
    0.411701858    0.416666716    0.252167612
    0.245035127    0.416666716    0.420279443
    0.578368485    0.083333343    0.084055893
    0.761951804    0.687908590    0.534267545
    0.245035127    0.083333343    0.420279443
    0.165797710    0.668677926    0.886011779
    0.223490238    0.380216241    0.534267545
    0.281182528    0.091754794    0.604616404
    0.781182289    0.591754794    0.886011779
    0.745035052    0.416666716    0.252167612
    0.578368366    0.416666716    0.420279443
    0.911701739    0.083333343    0.084055893
    0.745035052    0.083333343    0.252167612
    0.578368366    0.083333343    0.420279443
    0.745035052    0.916666746    0.420279443
    0.531182528    0.341754705    0.674965203
    0.415797830    0.418677866    0.815662920
    0.078368381    0.583333433    0.420279443
    0.685028672    0.572523892    0.674965203
    0.569643974    0.649447024    0.815662920
    0.261951804    0.187908500    0.534267545
    0.146567106    0.264831632    0.674965203
    0.031182408    0.341754764    0.815662920
    0.495035201    0.500000000    0.336223543
    0.300413251    0.495600909    0.674965203
    0.185028553    0.572524011    0.815662920
    0.078368433    0.083333343    0.252167612
    0.454259396    0.726370096    0.674965203
    0.338874578    0.803293228    0.815662920
    0.723490238    0.880216300    0.534267545
    0.608105421    0.957139432    0.674965203
    0.492720842    0.034062624    0.815662920
    0.877336264    0.110985406    0.534267545
    0.761951685    0.187908530    0.674965203
    0.646566868    0.264831662    0.815662920
    0.161701754    0.833333313    0.336223543
    0.915797830    0.418677807    0.674965203
    0.800413132    0.495600939    0.815662920
    0.185028672    0.572523952    0.534267545
    0.069643974    0.649447024    0.674965203
    0.954259276    0.726370156    0.815662920
    0.245035097    0.250000000    0.252167612
    0.223490119    0.880216181    0.674965203
    0.108105421    0.957139313    0.815662920
    0.492720962    0.034062505    0.534267545
    0.377336264    0.110985540    0.674965203
    0.261951566    0.187908679    0.815662920
    0.954259396    0.726370037    0.534267545
    0.838874698    0.803293169    0.674965203
    0.723490000    0.880216360    0.815662920
    0.108105659    0.957139254    0.534267545
    0.992720902    0.034062386    0.674965203
    0.877336144    0.110985540    0.815662920
    0.858105540    0.207139283    0.604616404
    0.742720842    0.284062415    0.745314062
    0.828368425    0.333333343    0.168111786
    0.473490238    0.130216271    0.604616404
    0.358105540    0.207139403    0.745314062
    0.078368433    0.583333433    0.084055893
    0.627336502    0.360985428    0.604616404
    0.511951685    0.437908590    0.745314062
    0.328368425    0.500000000    0.168111786
    0.781182528    0.591754675    0.604616404
    0.665797830    0.668677807    0.745314062
    0.328368455    0.666666687    0.000000000
    0.242720962    0.284062356    0.604616404
    0.127336264    0.360985488    0.745314062
    0.661701858    0.833333313    0.168111786
    0.396567106    0.514831662    0.604616404
    0.281182408    0.591754794    0.745314062
    0.911701739    0.750000060    0.084055893
    0.550413251    0.745600820    0.604616404
    0.435028553    0.822523952    0.745314062
    0.319643855    0.899447083    0.886011779
    0.704259396    0.976370096    0.604616404
    0.588874698    0.053293228    0.745314062
    0.995035052    0.500000000    0.168111786
    0.011951685    0.437908530    0.604616404
    0.896567047    0.514831603    0.745314062
    0.911701739    0.416666716    0.084055893
    0.165797830    0.668677807    0.604616404
    0.050413132    0.745600879    0.745314062
    0.161701769    0.500000000    0.000000000
    0.319643974    0.899446964    0.604616404
    0.204259276    0.976370096    0.745314062
    0.995035112    0.000000000    0.000000000
    0.935028613    0.822523892    0.604616404
    0.819643974    0.899447083    0.745314062
    0.745035172    0.916666746    0.084055893
    0.088874817    0.053293109    0.604616404
    0.973490059    0.130216271    0.745314062
    0.858105421    0.207139403    0.886011779
    0.745035052    0.250000000    0.420279443
    0.723490119    0.380216300    0.674965203
    0.608105421    0.457139462    0.815662920
    0.495035201    0.166666672    0.336223543
    0.338874698    0.303293198    0.674965203
    0.223490000    0.380216330    0.815662920
    0.608105659    0.457139373    0.534267545
    0.492720842    0.534062505    0.674965203
    0.377336264    0.610985637    0.815662920
    0.411701858    0.083333343    0.252167612
    0.646567106    0.764831722    0.674965203
    0.828368545    0.500000000    0.000000000
    0.069644094    0.149446964    0.534267545
    0.954259396    0.226370096    0.674965203
    0.838874578    0.303293228    0.815662920
    0.745035052    0.750000060    0.252167612
    0.108105540    0.457139373    0.674965203
    0.992720842    0.534062505    0.815662920
    0.578368545    0.583333433    0.252167612
    0.261951685    0.687908649    0.674965203
    0.146566987    0.764831781    0.815662920
    0.661701739    0.666666687    0.336223543
    0.415797710    0.918677807    0.674965203
    0.300413132    0.995600939    0.815662920
    0.911701739    0.750000060    0.420279443
    0.569643974    0.149447113    0.674965203
    0.454259276    0.226370245    0.815662920
    0.828368425    0.833333313    0.336223543
    0.877336264    0.610985518    0.674965203
    0.761951566    0.687908649    0.815662920
    0.078368433    0.750000060    0.252167612
    0.031182408    0.841754794    0.674965203
    0.828368425    0.666666687    0.168111786
    0.078368381    0.916666746    0.420279443
    0.185028553    0.072524071    0.674965203
    0.069643855    0.149447113    0.815662920
    0.661701739    0.000000000    0.336223543
    0.800413132    0.995600879    0.674965203
    0.685028434    0.072524071    0.815662920
    0.578368545    0.916666746    0.252167612
    0.550413251    0.245600879    0.745314062
    0.435028553    0.322524011    0.886011779
    0.819643974    0.399446964    0.604616404
    0.704259276    0.476370126    0.745314062
    0.495035112    0.000000000    0.168111786
    0.435028791    0.322523892    0.604616404
    0.319643974    0.399447024    0.745314062
    0.204259276    0.476370186    0.886011779
    0.588874936    0.553293109    0.604616404
    0.473490238    0.630216241    0.745314062
    0.358105540    0.707139373    0.886011779
    0.742721081    0.784062386    0.604616404
    0.627336502    0.860985518    0.745314062
    0.511951685    0.937908649    0.886011779
    0.050413251    0.245600760    0.604616404
    0.935028553    0.322523892    0.745314062
    0.328368425    0.833333313    0.168111786
    0.204259396    0.476370066    0.604616404
    0.088874817    0.553293169    0.745314062
    0.973490059    0.630216300    0.886011779
    0.358105659    0.707139254    0.604616404
    0.242720842    0.784062386    0.745314062
    0.127336144    0.860985518    0.886011779
    0.511951804    0.937908590    0.604616404
    0.396567106    0.014831781    0.745314062
    0.411701769    0.583333433    0.084055893
    0.973490179    0.630216181    0.604616404
    0.858105421    0.707139313    0.745314062
    0.742720723    0.784062445    0.886011779
    0.127336383    0.860985398    0.604616404
    0.011951685    0.937908530    0.745314062
    0.995035112    0.666666687    0.000000000
    0.578368366    0.750000060    0.420279443
    0.165797830    0.168677956    0.745314062
    0.328368455    0.333333343    0.000000000
    0.896567106    0.014831543    0.604616404
    0.781182289    0.091754794    0.745314062
    0.745035172    0.250000000    0.084055893
