Sn+Si
    1.000000000
   19.467599869    0.000000000    0.000000000
    0.000000000   19.467599869    0.000000000
    0.000000000    0.000000000   19.100252151
Sn  Si 
108     156
Direct
    0.669366360    0.560505331    0.890053868
    0.828368425    0.666666687    0.169872105
    0.661701739    0.666666687    0.339744180
    0.592443347    0.175889939    0.890053868
    0.227058768    0.848966956    0.818968296
    0.661701739    0.333333343    0.339744180
    0.995035112    0.000000000    0.000000000
    0.130904883    0.868197739    0.890053868
    0.661701739    0.000000000    0.339744180
    0.823212445    0.329736143    0.890053868
    0.161701739    0.666666687    0.169872105
    0.995035112    0.666666687    0.339744180
    0.328368455    0.333333343    0.000000000
    0.515520275    0.791274726    0.890053868
    0.995035112    0.333333343    0.339744180
    0.328368455    0.000000000    0.000000000
    0.361674100    0.022043705    0.890053868
    0.995035112    0.000000000    0.339744180
    0.661701798    0.666666687    0.000000000
    0.284750998    0.637428522    0.890053868
    0.328368455    0.666666687    0.339744180
    0.661701798    0.333333343    0.000000000
    0.707827985    0.752813041    0.890053868
    0.328368455    0.333333343    0.339744180
    0.784750998    0.137428433    0.890053868
    0.553981781    0.983582258    0.890053868
    0.328368455    0.000000000    0.339744180
    0.078368433    0.916666746    0.084936053
    0.911701798    0.916666746    0.254808098
    0.419366509    0.810505509    0.534626484
    0.078368433    0.583333433    0.084936053
    0.265520334    0.041274667    0.534626484
    0.342443436    0.425890148    0.534626484
    0.078368433    0.250000000    0.084936053
    0.111674175    0.272043973    0.534626484
    0.745035052    0.250000000    0.424680233
    0.411701769    0.916666746    0.084936053
    0.034751177    0.887428522    0.534626484
    0.573212683    0.579736233    0.534626484
    0.411701769    0.583333433    0.084936053
    0.457828104    0.002813220    0.534626484
    0.078368381    0.583333433    0.424680233
    0.411701769    0.250000000    0.084936053
    0.303981870    0.233582407    0.534626484
    0.078368381    0.250000000    0.424680233
    0.745035172    0.916666746    0.084936053
    0.578368545    0.916666746    0.254808098
    0.411701798    0.916666746    0.424680233
    0.745035172    0.583333433    0.084936053
    0.977058828    0.098967016    0.605711937
    0.411701798    0.583333433    0.424680233
    0.745035172    0.250000000    0.084936053
    0.880904973    0.118197799    0.534626484
    0.534751117    0.387428582    0.534626484
    0.161701769    0.833333313    0.000000000
    0.092443302    0.675890028    0.890053868
    0.828368425    0.833333313    0.339744180
    0.015520215    0.291274607    0.890053868
    0.900135577    0.714351535    0.890053868
    0.828368425    0.500000000    0.339744180
    0.207827926    0.252813071    0.890053868
    0.496289521    0.195120752    0.818968296
    0.828368425    0.166666672    0.339744180
    0.495035112    0.833333313    0.000000000
    0.328368425    0.833333313    0.169872105
    0.161701754    0.833333313    0.339744180
    0.495035112    0.500000000    0.000000000
    0.328368425    0.500000000    0.169872105
    0.161701754    0.500000000    0.339744180
    0.323212594    0.829736173    0.890053868
    0.328368425    0.166666672    0.169872105
    0.161701754    0.166666672    0.339744180
    0.828368545    0.833333313    0.000000000
    0.169366360    0.060505390    0.890053868
    0.495035201    0.833333313    0.339744180
    0.828368545    0.500000000    0.000000000
    0.661701858    0.500000000    0.169872105
    0.495035201    0.500000000    0.339744180
    0.828368545    0.166666672    0.000000000
    0.400135636    0.214351475    0.890053868
    0.495035201    0.166666672    0.339744180
    0.245035097    0.750000060    0.084936053
    0.078368433    0.750000060    0.254808098
    0.765520275    0.541274726    0.534626484
    0.245035097    0.416666716    0.084936053
    0.078368433    0.416666716    0.254808098
    0.957828045    0.502813220    0.534626484
    0.245035097    0.083333343    0.084936053
    0.078368433    0.083333343    0.254808098
    0.911701739    0.083333343    0.424680233
    0.578368485    0.750000060    0.084936053
    0.411701858    0.750000060    0.254808098
    0.245035127    0.750000060    0.424680233
    0.578368485    0.416666716    0.084936053
    0.150135711    0.464351684    0.534626484
    0.073212624    0.079736233    0.534626484
    0.578368485    0.083333343    0.084936053
    0.919366479    0.310505420    0.534626484
    0.245035127    0.083333343    0.424680233
    0.911701739    0.750000060    0.084936053
    0.650135696    0.964351594    0.534626484
    0.578368366    0.750000060    0.424680233
    0.911701739    0.416666716    0.084936053
    0.246289551    0.445120901    0.605711937
    0.578368366    0.416666716    0.424680233
    0.911701739    0.083333343    0.084936053
    0.842443466    0.925890088    0.534626484
    0.578368366    0.083333343    0.424680233
    0.245035127    0.416666716    0.424680233
    0.957827926    0.002813101    0.676797330
    0.842443287    0.925889969    0.818968296
    0.411701858    0.416666716    0.254808098
    0.034751058    0.387428522    0.676797330
    0.919366360    0.310505390    0.818968296
    0.245035097    0.250000000    0.254808098
    0.188597202    0.156659275    0.676797330
    0.073212504    0.079736114    0.818968296
    0.227058798    0.848967075    0.534626484
    0.111674115    0.772043943    0.676797330
    0.996289432    0.695120811    0.818968296
    0.380905002    0.618197799    0.534626484
    0.265520304    0.541274667    0.676797330
    0.150135651    0.464351535    0.818968296
    0.411701798    0.250000000    0.424680233
    0.419366449    0.310505420    0.676797330
    0.303981781    0.233582288    0.818968296
    0.688597262    0.156659335    0.534626484
    0.573212564    0.079736114    0.676797330
    0.457827955    0.002812982    0.818968296
    0.245035097    0.583333433    0.254808098
    0.342443436    0.925890148    0.676797330
    0.828368425    0.333333343    0.169872105
    0.611674190    0.772043943    0.534626484
    0.496289521    0.695120811    0.676797330
    0.380904853    0.618197680    0.818968296
    0.911701739    0.750000060    0.424680233
    0.650135636    0.464351594    0.676797330
    0.534750938    0.387428463    0.818968296
    0.411701858    0.083333343    0.254808098
    0.803981841    0.233582258    0.676797330
    0.688597143    0.156659126    0.818968296
    0.745035052    0.083333343    0.254808098
    0.727058828    0.848966956    0.676797330
    0.611674130    0.772043824    0.818968296
    0.996289611    0.695120871    0.534626484
    0.880904973    0.618197739    0.676797330
    0.765520275    0.541274607    0.818968296
    0.092443421    0.675890088    0.605711937
    0.977058768    0.598966956    0.747882783
    0.861674070    0.522043824    0.890053868
    0.745035052    0.416666716    0.254808098
    0.130904883    0.368197769    0.747882783
    0.161701769    0.500000000    0.000000000
    0.400135726    0.214351624    0.605711937
    0.284751028    0.137428492    0.747882783
    0.661701858    0.833333313    0.169872105
    0.169366479    0.060505509    0.605711937
    0.053981781    0.983582377    0.747882783
    0.938597083    0.906659245    0.890053868
    0.323212653    0.829736292    0.605711937
    0.207827985    0.752813160    0.747882783
    0.995035052    0.833333313    0.169872105
    0.477058858    0.598967075    0.605711937
    0.361674190    0.522043884    0.747882783
    0.246289521    0.445120782    0.890053868
    0.630904973    0.368197769    0.605711937
    0.515520275    0.291274607    0.747882783
    0.661701858    0.166666672    0.169872105
    0.784751117    0.137428522    0.605711937
    0.669366419    0.060505390    0.747882783
    0.495035112    0.000000000    0.169872105
    0.553981960    0.983582437    0.605711937
    0.438597292    0.906659305    0.747882783
    0.495035112    0.166666672    0.000000000
    0.707828104    0.752813220    0.605711937
    0.592443407    0.675890028    0.747882783
    0.477058738    0.598966897    0.890053868
    0.861674249    0.522043943    0.605711937
    0.746289551    0.445120782    0.747882783
    0.630904853    0.368197650    0.890053868
    0.015520453    0.291274726    0.605711937
    0.900135696    0.214351565    0.747882783
    0.661701798    0.000000000    0.000000000
    0.938597441    0.906659365    0.605711937
    0.823212743    0.829736233    0.747882783
    0.495035112    0.333333343    0.169872105
    0.911701798    0.250000000    0.254808098
    0.996289492    0.195120826    0.676797330
    0.880904794    0.118197694    0.818968296
    0.188597247    0.656659305    0.534626484
    0.073212624    0.579736233    0.676797330
    0.957827866    0.502813041    0.818968296
    0.745035052    0.583333433    0.424680233
    0.227058768    0.348967016    0.676797330
    0.111674078    0.272043884    0.818968296
    0.496289581    0.195120826    0.534626484
    0.380904913    0.118197694    0.676797330
    0.265520215    0.041274548    0.818968296
    0.911701798    0.583333433    0.254808098
    0.150135636    0.964351535    0.676797330
    0.034750938    0.887428463    0.818968296
    0.745035052    0.916666746    0.424680233
    0.303981811    0.733582377    0.676797330
    0.188597158    0.656659245    0.818968296
    0.078368381    0.916666746    0.424680233
    0.457828015    0.502813101    0.676797330
    0.342443317    0.425889969    0.818968296
    0.727058828    0.348967016    0.534626484
    0.611674190    0.272043884    0.676797330
    0.995035052    0.166666672    0.169872105
    0.578368545    0.250000000    0.254808098
    0.765520275    0.041274667    0.676797330
    0.650135636    0.964351535    0.818968296
    0.745035052    0.750000060    0.254808098
    0.534750998    0.887428522    0.676797330
    0.419366390    0.810505331    0.818968296
    0.803981900    0.733582377    0.534626484
    0.688597202    0.656659245    0.676797330
    0.573212504    0.579736054    0.818968296
    0.911701739    0.416666716    0.424680233
    0.842443407    0.425890088    0.676797330
    0.727058709    0.348966956    0.818968296
    0.245035097    0.916666746    0.254808098
    0.919366479    0.810505390    0.676797330
    0.803981841    0.733582258    0.818968296
    0.207828015    0.252813190    0.605711937
    0.092443354    0.175890058    0.747882783
    0.977058649    0.098966919    0.890053868
    0.130904928    0.868197858    0.605711937
    0.015520334    0.791274667    0.747882783
    0.995035052    0.500000000    0.169872105
    0.284751117    0.637428641    0.605711937
    0.169366449    0.560505450    0.747882783
    0.053981781    0.483582318    0.890053868
    0.438597292    0.406659365    0.605711937
    0.323212624    0.329736233    0.747882783
    0.161701769    0.166666672    0.000000000
    0.592443407    0.175890073    0.605711937
    0.477058798    0.098966949    0.747882783
    0.161701739    0.000000000    0.169872105
    0.361674249    0.022044063    0.605711937
    0.246289581    0.945120871    0.747882783
    0.828368425    0.000000000    0.169872105
    0.515520334    0.791274846    0.605711937
    0.400135666    0.714351654    0.747882783
    0.495035112    0.666666687    0.169872105
    0.669366539    0.560505509    0.605711937
    0.553981841    0.483582377    0.747882783
    0.438597202    0.406659245    0.890053868
    0.823212683    0.329736233    0.605711937
    0.707827985    0.252813101    0.747882783
    0.995035112    0.333333343    0.000000000
    0.578368545    0.583333433    0.254808098
    0.861674130    0.022043824    0.747882783
    0.746289492    0.945120752    0.890053868
    0.746289670    0.945120990    0.605711937
    0.630904973    0.868197858    0.747882783
    0.161701739    0.333333343    0.169872105
    0.900135815    0.714351654    0.605711937
    0.784751117    0.637428522    0.747882783
    0.995035112    0.666666687    0.000000000
    0.053981900    0.483582467    0.605711937
    0.938597143    0.406659305    0.747882783
    0.328368455    0.666666687    0.000000000
