Ge+Ge                                   
   1.00000000000000     
     8.0013380049999991    0.0000000000000000    0.0000000000000000
    -4.0006690029999996   12.0020065309999993    0.0000000000000000
     0.0000000000000000    0.0000000000000000   11.6117439269999991
   Ge
    48
Direct
  0.0056944889999997  0.9943054909999987  0.0000000000000000
  0.1723611950000006  0.8276388649999973  0.2436240319999996
  0.3390279110000023  0.6609721179999966  0.4872480929999981
  0.6723610760000014  0.3276388049999994  0.0000000000000000
  0.8390277620000006  0.1609721179999966  0.2436240319999996
  0.0056945090000013  0.9943054319999973  0.4872480929999981
  0.3390277620000006  0.6609721179999966  0.0000000000000000
  0.5056944490000035  0.4943054020000019  0.2436240319999996
  0.6723611950000006  0.3276387450000016  0.4872480929999981
  0.0890278370000033  0.1609721479999990  0.1218120159999998
  0.2556945680000027  0.9943054319999973  0.3654360769999982
  0.4223612839999973  0.8276387450000016  0.6090602279999970
  0.7556943889999985  0.4943054619999998  0.1218120159999998
  0.9223611950000006  0.3276388049999994  0.3654360769999982
  0.0890278820000034  0.1609720889999977  0.6090602279999970
  0.4223610459999989  0.8276388049999994  0.1218120159999998
  0.5890278219999985  0.6609721780000015  0.3654360769999982
  0.7556945090000013  0.4943054619999998  0.6090602279999970
  0.5056944490000035  0.9943054909999987  0.0000000000000000
  0.6723611350000027  0.8276388649999973  0.2436240319999996
  0.8390278820000034  0.6609721179999966  0.4872480929999981
  0.1723611210000016  0.3276388049999994  0.0000000000000000
  0.3390278520000010  0.1609721330000013  0.2436240319999996
  0.5056945680000027  0.9943054319999973  0.4872480929999981
  0.8390277620000006  0.6609721179999966  0.0000000000000000
  0.0056945090000013  0.4943054319999973  0.2436240319999996
  0.1723611350000027  0.3276387450000016  0.4872480929999981
  0.5890278219999985  0.1609721479999990  0.1218120159999998
  0.7556945680000027  0.9943054909999987  0.3654360769999982
  0.9223613139999998  0.8276388049999994  0.6090602279999970
  0.2556944789999989  0.4943054909999987  0.1218120159999998
  0.4223612549999984  0.3276388350000019  0.3654360769999982
  0.5890280010000026  0.1609721179999966  0.6090602279999970
  0.9223610760000014  0.8276388649999973  0.1218120159999998
  0.0890277620000006  0.6609721179999966  0.3654360769999982
  0.2556945090000013  0.4943054319999973  0.6090602279999970
  0.1539417509999979  0.7725698949999966  0.7030200359999981
  0.0428305860000009  0.0503476860000021  0.7842280859999988
  0.9317194220000005  0.3281254770000004  0.8654361370000032
  0.6539416910000000  0.7725698949999966  0.7030200359999981
  0.5428305269999996  0.0503476860000021  0.7842280859999988
  0.4317193629999991  0.3281254770000004  0.8654361370000032
  0.8483860489999984  0.6614587310000033  0.7436240910000009
  0.7372749450000029  0.9392365220000016  0.8248321410000017
  0.6261636609999996  0.2170143130000000  0.9060401919999990
  0.3483860489999984  0.6614587310000033  0.7436241509999988
  0.2372750039999971  0.9392365220000016  0.8248321410000017
  0.1261638399999967  0.2170143130000000  0.9060401919999990
 
  0.00000000E+00  0.00000000E+00  0.00000000E+00
  0.00000000E+00  0.00000000E+00  0.00000000E+00
  0.00000000E+00  0.00000000E+00  0.00000000E+00
  0.00000000E+00  0.00000000E+00  0.00000000E+00
  0.00000000E+00  0.00000000E+00  0.00000000E+00
  0.00000000E+00  0.00000000E+00  0.00000000E+00
  0.00000000E+00  0.00000000E+00  0.00000000E+00
  0.00000000E+00  0.00000000E+00  0.00000000E+00
  0.00000000E+00  0.00000000E+00  0.00000000E+00
  0.00000000E+00  0.00000000E+00  0.00000000E+00
  0.00000000E+00  0.00000000E+00  0.00000000E+00
  0.00000000E+00  0.00000000E+00  0.00000000E+00
  0.00000000E+00  0.00000000E+00  0.00000000E+00
  0.00000000E+00  0.00000000E+00  0.00000000E+00
  0.00000000E+00  0.00000000E+00  0.00000000E+00
  0.00000000E+00  0.00000000E+00  0.00000000E+00
  0.00000000E+00  0.00000000E+00  0.00000000E+00
  0.00000000E+00  0.00000000E+00  0.00000000E+00
  0.00000000E+00  0.00000000E+00  0.00000000E+00
  0.00000000E+00  0.00000000E+00  0.00000000E+00
  0.00000000E+00  0.00000000E+00  0.00000000E+00
  0.00000000E+00  0.00000000E+00  0.00000000E+00
  0.00000000E+00  0.00000000E+00  0.00000000E+00
  0.00000000E+00  0.00000000E+00  0.00000000E+00
  0.00000000E+00  0.00000000E+00  0.00000000E+00
  0.00000000E+00  0.00000000E+00  0.00000000E+00
  0.00000000E+00  0.00000000E+00  0.00000000E+00
  0.00000000E+00  0.00000000E+00  0.00000000E+00
  0.00000000E+00  0.00000000E+00  0.00000000E+00
  0.00000000E+00  0.00000000E+00  0.00000000E+00
  0.00000000E+00  0.00000000E+00  0.00000000E+00
  0.00000000E+00  0.00000000E+00  0.00000000E+00
  0.00000000E+00  0.00000000E+00  0.00000000E+00
  0.00000000E+00  0.00000000E+00  0.00000000E+00
  0.00000000E+00  0.00000000E+00  0.00000000E+00
  0.00000000E+00  0.00000000E+00  0.00000000E+00
  0.00000000E+00  0.00000000E+00  0.00000000E+00
  0.00000000E+00  0.00000000E+00  0.00000000E+00
  0.00000000E+00  0.00000000E+00  0.00000000E+00
  0.00000000E+00  0.00000000E+00  0.00000000E+00
  0.00000000E+00  0.00000000E+00  0.00000000E+00
  0.00000000E+00  0.00000000E+00  0.00000000E+00
  0.00000000E+00  0.00000000E+00  0.00000000E+00
  0.00000000E+00  0.00000000E+00  0.00000000E+00
  0.00000000E+00  0.00000000E+00  0.00000000E+00
  0.00000000E+00  0.00000000E+00  0.00000000E+00
  0.00000000E+00  0.00000000E+00  0.00000000E+00
  0.00000000E+00  0.00000000E+00  0.00000000E+00
