Ge+Ge
    1.000000000
    8.001338005    0.000000000    0.000000000
   -4.000669003   12.002006531    0.000000000
    0.000000000    0.000000000   11.611743927
Ge 
48
Direct
    0.005694489    0.994305491    0.000000000
    0.172361195    0.827638865    0.243624032
    0.339027911    0.660972118    0.487248093
    0.672361076    0.327638805    0.000000000
    0.839027762    0.160972118    0.243624032
    0.005694509    0.994305432    0.487248093
    0.339027762    0.660972118    0.000000000
    0.505694449    0.494305402    0.243624032
    0.672361195    0.327638745    0.487248093
    0.089027837    0.160972148    0.121812016
    0.255694568    0.994305432    0.365436077
    0.422361284    0.827638745    0.609060228
    0.755694389    0.494305462    0.121812016
    0.922361195    0.327638805    0.365436077
    0.089027882    0.160972089    0.609060228
    0.422361046    0.827638805    0.121812016
    0.589027822    0.660972178    0.365436077
    0.755694509    0.494305462    0.609060228
    0.505694449    0.994305491    0.000000000
    0.672361135    0.827638865    0.243624032
    0.839027882    0.660972118    0.487248093
    0.172361121    0.327638805    0.000000000
    0.339027852    0.160972133    0.243624032
    0.505694568    0.994305432    0.487248093
    0.839027762    0.660972118    0.000000000
    0.005694509    0.494305432    0.243624032
    0.172361135    0.327638745    0.487248093
    0.589027822    0.160972148    0.121812016
    0.755694568    0.994305491    0.365436077
    0.922361314    0.827638805    0.609060228
    0.255694479    0.494305491    0.121812016
    0.422361255    0.327638835    0.365436077
    0.589028001    0.160972118    0.609060228
    0.922361076    0.827638865    0.121812016
    0.089027762    0.660972118    0.365436077
    0.255694509    0.494305432    0.609060228
    0.153941751    0.772569895    0.703020036
    0.042830586    0.050347686    0.784228086
    0.931719422    0.328125477    0.865436137
    0.653941691    0.772569895    0.703020036
    0.542830527    0.050347686    0.784228086
    0.431719363    0.328125477    0.865436137
    0.848386049    0.661458731    0.743624091
    0.737274945    0.939236522    0.824832141
    0.626163661    0.217014313    0.906040192
    0.348386049    0.661458731    0.743624151
    0.237275004    0.939236522    0.824832141
    0.126163840    0.217014313    0.906040192
