Ge+Ge
    1.000000000
   12.651226044    0.000000000    0.000000000
    2.530245304   12.395620346    0.000000000
    0.000000000    0.000000000   11.548944473
Ge 
96
Direct
    0.784256577    0.489798665    0.500000060
    0.992590368    0.948132515    0.000000027
    0.950923562    0.656465769    0.100000039
    0.909256816    0.364798903    0.200000063
    0.867590070    0.073132217    0.300000042
    0.825923324    0.781465530    0.399999976
    0.284256607    0.989798784    0.500000060
    0.492590368    0.448132515    0.000000033
    0.450923622    0.156465769    0.100000039
    0.409256876    0.864798963    0.200000063
    0.367590129    0.573132277    0.300000042
    0.325923383    0.281465530    0.400000036
    0.159256637    0.364798784    0.500000060
    0.367590398    0.823132634    0.000000014
    0.325923622    0.531465828    0.100000039
    0.284256876    0.239799008    0.200000092
    0.242590174    0.948132396    0.300000012
    0.200923383    0.656465650    0.400000036
    0.659256577    0.864798665    0.500000060
    0.867590487    0.323132575    0.000000014
    0.825923681    0.031465776    0.100000039
    0.784256876    0.739798903    0.200000063
    0.742590129    0.448132336    0.300000012
    0.700923383    0.156465530    0.399999976
    0.034256559    0.239798784    0.500000060
    0.242590353    0.698132634    0.000000000
    0.200923592    0.406465799    0.100000031
    0.159256846    0.114798956    0.200000063
    0.117590085    0.823132396    0.300000012
    0.075923339    0.531465530    0.399999976
    0.534256697    0.739798665    0.500000060
    0.742590427    0.198132515    0.000000026
    0.700923622    0.906465709    0.100000046
    0.659256876    0.614798903    0.200000063
    0.617590249    0.323132336    0.300000042
    0.575923443    0.031465471    0.399999976
    0.909256577    0.614798784    0.500000060
    0.117590360    0.073132515    0.000000026
    0.075923599    0.781465769    0.100000039
    0.034256846    0.489798963    0.200000063
    0.992590070    0.198132217    0.300000042
    0.950923383    0.906465530    0.400000036
    0.409256607    0.114798844    0.500000060
    0.617590487    0.573132575    0.000000014
    0.575923622    0.281465828    0.100000031
    0.534256935    0.989799023    0.200000092
    0.492590189    0.698132277    0.300000072
    0.450923443    0.406465530    0.400000066
    0.489798665    0.784256577    1.000000238
    0.948132515    0.992590368    0.500000060
    0.656465650    0.950923562    0.600000083
    0.364798963    0.909256816    0.700000107
    0.073132217    0.867590070    0.800000131
    0.781465530    0.825923324    0.900000155
    0.989798665    0.284256607    1.000000238
    0.448132515    0.492590368    0.500000060
    0.156465724    0.450923592    0.600000083
    0.864799023    0.409256905    0.700000107
    0.573132277    0.367590129    0.800000131
    0.281465471    0.325923383    0.900000155
    0.364798784    0.159256652    1.000000238
    0.823132634    0.367590398    0.500000060
    0.531465828    0.325923622    0.600000083
    0.239799067    0.284256905    0.700000107
    0.948132396    0.242590174    0.800000131
    0.656465650    0.200923398    0.900000155
    0.864798665    0.659256637    1.000000119
    0.323132575    0.867590487    0.500000060
    0.031465776    0.825923681    0.600000083
    0.739799023    0.784256876    0.700000107
    0.448132336    0.742590189    0.800000131
    0.156465530    0.700923383    0.900000155
    0.239798725    0.034256589    1.000000238
    0.698132575    0.242590368    0.500000060
    0.406465799    0.200923592    0.600000083
    0.114799030    0.159256846    0.700000107
    0.823132336    0.117590100    0.800000072
    0.531465530    0.075923353    0.900000036
    0.739798665    0.534256697    1.000000238
    0.198132515    0.742590427    0.500000060
    0.906465709    0.700923681    0.600000083
    0.614798963    0.659256876    0.700000107
    0.323132277    0.617590249    0.800000131
    0.031465471    0.575923443    0.900000155
    0.614798665    0.909256577    1.000000238
    0.073132515    0.117590360    0.500000060
    0.781465709    0.075923607    0.600000083
    0.489799023    0.034256872    0.700000107
    0.198132217    0.992590129    0.800000072
    0.906465530    0.950923383    0.900000155
    0.114798784    0.409256697    1.000000238
    0.573132575    0.617590487    0.500000060
    0.281465769    0.575923622    0.600000083
    0.989799082    0.534256935    0.700000107
    0.698132277    0.492590189    0.800000131
    0.406465530    0.450923443    0.900000155
