Si+C                                    
   1.00000000000000     
    13.3031797409999992    0.0000000000000000    0.0000000000000000
    -6.6515893940000002   14.8734064099999994    0.0000000000000000
     0.0000000000000000    0.0000000000000000    7.9947485919999997
   Si   C 
    36    84
Direct
  0.0170943480000005  0.9914528130000022  0.0000000000000000
  0.2170944510000012  0.8914527299999975  0.1519008280000023
  0.4170945580000023  0.7914526460000033  0.3038016559999974
  0.0170943480000005  0.3247861270000030  0.0000000000000000
  0.2170944510000012  0.2247860430000017  0.1519008280000023
  0.4170945580000023  0.1247859449999993  0.3038016559999974
  0.0170943480000005  0.6581194999999980  0.0000000000000000
  0.2170944510000012  0.5581193570000025  0.1519008280000023
  0.4170945580000023  0.4581192429999987  0.3038016559999974
  0.3670942780000033  0.1914527859999993  0.0759502650000030
  0.5670943860000008  0.0914526950000010  0.2278511230000007
  0.7670944930000019  0.9914526339999981  0.3797519800000018
  0.3670942780000033  0.5247860549999999  0.0759502650000030
  0.5670943860000008  0.4247860010000011  0.2278511230000007
  0.7670944930000019  0.3247859180000034  0.3797519800000018
  0.3670942780000033  0.8581194280000020  0.0759502650000030
  0.5670943860000008  0.7581192259999980  0.2278511230000007
  0.7670944930000019  0.6581192020000017  0.3797519800000018
  0.5170943740000027  0.9914528130000022  0.0000000040000003
  0.7170944209999988  0.8914526699999996  0.1519008129999975
  0.9170945290000034  0.7914525870000020  0.3038016559999974
  0.5170943740000027  0.3247861270000030  0.0000000040000003
  0.7170944209999988  0.2247860129999992  0.1519008129999975
  0.9170945290000034  0.1247859220000009  0.3038016559999974
  0.5170943740000027  0.6581193800000023  0.0000000040000003
  0.7170944209999988  0.5581192969999975  0.1519008129999975
  0.9170945290000034  0.4581192429999987  0.3038016559999974
  0.8670942780000033  0.1914528009999970  0.0759502720000000
  0.0670944450000022  0.0914527250000035  0.2278511379999983
  0.2670943740000027  0.9914526339999981  0.3797519210000004
  0.8670942780000033  0.5247861149999977  0.0759502720000000
  0.0670944450000022  0.4247860010000011  0.2278511379999983
  0.2670943740000027  0.3247859180000034  0.3797519210000004
  0.8670942780000033  0.8581194879999998  0.0759502720000000
  0.0670944450000022  0.7581193449999972  0.2278511379999983
  0.2670943740000027  0.6581192610000031  0.3797519210000004
  0.4474813940000004  0.8518029450000029  0.7646964790000013
  0.8189097639999972  0.8803744909999978  0.5651752349999981
  0.1331956390000002  0.8660888080000007  0.6649358869999986
  0.5903384690000024  0.7089457510000017  0.7646965380000026
  0.9617668389999992  0.7375173570000015  0.5651752349999981
  0.2760527129999986  0.7232315540000016  0.6649358869999986
  0.7331955430000008  0.5660886759999997  0.7646964790000013
  0.1046240330000003  0.5946602229999982  0.5651752349999981
  0.4189097880000006  0.5803744789999996  0.6649358869999986
  0.8760527370000020  0.4232315420000035  0.7646964790000013
  0.2474812270000015  0.4518030879999984  0.5651752349999981
  0.5617671010000009  0.4375172849999984  0.6649358869999986
  0.0189098119999969  0.2803744080000001  0.7646964790000013
  0.3903384210000027  0.3089459540000021  0.5651752349999981
  0.7046241760000029  0.2946602110000001  0.6649358869999986
  0.1617670059999980  0.1375172440000014  0.7646964790000013
  0.5331954959999976  0.1660888340000000  0.5651752349999981
  0.8474812509999978  0.1518030459999977  0.6649358869999986
  0.3046241999999992  0.9946600789999991  0.7646964790000013
  0.6760526300000009  0.0232316259999976  0.5651752349999981
  0.9903384449999990  0.0089459419999969  0.6649358869999986
  0.9974812270000015  0.9518029689999992  0.8145766259999974
  0.3689095969999983  0.9803745150000012  0.6150555010000005
  0.6831954720000013  0.9660887719999991  0.7148161530000010
  0.1403383020000035  0.8089457749999980  0.8145766849999987
  0.5117666720000003  0.8375173210000000  0.6150555010000005
  0.8260524270000005  0.8232315180000001  0.7148160930000031
  0.2831956149999968  0.6660887000000031  0.8145766849999987
  0.6546239850000006  0.6946601869999967  0.6150555010000005
  0.9689098599999966  0.6803745030000030  0.7148160930000031
  0.4260526899999988  0.5232316259999976  0.8145766849999987
  0.7974810600000026  0.5518031120000018  0.6150555010000005
  0.1117669340000020  0.5375173689999997  0.7148160930000031
  0.5689096449999980  0.3803744319999964  0.8145766849999987
  0.9403381349999975  0.4089459779999984  0.6150555010000005
  0.2546238899999977  0.3946602339999998  0.7148161530000010
  0.7117669579999983  0.2375172530000000  0.8145766849999987
  0.0831954479999979  0.2660888429999986  0.6150555010000005
  0.3974812029999981  0.2518030410000023  0.7148161530000010
  0.8546241519999995  0.0946601549999997  0.8145766849999987
  0.2260525229999999  0.1232316939999976  0.6150555010000005
  0.5403382780000001  0.1089459290000008  0.7148161530000010
  0.9474813940000004  0.8518029450000029  0.7646965380000026
  0.3189098830000034  0.8803746099999969  0.5651752349999981
  0.6331956390000002  0.8660887480000028  0.6649358869999986
  0.0903385880000016  0.7089457510000017  0.7646965380000026
  0.4617670769999975  0.7375174160000029  0.5651752349999981
  0.7760527129999986  0.7232315540000016  0.6649358869999986
  0.2331957820000028  0.5660886169999984  0.7646965380000026
  0.6046241519999995  0.5946602819999995  0.5651752349999981
  0.9189099069999997  0.5803744789999996  0.6649358869999986
  0.3760528560000012  0.4232316020000013  0.7646965380000026
  0.7474812270000015  0.4518031480000033  0.5651752349999981
  0.0617671010000009  0.4375173450000034  0.6649358869999986
  0.5189099310000032  0.2803743480000023  0.7646964790000013
  0.8903383609999977  0.3089459540000021  0.5651752349999981
  0.2046241760000029  0.2946601510000022  0.6649358869999986
  0.6617670059999980  0.1375172440000014  0.7646964790000013
  0.0331954959999976  0.1660888050000011  0.5651752349999981
  0.3474812509999978  0.1518030319999966  0.6649358869999986
  0.8046241999999992  0.9946600789999991  0.7646964790000013
  0.1760525700000031  0.0232317449999968  0.5651752349999981
  0.4903384449999990  0.0089459419999969  0.6649358869999986
  0.4974811080000023  0.9518029689999992  0.8145766849999987
  0.8689096570000032  0.9803745150000012  0.6150555010000005
  0.1831953530000021  0.9660887120000012  0.7148161530000010
  0.6403381820000007  0.8089458939999972  0.8145766849999987
  0.0117667909999994  0.8375174399999992  0.6150555010000005
  0.3260524270000005  0.8232316369999992  0.7148161530000010
  0.7831954959999976  0.6660887000000031  0.8145766259999974
  0.1546239850000006  0.6946601869999967  0.6150555010000005
  0.4689097400000009  0.6803744440000017  0.7148161530000010
  0.9260526899999988  0.5232315060000019  0.8145766849999987
  0.2974810600000026  0.5518030519999968  0.6150555010000005
  0.6117668150000029  0.5375172500000005  0.7148161530000010
  0.0689097639999972  0.3803744319999964  0.8145766849999987
  0.4403381349999975  0.4089459180000006  0.6150555609999984
  0.7546240089999969  0.3946601749999985  0.7148161530000010
  0.2117670769999975  0.2375172670000012  0.8145767449999965
  0.5831954479999979  0.2660888429999986  0.6150555010000005
  0.8974812029999981  0.2518030700000011  0.7148161530000010
  0.3546241519999995  0.0946601779999980  0.8145766259999974
  0.7260525229999999  0.1232316870000005  0.6150555010000005
  0.0403383969999993  0.1089459660000003  0.7148161530000010
 
  0.00000000E+00  0.00000000E+00  0.00000000E+00
  0.00000000E+00  0.00000000E+00  0.00000000E+00
  0.00000000E+00  0.00000000E+00  0.00000000E+00
  0.00000000E+00  0.00000000E+00  0.00000000E+00
  0.00000000E+00  0.00000000E+00  0.00000000E+00
  0.00000000E+00  0.00000000E+00  0.00000000E+00
  0.00000000E+00  0.00000000E+00  0.00000000E+00
  0.00000000E+00  0.00000000E+00  0.00000000E+00
  0.00000000E+00  0.00000000E+00  0.00000000E+00
  0.00000000E+00  0.00000000E+00  0.00000000E+00
  0.00000000E+00  0.00000000E+00  0.00000000E+00
  0.00000000E+00  0.00000000E+00  0.00000000E+00
  0.00000000E+00  0.00000000E+00  0.00000000E+00
  0.00000000E+00  0.00000000E+00  0.00000000E+00
  0.00000000E+00  0.00000000E+00  0.00000000E+00
  0.00000000E+00  0.00000000E+00  0.00000000E+00
  0.00000000E+00  0.00000000E+00  0.00000000E+00
  0.00000000E+00  0.00000000E+00  0.00000000E+00
  0.00000000E+00  0.00000000E+00  0.00000000E+00
  0.00000000E+00  0.00000000E+00  0.00000000E+00
  0.00000000E+00  0.00000000E+00  0.00000000E+00
  0.00000000E+00  0.00000000E+00  0.00000000E+00
  0.00000000E+00  0.00000000E+00  0.00000000E+00
  0.00000000E+00  0.00000000E+00  0.00000000E+00
  0.00000000E+00  0.00000000E+00  0.00000000E+00
  0.00000000E+00  0.00000000E+00  0.00000000E+00
  0.00000000E+00  0.00000000E+00  0.00000000E+00
  0.00000000E+00  0.00000000E+00  0.00000000E+00
  0.00000000E+00  0.00000000E+00  0.00000000E+00
  0.00000000E+00  0.00000000E+00  0.00000000E+00
  0.00000000E+00  0.00000000E+00  0.00000000E+00
  0.00000000E+00  0.00000000E+00  0.00000000E+00
  0.00000000E+00  0.00000000E+00  0.00000000E+00
  0.00000000E+00  0.00000000E+00  0.00000000E+00
  0.00000000E+00  0.00000000E+00  0.00000000E+00
  0.00000000E+00  0.00000000E+00  0.00000000E+00
  0.00000000E+00  0.00000000E+00  0.00000000E+00
  0.00000000E+00  0.00000000E+00  0.00000000E+00
  0.00000000E+00  0.00000000E+00  0.00000000E+00
  0.00000000E+00  0.00000000E+00  0.00000000E+00
  0.00000000E+00  0.00000000E+00  0.00000000E+00
  0.00000000E+00  0.00000000E+00  0.00000000E+00
  0.00000000E+00  0.00000000E+00  0.00000000E+00
  0.00000000E+00  0.00000000E+00  0.00000000E+00
  0.00000000E+00  0.00000000E+00  0.00000000E+00
  0.00000000E+00  0.00000000E+00  0.00000000E+00
  0.00000000E+00  0.00000000E+00  0.00000000E+00
  0.00000000E+00  0.00000000E+00  0.00000000E+00
  0.00000000E+00  0.00000000E+00  0.00000000E+00
  0.00000000E+00  0.00000000E+00  0.00000000E+00
  0.00000000E+00  0.00000000E+00  0.00000000E+00
  0.00000000E+00  0.00000000E+00  0.00000000E+00
  0.00000000E+00  0.00000000E+00  0.00000000E+00
  0.00000000E+00  0.00000000E+00  0.00000000E+00
  0.00000000E+00  0.00000000E+00  0.00000000E+00
  0.00000000E+00  0.00000000E+00  0.00000000E+00
  0.00000000E+00  0.00000000E+00  0.00000000E+00
  0.00000000E+00  0.00000000E+00  0.00000000E+00
  0.00000000E+00  0.00000000E+00  0.00000000E+00
  0.00000000E+00  0.00000000E+00  0.00000000E+00
  0.00000000E+00  0.00000000E+00  0.00000000E+00
  0.00000000E+00  0.00000000E+00  0.00000000E+00
  0.00000000E+00  0.00000000E+00  0.00000000E+00
  0.00000000E+00  0.00000000E+00  0.00000000E+00
  0.00000000E+00  0.00000000E+00  0.00000000E+00
  0.00000000E+00  0.00000000E+00  0.00000000E+00
  0.00000000E+00  0.00000000E+00  0.00000000E+00
  0.00000000E+00  0.00000000E+00  0.00000000E+00
  0.00000000E+00  0.00000000E+00  0.00000000E+00
  0.00000000E+00  0.00000000E+00  0.00000000E+00
  0.00000000E+00  0.00000000E+00  0.00000000E+00
  0.00000000E+00  0.00000000E+00  0.00000000E+00
  0.00000000E+00  0.00000000E+00  0.00000000E+00
  0.00000000E+00  0.00000000E+00  0.00000000E+00
  0.00000000E+00  0.00000000E+00  0.00000000E+00
  0.00000000E+00  0.00000000E+00  0.00000000E+00
  0.00000000E+00  0.00000000E+00  0.00000000E+00
  0.00000000E+00  0.00000000E+00  0.00000000E+00
  0.00000000E+00  0.00000000E+00  0.00000000E+00
  0.00000000E+00  0.00000000E+00  0.00000000E+00
  0.00000000E+00  0.00000000E+00  0.00000000E+00
  0.00000000E+00  0.00000000E+00  0.00000000E+00
  0.00000000E+00  0.00000000E+00  0.00000000E+00
  0.00000000E+00  0.00000000E+00  0.00000000E+00
  0.00000000E+00  0.00000000E+00  0.00000000E+00
  0.00000000E+00  0.00000000E+00  0.00000000E+00
  0.00000000E+00  0.00000000E+00  0.00000000E+00
  0.00000000E+00  0.00000000E+00  0.00000000E+00
  0.00000000E+00  0.00000000E+00  0.00000000E+00
  0.00000000E+00  0.00000000E+00  0.00000000E+00
  0.00000000E+00  0.00000000E+00  0.00000000E+00
  0.00000000E+00  0.00000000E+00  0.00000000E+00
  0.00000000E+00  0.00000000E+00  0.00000000E+00
  0.00000000E+00  0.00000000E+00  0.00000000E+00
  0.00000000E+00  0.00000000E+00  0.00000000E+00
  0.00000000E+00  0.00000000E+00  0.00000000E+00
  0.00000000E+00  0.00000000E+00  0.00000000E+00
  0.00000000E+00  0.00000000E+00  0.00000000E+00
  0.00000000E+00  0.00000000E+00  0.00000000E+00
  0.00000000E+00  0.00000000E+00  0.00000000E+00
  0.00000000E+00  0.00000000E+00  0.00000000E+00
  0.00000000E+00  0.00000000E+00  0.00000000E+00
  0.00000000E+00  0.00000000E+00  0.00000000E+00
  0.00000000E+00  0.00000000E+00  0.00000000E+00
  0.00000000E+00  0.00000000E+00  0.00000000E+00
  0.00000000E+00  0.00000000E+00  0.00000000E+00
  0.00000000E+00  0.00000000E+00  0.00000000E+00
  0.00000000E+00  0.00000000E+00  0.00000000E+00
  0.00000000E+00  0.00000000E+00  0.00000000E+00
  0.00000000E+00  0.00000000E+00  0.00000000E+00
  0.00000000E+00  0.00000000E+00  0.00000000E+00
  0.00000000E+00  0.00000000E+00  0.00000000E+00
  0.00000000E+00  0.00000000E+00  0.00000000E+00
  0.00000000E+00  0.00000000E+00  0.00000000E+00
  0.00000000E+00  0.00000000E+00  0.00000000E+00
  0.00000000E+00  0.00000000E+00  0.00000000E+00
  0.00000000E+00  0.00000000E+00  0.00000000E+00
  0.00000000E+00  0.00000000E+00  0.00000000E+00
  0.00000000E+00  0.00000000E+00  0.00000000E+00
  0.00000000E+00  0.00000000E+00  0.00000000E+00
