Ge+Si
    1.000000000
   16.973400116    0.000000000    0.000000000
    0.000000000   16.973400116    0.000000000
    0.000000000    0.000000000   17.861000061
Ge  Si 
108     120
Direct
    0.994305491    0.666666567    0.000000000
    0.827638865    0.666666567    0.158384174
    0.660972118    0.666666567    0.316768378
    0.994305491    0.333333284    0.000000000
    0.827638865    0.333333284    0.158384174
    0.660972118    0.333333284    0.316768378
    0.994305491    0.000000000    0.000000000
    0.827638865    0.000000000    0.158384174
    0.660972118    0.000000000    0.316768378
    0.327638805    0.666666567    0.000000000
    0.160972148    0.666666567    0.158384174
    0.994305432    0.666666567    0.316768378
    0.327638805    0.333333284    0.000000000
    0.160972148    0.333333284    0.158384174
    0.994305432    0.333333284    0.316768378
    0.327638805    0.000000000    0.000000000
    0.160972148    0.000000000    0.158384174
    0.994305432    0.000000000    0.316768378
    0.660972118    0.666666567    0.000000000
    0.494305432    0.666666567    0.158384174
    0.327638745    0.666666567    0.316768378
    0.660972118    0.333333284    0.000000000
    0.494305432    0.333333284    0.158384174
    0.327638745    0.333333284    0.316768378
    0.660972118    0.000000000    0.000000000
    0.494305432    0.000000000    0.158384174
    0.327638745    0.000000000    0.316768378
    0.077638842    0.916666567    0.079192095
    0.910972118    0.916666567    0.237576291
    0.744305491    0.916666567    0.395960480
    0.077638842    0.583333313    0.079192095
    0.910972118    0.583333313    0.237576291
    0.744305491    0.583333313    0.395960480
    0.077638842    0.249999955    0.079192095
    0.910972118    0.249999955    0.237576291
    0.744305491    0.249999955    0.395960480
    0.410972089    0.916666567    0.079192095
    0.244305417    0.916666567    0.237576291
    0.077638723    0.916666567    0.395960480
    0.410972089    0.583333313    0.079192095
    0.244305417    0.583333313    0.237576291
    0.077638723    0.583333313    0.395960480
    0.410972089    0.249999955    0.079192095
    0.244305417    0.249999955    0.237576291
    0.077638723    0.249999955    0.395960480
    0.744305491    0.916666567    0.079192095
    0.577638745    0.916666567    0.237576291
    0.410972059    0.916666567    0.395960480
    0.744305491    0.583333313    0.079192095
    0.577638745    0.583333313    0.237576291
    0.410972059    0.583333313    0.395960480
    0.744305491    0.249999955    0.079192095
    0.577638745    0.249999955    0.237576291
    0.410972059    0.249999955    0.395960480
    0.160972163    0.833333194    0.000000000
    0.994305491    0.833333194    0.158384174
    0.827638805    0.833333194    0.316768378
    0.160972163    0.499999911    0.000000000
    0.994305491    0.499999911    0.158384174
    0.827638805    0.499999911    0.316768378
    0.160972163    0.166666642    0.000000000
    0.994305491    0.166666642    0.158384174
    0.827638805    0.166666642    0.316768378
    0.494305432    0.833333194    0.000000000
    0.327638745    0.833333194    0.158384174
    0.160972074    0.833333194    0.316768378
    0.494305432    0.499999911    0.000000000
    0.327638745    0.499999911    0.158384174
    0.160972074    0.499999911    0.316768378
    0.494305432    0.166666642    0.000000000
    0.327638745    0.166666642    0.158384174
    0.160972074    0.166666642    0.316768378
    0.827638805    0.833333194    0.000000000
    0.660972118    0.833333194    0.158384174
    0.494305432    0.833333194    0.316768378
    0.827638805    0.499999911    0.000000000
    0.660972118    0.499999911    0.158384174
    0.494305432    0.499999911    0.316768378
    0.827638805    0.166666642    0.000000000
    0.660972118    0.166666642    0.158384174
    0.494305432    0.166666642    0.316768378
    0.244305462    0.749999881    0.079192095
    0.077638783    0.749999881    0.237576291
    0.910972118    0.749999881    0.395960480
    0.244305462    0.416666627    0.079192095
    0.077638783    0.416666627    0.237576291
    0.910972118    0.416666627    0.395960480
    0.244305462    0.083333328    0.079192095
    0.077638783    0.083333328    0.237576291
    0.910972118    0.083333328    0.395960480
    0.577638865    0.749999881    0.079192095
    0.410972148    0.749999881    0.237576291
    0.244305447    0.749999881    0.395960480
    0.577638865    0.416666627    0.079192095
    0.410972148    0.416666627    0.237576291
    0.244305447    0.416666627    0.395960480
    0.577638865    0.083333328    0.079192095
    0.410972148    0.083333328    0.237576291
    0.244305447    0.083333328    0.395960480
    0.910972178    0.749999881    0.079192095
    0.744305491    0.749999881    0.237576291
    0.577638745    0.749999881    0.395960480
    0.910972178    0.416666627    0.079192095
    0.744305491    0.416666627    0.237576291
    0.577638745    0.416666627    0.395960480
    0.910972178    0.083333328    0.079192095
    0.744305491    0.083333328    0.237576291
    0.577638745    0.083333328    0.395960480
    0.440223217    0.190537125    0.507936299
    0.290223122    0.240537181    0.659971476
    0.140223026    0.290537238    0.812006652
    0.540223122    0.490537167    0.507936299
    0.390223026    0.540537238    0.659971476
    0.240222931    0.590537310    0.812006652
    0.640223026    0.790537119    0.507936299
    0.490222931    0.840537131    0.659971476
    0.340223074    0.890537262    0.812006652
    0.140223026    0.290537119    0.507936299
    0.990223050    0.340537190    0.659971476
    0.840222955    0.390537232    0.812006652
    0.240223050    0.590537131    0.507936299
    0.090223074    0.640537202    0.659971476
    0.940222979    0.690537274    0.812006652
    0.340223074    0.890537143    0.507936299
    0.190222979    0.940537155    0.659971476
    0.040222883    0.990537286    0.812006652
    0.740223050    0.090537086    0.507936299
    0.590223074    0.140537158    0.659971476
    0.440222979    0.190537214    0.812006652
    0.840223074    0.390537113    0.507936299
    0.690222979    0.440537184    0.659971476
    0.540222883    0.490537226    0.812006652
    0.940223098    0.690537155    0.507936299
    0.790223002    0.740537226    0.659971476
    0.640223026    0.790537298    0.812006652
    0.040223122    0.990537107    0.507936299
    0.890222967    0.040537119    0.659971476
    0.740222931    0.090537310    0.812006652
    0.690222979    0.190537095    0.583953917
    0.540222883    0.240537167    0.735989094
    0.390222788    0.290537238    0.888024211
    0.390223145    0.290537119    0.583953917
    0.240223169    0.340537190    0.735989094
    0.090222955    0.390537262    0.888024211
    0.490223169    0.590537190    0.583953917
    0.340223074    0.640537262    0.735989094
    0.190222979    0.690537274    0.888024211
    0.590223074    0.890537143    0.583953917
    0.440222979    0.940537274    0.735989094
    0.290222883    0.990537286    0.888024211
    0.990223050    0.090537071    0.583953917
    0.840223014    0.140537262    0.735989094
    0.690222979    0.190537333    0.888024211
    0.090223074    0.390537113    0.583953917
    0.940222979    0.440537214    0.735989094
    0.790222883    0.490537226    0.888024211
    0.190223098    0.690537095    0.583953917
    0.040223002    0.740537167    0.735989094
    0.890222907    0.790537298    0.888024211
    0.290223122    0.990537107    0.583953917
    0.140223026    0.040537238    0.735989094
    0.990222931    0.090537310    0.888024211
    0.790223062    0.490537107    0.583953917
    0.640223026    0.540537238    0.735989094
    0.490222931    0.590537250    0.888024211
    0.890223086    0.790537179    0.583953917
    0.740222931    0.840537250    0.735989094
    0.590222836    0.890537262    0.888024211
    0.640223026    0.290537119    0.507936299
    0.490223050    0.340537190    0.659971476
    0.340222955    0.390537292    0.812006652
    0.240223050    0.090537094    0.507936299
    0.090223074    0.140537158    0.659971476
    0.940222919    0.190537244    0.812006652
    0.340223074    0.390537113    0.507936299
    0.190222979    0.440537184    0.659971476
    0.040222883    0.490537286    0.812006652
    0.440223098    0.690537155    0.507936299
    0.290223122    0.740537226    0.659971476
    0.140222907    0.790537298    0.812006652
    0.540223122    0.990537286    0.507936299
    0.390223026    0.040537357    0.659971476
    0.240222931    0.090537310    0.812006652
    0.940223098    0.190537110    0.507936299
    0.790223002    0.240537181    0.659971476
    0.640222907    0.290537238    0.812006652
    0.040223122    0.490537167    0.507936299
    0.890223026    0.540537238    0.659971476
    0.740222931    0.590537310    0.812006652
    0.140223026    0.790537119    0.507936299
    0.990222991    0.840537190    0.659971476
    0.840222895    0.890537262    0.812006652
    0.740223050    0.590537071    0.507936299
    0.590223074    0.640537202    0.659971476
    0.440222979    0.690537274    0.812006652
    0.840223074    0.890537143    0.507936299
    0.690222979    0.940537214    0.659971476
    0.540222883    0.990537286    0.812006652
    0.490223050    0.090537071    0.583953917
    0.340223074    0.140537262    0.735989094
    0.190222979    0.190537214    0.888024211
    0.590223074    0.390537113    0.583953917
    0.440222979    0.440537214    0.735989094
    0.290222883    0.490537226    0.888024211
    0.690223098    0.690537095    0.583953917
    0.540223122    0.740537167    0.735989094
    0.390223026    0.790537238    0.888024211
    0.190223098    0.190537095    0.583953917
    0.040223002    0.240537181    0.735989094
    0.890222907    0.290537238    0.888024211
    0.290223122    0.490537167    0.583953917
    0.140223026    0.540537179    0.735989094
    0.990222991    0.590537250    0.888024211
    0.390223026    0.790537119    0.583953917
    0.240223050    0.840537190    0.735989094
    0.090222955    0.890537322    0.888024211
    0.890223086    0.290537119    0.583953917
    0.740223050    0.340537190    0.735989094
    0.590222836    0.390537262    0.888024211
    0.990223050    0.590537131    0.583953917
    0.840223014    0.640537202    0.735989094
    0.690222979    0.690537214    0.888024211
    0.090223074    0.890537083    0.583953917
    0.940222979    0.940537155    0.735989094
    0.790222883    0.990537286    0.888024211
    0.790223062    0.990537107    0.583953917
    0.640223026    0.040537238    0.735989094
    0.490222931    0.090537310    0.888024211
