Ge+Sn
    1.000000000
   11.315600395    0.000000000    0.000000000
  -11.315600395   16.002676010    0.000000000
    0.000000000    0.000000000   25.604219437
Ge  Sn 
96     72
Direct
    0.469067723    0.989689231    0.000000017
    0.094067708    0.864689231    0.078125209
    0.719067633    0.739689231    0.156250417
    0.344067693    0.614689231    0.234375581
    0.969067812    0.489689291    0.312500775
    0.594067693    0.364689231    0.390625983
    0.969067693    0.989689231    0.000000017
    0.594067693    0.864689231    0.078125209
    0.219067633    0.739689231    0.156250417
    0.844067693    0.614689231    0.234375581
    0.469067812    0.489689291    0.312500775
    0.094067693    0.364689231    0.390625983
    0.469067693    0.489689231    0.000000009
    0.094067700    0.364689231    0.078125209
    0.719067574    0.239689216    0.156250417
    0.344067693    0.114689231    0.234375581
    0.969067812    0.989689231    0.312500775
    0.594067693    0.864689231    0.390625983
    0.969067693    0.489689231    0.000000009
    0.594067693    0.364689231    0.078125209
    0.219067574    0.239689216    0.156250417
    0.844067693    0.114689231    0.234375581
    0.469067693    0.989689231    0.312500775
    0.094067574    0.864689231    0.390625983
    0.719067693    0.239689231    0.000000017
    0.344067663    0.114689231    0.078125209
    0.969067574    0.989689231    0.156250417
    0.594067693    0.864689231    0.234375581
    0.219067693    0.739689231    0.312500775
    0.844067574    0.614689231    0.390625983
    0.219067678    0.239689231    0.000000017
    0.844067693    0.114689231    0.078125209
    0.469067633    0.989689231    0.156250417
    0.094067693    0.864689231    0.234375581
    0.719067812    0.739689231    0.312500775
    0.344067693    0.614689231    0.390625983
    0.719067633    0.739689231    0.000000021
    0.344067663    0.614689231    0.078125224
    0.969067574    0.489689201    0.156250432
    0.594067633    0.364689231    0.234375611
    0.219067693    0.239689246    0.312500805
    0.844067693    0.114689231    0.390625983
    0.219067693    0.739689231    0.000000021
    0.844067693    0.614689231    0.078125224
    0.469067574    0.489689201    0.156250432
    0.094067693    0.364689231    0.234375611
    0.719067693    0.239689246    0.312500805
    0.344067574    0.114689231    0.390625983
    0.469067663    0.364689231    0.000000016
    0.094067693    0.239689231    0.078125216
    0.719067633    0.114689209    0.156250432
    0.344067693    0.989689231    0.234375611
    0.969067812    0.864689231    0.312500775
    0.594067693    0.739689231    0.390625983
    0.969067693    0.364689231    0.000000016
    0.594067693    0.239689231    0.078125216
    0.219067633    0.114689209    0.156250432
    0.844067693    0.989689231    0.234375611
    0.469067812    0.864689231    0.312500775
    0.094067693    0.739689231    0.390625983
    0.469067752    0.864689291    0.000000000
    0.094067737    0.739689291    0.078125209
    0.719067693    0.614689291    0.156250402
    0.344067693    0.489689291    0.234375581
    0.969067812    0.364689291    0.312500775
    0.594067693    0.239689291    0.390625954
    0.969067693    0.864689291    0.000000000
    0.594067574    0.739689291    0.078125209
    0.219067574    0.614689291    0.156250402
    0.844067574    0.489689291    0.234375581
    0.469067574    0.364689291    0.312500775
    0.094067693    0.239689291    0.390625954
    0.719067693    0.114689223    0.000000017
    0.344067663    0.989689231    0.078125209
    0.969067633    0.864689231    0.156250417
    0.594067693    0.739689231    0.234375611
    0.219067693    0.614689231    0.312500775
    0.844067693    0.489689231    0.390625983
    0.219067678    0.114689223    0.000000017
    0.844067693    0.989689231    0.078125209
    0.469067633    0.864689231    0.156250417
    0.094067693    0.739689231    0.234375611
    0.719067812    0.614689231    0.312500775
    0.344067693    0.489689231    0.390625983
    0.719067693    0.614689231    0.000000015
    0.344067693    0.489689231    0.078125216
    0.969067633    0.364689231    0.156250417
    0.594067693    0.239689231    0.234375611
    0.219067752    0.114689253    0.312500775
    0.844067574    0.989689231    0.390625983
    0.219067723    0.614689231    0.000000015
    0.844067693    0.489689231    0.078125216
    0.469067633    0.364689231    0.156250417
    0.094067693    0.239689231    0.234375611
    0.719067812    0.114689253    0.312500775
    0.344067693    0.989689231    0.390625983
    0.503098607    0.756441176    0.471299201
    0.753098607    0.006441116    0.560904682
    0.003098726    0.256441355    0.650510252
    0.253099084    0.506441474    0.740115762
    0.503098965    0.756441474    0.829721272
    0.753099084    0.006441593    0.919326842
    0.169765234    0.089774393    0.471299201
    0.419765294    0.339774460    0.560904741
    0.669765532    0.589774609    0.650510252
    0.919765711    0.839774728    0.740115821
    0.169765696    0.089774854    0.829721272
    0.419765830    0.339774966    0.919326842
    0.836431980    0.423107743    0.471299201
    0.086432099    0.673107803    0.560904741
    0.336432219    0.923107922    0.650510252
    0.586432457    0.173108101    0.740115762
    0.836432338    0.423108101    0.829721272
    0.086432695    0.673108339    0.919326842
    0.336431921    0.923107803    0.471299171
    0.586431861    0.173107862    0.560904682
    0.836432159    0.423107982    0.650510252
    0.086432338    0.673108101    0.740115762
    0.336432219    0.923108220    0.829721272
    0.586432457    0.173108459    0.919326842
    0.669765353    0.589774430    0.471299201
    0.919765234    0.839774489    0.560904741
    0.169765458    0.089774616    0.650510252
    0.419765711    0.339774847    0.740115762
    0.669765711    0.589774728    0.829721272
    0.919765592    0.839774966    0.919326842
    0.003098726    0.256441087    0.471299201
    0.253098845    0.506441176    0.560904741
    0.503098965    0.756441295    0.650510252
    0.753099084    0.006441474    0.740115762
    0.003098965    0.256441474    0.829721272
    0.253099322    0.506441712    0.919326842
    0.253098607    0.756441057    0.471299171
    0.503098667    0.006441116    0.560904741
    0.753098726    0.256441236    0.650510252
    0.003098845    0.506441355    0.740115762
    0.253098965    0.756441355    0.829721272
    0.503098965    0.006441593    0.919326842
    0.586431980    0.423107743    0.471299201
    0.836431980    0.673107743    0.560904741
    0.086432099    0.923107922    0.650510252
    0.336432338    0.173107982    0.740115762
    0.586432219    0.423108101    0.829721272
    0.836432338    0.673108220    0.919326842
    0.919765294    0.089774393    0.471299201
    0.169765338    0.339774460    0.560904741
    0.419765472    0.589774549    0.650510252
    0.669765711    0.839774728    0.740115821
    0.919765830    0.089774854    0.829721272
    0.169765815    0.339774847    0.919326842
    0.419765234    0.589774489    0.471299201
    0.669765353    0.839774430    0.560904741
    0.919765413    0.089774616    0.650510252
    0.169765577    0.339774728    0.740115821
    0.419765592    0.589774728    0.829721272
    0.669765711    0.839774966    0.919326782
    0.086431861    0.923107743    0.471299201
    0.336432099    0.173107862    0.560904741
    0.586432219    0.423107982    0.650510252
    0.836432457    0.673108101    0.740115821
    0.086432338    0.923108101    0.829721272
    0.336432815    0.173108459    0.919326782
    0.753098667    0.256441116    0.471299201
    0.003098607    0.506441116    0.560904741
    0.253098726    0.756441295    0.650510252
    0.503098845    0.006441474    0.740115762
    0.753098845    0.256441474    0.829721272
    0.003098845    0.506441593    0.919326842
