fcc Si+fcc Ge                           
   1.00000000000000     
    12.2536525170000008    0.0000000000000000    0.0000000000000000
    -9.8029220129999999    7.3521915099999999    0.0000000000000000
     0.0000000000000000    0.0000000000000000   18.2583333329999995
   Si   Ge
    66    12
Direct
  0.3333333329999988  0.6666666670000012  0.0000000000000000
  0.6666666670000012  0.8333333329999988  0.1500684620000001
  0.0000000000000000  0.0000000000000000  0.3001369240000002
  0.3333333329999988  0.1666666670000012  0.4502053860000004
  0.6666666670000012  0.3333333329999988  0.6002738480000005
  0.0000000000000000  0.5000000000000000  0.7503423089999970
  0.0000000000000000  0.0000000000000000  0.0000000000000000
  0.3333333329999988  0.1666666670000012  0.1500684620000001
  0.6666666670000012  0.3333333329999988  0.3001369240000002
  0.0000000000000000  0.5000000000000000  0.4502053860000004
  0.3333333329999988  0.6666666670000012  0.6002738480000005
  0.6666666670000012  0.8333333329999988  0.7503423089999970
  0.6666666670000012  0.3333333329999988  0.0000000000000000
  0.0000000000000000  0.5000000000000000  0.1500684620000001
  0.3333333329999988  0.6666666670000012  0.3001369240000002
  0.6666666670000012  0.8333333329999988  0.4502053860000004
  0.0000000000000000  0.0000000000000000  0.6002738480000005
  0.3333333329999988  0.1666666670000012  0.7503423089999970
  0.1666666670000012  0.8333333329999988  0.0000000000000000
  0.5000000000000000  0.0000000000000000  0.1500684620000001
  0.8333333329999988  0.1666666670000012  0.3001369240000002
  0.1666666670000012  0.3333333329999988  0.4502053860000004
  0.5000000000000000  0.5000000000000000  0.6002738480000005
  0.8333333329999988  0.6666666670000012  0.7503423089999970
  0.5000000000000000  0.5000000000000000  0.0000000000000000
  0.8333333329999988  0.6666666670000012  0.1500684620000001
  0.1666666670000012  0.8333333329999988  0.3001369240000002
  0.5000000000000000  0.0000000000000000  0.4502053860000004
  0.8333333329999988  0.1666666670000012  0.6002738480000005
  0.1666666670000012  0.3333333329999988  0.7503423089999970
  0.8333333329999988  0.1666666670000012  0.0000000000000000
  0.1666666670000012  0.3333333329999988  0.1500684620000001
  0.5000000000000000  0.5000000000000000  0.3001369240000002
  0.8333333329999988  0.6666666670000012  0.4502053860000004
  0.1666666670000012  0.8333333329999988  0.6002738480000005
  0.5000000000000000  0.0000000000000000  0.7503423089999970
  0.0833333329999988  0.9166666670000012  0.0750342309999965
  0.4166666670000012  0.0833333329999988  0.2251026929999966
  0.7500000000000000  0.2500000000000000  0.3751711549999968
  0.0833333329999988  0.4166666670000012  0.5252396169999969
  0.4166666670000012  0.5833333329999988  0.6753080789999970
  0.4166666670000012  0.5833333329999988  0.0750342309999965
  0.7500000000000000  0.7500000000000000  0.2251026929999966
  0.0833333329999988  0.9166666670000012  0.3751711549999968
  0.4166666670000012  0.0833333329999988  0.5252396169999969
  0.7500000000000000  0.2500000000000000  0.6753080789999970
  0.7500000000000000  0.2500000000000000  0.0750342309999965
  0.0833333329999988  0.4166666670000012  0.2251026929999966
  0.4166666670000012  0.5833333329999988  0.3751711549999968
  0.7500000000000000  0.7500000000000000  0.5252396169999969
  0.0833333329999988  0.9166666670000012  0.6753080789999970
  0.2500000000000000  0.7500000000000000  0.0750342309999965
  0.5833333329999988  0.9166666670000012  0.2251026929999966
  0.9166666670000012  0.0833333329999988  0.3751711549999968
  0.2500000000000000  0.2500000000000000  0.5252396169999969
  0.5833333329999988  0.4166666670000012  0.6753080789999970
  0.5833333329999988  0.4166666670000012  0.0750342309999965
  0.9166666670000012  0.5833333329999988  0.2251026929999966
  0.2500000000000000  0.7500000000000000  0.3751711549999968
  0.5833333329999988  0.9166666670000012  0.5252396169999969
  0.9166666670000012  0.0833333329999988  0.6753080789999970
  0.9166666670000012  0.0833333329999988  0.0750342309999965
  0.2500000000000000  0.2500000000000000  0.2251026929999966
  0.5833333329999988  0.4166666670000012  0.3751711549999968
  0.9166666670000012  0.5833333329999988  0.5252396169999969
  0.2500000000000000  0.7500000000000000  0.6753080789999970
  0.0983606559999970  0.0000000000000000  0.8105887720000027
  0.9872495449999974  0.6111111109999996  0.8622546779999993
  0.8761384339999978  0.2222222219999992  0.9139205840000031
  0.5983606559999970  0.5000000000000000  0.8105887720000027
  0.4872495449999974  0.1111111109999996  0.8622546779999993
  0.3761384339999978  0.7222222219999992  0.9139205840000031
  0.2928051000000025  0.3055555560000016  0.8364217250000010
  0.1816939890000029  0.9166666670000012  0.8880876309999977
  0.0705828780000033  0.5277777780000008  0.9397535370000014
  0.7928051000000025  0.8055555560000016  0.8364217250000010
  0.6816939890000029  0.4166666670000012  0.8880876309999977
  0.5705828780000033  0.0277777780000008  0.9397535370000014
 
  0.00000000E+00  0.00000000E+00  0.00000000E+00
  0.00000000E+00  0.00000000E+00  0.00000000E+00
  0.00000000E+00  0.00000000E+00  0.00000000E+00
  0.00000000E+00  0.00000000E+00  0.00000000E+00
  0.00000000E+00  0.00000000E+00  0.00000000E+00
  0.00000000E+00  0.00000000E+00  0.00000000E+00
  0.00000000E+00  0.00000000E+00  0.00000000E+00
  0.00000000E+00  0.00000000E+00  0.00000000E+00
  0.00000000E+00  0.00000000E+00  0.00000000E+00
  0.00000000E+00  0.00000000E+00  0.00000000E+00
  0.00000000E+00  0.00000000E+00  0.00000000E+00
  0.00000000E+00  0.00000000E+00  0.00000000E+00
  0.00000000E+00  0.00000000E+00  0.00000000E+00
  0.00000000E+00  0.00000000E+00  0.00000000E+00
  0.00000000E+00  0.00000000E+00  0.00000000E+00
  0.00000000E+00  0.00000000E+00  0.00000000E+00
  0.00000000E+00  0.00000000E+00  0.00000000E+00
  0.00000000E+00  0.00000000E+00  0.00000000E+00
  0.00000000E+00  0.00000000E+00  0.00000000E+00
  0.00000000E+00  0.00000000E+00  0.00000000E+00
  0.00000000E+00  0.00000000E+00  0.00000000E+00
  0.00000000E+00  0.00000000E+00  0.00000000E+00
  0.00000000E+00  0.00000000E+00  0.00000000E+00
  0.00000000E+00  0.00000000E+00  0.00000000E+00
  0.00000000E+00  0.00000000E+00  0.00000000E+00
  0.00000000E+00  0.00000000E+00  0.00000000E+00
  0.00000000E+00  0.00000000E+00  0.00000000E+00
  0.00000000E+00  0.00000000E+00  0.00000000E+00
  0.00000000E+00  0.00000000E+00  0.00000000E+00
  0.00000000E+00  0.00000000E+00  0.00000000E+00
  0.00000000E+00  0.00000000E+00  0.00000000E+00
  0.00000000E+00  0.00000000E+00  0.00000000E+00
  0.00000000E+00  0.00000000E+00  0.00000000E+00
  0.00000000E+00  0.00000000E+00  0.00000000E+00
  0.00000000E+00  0.00000000E+00  0.00000000E+00
  0.00000000E+00  0.00000000E+00  0.00000000E+00
  0.00000000E+00  0.00000000E+00  0.00000000E+00
  0.00000000E+00  0.00000000E+00  0.00000000E+00
  0.00000000E+00  0.00000000E+00  0.00000000E+00
  0.00000000E+00  0.00000000E+00  0.00000000E+00
  0.00000000E+00  0.00000000E+00  0.00000000E+00
  0.00000000E+00  0.00000000E+00  0.00000000E+00
  0.00000000E+00  0.00000000E+00  0.00000000E+00
  0.00000000E+00  0.00000000E+00  0.00000000E+00
  0.00000000E+00  0.00000000E+00  0.00000000E+00
  0.00000000E+00  0.00000000E+00  0.00000000E+00
  0.00000000E+00  0.00000000E+00  0.00000000E+00
  0.00000000E+00  0.00000000E+00  0.00000000E+00
  0.00000000E+00  0.00000000E+00  0.00000000E+00
  0.00000000E+00  0.00000000E+00  0.00000000E+00
  0.00000000E+00  0.00000000E+00  0.00000000E+00
  0.00000000E+00  0.00000000E+00  0.00000000E+00
  0.00000000E+00  0.00000000E+00  0.00000000E+00
  0.00000000E+00  0.00000000E+00  0.00000000E+00
  0.00000000E+00  0.00000000E+00  0.00000000E+00
  0.00000000E+00  0.00000000E+00  0.00000000E+00
  0.00000000E+00  0.00000000E+00  0.00000000E+00
  0.00000000E+00  0.00000000E+00  0.00000000E+00
  0.00000000E+00  0.00000000E+00  0.00000000E+00
  0.00000000E+00  0.00000000E+00  0.00000000E+00
  0.00000000E+00  0.00000000E+00  0.00000000E+00
  0.00000000E+00  0.00000000E+00  0.00000000E+00
  0.00000000E+00  0.00000000E+00  0.00000000E+00
  0.00000000E+00  0.00000000E+00  0.00000000E+00
  0.00000000E+00  0.00000000E+00  0.00000000E+00
  0.00000000E+00  0.00000000E+00  0.00000000E+00
  0.00000000E+00  0.00000000E+00  0.00000000E+00
  0.00000000E+00  0.00000000E+00  0.00000000E+00
  0.00000000E+00  0.00000000E+00  0.00000000E+00
  0.00000000E+00  0.00000000E+00  0.00000000E+00
  0.00000000E+00  0.00000000E+00  0.00000000E+00
  0.00000000E+00  0.00000000E+00  0.00000000E+00
  0.00000000E+00  0.00000000E+00  0.00000000E+00
  0.00000000E+00  0.00000000E+00  0.00000000E+00
  0.00000000E+00  0.00000000E+00  0.00000000E+00
  0.00000000E+00  0.00000000E+00  0.00000000E+00
  0.00000000E+00  0.00000000E+00  0.00000000E+00
  0.00000000E+00  0.00000000E+00  0.00000000E+00
