Si+C                                    
   1.00000000000000     
    13.3031797409999992    0.0000000000000000    0.0000000000000000
     6.6515893940000002   14.8734064099999994    0.0000000000000000
     0.0000000000000000    0.0000000000000000    7.4017858509999996
   Si   C 
    36    84
Direct
  0.9829056259999973  0.6581194999999980  0.0000000049999969
  0.7829055790000012  0.5581192969999975  0.1640697420000023
  0.5829054120000023  0.4581190939999971  0.3281394839999976
  0.9829056259999973  0.3247861270000030  0.0000000049999969
  0.7829055790000012  0.2247859690000027  0.1640697420000023
  0.5829054120000023  0.1247858030000017  0.3281394839999976
  0.9829056259999973  0.9914528130000022  0.0000000049999969
  0.7829055790000012  0.8914526699999996  0.1640697420000023
  0.5829054120000023  0.7914525269999970  0.3281394839999976
  0.6329056619999989  0.6914526819999978  0.0820347000000012
  0.4329055850000003  0.5914524789999973  0.2461044639999983
  0.2329055220000029  0.4914524260000022  0.4101741910000030
  0.6329056619999989  0.3581194280000020  0.0820347000000012
  0.4329055850000003  0.2581192849999994  0.2461044639999983
  0.2329055220000029  0.1581191419999968  0.4101741910000030
  0.6329056619999989  0.0247861369999995  0.0820347000000012
  0.4329055850000003  0.9247859720000022  0.2461044639999983
  0.2329055220000029  0.8247858289999996  0.4101741910000030
  0.4829056259999973  0.6581194999999980  0.0000000000000000
  0.2829055489999988  0.5581192969999975  0.1640697420000023
  0.0829054419999977  0.4581190939999971  0.3281394839999976
  0.4829056259999973  0.3247861270000030  0.0000000000000000
  0.2829055489999988  0.2247859539999979  0.1640697420000023
  0.0829054419999977  0.1247858110000024  0.3281394839999976
  0.4829056259999973  0.9914528130000022  0.0000000000000000
  0.2829055489999988  0.8914526699999996  0.1640697420000023
  0.0829054419999977  0.7914525269999970  0.3281394839999976
  0.1329056769999966  0.6914527420000027  0.0820347149999989
  0.9329055549999978  0.5914524789999973  0.2461044639999983
  0.7329055069999981  0.4914523959999997  0.4101741910000030
  0.1329056769999966  0.3581194879999998  0.0820347149999989
  0.9329055549999978  0.2581192849999994  0.2461044639999983
  0.7329055069999981  0.1581191269999991  0.4101741910000030
  0.1329056769999966  0.0247861369999995  0.0820347149999989
  0.9329055549999978  0.9247859720000022  0.2461044639999983
  0.7329055069999981  0.8247858289999996  0.4101741910000030
  0.7112786770000028  0.9011855720000028  0.7859014869999967
  0.0541356800000017  0.9297572369999969  0.5703964229999983
  0.3827071190000026  0.9154714350000006  0.6781488660000008
  0.9969928260000032  0.7583284970000008  0.7859014869999967
  0.3398499489999978  0.7869001030000007  0.5703964229999983
  0.6684215069999979  0.7726143000000008  0.6781488660000008
  0.2827070949999992  0.6154713629999975  0.7859014869999967
  0.6255642180000009  0.6440429689999974  0.5703964229999983
  0.9541356559999983  0.6297571659999974  0.6781488660000008
  0.5684214830000016  0.4726141690000034  0.7859014269999989
  0.9112786049999997  0.5011857750000033  0.5703963639999969
  0.2398500440000007  0.4869000320000012  0.6781488660000008
  0.8541357519999977  0.3297570350000001  0.7859014269999989
  0.1969928740000029  0.3583286400000034  0.5703963639999969
  0.5255641939999975  0.3440428970000013  0.6781488660000008
  0.1398500199999972  0.1868999300000027  0.7859014269999989
  0.4827070239999998  0.2154715360000026  0.5703963639999969
  0.8112785819999999  0.2011857629999980  0.6781488660000008
  0.4255644079999996  0.0440428260000019  0.7859014869999967
  0.7684214120000021  0.0726143119999989  0.5703963639999969
  0.0969929700000023  0.0583286290000018  0.6781489850000000
  0.1612784860000005  0.0011855360000013  0.8397776480000019
  0.5041356090000022  0.0297571420000011  0.6242725849999999
  0.8327070469999995  0.0154713390000012  0.7320251459999980
  0.4469927549999966  0.8583284620000029  0.8397776480000019
  0.7898498770000018  0.8869000669999991  0.6242725849999999
  0.1184213160000027  0.8726142049999979  0.7320251459999980
  0.7327070239999998  0.7154713270000030  0.8397777079999997
  0.0755641459999978  0.7440429330000029  0.6242724660000007
  0.4041357039999980  0.7297571300000030  0.7320250869999967
  0.0184214120000021  0.5726142529999976  0.8397775890000005
  0.3612785340000002  0.6011857989999996  0.6242724660000007
  0.6898498540000020  0.5869000550000010  0.7320250869999967
  0.3041357990000009  0.4297571179999977  0.8397777079999997
  0.6469929220000026  0.4583287239999976  0.6242724660000007
  0.9755642410000007  0.4440429209999976  0.7320250269999988
  0.5898499489999978  0.2868999239999965  0.8397777079999997
  0.9327071310000008  0.3154715300000035  0.6242725849999999
  0.2612786290000031  0.3011857270000036  0.7320250869999967
  0.8755643370000001  0.1440427900000003  0.8397775890000005
  0.2184214589999982  0.1726143960000002  0.6242725849999999
  0.5469927790000000  0.1583286079999979  0.7320250869999967
  0.2112785579999965  0.9011856320000007  0.7859014269999989
  0.5541356800000017  0.9297571179999977  0.5703963639999969
  0.8827070000000035  0.9154714350000006  0.6781489850000000
  0.4969930649999981  0.7583284970000008  0.7859014869999967
  0.8398500679999970  0.7869001030000007  0.5703963639999969
  0.1684215069999979  0.7726143000000008  0.6781488660000008
  0.7827073340000013  0.6154713629999975  0.7859014869999967
  0.1255643370000001  0.6440429689999974  0.5703963639999969
  0.4541357760000011  0.6297571659999974  0.6781488660000008
  0.0684214830000016  0.4726142290000013  0.7859014869999967
  0.4112784860000005  0.5011858339999975  0.5703963639999969
  0.7398499250000015  0.4869000320000012  0.6781488660000008
  0.3541356329999985  0.3297571539999993  0.7859014869999967
  0.6969928740000029  0.3583287000000013  0.5703963639999969
  0.0255643129999967  0.3440428970000013  0.6781488660000008
  0.6398501400000001  0.1868999599999981  0.7859014869999967
  0.9827071429999990  0.2154715060000001  0.5703964229999983
  0.3112785819999999  0.2011857179999978  0.6781489850000000
  0.9255642890000004  0.0440428260000019  0.7859014869999967
  0.2684214120000021  0.0726144309999981  0.5703964229999983
  0.5969928499999995  0.0583286290000018  0.6781489850000000
  0.6612784860000005  0.0011856559999970  0.8397776480000019
  0.0041356090000022  0.0297572610000003  0.6242725849999999
  0.3327070469999995  0.0154713390000012  0.7320250869999967
  0.9469928740000029  0.8583285209999971  0.8397776480000019
  0.2898499969999975  0.8869001269999970  0.6242725849999999
  0.6184213160000027  0.8726142639999992  0.7320250869999967
  0.2327071429999990  0.7154713270000030  0.8397776480000019
  0.5755643840000033  0.7440429330000029  0.6242725849999999
  0.9041358229999972  0.7297570710000016  0.7320250869999967
  0.5184212919999993  0.5726142529999976  0.8397775890000005
  0.8612785340000002  0.6011857390000017  0.6242724660000007
  0.1898499730000012  0.5868999959999996  0.7320250869999967
  0.8041357990000009  0.4297570590000035  0.8397775890000005
  0.1469929220000026  0.4583286639999997  0.6242724660000007
  0.4755643609999964  0.4440428609999998  0.7320250869999967
  0.0898498299999986  0.2868998940000012  0.8397776480000019
  0.4327070710000029  0.3154715000000010  0.6242724660000007
  0.7612783909999976  0.3011857270000036  0.7320250869999967
  0.3755642180000009  0.1440428789999970  0.8397775890000005
  0.7184214589999982  0.1726143659999977  0.6242725849999999
  0.0469927790000000  0.1583285930000002  0.7320250869999967
 
  0.00000000E+00  0.00000000E+00  0.00000000E+00
  0.00000000E+00  0.00000000E+00  0.00000000E+00
  0.00000000E+00  0.00000000E+00  0.00000000E+00
  0.00000000E+00  0.00000000E+00  0.00000000E+00
  0.00000000E+00  0.00000000E+00  0.00000000E+00
  0.00000000E+00  0.00000000E+00  0.00000000E+00
  0.00000000E+00  0.00000000E+00  0.00000000E+00
  0.00000000E+00  0.00000000E+00  0.00000000E+00
  0.00000000E+00  0.00000000E+00  0.00000000E+00
  0.00000000E+00  0.00000000E+00  0.00000000E+00
  0.00000000E+00  0.00000000E+00  0.00000000E+00
  0.00000000E+00  0.00000000E+00  0.00000000E+00
  0.00000000E+00  0.00000000E+00  0.00000000E+00
  0.00000000E+00  0.00000000E+00  0.00000000E+00
  0.00000000E+00  0.00000000E+00  0.00000000E+00
  0.00000000E+00  0.00000000E+00  0.00000000E+00
  0.00000000E+00  0.00000000E+00  0.00000000E+00
  0.00000000E+00  0.00000000E+00  0.00000000E+00
  0.00000000E+00  0.00000000E+00  0.00000000E+00
  0.00000000E+00  0.00000000E+00  0.00000000E+00
  0.00000000E+00  0.00000000E+00  0.00000000E+00
  0.00000000E+00  0.00000000E+00  0.00000000E+00
  0.00000000E+00  0.00000000E+00  0.00000000E+00
  0.00000000E+00  0.00000000E+00  0.00000000E+00
  0.00000000E+00  0.00000000E+00  0.00000000E+00
  0.00000000E+00  0.00000000E+00  0.00000000E+00
  0.00000000E+00  0.00000000E+00  0.00000000E+00
  0.00000000E+00  0.00000000E+00  0.00000000E+00
  0.00000000E+00  0.00000000E+00  0.00000000E+00
  0.00000000E+00  0.00000000E+00  0.00000000E+00
  0.00000000E+00  0.00000000E+00  0.00000000E+00
  0.00000000E+00  0.00000000E+00  0.00000000E+00
  0.00000000E+00  0.00000000E+00  0.00000000E+00
  0.00000000E+00  0.00000000E+00  0.00000000E+00
  0.00000000E+00  0.00000000E+00  0.00000000E+00
  0.00000000E+00  0.00000000E+00  0.00000000E+00
  0.00000000E+00  0.00000000E+00  0.00000000E+00
  0.00000000E+00  0.00000000E+00  0.00000000E+00
  0.00000000E+00  0.00000000E+00  0.00000000E+00
  0.00000000E+00  0.00000000E+00  0.00000000E+00
  0.00000000E+00  0.00000000E+00  0.00000000E+00
  0.00000000E+00  0.00000000E+00  0.00000000E+00
  0.00000000E+00  0.00000000E+00  0.00000000E+00
  0.00000000E+00  0.00000000E+00  0.00000000E+00
  0.00000000E+00  0.00000000E+00  0.00000000E+00
  0.00000000E+00  0.00000000E+00  0.00000000E+00
  0.00000000E+00  0.00000000E+00  0.00000000E+00
  0.00000000E+00  0.00000000E+00  0.00000000E+00
  0.00000000E+00  0.00000000E+00  0.00000000E+00
  0.00000000E+00  0.00000000E+00  0.00000000E+00
  0.00000000E+00  0.00000000E+00  0.00000000E+00
  0.00000000E+00  0.00000000E+00  0.00000000E+00
  0.00000000E+00  0.00000000E+00  0.00000000E+00
  0.00000000E+00  0.00000000E+00  0.00000000E+00
  0.00000000E+00  0.00000000E+00  0.00000000E+00
  0.00000000E+00  0.00000000E+00  0.00000000E+00
  0.00000000E+00  0.00000000E+00  0.00000000E+00
  0.00000000E+00  0.00000000E+00  0.00000000E+00
  0.00000000E+00  0.00000000E+00  0.00000000E+00
  0.00000000E+00  0.00000000E+00  0.00000000E+00
  0.00000000E+00  0.00000000E+00  0.00000000E+00
  0.00000000E+00  0.00000000E+00  0.00000000E+00
  0.00000000E+00  0.00000000E+00  0.00000000E+00
  0.00000000E+00  0.00000000E+00  0.00000000E+00
  0.00000000E+00  0.00000000E+00  0.00000000E+00
  0.00000000E+00  0.00000000E+00  0.00000000E+00
  0.00000000E+00  0.00000000E+00  0.00000000E+00
  0.00000000E+00  0.00000000E+00  0.00000000E+00
  0.00000000E+00  0.00000000E+00  0.00000000E+00
  0.00000000E+00  0.00000000E+00  0.00000000E+00
  0.00000000E+00  0.00000000E+00  0.00000000E+00
  0.00000000E+00  0.00000000E+00  0.00000000E+00
  0.00000000E+00  0.00000000E+00  0.00000000E+00
  0.00000000E+00  0.00000000E+00  0.00000000E+00
  0.00000000E+00  0.00000000E+00  0.00000000E+00
  0.00000000E+00  0.00000000E+00  0.00000000E+00
  0.00000000E+00  0.00000000E+00  0.00000000E+00
  0.00000000E+00  0.00000000E+00  0.00000000E+00
  0.00000000E+00  0.00000000E+00  0.00000000E+00
  0.00000000E+00  0.00000000E+00  0.00000000E+00
  0.00000000E+00  0.00000000E+00  0.00000000E+00
  0.00000000E+00  0.00000000E+00  0.00000000E+00
  0.00000000E+00  0.00000000E+00  0.00000000E+00
  0.00000000E+00  0.00000000E+00  0.00000000E+00
  0.00000000E+00  0.00000000E+00  0.00000000E+00
  0.00000000E+00  0.00000000E+00  0.00000000E+00
  0.00000000E+00  0.00000000E+00  0.00000000E+00
  0.00000000E+00  0.00000000E+00  0.00000000E+00
  0.00000000E+00  0.00000000E+00  0.00000000E+00
  0.00000000E+00  0.00000000E+00  0.00000000E+00
  0.00000000E+00  0.00000000E+00  0.00000000E+00
  0.00000000E+00  0.00000000E+00  0.00000000E+00
  0.00000000E+00  0.00000000E+00  0.00000000E+00
  0.00000000E+00  0.00000000E+00  0.00000000E+00
  0.00000000E+00  0.00000000E+00  0.00000000E+00
  0.00000000E+00  0.00000000E+00  0.00000000E+00
  0.00000000E+00  0.00000000E+00  0.00000000E+00
  0.00000000E+00  0.00000000E+00  0.00000000E+00
  0.00000000E+00  0.00000000E+00  0.00000000E+00
  0.00000000E+00  0.00000000E+00  0.00000000E+00
  0.00000000E+00  0.00000000E+00  0.00000000E+00
  0.00000000E+00  0.00000000E+00  0.00000000E+00
  0.00000000E+00  0.00000000E+00  0.00000000E+00
  0.00000000E+00  0.00000000E+00  0.00000000E+00
  0.00000000E+00  0.00000000E+00  0.00000000E+00
  0.00000000E+00  0.00000000E+00  0.00000000E+00
  0.00000000E+00  0.00000000E+00  0.00000000E+00
  0.00000000E+00  0.00000000E+00  0.00000000E+00
  0.00000000E+00  0.00000000E+00  0.00000000E+00
  0.00000000E+00  0.00000000E+00  0.00000000E+00
  0.00000000E+00  0.00000000E+00  0.00000000E+00
  0.00000000E+00  0.00000000E+00  0.00000000E+00
  0.00000000E+00  0.00000000E+00  0.00000000E+00
  0.00000000E+00  0.00000000E+00  0.00000000E+00
  0.00000000E+00  0.00000000E+00  0.00000000E+00
  0.00000000E+00  0.00000000E+00  0.00000000E+00
  0.00000000E+00  0.00000000E+00  0.00000000E+00
  0.00000000E+00  0.00000000E+00  0.00000000E+00
  0.00000000E+00  0.00000000E+00  0.00000000E+00
  0.00000000E+00  0.00000000E+00  0.00000000E+00
