Si+C
    1.000000000
   13.303179741    0.000000000    0.000000000
    6.651589394   14.873406410    0.000000000
    0.000000000    0.000000000    7.401785851
Si  C  
36     84
Direct
    0.982905626    0.658119500    0.000000005
    0.782905579    0.558119297    0.164069742
    0.582905412    0.458119094    0.328139484
    0.982905626    0.324786127    0.000000005
    0.782905579    0.224785969    0.164069742
    0.582905412    0.124785803    0.328139484
    0.982905626    0.991452813    0.000000005
    0.782905579    0.891452670    0.164069742
    0.582905412    0.791452527    0.328139484
    0.632905662    0.691452682    0.082034700
    0.432905585    0.591452479    0.246104464
    0.232905522    0.491452426    0.410174191
    0.632905662    0.358119428    0.082034700
    0.432905585    0.258119285    0.246104464
    0.232905522    0.158119142    0.410174191
    0.632905662    0.024786137    0.082034700
    0.432905585    0.924785972    0.246104464
    0.232905522    0.824785829    0.410174191
    0.482905626    0.658119500    0.000000000
    0.282905549    0.558119297    0.164069742
    0.082905442    0.458119094    0.328139484
    0.482905626    0.324786127    0.000000000
    0.282905549    0.224785954    0.164069742
    0.082905442    0.124785811    0.328139484
    0.482905626    0.991452813    0.000000000
    0.282905549    0.891452670    0.164069742
    0.082905442    0.791452527    0.328139484
    0.132905677    0.691452742    0.082034715
    0.932905555    0.591452479    0.246104464
    0.732905507    0.491452396    0.410174191
    0.132905677    0.358119488    0.082034715
    0.932905555    0.258119285    0.246104464
    0.732905507    0.158119127    0.410174191
    0.132905677    0.024786137    0.082034715
    0.932905555    0.924785972    0.246104464
    0.732905507    0.824785829    0.410174191
    0.711278677    0.901185572    0.785901487
    0.054135680    0.929757237    0.570396423
    0.382707119    0.915471435    0.678148866
    0.996992826    0.758328497    0.785901487
    0.339849949    0.786900103    0.570396423
    0.668421507    0.772614300    0.678148866
    0.282707095    0.615471363    0.785901487
    0.625564218    0.644042969    0.570396423
    0.954135656    0.629757166    0.678148866
    0.568421483    0.472614169    0.785901427
    0.911278605    0.501185775    0.570396364
    0.239850044    0.486900032    0.678148866
    0.854135752    0.329757035    0.785901427
    0.196992874    0.358328640    0.570396364
    0.525564194    0.344042897    0.678148866
    0.139850020    0.186899930    0.785901427
    0.482707024    0.215471536    0.570396364
    0.811278582    0.201185763    0.678148866
    0.425564408    0.044042826    0.785901487
    0.768421412    0.072614312    0.570396364
    0.096992970    0.058328629    0.678148985
    0.161278486    0.001185536    0.839777648
    0.504135609    0.029757142    0.624272585
    0.832707047    0.015471339    0.732025146
    0.446992755    0.858328462    0.839777648
    0.789849877    0.886900067    0.624272585
    0.118421316    0.872614205    0.732025146
    0.732707024    0.715471327    0.839777708
    0.075564146    0.744042933    0.624272466
    0.404135704    0.729757130    0.732025087
    0.018421412    0.572614253    0.839777589
    0.361278534    0.601185799    0.624272466
    0.689849854    0.586900055    0.732025087
    0.304135799    0.429757118    0.839777708
    0.646992922    0.458328724    0.624272466
    0.975564241    0.444042921    0.732025027
    0.589849949    0.286899924    0.839777708
    0.932707131    0.315471530    0.624272585
    0.261278629    0.301185727    0.732025087
    0.875564337    0.144042790    0.839777589
    0.218421459    0.172614396    0.624272585
    0.546992779    0.158328608    0.732025087
    0.211278558    0.901185632    0.785901427
    0.554135680    0.929757118    0.570396364
    0.882707000    0.915471435    0.678148985
    0.496993065    0.758328497    0.785901487
    0.839850068    0.786900103    0.570396364
    0.168421507    0.772614300    0.678148866
    0.782707334    0.615471363    0.785901487
    0.125564337    0.644042969    0.570396364
    0.454135776    0.629757166    0.678148866
    0.068421483    0.472614229    0.785901487
    0.411278486    0.501185834    0.570396364
    0.739849925    0.486900032    0.678148866
    0.354135633    0.329757154    0.785901487
    0.696992874    0.358328700    0.570396364
    0.025564313    0.344042897    0.678148866
    0.639850140    0.186899960    0.785901487
    0.982707143    0.215471506    0.570396423
    0.311278582    0.201185718    0.678148985
    0.925564289    0.044042826    0.785901487
    0.268421412    0.072614431    0.570396423
    0.596992850    0.058328629    0.678148985
    0.661278486    0.001185656    0.839777648
    0.004135609    0.029757261    0.624272585
    0.332707047    0.015471339    0.732025087
    0.946992874    0.858328521    0.839777648
    0.289849997    0.886900127    0.624272585
    0.618421316    0.872614264    0.732025087
    0.232707143    0.715471327    0.839777648
    0.575564384    0.744042933    0.624272585
    0.904135823    0.729757071    0.732025087
    0.518421292    0.572614253    0.839777589
    0.861278534    0.601185739    0.624272466
    0.189849973    0.586899996    0.732025087
    0.804135799    0.429757059    0.839777589
    0.146992922    0.458328664    0.624272466
    0.475564361    0.444042861    0.732025087
    0.089849830    0.286899894    0.839777648
    0.432707071    0.315471500    0.624272466
    0.761278391    0.301185727    0.732025087
    0.375564218    0.144042879    0.839777589
    0.718421459    0.172614366    0.624272585
    0.046992779    0.158328593    0.732025087
