Si+C
    1.000000000
   13.303179741    0.000000000    0.000000000
    6.651589394   11.520891190    0.000000000
    0.000000000    0.000000000   21.679414749
Si  C  
72     308
Direct
    0.000000000    0.681493819    0.289268851
    0.000000000    0.014827055    0.000000008
    0.000000000    0.348160446    0.144634441
    0.333333343    0.014827132    0.289268851
    0.333333343    0.348160386    0.000000009
    0.333333343    0.681493819    0.144634441
    0.666666687    0.348160386    0.289268821
    0.666666687    0.681493759    0.000000006
    0.666666687    0.014827132    0.144634441
    0.000000000    0.014827251    0.325427473
    0.000000000    0.348160416    0.036158621
    0.000000000    0.681493819    0.180793047
    0.333333343    0.348160505    0.325427443
    0.333333343    0.681493819    0.036158621
    0.333333343    0.014827132    0.180793032
    0.666666746    0.681493998    0.325427473
    0.666666746    0.014827132    0.036158621
    0.666666746    0.348160505    0.180793062
    0.166666672    0.848160446    0.289268821
    0.166666672    0.181493714    0.000000004
    0.166666672    0.514827132    0.144634441
    0.500000060    0.181493759    0.289268821
    0.500000000    0.514827073    0.000000001
    0.500000000    0.848160505    0.144634441
    0.833333373    0.514827251    0.289268851
    0.833333373    0.848160446    0.000000000
    0.833333373    0.181493759    0.144634411
    0.166666687    0.181493759    0.325427383
    0.166666687    0.514827073    0.036158580
    0.166666687    0.848160505    0.180793002
    0.500000000    0.514827132    0.325427383
    0.500000000    0.848160326    0.036158577
    0.500000000    0.181493759    0.180793017
    0.833333313    0.848160446    0.325427383
    0.833333313    0.181493714    0.036158577
    0.833333313    0.514827132    0.180793047
    0.000000000    0.181493759    0.289268821
    0.000000000    0.514827073    0.000000011
    0.000000000    0.848160446    0.144634441
    0.333333343    0.514827251    0.289268851
    0.333333343    0.848160505    0.000000016
    0.333333343    0.181493878    0.144634470
    0.666666687    0.848160446    0.289268821
    0.666666687    0.181493714    0.000000001
    0.666666687    0.514827132    0.144634441
    0.000000014    0.514827251    0.325427443
    0.000000014    0.848160446    0.036158580
    0.000000014    0.181493878    0.180793032
    0.333333373    0.848160446    0.325427443
    0.333333373    0.181493714    0.036158580
    0.333333373    0.514827073    0.180793002
    0.666666746    0.181493878    0.325427443
    0.666666746    0.514827073    0.036158580
    0.666666746    0.848160505    0.180793017
    0.166666672    0.348160386    0.289268821
    0.166666672    0.681493759    0.000000009
    0.166666672    0.014827132    0.144634470
    0.500000000    0.681493759    0.289268851
    0.500000000    0.014827051    0.000000009
    0.500000000    0.348160475    0.144634441
    0.833333313    0.014827132    0.289268821
    0.833333313    0.348160416    0.000000006
    0.833333313    0.681493759    0.144634426
    0.166666687    0.681493878    0.325427473
    0.166666687    0.014827132    0.036158640
    0.166666687    0.348160386    0.180793032
    0.500000000    0.014827251    0.325427473
    0.500000000    0.348160416    0.036158610
    0.500000000    0.681493759    0.180793032
    0.833333373    0.348160505    0.325427443
    0.833333373    0.681493700    0.036158621
    0.833333373    0.014827013    0.180793032
    0.196266875    0.893763304    0.876437724
    0.958171844    0.084239841    0.496484041
    0.767695665    0.036620736    0.591472507
    0.577219307    0.989001572    0.686460912
    0.386743069    0.941382468    0.781449318
    0.339124084    0.179477647    0.876437724
    0.101028919    0.369954169    0.496484011
    0.910552740    0.322335064    0.591472507
    0.720076442    0.274715900    0.686460912
    0.529600203    0.227096766    0.781449318
    0.481981218    0.465191990    0.876437724
    0.243886098    0.655668437    0.496484011
    0.053409934    0.608049393    0.591472507
    0.862933636    0.560430229    0.686460912
    0.672457337    0.512811065    0.781449378
    0.767695546    0.036620498    0.876437724
    0.529600382    0.227097034    0.496484011
    0.339124203    0.179477900    0.591472447
    0.148647904    0.131858736    0.686460912
    0.958171666    0.084239602    0.781449318
    0.624838352    0.750906169    0.876437724
    0.386743248    0.941382766    0.496484011
    0.196267024    0.893763602    0.591472447
    0.005790830    0.846144497    0.686460793
    0.815314412    0.798525274    0.781449318
    0.910552621    0.322334766    0.876437724
    0.672457576    0.512811303    0.496484011
    0.481981337    0.465192199    0.591472507
    0.291505158    0.417573065    0.686460853
    0.101028681    0.369953901    0.781449318
    0.053409696    0.608049035    0.876437724
    0.815314651    0.798525631    0.496484011
    0.624838471    0.750906467    0.591472447
    0.434362173    0.703287363    0.686460912
    0.243885860    0.655668199    0.781449318
    0.291504979    0.417572886    0.900184810
    0.243886128    0.655668557    0.425242722
    0.053409934    0.608049393    0.520231128
    0.862933636    0.560430288    0.615219593
    0.672457337    0.512811124    0.710208058
    0.481981158    0.465191990    0.805196404
    0.577219248    0.989001453    0.900184810
    0.529600441    0.227097124    0.425242752
    0.339124203    0.179477990    0.520231128
    0.148647934    0.131858855    0.615219593
    0.958171606    0.084239721    0.710208058
    0.767695427    0.036620617    0.805196404
    0.434362054    0.703287184    0.900184810
    0.386743307    0.941382885    0.425242722
    0.196267009    0.893763721    0.520231128
    0.005790830    0.846144557    0.615219593
    0.815314472    0.798525393    0.710208058
    0.624838233    0.750906289    0.805196404
    0.720076382    0.274715722    0.900184810
    0.672457635    0.512811422    0.425242722
    0.481981337    0.465192258    0.520231128
    0.291505098    0.417573154    0.615219593
    0.101028800    0.369953990    0.710208058
    0.910552561    0.322334856    0.805196404
    0.862933517    0.560429990    0.900184810
    0.815314770    0.798525751    0.425242722
    0.624838471    0.750906527    0.520231187
    0.434362233    0.703287423    0.615219593
    0.243885919    0.655668259    0.710208058
    0.053409696    0.608049154    0.805196404
    0.148647770    0.131858528    0.900184870
    0.101029038    0.369954228    0.425242752
    0.910552740    0.322335094    0.520231128
    0.720076561    0.274715960    0.615219593
    0.529600203    0.227096796    0.710208058
    0.339124024    0.179477662    0.805196464
    0.005790591    0.846144319    0.900184810
    0.958171844    0.084239960    0.425242722
    0.767695606    0.036620855    0.520231128
    0.577219367    0.989001751    0.615219593
    0.386743069    0.941382527    0.710208058
    0.196266860    0.893763423    0.805196404
    0.267695487    0.036620498    0.876437724
    0.029600382    0.227097005    0.496484011
    0.839124203    0.179477870    0.591472507
    0.648647904    0.131858721    0.686460912
    0.458171606    0.084239602    0.781449378
    0.410552621    0.322334826    0.876437724
    0.172457516    0.512811303    0.496484011
    0.981981337    0.465192258    0.591472507
    0.791505039    0.417573065    0.686460912
    0.601028740    0.369953930    0.781449318
    0.696266890    0.893763363    0.876437724
    0.458171785    0.084239960    0.496484011
    0.267695606    0.036620736    0.591472507
    0.077219248    0.989001572    0.686460912
    0.886743009    0.941382468    0.781449378
    0.553409696    0.608049035    0.876437724
    0.315314651    0.798525631    0.496484011
    0.124838412    0.750906527    0.591472507
    0.934362292    0.703287423    0.686460853
    0.743885875    0.655668199    0.781449378
    0.839124084    0.179477632    0.876437724
    0.601029038    0.369954169    0.496483982
    0.410552800    0.322335064    0.591472507
    0.220076621    0.274715930    0.686460853
    0.029600263    0.227096751    0.781449318
    0.981981277    0.465191931    0.876437724
    0.743886173    0.655668497    0.496484011
    0.553409994    0.608049393    0.591472447
    0.362933695    0.560430169    0.686460912
    0.172457397    0.512811065    0.781449318
    0.124838419    0.750906229    0.876437724
    0.886743367    0.941382766    0.496484011
    0.696267128    0.893763602    0.591472507
    0.505790830    0.846144438    0.686460912
    0.315314531    0.798525333    0.781449318
    0.220076427    0.274715692    0.900184810
    0.172457576    0.512811363    0.425242722
    0.981981337    0.465192229    0.520231128
    0.791505158    0.417573124    0.615219533
    0.601028800    0.369953930    0.710208058
    0.410552621    0.322334826    0.805196404
    0.362933517    0.560430050    0.900184810
    0.315314710    0.798525691    0.425242692
    0.124838464    0.750906587    0.520231128
    0.934362292    0.703287423    0.615219533
    0.743885994    0.655668259    0.710208058
    0.553409755    0.608049154    0.805196404
    0.648647845    0.131858557    0.900184810
    0.601028979    0.369954228    0.425242722
    0.410552740    0.322335094    0.520231128
    0.220076561    0.274715960    0.615219533
    0.029600263    0.227096811    0.710208058
    0.839124024    0.179477692    0.805196404
    0.505790710    0.846144378    0.900184810
    0.458171844    0.084239960    0.425242722
    0.267695606    0.036620855    0.520231128
    0.077219367    0.989001811    0.615219533
    0.886743069    0.941382647    0.710208058
    0.696266890    0.893763483    0.805196404
    0.791504979    0.417572945    0.900184810
    0.743886173    0.655668616    0.425242722
    0.553409874    0.608049512    0.520231128
    0.362933695    0.560430348    0.615219533
    0.172457367    0.512811184    0.710208058
    0.981981158    0.465192050    0.805196404
    0.077219248    0.989001453    0.900184810
    0.029600501    0.227097124    0.425242692
    0.839124262    0.179477990    0.520231128
    0.648648083    0.131858841    0.615219533
    0.458171785    0.084239721    0.710208058
    0.267695546    0.036620617    0.805196404
    0.934362113    0.703287125    0.900184810
    0.886743307    0.941382825    0.425242692
    0.696267068    0.893763721    0.520231128
    0.505790889    0.846144617    0.615219533
    0.315314531    0.798525393    0.710208058
    0.124838315    0.750906289    0.805196345
    0.267695487    0.536620498    0.876437724
    0.029600382    0.727097034    0.496484011
    0.839124203    0.679477990    0.591472507
    0.648647904    0.631858766    0.686460912
    0.458171606    0.584239602    0.781449318
    0.553409755    0.108049035    0.876437724
    0.315314651    0.298525572    0.496484041
    0.124838471    0.250906467    0.591472507
    0.934362173    0.203287303    0.686460912
    0.743885875    0.155668154    0.781449378
    0.410552621    0.822334766    0.876437724
    0.172457576    0.012811303    0.496483982
    0.981981337    0.965192199    0.591472447
    0.791505158    0.917573094    0.686460793
    0.601028740    0.869953930    0.781449318
    0.696266890    0.393763334    0.876437724
    0.458171844    0.584239841    0.496484011
    0.267695546    0.536620736    0.591472507
    0.077219367    0.489001632    0.686460853
    0.886743009    0.441382438    0.781449318
    0.981981158    0.965191901    0.876437724
    0.743886113    0.155668452    0.496484011
    0.553409874    0.108049273    0.591472507
    0.362933695    0.060430169    0.686460853
    0.172457308    0.012810946    0.781449318
    0.839124084    0.679477692    0.876437724
    0.601029038    0.869954228    0.496484011
    0.410552800    0.822335124    0.591472447
    0.220076501    0.774715960    0.686460912
    0.029600263    0.727096796    0.781449318
    0.124838360    0.250906229    0.876437724
    0.886743307    0.441382766    0.496484011
    0.696267068    0.393763632    0.591472507
    0.505790770    0.346144497    0.686460912
    0.315314472    0.298525333    0.781449318
    0.362933576    0.060430050    0.900184810
    0.315314710    0.298525691    0.425242722
    0.124838457    0.250906557    0.520231128
    0.934362292    0.203287423    0.615219533
    0.743885994    0.155668259    0.710208058
    0.553409755    0.108049154    0.805196404
    0.220076367    0.774715722    0.900184810
    0.172457546    0.012811422    0.425242722
    0.981981337    0.965192318    0.520231128
    0.791505158    0.917573214    0.615219533
    0.601028800    0.869953990    0.710208058
    0.410552621    0.822334886    0.805196404
    0.505790710    0.346144319    0.900184810
    0.458171844    0.584239960    0.425242722
    0.267695606    0.536620855    0.520231128
    0.077219367    0.489001721    0.615219533
    0.886743128    0.441382557    0.710208058
    0.696266890    0.393763423    0.805196404
    0.791504979    0.917572856    0.900184810
    0.743886113    0.155668527    0.425242722
    0.553409874    0.108049393    0.520231128
    0.362933695    0.060430288    0.615219533
    0.172457367    0.012811184    0.710208058
    0.981981158    0.965191960    0.805196404
    0.648647845    0.631858647    0.900184810
    0.601029038    0.869954288    0.425242692
    0.410552740    0.822335184    0.520231128
    0.220076561    0.774716079    0.615219533
    0.029600263    0.727096856    0.710208058
    0.839124024    0.679477751    0.805196404
    0.934362113    0.203287184    0.900184810
    0.886743367    0.441382855    0.425242692
    0.696267068    0.393763721    0.520231128
    0.505790889    0.346144557    0.615219533
    0.315314531    0.298525423    0.710208058
    0.124838315    0.250906318    0.805196404
    0.077219129    0.489001483    0.900184810
    0.029600382    0.727097154    0.425242722
    0.839124143    0.679478049    0.520231128
    0.648647964    0.631858885    0.615219533
    0.458171606    0.584239721    0.710208058
    0.267695367    0.536620617    0.805196404
    0.196266875    0.393763334    0.876437724
    0.958171844    0.584239841    0.496484011
    0.767695606    0.536620736    0.591472507
    0.577219307    0.489001602    0.686460912
    0.386743009    0.441382468    0.781449378
    0.481981218    0.965191960    0.876437724
    0.243886098    0.155668437    0.496484011
    0.053409934    0.108049393    0.591472507
    0.862933636    0.060430169    0.686460912
    0.672457337    0.012810946    0.781449318
    0.339124024    0.679477572    0.876437724
    0.101028919    0.869954109    0.496484011
    0.910552740    0.822335005    0.591472507
    0.720076561    0.774715900    0.686460853
    0.529600143    0.727096677    0.781449318
    0.624838352    0.250906169    0.876437724
    0.386743307    0.441382706    0.496483982
    0.196267039    0.393763572    0.591472507
    0.005790830    0.346144468    0.686460853
    0.815314472    0.298525333    0.781449318
    0.767695546    0.536620498    0.876437724
    0.529600382    0.727097094    0.496484011
    0.339124203    0.679477930    0.591472447
    0.148647904    0.631858766    0.686460912
    0.958171606    0.584239662    0.781449318
    0.053409696    0.108049154    0.876437724
    0.815314651    0.298525602    0.496484011
    0.624838531    0.250906467    0.591472507
    0.434362173    0.203287333    0.686460912
    0.243885845    0.155668199    0.781449318
    0.910552621    0.822334766    0.876437724
    0.672457576    0.012811422    0.496484011
    0.481981337    0.965192199    0.591472507
    0.291504979    0.917573094    0.686460912
    0.101028681    0.869953871    0.781449318
    0.291504920    0.917572856    0.900184870
    0.243886158    0.155668542    0.425242752
    0.053409934    0.108049393    0.520231128
    0.862933695    0.060430288    0.615219593
    0.672457397    0.012811184    0.710208058
    0.481981218    0.965191960    0.805196404
    0.434362113    0.203287125    0.900184870
    0.386743307    0.441382825    0.425242752
    0.196267068    0.393763661    0.520231128
    0.005790830    0.346144557    0.615219653
    0.815314531    0.298525393    0.710208058
    0.624838352    0.250906259    0.805196404
    0.577219248    0.489001483    0.900184810
    0.529600441    0.727097154    0.425242722
    0.339124143    0.679478049    0.520231128
    0.148647919    0.631858885    0.615219653
    0.958171606    0.584239721    0.710208058
    0.767695427    0.536620617    0.805196404
    0.862933517    0.060430050    0.900184810
    0.815314770    0.298525691    0.425242722
    0.624838531    0.250906527    0.520231128
    0.434362233    0.203287393    0.615219653
    0.243885949    0.155668244    0.710208058
    0.053409696    0.108049154    0.805196404
    0.720076382    0.774715781    0.900184810
    0.672457576    0.012811422    0.425242722
    0.481981277    0.965192318    0.520231187
    0.291505098    0.917573154    0.615219593
    0.101028800    0.869953990    0.710208058
    0.910552561    0.822334886    0.805196464
    0.005790591    0.346144259    0.900184810
    0.958171904    0.584239960    0.425242722
    0.767695606    0.536620855    0.520231128
    0.577219367    0.489001691    0.615219533
    0.386743069    0.441382527    0.710208058
    0.196266845    0.393763423    0.805196404
    0.148647889    0.631858587    0.900184810
    0.101029038    0.869954288    0.425242722
    0.910552859    0.822335124    0.520231128
    0.720076561    0.774716020    0.615219593
    0.529600263    0.727096796    0.710208058
    0.339124084    0.679477692    0.805196404
