Si+Si                                   
   1.00000000000000     
     5.4310002329999998    0.0000000000000000    0.0000000000000000
     0.0000000000000000    5.4310002329999998    0.0000000000000000
     0.0000000000000000    0.0000000000000000   13.5775012969999995
   Si
    24
Direct
  0.0177968590000006  0.0000000000000000  0.0000000000000000
  0.5177968739999983  0.0000000000000000  0.2000000029999995
  0.7677969929999975  0.2500000000000000  0.5000000000000000
  0.5177968739999983  0.5000000000000000  0.0000000000000000
  0.7677969340000033  0.7500000599999979  0.3000000420000006
  0.2677969929999975  0.7500000599999979  0.5000000000000000
  0.2677968739999983  0.7500000599999979  0.1000000009999980
  0.0177968739999983  0.5000000000000000  0.2000000029999995
  0.5177969929999975  0.5000000000000000  0.4000000059999991
  0.7677969340000033  0.2500000000000000  0.1000000009999980
  0.2677968739999983  0.2500000000000000  0.3000000420000006
  0.0177968739999983  0.0000000000000000  0.4000000059999991
  0.0177968590000006  0.0000000000000000  0.5000000000000000
  0.5177968739999983  0.0000000000000000  0.6999999880000018
  0.0177968739999983  0.0000000000000000  0.8999999759999966
  0.2677968739999983  0.7500000599999979  0.6000000240000034
  0.7677969340000033  0.7500000599999979  0.8000000720000031
  0.2677969929999975  0.7500000599999979  0.0000000000000000
  0.5177968739999983  0.5000000000000000  0.5000000000000000
  0.0177968739999983  0.5000000000000000  0.6999999880000018
  0.5177969929999975  0.5000000000000000  0.8999999759999966
  0.7677969340000033  0.2500000000000000  0.6000000240000034
  0.2677968739999983  0.2500000000000000  0.8000000720000031
  0.7677969929999975  0.2500000000000000  0.0000000000000000
 
  0.00000000E+00  0.00000000E+00  0.00000000E+00
  0.00000000E+00  0.00000000E+00  0.00000000E+00
  0.00000000E+00  0.00000000E+00  0.00000000E+00
  0.00000000E+00  0.00000000E+00  0.00000000E+00
  0.00000000E+00  0.00000000E+00  0.00000000E+00
  0.00000000E+00  0.00000000E+00  0.00000000E+00
  0.00000000E+00  0.00000000E+00  0.00000000E+00
  0.00000000E+00  0.00000000E+00  0.00000000E+00
  0.00000000E+00  0.00000000E+00  0.00000000E+00
  0.00000000E+00  0.00000000E+00  0.00000000E+00
  0.00000000E+00  0.00000000E+00  0.00000000E+00
  0.00000000E+00  0.00000000E+00  0.00000000E+00
  0.00000000E+00  0.00000000E+00  0.00000000E+00
  0.00000000E+00  0.00000000E+00  0.00000000E+00
  0.00000000E+00  0.00000000E+00  0.00000000E+00
  0.00000000E+00  0.00000000E+00  0.00000000E+00
  0.00000000E+00  0.00000000E+00  0.00000000E+00
  0.00000000E+00  0.00000000E+00  0.00000000E+00
  0.00000000E+00  0.00000000E+00  0.00000000E+00
  0.00000000E+00  0.00000000E+00  0.00000000E+00
  0.00000000E+00  0.00000000E+00  0.00000000E+00
  0.00000000E+00  0.00000000E+00  0.00000000E+00
  0.00000000E+00  0.00000000E+00  0.00000000E+00
  0.00000000E+00  0.00000000E+00  0.00000000E+00
