Ge
 1.0000000000000000
     8.0013374931944963    0.0000000000000000    0.0000000000000000
   -16.0026749863889961   16.9734000000000016    0.0000000000000000
     0.0000000000000000   -0.0000000000000000   60.6701218574191188
 Ge 
 128
Direct
  0.0000000000000000  0.0000000000000000  0.3296515547966429
  0.2222222222222231  0.8611111111111113  0.3406417770678272
  0.9722222222222227  0.6111111111111112  0.3406417770678272
  0.2500000000000001  0.2500000000000001  0.3296515547966429
  0.4722222222222225  0.6111111111111112  0.3406417770678272
  0.7500000000000000  0.2500000000000000  0.3296515547966429
  0.5000000000000000  0.0000000000000000  0.3296515547966429
  0.7222222222222225  0.8611111111111112  0.3406417770678272
  0.9444444444444444  0.2222222222222223  0.3516319993390116
  0.1666666666666665  0.0833333333333333  0.3626222216101959
  0.9166666666666672  0.8333333333333335  0.3626222216101959
  0.1944444444444447  0.4722222222222223  0.3516319993390115
  0.4166666666666671  0.8333333333333335  0.3626222216101959
  0.6944444444444444  0.4722222222222223  0.3516319993390115
  0.4444444444444443  0.2222222222222222  0.3516319993390116
  0.6666666666666661  0.0833333333333330  0.3626222216101959
  0.8888888888888890  0.4444444444444445  0.3736124438813802
  0.1111111111111112  0.3055555555555556  0.3846026661525646
  0.8611111111111112  0.0555555555555556  0.3846026661525645
  0.1388888888888888  0.6944444444444445  0.3736124438813802
  0.3611111111111112  0.0555555555555556  0.3846026661525646
  0.6388888888888888  0.6944444444444445  0.3736124438813802
  0.3888888888888889  0.4444444444444445  0.3736124438813802
  0.6111111111111107  0.3055555555555554  0.3846026661525646
  0.8333333333333329  0.6666666666666666  0.3955928884237489
  0.0555555555555554  0.5277777777777777  0.4065831106949332
  0.8055555555555554  0.2777777777777779  0.4065831106949332
  0.0833333333333332  0.9166666666666667  0.3955928884237489
  0.3055555555555554  0.2777777777777779  0.4065831106949332
  0.5833333333333331  0.9166666666666669  0.3955928884237489
  0.3333333333333330  0.6666666666666666  0.3955928884237489
  0.5555555555555549  0.5277777777777777  0.4065831106949332
  0.7777777777777778  0.8888888888888891  0.4175733329661175
  0.9999999999999993  0.7500000000000001  0.4285635552373019
  0.7500000000000010  0.5000000000000002  0.4285635552373019
  0.0277777777777777  0.1388888888888891  0.4175733329661175
  0.2500000000000008  0.5000000000000002  0.4285635552373019
  0.5277777777777786  0.1388888888888891  0.4175733329661175
  0.2777777777777778  0.8888888888888891  0.4175733329661175
  0.5000000000000003  0.7500000000000001  0.4285635552373019
  0.7222222222222223  0.1111111111111112  0.4395537775084862
  0.9444444444444455  0.9722222222222223  0.4505439997796706
  0.6944444444444449  0.7222222222222227  0.4505439997796706
  0.9722222222222224  0.3611111111111114  0.4395537775084862
  0.1944444444444458  0.7222222222222227  0.4505439997796705
  0.4722222222222224  0.3611111111111114  0.4395537775084862
  0.2222222222222214  0.1111111111111112  0.4395537775084862
  0.4444444444444447  0.9722222222222223  0.4505439997796706
  0.6666666666666661  0.3333333333333333  0.4615342220508549
  0.8888888888888876  0.1944444444444442  0.4725244443220392
  0.6388888888888894  0.9444444444444445  0.4725244443220392
  0.9166666666666662  0.5833333333333335  0.4615342220508549
  0.1388888888888877  0.9444444444444441  0.4725244443220392
  0.4166666666666661  0.5833333333333335  0.4615342220508548
  0.1666666666666652  0.3333333333333330  0.4615342220508548
  0.3888888888888884  0.1944444444444442  0.4725244443220392
  0.6111111111111107  0.5555555555555556  0.4835146665932235
  0.8333333333333323  0.4166666666666666  0.4945048888644079
  0.5833333333333330  0.1666666666666665  0.4945048888644079
  0.8611111111111116  0.8055555555555560  0.4835146665932235
  0.0833333333333321  0.1666666666666665  0.4945048888644078
  0.3611111111111110  0.8055555555555559  0.4835146665932235
  0.1111111111111099  0.5555555555555556  0.4835146665932235
  0.3333333333333331  0.4166666666666666  0.4945048888644078
  0.5555555555555557  0.7777777777777780  0.5054951111355922
  0.7777777777777785  0.6388888888888888  0.5164853334067765
  0.5277777777777769  0.3888888888888889  0.5164853334067765
  0.8055555555555554  0.0277777777777777  0.5054951111355921
  0.0277777777777769  0.3888888888888889  0.5164853334067765
  0.3055555555555571  0.0277777777777781  0.5054951111355921
  0.0555555555555538  0.7777777777777780  0.5054951111355921
  0.2777777777777785  0.6388888888888893  0.5164853334067765
  0.5000000000000000  0.0000000000000000  0.5274755556779609
  0.7222222222222217  0.8611111111111113  0.5384657779491452
  0.4722222222222233  0.6111111111111112  0.5384657779491452
  0.7500000000000000  0.2500000000000000  0.5274755556779609
  0.9722222222222215  0.6111111111111112  0.5384657779491452
  0.2500000000000000  0.2500000000000004  0.5274755556779608
  0.0000000000000000  0.0000000000000000  0.5274755556779609
  0.2222222222222251  0.8611111111111116  0.5384657779491452
  0.4444444444444446  0.2222222222222223  0.5494560002203295
  0.6666666666666661  0.0833333333333335  0.5604462224915138
  0.4166666666666682  0.8333333333333336  0.5604462224915138
  0.6944444444444446  0.4722222222222223  0.5494560002203295
  0.9166666666666664  0.8333333333333336  0.5604462224915138
  0.1944444444444447  0.4722222222222228  0.5494560002203295
  0.9444444444444429  0.2222222222222223  0.5494560002203295
  0.1666666666666661  0.0833333333333339  0.5604462224915138
  0.3888888888888892  0.4444444444444446  0.5714364447626981
  0.6111111111111107  0.3055555555555558  0.5824266670338825
  0.3611111111111089  0.0555555555555554  0.5824266670338825
  0.6388888888888875  0.6944444444444442  0.5714364447626981
  0.8611111111111107  0.0555555555555558  0.5824266670338826
  0.1388888888888913  0.6944444444444452  0.5714364447626982
  0.8888888888888893  0.4444444444444446  0.5714364447626982
  0.1111111111111126  0.3055555555555562  0.5824266670338825
  0.3333333333333321  0.6666666666666665  0.5934168893050669
  0.5555555555555518  0.5277777777777777  0.6044071115762510
  0.3055555555555537  0.2777777777777773  0.6044071115762510
  0.5833333333333323  0.9166666666666666  0.5934168893050668
  0.8055555555555554  0.2777777777777777  0.6044071115762512
  0.0833333333333305  0.9166666666666666  0.5934168893050668
  0.8333333333333303  0.6666666666666665  0.5934168893050669
  0.0555555555555536  0.5277777777777777  0.6044071115762510
  0.2777777777777785  0.8888888888888893  0.6153973338474354
  0.4999999999999983  0.7500000000000006  0.6263875561186197
  0.2500000000000001  0.5000000000000000  0.6263875561186197
  0.5277777777777786  0.1388888888888888  0.6153973338474354
  0.7500000000000000  0.5000000000000004  0.6263875561186198
  0.0277777777777750  0.1388888888888888  0.6153973338474354
  0.7777777777777767  0.8888888888888893  0.6153973338474354
  0.0000000000000002  0.7500000000000001  0.6263875561186197
  0.2222222222222214  0.1111111111111112  0.6373777783898041
  0.4444444444444431  0.9722222222222220  0.6483680006609884
  0.1944444444444447  0.7222222222222223  0.6483680006609885
  0.4722222222222214  0.3611111111111112  0.6373777783898041
  0.6944444444444449  0.7222222222222229  0.6483680006609885
  0.9722222222222214  0.3611111111111116  0.6373777783898041
  0.7222222222222232  0.1111111111111116  0.6373777783898041
  0.9444444444444431  0.9722222222222220  0.6483680006609885
  0.1666666666666679  0.3333333333333339  0.6593582229321728
  0.3888888888888911  0.1944444444444455  0.6703484452033571
  0.1388888888888877  0.9444444444444443  0.6703484452033571
  0.4166666666666679  0.5833333333333339  0.6593582229321727
  0.6388888888888909  0.9444444444444446  0.6703484452033571
  0.9166666666666700  0.5833333333333345  0.6593582229321728
  0.6666666666666696  0.3333333333333339  0.6593582229321728
  0.8888888888888912  0.1944444444444455  0.6703484452033571
