Si+Ge                                   
   1.00000000000000     
    16.2930011750000006    0.0000000000000000    0.0000000000000000
     0.0000000000000000   16.2930011750000006    0.0000000000000000
     0.0000000000000000    0.0000000000000000   13.8885297780000005
   Si   Ge
   108    48
Direct
  0.0000000000000000  0.9940677290000011  0.0000000000000000
  0.0000000000000000  0.8274010419999982  0.1955210719999982
  0.0000000000000000  0.6607342960000011  0.3910421730000024
  0.3333333429999996  0.9940677290000011  0.0000000000000000
  0.3333333429999996  0.8274010419999982  0.1955210719999982
  0.3333333429999996  0.6607342960000011  0.3910421730000024
  0.6666666870000029  0.9940677290000011  0.0000000000000000
  0.6666666870000029  0.8274010419999982  0.1955210719999982
  0.6666666870000029  0.6607342960000011  0.3910421730000024
  0.0000000000000000  0.3274010419999982  0.0000000000000000
  0.0000000000000000  0.1607343700000001  0.1955210719999982
  0.0000000000000000  0.9940676690000032  0.3910421730000024
  0.3333333429999996  0.3274010419999982  0.0000000000000000
  0.3333333429999996  0.1607343700000001  0.1955210719999982
  0.3333333429999996  0.9940676690000032  0.3910421730000024
  0.6666666870000029  0.3274010419999982  0.0000000000000000
  0.6666666870000029  0.1607343700000001  0.1955210719999982
  0.6666666870000029  0.9940676690000032  0.3910421730000024
  0.0000000000000000  0.6607344150000003  0.0000000000000000
  0.0000000000000000  0.4940676989999986  0.1955210719999982
  0.0000000000000000  0.3274010419999982  0.3910421730000024
  0.3333333429999996  0.6607344150000003  0.0000000000000000
  0.3333333429999996  0.4940676989999986  0.1955210719999982
  0.3333333429999996  0.3274010419999982  0.3910421730000024
  0.6666666870000029  0.6607344150000003  0.0000000000000000
  0.6666666870000029  0.4940676989999986  0.1955210719999982
  0.6666666870000029  0.3274010419999982  0.3910421730000024
  0.0833333360000026  0.0774010490000023  0.0977605429999997
  0.0833333360000026  0.9107343550000024  0.2932815550000001
  0.0833333360000026  0.7440676690000032  0.4888027009999973
  0.4166666870000029  0.0774010490000023  0.0977605429999997
  0.4166666870000029  0.9107343550000024  0.2932815550000001
  0.4166666870000029  0.7440676690000032  0.4888027009999973
  0.7500000000000000  0.0774010490000023  0.0977605429999997
  0.7500000000000000  0.9107343550000024  0.2932815550000001
  0.7500000000000000  0.7440676690000032  0.4888027009999973
  0.0833333360000026  0.4107343550000024  0.0977605429999997
  0.0833333360000026  0.2440676690000032  0.2932815550000001
  0.0833333360000026  0.0774009820000003  0.4888027009999973
  0.4166666870000029  0.4107343550000024  0.0977605429999997
  0.4166666870000029  0.2440676690000032  0.2932815550000001
  0.4166666870000029  0.0774009820000003  0.4888027009999973
  0.7500000000000000  0.4107343550000024  0.0977605429999997
  0.7500000000000000  0.2440676690000032  0.2932815550000001
  0.7500000000000000  0.0774009820000003  0.4888027009999973
  0.0833333360000026  0.7440677290000011  0.0977605429999997
  0.0833333360000026  0.5774010419999982  0.2932815550000001
  0.0833333360000026  0.4107343550000024  0.4888027009999973
  0.4166666870000029  0.7440677290000011  0.0977605429999997
  0.4166666870000029  0.5774010419999982  0.2932815550000001
  0.4166666870000029  0.4107343550000024  0.4888027009999973
  0.7500000000000000  0.7440677290000011  0.0977605429999997
  0.7500000000000000  0.5774010419999982  0.2932815550000001
  0.7500000000000000  0.4107343550000024  0.4888027009999973
  0.1666666719999981  0.1607343849999978  0.0000000000000000
  0.1666666719999981  0.9940676690000032  0.1955210719999982
  0.1666666719999981  0.8274009820000003  0.3910421730000024
  0.5000000000000000  0.1607343849999978  0.0000000000000000
  0.5000000000000000  0.9940676690000032  0.1955210719999982
  0.5000000000000000  0.8274009820000003  0.3910421730000024
  0.8333333730000021  0.1607343849999978  0.0000000000000000
  0.8333333730000021  0.9940676690000032  0.1955210719999982
  0.8333333730000021  0.8274009820000003  0.3910421730000024
  0.1666666719999981  0.4940676989999986  0.0000000000000000
  0.1666666719999981  0.3274010419999982  0.1955210719999982
  0.1666666719999981  0.1607343109999988  0.3910421730000024
  0.5000000000000000  0.4940676989999986  0.0000000000000000
  0.5000000000000000  0.3274010419999982  0.1955210719999982
  0.5000000000000000  0.1607343109999988  0.3910421730000024
  0.8333333730000021  0.4940676989999986  0.0000000000000000
  0.8333333730000021  0.3274010419999982  0.1955210719999982
  0.8333333730000021  0.1607343109999988  0.3910421730000024
  0.1666666719999981  0.8274010419999982  0.0000000000000000
  0.1666666719999981  0.6607343550000024  0.1955210719999982
  0.1666666719999981  0.4940676390000007  0.3910421730000024
  0.5000000000000000  0.8274010419999982  0.0000000000000000
  0.5000000000000000  0.6607343550000024  0.1955210719999982
  0.5000000000000000  0.4940676390000007  0.3910421730000024
  0.8333333730000021  0.8274010419999982  0.0000000000000000
  0.8333333730000021  0.6607343550000024  0.1955210719999982
  0.8333333730000021  0.4940676390000007  0.3910421730000024
  0.2500000000000000  0.2440677140000034  0.0977605429999997
  0.2500000000000000  0.0774010270000005  0.2932815550000001
  0.2500000000000000  0.9107343550000024  0.4888027009999973
  0.5833333730000021  0.2440677140000034  0.0977605429999997
  0.5833333730000021  0.0774010270000005  0.2932815550000001
  0.5833333730000021  0.9107343550000024  0.4888027009999973
  0.9166666870000029  0.2440677140000034  0.0977605429999997
  0.9166666870000029  0.0774010270000005  0.2932815550000001
  0.9166666870000029  0.9107343550000024  0.4888027009999973
  0.2500000000000000  0.5774011609999974  0.0977605429999997
  0.2500000000000000  0.4107344450000028  0.2932815550000001
  0.2500000000000000  0.2440677430000022  0.4888027009999973
  0.5833333730000021  0.5774011609999974  0.0977605429999997
  0.5833333730000021  0.4107344450000028  0.2932815550000001
  0.5833333730000021  0.2440677430000022  0.4888027009999973
  0.9166666870000029  0.5774011609999974  0.0977605429999997
  0.9166666870000029  0.4107344450000028  0.2932815550000001
  0.9166666870000029  0.2440677430000022  0.4888027009999973
  0.2500000000000000  0.9107343550000024  0.0977605429999997
  0.2500000000000000  0.7440676690000032  0.2932815550000001
  0.2500000000000000  0.5774010419999982  0.4888027009999973
  0.5833333730000021  0.9107343550000024  0.0977605429999997
  0.5833333730000021  0.7440676690000032  0.2932815550000001
  0.5833333730000021  0.5774010419999982  0.4888027009999973
  0.9166666870000029  0.9107343550000024  0.0977605429999997
  0.9166666870000029  0.7440676690000032  0.2932815550000001
  0.9166666870000029  0.5774010419999982  0.4888027009999973
  0.0828638079999990  0.2465710640000012  0.6243779659999973
  0.6939748530000003  0.8715710640000012  0.6723873620000020
  0.3050858969999979  0.4965710939999965  0.7203966980000018
  0.9161968229999999  0.1215711830000004  0.7684060930000030
  0.5273079870000004  0.7465711830000004  0.8164153700000014
  0.1384190320000016  0.3715710339999987  0.8644247650000025
  0.0828638079999990  0.7465710040000033  0.6243779659999973
  0.6939748530000003  0.3715710040000033  0.6723873620000020
  0.3050858969999979  0.9965710640000012  0.7203967570000032
  0.9161968229999999  0.6215710640000012  0.7684060930000030
  0.5273079870000004  0.2465711830000004  0.8164153700000014
  0.1384190320000016  0.8715710640000012  0.8644247060000012
  0.8328636880000033  0.3715710339999987  0.6243779659999973
  0.4439747329999975  0.9965710640000012  0.6723873620000020
  0.0550857779999987  0.6215710640000012  0.7203966980000018
  0.6661968829999978  0.2465711830000004  0.7684060340000016
  0.2773079279999990  0.8715711830000004  0.8164154290000027
  0.8884187940000032  0.4965711529999979  0.8644247060000012
  0.8328637480000012  0.8715709450000020  0.6243779659999973
  0.4439747329999975  0.4965709450000020  0.6723873620000020
  0.0550857779999987  0.1215709450000020  0.7203966980000018
  0.6661968829999978  0.7465709450000020  0.7684060340000016
  0.2773079279999990  0.3715710939999965  0.8164154290000027
  0.8884189130000024  0.9965709450000020  0.8644247060000012
  0.8328637480000012  0.6215710640000012  0.6243780260000023
  0.4439747329999975  0.2465710640000012  0.6723873620000020
  0.0550857779999987  0.8715710640000012  0.7203966980000018
  0.6661968229999999  0.4965710939999965  0.7684060340000016
  0.2773079870000004  0.1215711830000004  0.8164154290000027
  0.8884189130000024  0.7465711830000004  0.8644247650000025
  0.8328637480000012  0.1215709450000020  0.6243779659999973
  0.4439747329999975  0.7465709450000020  0.6723873620000020
  0.0550857779999987  0.3715710040000033  0.7203966980000018
  0.6661968829999978  0.9965710640000012  0.7684060340000016
  0.2773079870000004  0.6215710640000012  0.8164154290000027
  0.8884187940000032  0.2465709450000020  0.8644247060000012
  0.0828638079999990  0.4965710339999987  0.6243779659999973
  0.6939748530000003  0.1215710640000012  0.6723873620000020
  0.3050858969999979  0.7465711830000004  0.7203967570000032
  0.9161968229999999  0.3715710939999965  0.7684060930000030
  0.5273082260000024  0.9965713019999995  0.8164154290000027
  0.1384190320000016  0.6215710640000012  0.8644247650000025
  0.0828638079999990  0.9965709450000020  0.6243779659999973
  0.6939748530000003  0.6215710040000033  0.6723873620000020
  0.3050858969999979  0.2465710640000012  0.7203967570000032
  0.9161969419999991  0.8715710640000012  0.7684060930000030
  0.5273081059999996  0.4965711529999979  0.8164153700000014
  0.1384187940000032  0.1215709450000020  0.8644247060000012
 
  0.00000000E+00  0.00000000E+00  0.00000000E+00
  0.00000000E+00  0.00000000E+00  0.00000000E+00
  0.00000000E+00  0.00000000E+00  0.00000000E+00
  0.00000000E+00  0.00000000E+00  0.00000000E+00
  0.00000000E+00  0.00000000E+00  0.00000000E+00
  0.00000000E+00  0.00000000E+00  0.00000000E+00
  0.00000000E+00  0.00000000E+00  0.00000000E+00
  0.00000000E+00  0.00000000E+00  0.00000000E+00
  0.00000000E+00  0.00000000E+00  0.00000000E+00
  0.00000000E+00  0.00000000E+00  0.00000000E+00
  0.00000000E+00  0.00000000E+00  0.00000000E+00
  0.00000000E+00  0.00000000E+00  0.00000000E+00
  0.00000000E+00  0.00000000E+00  0.00000000E+00
  0.00000000E+00  0.00000000E+00  0.00000000E+00
  0.00000000E+00  0.00000000E+00  0.00000000E+00
  0.00000000E+00  0.00000000E+00  0.00000000E+00
  0.00000000E+00  0.00000000E+00  0.00000000E+00
  0.00000000E+00  0.00000000E+00  0.00000000E+00
  0.00000000E+00  0.00000000E+00  0.00000000E+00
  0.00000000E+00  0.00000000E+00  0.00000000E+00
  0.00000000E+00  0.00000000E+00  0.00000000E+00
  0.00000000E+00  0.00000000E+00  0.00000000E+00
  0.00000000E+00  0.00000000E+00  0.00000000E+00
  0.00000000E+00  0.00000000E+00  0.00000000E+00
  0.00000000E+00  0.00000000E+00  0.00000000E+00
  0.00000000E+00  0.00000000E+00  0.00000000E+00
  0.00000000E+00  0.00000000E+00  0.00000000E+00
  0.00000000E+00  0.00000000E+00  0.00000000E+00
  0.00000000E+00  0.00000000E+00  0.00000000E+00
  0.00000000E+00  0.00000000E+00  0.00000000E+00
  0.00000000E+00  0.00000000E+00  0.00000000E+00
  0.00000000E+00  0.00000000E+00  0.00000000E+00
  0.00000000E+00  0.00000000E+00  0.00000000E+00
  0.00000000E+00  0.00000000E+00  0.00000000E+00
  0.00000000E+00  0.00000000E+00  0.00000000E+00
  0.00000000E+00  0.00000000E+00  0.00000000E+00
  0.00000000E+00  0.00000000E+00  0.00000000E+00
  0.00000000E+00  0.00000000E+00  0.00000000E+00
  0.00000000E+00  0.00000000E+00  0.00000000E+00
  0.00000000E+00  0.00000000E+00  0.00000000E+00
  0.00000000E+00  0.00000000E+00  0.00000000E+00
  0.00000000E+00  0.00000000E+00  0.00000000E+00
  0.00000000E+00  0.00000000E+00  0.00000000E+00
  0.00000000E+00  0.00000000E+00  0.00000000E+00
  0.00000000E+00  0.00000000E+00  0.00000000E+00
  0.00000000E+00  0.00000000E+00  0.00000000E+00
  0.00000000E+00  0.00000000E+00  0.00000000E+00
  0.00000000E+00  0.00000000E+00  0.00000000E+00
  0.00000000E+00  0.00000000E+00  0.00000000E+00
  0.00000000E+00  0.00000000E+00  0.00000000E+00
  0.00000000E+00  0.00000000E+00  0.00000000E+00
  0.00000000E+00  0.00000000E+00  0.00000000E+00
  0.00000000E+00  0.00000000E+00  0.00000000E+00
  0.00000000E+00  0.00000000E+00  0.00000000E+00
  0.00000000E+00  0.00000000E+00  0.00000000E+00
  0.00000000E+00  0.00000000E+00  0.00000000E+00
  0.00000000E+00  0.00000000E+00  0.00000000E+00
  0.00000000E+00  0.00000000E+00  0.00000000E+00
  0.00000000E+00  0.00000000E+00  0.00000000E+00
  0.00000000E+00  0.00000000E+00  0.00000000E+00
  0.00000000E+00  0.00000000E+00  0.00000000E+00
  0.00000000E+00  0.00000000E+00  0.00000000E+00
  0.00000000E+00  0.00000000E+00  0.00000000E+00
  0.00000000E+00  0.00000000E+00  0.00000000E+00
  0.00000000E+00  0.00000000E+00  0.00000000E+00
  0.00000000E+00  0.00000000E+00  0.00000000E+00
  0.00000000E+00  0.00000000E+00  0.00000000E+00
  0.00000000E+00  0.00000000E+00  0.00000000E+00
  0.00000000E+00  0.00000000E+00  0.00000000E+00
  0.00000000E+00  0.00000000E+00  0.00000000E+00
  0.00000000E+00  0.00000000E+00  0.00000000E+00
  0.00000000E+00  0.00000000E+00  0.00000000E+00
  0.00000000E+00  0.00000000E+00  0.00000000E+00
  0.00000000E+00  0.00000000E+00  0.00000000E+00
  0.00000000E+00  0.00000000E+00  0.00000000E+00
  0.00000000E+00  0.00000000E+00  0.00000000E+00
  0.00000000E+00  0.00000000E+00  0.00000000E+00
  0.00000000E+00  0.00000000E+00  0.00000000E+00
  0.00000000E+00  0.00000000E+00  0.00000000E+00
  0.00000000E+00  0.00000000E+00  0.00000000E+00
  0.00000000E+00  0.00000000E+00  0.00000000E+00
  0.00000000E+00  0.00000000E+00  0.00000000E+00
  0.00000000E+00  0.00000000E+00  0.00000000E+00
  0.00000000E+00  0.00000000E+00  0.00000000E+00
  0.00000000E+00  0.00000000E+00  0.00000000E+00
  0.00000000E+00  0.00000000E+00  0.00000000E+00
  0.00000000E+00  0.00000000E+00  0.00000000E+00
  0.00000000E+00  0.00000000E+00  0.00000000E+00
  0.00000000E+00  0.00000000E+00  0.00000000E+00
  0.00000000E+00  0.00000000E+00  0.00000000E+00
  0.00000000E+00  0.00000000E+00  0.00000000E+00
  0.00000000E+00  0.00000000E+00  0.00000000E+00
  0.00000000E+00  0.00000000E+00  0.00000000E+00
  0.00000000E+00  0.00000000E+00  0.00000000E+00
  0.00000000E+00  0.00000000E+00  0.00000000E+00
  0.00000000E+00  0.00000000E+00  0.00000000E+00
  0.00000000E+00  0.00000000E+00  0.00000000E+00
  0.00000000E+00  0.00000000E+00  0.00000000E+00
  0.00000000E+00  0.00000000E+00  0.00000000E+00
  0.00000000E+00  0.00000000E+00  0.00000000E+00
  0.00000000E+00  0.00000000E+00  0.00000000E+00
  0.00000000E+00  0.00000000E+00  0.00000000E+00
  0.00000000E+00  0.00000000E+00  0.00000000E+00
  0.00000000E+00  0.00000000E+00  0.00000000E+00
  0.00000000E+00  0.00000000E+00  0.00000000E+00
  0.00000000E+00  0.00000000E+00  0.00000000E+00
  0.00000000E+00  0.00000000E+00  0.00000000E+00
  0.00000000E+00  0.00000000E+00  0.00000000E+00
  0.00000000E+00  0.00000000E+00  0.00000000E+00
  0.00000000E+00  0.00000000E+00  0.00000000E+00
  0.00000000E+00  0.00000000E+00  0.00000000E+00
  0.00000000E+00  0.00000000E+00  0.00000000E+00
  0.00000000E+00  0.00000000E+00  0.00000000E+00
  0.00000000E+00  0.00000000E+00  0.00000000E+00
  0.00000000E+00  0.00000000E+00  0.00000000E+00
  0.00000000E+00  0.00000000E+00  0.00000000E+00
  0.00000000E+00  0.00000000E+00  0.00000000E+00
  0.00000000E+00  0.00000000E+00  0.00000000E+00
  0.00000000E+00  0.00000000E+00  0.00000000E+00
  0.00000000E+00  0.00000000E+00  0.00000000E+00
  0.00000000E+00  0.00000000E+00  0.00000000E+00
  0.00000000E+00  0.00000000E+00  0.00000000E+00
  0.00000000E+00  0.00000000E+00  0.00000000E+00
  0.00000000E+00  0.00000000E+00  0.00000000E+00
  0.00000000E+00  0.00000000E+00  0.00000000E+00
  0.00000000E+00  0.00000000E+00  0.00000000E+00
  0.00000000E+00  0.00000000E+00  0.00000000E+00
  0.00000000E+00  0.00000000E+00  0.00000000E+00
  0.00000000E+00  0.00000000E+00  0.00000000E+00
  0.00000000E+00  0.00000000E+00  0.00000000E+00
  0.00000000E+00  0.00000000E+00  0.00000000E+00
  0.00000000E+00  0.00000000E+00  0.00000000E+00
  0.00000000E+00  0.00000000E+00  0.00000000E+00
  0.00000000E+00  0.00000000E+00  0.00000000E+00
  0.00000000E+00  0.00000000E+00  0.00000000E+00
  0.00000000E+00  0.00000000E+00  0.00000000E+00
  0.00000000E+00  0.00000000E+00  0.00000000E+00
  0.00000000E+00  0.00000000E+00  0.00000000E+00
  0.00000000E+00  0.00000000E+00  0.00000000E+00
  0.00000000E+00  0.00000000E+00  0.00000000E+00
  0.00000000E+00  0.00000000E+00  0.00000000E+00
  0.00000000E+00  0.00000000E+00  0.00000000E+00
  0.00000000E+00  0.00000000E+00  0.00000000E+00
  0.00000000E+00  0.00000000E+00  0.00000000E+00
  0.00000000E+00  0.00000000E+00  0.00000000E+00
  0.00000000E+00  0.00000000E+00  0.00000000E+00
  0.00000000E+00  0.00000000E+00  0.00000000E+00
  0.00000000E+00  0.00000000E+00  0.00000000E+00
  0.00000000E+00  0.00000000E+00  0.00000000E+00
  0.00000000E+00  0.00000000E+00  0.00000000E+00
  0.00000000E+00  0.00000000E+00  0.00000000E+00
  0.00000000E+00  0.00000000E+00  0.00000000E+00
  0.00000000E+00  0.00000000E+00  0.00000000E+00
  0.00000000E+00  0.00000000E+00  0.00000000E+00
  0.00000000E+00  0.00000000E+00  0.00000000E+00
  0.00000000E+00  0.00000000E+00  0.00000000E+00
