Si+Ge
    1.000000000
   17.174331665    0.000000000    0.000000000
    0.000000000   17.174329758    0.000000000
    0.000000000    0.000000000   11.261643410
Si  Ge 
120     72
Direct
    0.996404350    0.974830687    0.000000000
    0.946404338    0.624830604    0.241128221
    0.896404266    0.274830461    0.482256502
    0.096404403    0.674830735    0.000000000
    0.046404336    0.324830651    0.241128221
    0.996404231    0.974830508    0.482256502
    0.196404412    0.374830663    0.000000000
    0.146404341    0.024830597    0.241128221
    0.096404262    0.674830437    0.482256502
    0.296404392    0.074830659    0.000000000
    0.246404305    0.724830627    0.241128221
    0.196404234    0.374830425    0.482256502
    0.396404445    0.774830699    0.000000000
    0.346404374    0.424830586    0.241128221
    0.296404302    0.074830458    0.482256502
    0.496404380    0.474830687    0.000000000
    0.446404308    0.124830604    0.241128221
    0.396404237    0.774830461    0.482256502
    0.596404374    0.174830645    0.000000000
    0.546404302    0.824830592    0.241128221
    0.496404260    0.474830449    0.482256502
    0.696404517    0.874830782    0.000000000
    0.646404445    0.524830639    0.241128221
    0.596404374    0.174830541    0.482256502
    0.796404421    0.574830711    0.000000000
    0.746404350    0.224830613    0.241128221
    0.696404278    0.874830484    0.482256502
    0.896404505    0.274830699    0.000000000
    0.846404433    0.924830616    0.241128221
    0.796404362    0.574830472    0.482256502
    0.996404409    0.224830672    0.120564148
    0.946404278    0.874830544    0.361692369
    0.896404266    0.524830461    0.602820575
    0.096404366    0.924830616    0.120564148
    0.046404287    0.574830532    0.361692369
    0.996404231    0.224830389    0.602820575
    0.196404412    0.624830663    0.120564148
    0.146404341    0.274830550    0.361692369
    0.096404262    0.924830496    0.602820575
    0.296404421    0.324830621    0.120564148
    0.246404335    0.974830508    0.361692369
    0.196404263    0.624830484    0.602820575
    0.396404415    0.024830639    0.120564148
    0.346404314    0.674830556    0.361692369
    0.296404243    0.324830472    0.602820575
    0.496404499    0.724830687    0.120564148
    0.446404427    0.374830574    0.361692369
    0.396404356    0.024830524    0.602820575
    0.596404374    0.424830586    0.120564148
    0.546404302    0.074830495    0.361692369
    0.496404260    0.724830449    0.602820575
    0.696404517    0.124830663    0.120564148
    0.646404386    0.774830580    0.361692369
    0.596404374    0.424830496    0.602820575
    0.796404481    0.824830711    0.120564148
    0.746404409    0.474830568    0.361692369
    0.696404338    0.124830484    0.602820575
    0.896404445    0.524830639    0.120564148
    0.846404374    0.174830541    0.361692369
    0.796404302    0.824830472    0.602820575
    0.996404409    0.474830687    0.000000000
    0.946404338    0.124830604    0.241128221
    0.896404266    0.774830461    0.482256502
    0.096404381    0.174830660    0.000000000
    0.046404313    0.824830592    0.241128221
    0.996404231    0.474830449    0.482256502
    0.196404412    0.874830663    0.000000000
    0.146404326    0.524830580    0.241128221
    0.096404262    0.174830437    0.482256502
    0.296404421    0.574830651    0.000000000
    0.246404320    0.224830598    0.241128221
    0.196404248    0.874830484    0.482256502
    0.396404445    0.274830669    0.000000000
    0.346404374    0.924830616    0.241128221
    0.296404302    0.574830472    0.482256502
    0.496404409    0.974830627    0.000000000
    0.446404338    0.624830544    0.241128221
    0.396404237    0.274830401    0.482256502
    0.596404374    0.674830675    0.000000000
    0.546404302    0.324830592    0.241128221
    0.496404231    0.974830449    0.482256502
    0.696404397    0.374830633    0.000000000
    0.646404326    0.024830561    0.241128221
    0.596404254    0.674830437    0.482256502
    0.796404421    0.074830636    0.000000000
    0.746404350    0.724830508    0.241128221
    0.696404278    0.374830425    0.482256502
    0.896404505    0.774830699    0.000000000
    0.846404433    0.424830616    0.241128221
    0.796404362    0.074830480    0.482256502
    0.996404350    0.724830747    0.120564148
    0.946404278    0.374830604    0.361692369
    0.896404266    0.024830539    0.602820575
    0.096404389    0.424830675    0.120564148
    0.046404306    0.074830569    0.361692369
    0.996404231    0.724830508    0.602820575
    0.196404412    0.124830656    0.120564148
    0.146404341    0.774830580    0.361692369
    0.096404269    0.424830496    0.602820575
    0.296404392    0.824830711    0.120564148
    0.246404320    0.474830568    0.361692369
    0.196404248    0.124830484    0.602820575
    0.396404415    0.524830759    0.120564148
    0.346404344    0.174830645    0.361692369
    0.296404272    0.824830592    0.602820575
    0.496404409    0.224830642    0.120564148
    0.446404338    0.874830544    0.361692369
    0.396404237    0.524830461    0.602820575
    0.596404433    0.924830675    0.120564148
    0.546404362    0.574830592    0.361692369
    0.496404290    0.224830508    0.602820575
    0.696404457    0.624830723    0.120564148
    0.646404386    0.274830580    0.361692369
    0.596404314    0.924830556    0.602820575
    0.796404362    0.324830621    0.120564148
    0.746404290    0.974830508    0.361692369
    0.696404219    0.624830484    0.602820575
    0.896404386    0.024830626    0.120564148
    0.846404314    0.674830556    0.361692369
    0.796404243    0.324830413    0.602820575
    0.826204300    0.797045708    0.999999821
    0.076203890    0.630379140    0.602820575
    0.426203966    0.463712424    0.682256520
    0.776204050    0.297045708    0.761692345
    0.126204252    0.130379006    0.841128170
    0.476204515    0.963712275    0.920564115
    0.826204300    0.463712335    0.999999821
    0.076203890    0.297045767    0.602820575
    0.426203966    0.130379081    0.682256520
    0.776204050    0.963712394    0.761692345
    0.126204252    0.797045708    0.841128170
    0.476204515    0.630378962    0.920564115
    0.826204300    0.130379021    0.999999821
    0.076203890    0.963712454    0.602820575
    0.426203966    0.797045767    0.682256520
    0.776204050    0.630379081    0.761692345
    0.126204252    0.463712335    0.841128170
    0.476204515    0.297045588    0.920564115
    0.576204538    0.047045596    1.000000119
    0.826203883    0.880379021    0.602820575
    0.176204085    0.713712394    0.682256401
    0.526204228    0.547045708    0.761692345
    0.876204252    0.380378991    0.841128170
    0.226204157    0.213712290    0.920564115
    0.576204538    0.713712335    1.000000119
    0.826203883    0.547045767    0.602820575
    0.176204085    0.380379081    0.682256401
    0.526204228    0.213712409    0.761692345
    0.876204252    0.047045682    0.841128170
    0.226204157    0.880379021    0.920564115
    0.576204538    0.380378962    1.000000119
    0.826203883    0.213712409    0.602820575
    0.176204085    0.047045711    0.682256401
    0.526204228    0.880379081    0.761692345
    0.876204252    0.713712335    0.841128170
    0.226204157    0.547045588    0.920564115
    0.326204300    0.797045588    0.999999821
    0.576203883    0.630379081    0.602820575
    0.926204085    0.463712394    0.682256520
    0.276203990    0.297045708    0.761692286
    0.626204252    0.130379006    0.841128170
    0.976204276    0.963712275    0.920564115
    0.326204300    0.463712275    0.999999821
    0.576203883    0.297045767    0.602820575
    0.926204085    0.130379051    0.682256520
    0.276203990    0.963712394    0.761692286
    0.626204252    0.797045708    0.841128170
    0.976204276    0.630378962    0.920564115
    0.326204300    0.130378962    0.999999821
    0.576203883    0.963712454    0.602820575
    0.926204085    0.797045708    0.682256520
    0.276203990    0.630379081    0.761692286
    0.626204252    0.463712335    0.841128170
    0.976204276    0.297045648    0.920564115
    0.076204538    0.047045652    1.000000119
    0.326203883    0.880379081    0.602820575
    0.676203966    0.713712394    0.682256401
    0.026204109    0.547045708    0.761692345
    0.376204252    0.380378991    0.841128170
    0.726204515    0.213712245    0.920563996
    0.076204538    0.713712335    1.000000119
    0.326203883    0.547045827    0.602820575
    0.676203966    0.380379111    0.682256401
    0.026204109    0.213712409    0.761692345
    0.376204252    0.047045689    0.841128170
    0.726204515    0.880378962    0.920563996
    0.076204538    0.380379021    1.000000119
    0.326203883    0.213712424    0.602820575
    0.676203966    0.047045745    0.682256401
    0.026204109    0.880379081    0.761692345
    0.376204252    0.713712335    0.841128170
    0.726204515    0.547045588    0.920563996
