fcc Si+fcc Ge
    1.000000000
   17.329281578    0.000000000    0.000000000
    0.000000000   17.329281578    0.000000000
    0.000000000    0.000000000   21.574622889
Si    Ge   
220     72
Direct
    0.125000000    0.625000000    0.063500531
    0.175000000    0.475000000    0.190501592
    0.225000000    0.325000000    0.317502653
    0.275000000    0.175000000    0.444503714
    0.325000000    0.025000000    0.571504775
    0.425000000    0.725000000    0.063500531
    0.475000000    0.575000000    0.190501592
    0.525000000    0.425000000    0.317502653
    0.575000000    0.275000000    0.444503714
    0.625000000    0.125000000    0.571504775
    0.725000000    0.825000000    0.063500531
    0.775000000    0.675000000    0.190501592
    0.825000000    0.525000000    0.317502653
    0.875000000    0.375000000    0.444503714
    0.925000000    0.225000000    0.571504775
    0.225000000    0.325000000    0.063500531
    0.275000000    0.175000000    0.190501592
    0.325000000    0.025000000    0.317502653
    0.375000000    0.875000000    0.444503714
    0.425000000    0.725000000    0.571504775
    0.525000000    0.425000000    0.063500531
    0.575000000    0.275000000    0.190501592
    0.625000000    0.125000000    0.317502653
    0.675000000    0.975000000    0.444503714
    0.725000000    0.825000000    0.571504775
    0.825000000    0.525000000    0.063500531
    0.875000000    0.375000000    0.190501592
    0.925000000    0.225000000    0.317502653
    0.975000000    0.075000000    0.444503714
    0.025000000    0.925000000    0.571504775
    0.025000000    0.925000000    0.063500531
    0.075000000    0.775000000    0.190501592
    0.125000000    0.625000000    0.317502653
    0.175000000    0.475000000    0.444503714
    0.225000000    0.325000000    0.571504775
    0.325000000    0.025000000    0.063500531
    0.375000000    0.875000000    0.190501592
    0.425000000    0.725000000    0.317502653
    0.475000000    0.575000000    0.444503714
    0.525000000    0.425000000    0.571504775
    0.625000000    0.125000000    0.063500531
    0.675000000    0.975000000    0.190501592
    0.725000000    0.825000000    0.317502653
    0.775000000    0.675000000    0.444503714
    0.825000000    0.525000000    0.571504775
    0.925000000    0.225000000    0.063500531
    0.975000000    0.075000000    0.190501592
    0.025000000    0.925000000    0.317502653
    0.075000000    0.775000000    0.444503714
    0.125000000    0.625000000    0.571504775
    0.225000000    0.825000000    0.063500531
    0.275000000    0.675000000    0.190501592
    0.325000000    0.525000000    0.317502653
    0.375000000    0.375000000    0.444503714
    0.425000000    0.225000000    0.571504775
    0.025000000    0.425000000    0.063500531
    0.075000000    0.275000000    0.190501592
    0.125000000    0.125000000    0.317502653
    0.175000000    0.975000000    0.444503714
    0.225000000    0.825000000    0.571504775
    0.325000000    0.525000000    0.063500531
    0.375000000    0.375000000    0.190501592
    0.425000000    0.225000000    0.317502653
    0.475000000    0.075000000    0.444503714
    0.525000000    0.925000000    0.571504775
    0.625000000    0.625000000    0.063500531
    0.675000000    0.475000000    0.190501592
    0.725000000    0.325000000    0.317502653
    0.775000000    0.175000000    0.444503714
    0.825000000    0.025000000    0.571504775
    0.925000000    0.725000000    0.063500531
    0.975000000    0.575000000    0.190501592
    0.025000000    0.425000000    0.317502653
    0.075000000    0.275000000    0.444503714
    0.125000000    0.125000000    0.571504775
    0.125000000    0.125000000    0.063500531
    0.175000000    0.975000000    0.190501592
    0.225000000    0.825000000    0.317502653
    0.275000000    0.675000000    0.444503714
    0.325000000    0.525000000    0.571504775
    0.425000000    0.225000000    0.063500531
    0.475000000    0.075000000    0.190501592
    0.525000000    0.925000000    0.317502653
    0.575000000    0.775000000    0.444503714
    0.625000000    0.625000000    0.571504775
    0.725000000    0.325000000    0.063500531
    0.775000000    0.175000000    0.190501592
    0.825000000    0.025000000    0.317502653
    0.875000000    0.875000000    0.444503714
    0.925000000    0.725000000    0.571504775
    0.525000000    0.925000000    0.063500531
    0.575000000    0.775000000    0.190501592
    0.625000000    0.625000000    0.317502653
    0.675000000    0.475000000    0.444503714
    0.725000000    0.325000000    0.571504775
    0.825000000    0.025000000    0.063500531
    0.875000000    0.875000000    0.190501592
    0.925000000    0.725000000    0.317502653
    0.975000000    0.575000000    0.444503714
    0.025000000    0.425000000    0.571504775
    0.075000000    0.025000000    0.000000000
    0.125000000    0.875000000    0.127001061
    0.175000000    0.725000000    0.254002122
    0.225000000    0.575000000    0.381003183
    0.275000000    0.425000000    0.508004244
    0.325000000    0.275000000    0.635005306
    0.175000000    0.725000000    0.000000000
    0.225000000    0.575000000    0.127001061
    0.275000000    0.425000000    0.254002122
    0.325000000    0.275000000    0.381003183
    0.375000000    0.125000000    0.508004244
    0.425000000    0.975000000    0.635005306
    0.475000000    0.825000000    0.000000000
    0.525000000    0.675000000    0.127001061
    0.575000000    0.525000000    0.254002122
    0.625000000    0.375000000    0.381003183
    0.675000000    0.225000000    0.508004244
    0.725000000    0.075000000    0.635005306
    0.775000000    0.925000000    0.000000000
    0.825000000    0.775000000    0.127001061
    0.875000000    0.625000000    0.254002122
    0.925000000    0.475000000    0.381003183
    0.975000000    0.325000000    0.508004244
    0.025000000    0.175000000    0.635005306
    0.975000000    0.325000000    0.000000000
    0.025000000    0.175000000    0.127001061
    0.075000000    0.025000000    0.254002122
    0.125000000    0.875000000    0.381003183
    0.175000000    0.725000000    0.508004244
    0.225000000    0.575000000    0.635005306
    0.275000000    0.425000000    0.000000000
    0.325000000    0.275000000    0.127001061
    0.375000000    0.125000000    0.254002122
    0.425000000    0.975000000    0.381003183
    0.475000000    0.825000000    0.508004244
    0.525000000    0.675000000    0.635005306
    0.575000000    0.525000000    0.000000000
    0.625000000    0.375000000    0.127001061
    0.675000000    0.225000000    0.254002122
    0.725000000    0.075000000    0.381003183
    0.775000000    0.925000000    0.508004244
    0.825000000    0.775000000    0.635005306
    0.875000000    0.625000000    0.000000000
    0.925000000    0.475000000    0.127001061
    0.975000000    0.325000000    0.254002122
    0.025000000    0.175000000    0.381003183
    0.075000000    0.025000000    0.508004244
    0.125000000    0.875000000    0.635005306
    0.375000000    0.125000000    0.000000000
    0.425000000    0.975000000    0.127001061
    0.475000000    0.825000000    0.254002122
    0.525000000    0.675000000    0.381003183
    0.575000000    0.525000000    0.508004244
    0.625000000    0.375000000    0.635005306
    0.675000000    0.225000000    0.000000000
    0.725000000    0.075000000    0.127001061
    0.775000000    0.925000000    0.254002122
    0.825000000    0.775000000    0.381003183
    0.875000000    0.625000000    0.508004244
    0.925000000    0.475000000    0.635005306
    0.975000000    0.825000000    0.000000000
    0.025000000    0.675000000    0.127001061
    0.075000000    0.525000000    0.254002122
    0.125000000    0.375000000    0.381003183
    0.175000000    0.225000000    0.508004244
    0.225000000    0.075000000    0.635005306
    0.275000000    0.925000000    0.000000000
    0.325000000    0.775000000    0.127001061
    0.375000000    0.625000000    0.254002122
    0.425000000    0.475000000    0.381003183
    0.475000000    0.325000000    0.508004244
    0.525000000    0.175000000    0.635005306
    0.575000000    0.025000000    0.000000000
    0.625000000    0.875000000    0.127001061
    0.675000000    0.725000000    0.254002122
    0.725000000    0.575000000    0.381003183
    0.775000000    0.425000000    0.508004244
    0.825000000    0.275000000    0.635005306
    0.075000000    0.525000000    0.000000000
    0.125000000    0.375000000    0.127001061
    0.175000000    0.225000000    0.254002122
    0.225000000    0.075000000    0.381003183
    0.275000000    0.925000000    0.508004244
    0.325000000    0.775000000    0.635005306
    0.375000000    0.625000000    0.000000000
    0.425000000    0.475000000    0.127001061
    0.475000000    0.325000000    0.254002122
    0.525000000    0.175000000    0.381003183
    0.575000000    0.025000000    0.508004244
    0.625000000    0.875000000    0.635005306
    0.675000000    0.725000000    0.000000000
    0.725000000    0.575000000    0.127001061
    0.775000000    0.425000000    0.254002122
    0.825000000    0.275000000    0.381003183
    0.875000000    0.125000000    0.508004244
    0.925000000    0.975000000    0.635005306
    0.175000000    0.225000000    0.000000000
    0.225000000    0.075000000    0.127001061
    0.275000000    0.925000000    0.254002122
    0.325000000    0.775000000    0.381003183
    0.375000000    0.625000000    0.508004244
    0.425000000    0.475000000    0.635005306
    0.475000000    0.325000000    0.000000000
    0.525000000    0.175000000    0.127001061
    0.575000000    0.025000000    0.254002122
    0.625000000    0.875000000    0.381003183
    0.675000000    0.725000000    0.508004244
    0.725000000    0.575000000    0.635005306
    0.775000000    0.425000000    0.000000000
    0.825000000    0.275000000    0.127001061
    0.875000000    0.125000000    0.254002122
    0.925000000    0.975000000    0.381003183
    0.975000000    0.825000000    0.508004244
    0.025000000    0.675000000    0.635005306
    0.875000000    0.125000000    0.000000000
    0.925000000    0.975000000    0.127001061
    0.975000000    0.825000000    0.254002122
    0.025000000    0.675000000    0.381003183
    0.075000000    0.525000000    0.508004244
    0.125000000    0.375000000    0.635005306
    0.422480620    0.476744186    0.921203721
    0.255813953    0.226744186    0.713801584
    0.089147287    0.076744186    0.755282012
    0.922480620    0.926744186    0.796762439
    0.755813953    0.776744186    0.838242866
    0.589147287    0.626744186    0.879723294
    0.755813953    0.476744186    0.921203721
    0.589147287    0.226744186    0.713801584
    0.422480620    0.076744186    0.755282012
    0.255813953    0.926744186    0.796762439
    0.089147287    0.776744186    0.838242866
    0.922480620    0.626744186    0.879723294
    0.089147287    0.476744186    0.921203721
    0.922480620    0.226744186    0.713801584
    0.755813953    0.076744186    0.755282012
    0.589147287    0.926744186    0.796762439
    0.422480620    0.776744186    0.838242866
    0.255813953    0.626744186    0.879723294
    0.422480620    0.976744186    0.921203721
    0.255813953    0.726744186    0.713801584
    0.089147287    0.576744186    0.755282012
    0.922480620    0.426744186    0.796762439
    0.755813953    0.276744186    0.838242866
    0.589147287    0.126744186    0.879723294
    0.755813953    0.976744186    0.921203721
    0.589147287    0.726744186    0.713801584
    0.422480620    0.576744186    0.755282012
    0.255813953    0.426744186    0.796762439
    0.089147287    0.276744186    0.838242866
    0.922480620    0.126744186    0.879723294
    0.089147287    0.976744186    0.921203721
    0.922480620    0.726744186    0.713801584
    0.755813953    0.576744186    0.755282012
    0.589147287    0.426744186    0.796762439
    0.422480620    0.276744186    0.838242866
    0.255813953    0.126744186    0.879723294
    0.505813953    0.226744186    0.921203721
    0.339147287    0.976744186    0.713801584
    0.172480620    0.826744186    0.755282012
    0.005813953    0.676744186    0.796762439
    0.839147287    0.526744186    0.838242866
    0.672480620    0.376744186    0.879723294
    0.839147287    0.226744186    0.921203721
    0.672480620    0.976744186    0.713801584
    0.505813953    0.826744186    0.755282012
    0.339147287    0.676744186    0.796762439
    0.172480620    0.526744186    0.838242866
    0.005813953    0.376744186    0.879723294
    0.172480620    0.226744186    0.921203721
    0.005813953    0.976744186    0.713801584
    0.839147287    0.826744186    0.755282012
    0.672480620    0.676744186    0.796762439
    0.505813953    0.526744186    0.838242866
    0.339147287    0.376744186    0.879723294
    0.505813953    0.726744186    0.921203721
    0.339147287    0.476744186    0.713801584
    0.172480620    0.326744186    0.755282012
    0.005813953    0.176744186    0.796762439
    0.839147287    0.026744186    0.838242866
    0.672480620    0.876744186    0.879723294
    0.839147287    0.726744186    0.921203721
    0.672480620    0.476744186    0.713801584
    0.505813953    0.326744186    0.755282012
    0.339147287    0.176744186    0.796762439
    0.172480620    0.026744186    0.838242866
    0.005813953    0.876744186    0.879723294
    0.172480620    0.726744186    0.921203721
    0.005813953    0.476744186    0.713801584
    0.839147287    0.326744186    0.755282012
    0.672480620    0.176744186    0.796762439
    0.505813953    0.026744186    0.838242866
    0.339147287    0.876744186    0.879723294
