Sn+Ge
    1.000000000
   12.978400230    0.000000000    0.000000000
  -12.978400230   14.510293007    0.000000000
    0.000000000    0.000000000    9.190411568
Sn  Ge 
24     24
Direct
    0.979564309    0.030653533    0.000000009
    0.779564261    0.330653578    0.157885149
    0.579564154    0.630653620    0.315770298
    0.479564250    0.030653533    0.000000009
    0.279564202    0.330653578    0.157885149
    0.079564132    0.630653620    0.315770298
    0.254564315    0.680653512    0.078942418
    0.054564159    0.980653465    0.236827582
    0.854564130    0.280653596    0.394712687
    0.754564404    0.680653512    0.078942418
    0.554564238    0.980653465    0.236827582
    0.354564160    0.280653596    0.394712687
    0.229564279    0.530653477    0.000000000
    0.029564191    0.830653489    0.157885149
    0.829564035    0.130653620    0.315770298
    0.729564190    0.530653477    0.000000000
    0.529564142    0.830653489    0.157885149
    0.329564035    0.130653620    0.315770298
    0.004564330    0.180653512    0.078942426
    0.804564178    0.480653584    0.236827582
    0.604564250    0.780653656    0.394712687
    0.504564285    0.180653512    0.078942426
    0.304564178    0.480653584    0.236827582
    0.104564168    0.780653656    0.394712687
    0.329596400    0.403597474    0.556860566
    0.212929726    0.986930728    0.613058805
    0.096262932    0.570263982    0.669257224
    0.979596078    0.153597236    0.725455582
    0.862929404    0.736930609    0.781653762
    0.746262550    0.320263624    0.837852120
    0.829596400    0.653597474    0.556860566
    0.712929606    0.236930609    0.613058805
    0.596262872    0.820263982    0.669257224
    0.479596078    0.403597236    0.725455403
    0.362929344    0.986930490    0.781653702
    0.246262670    0.570263624    0.837852001
    0.829596400    0.903597474    0.556860626
    0.712929606    0.486930728    0.613058925
    0.596262813    0.070263982    0.669257224
    0.479596108    0.653597176    0.725455523
    0.362929404    0.236930490    0.781653762
    0.246262550    0.820263505    0.837852120
    0.329596281    0.153597474    0.556860626
    0.212929606    0.736930668    0.613058925
    0.096262932    0.320263863    0.669257224
    0.979596078    0.903597176    0.725455523
    0.862929344    0.486930490    0.781653821
    0.746262550    0.070263505    0.837852120
