Ge+Ge                                   
   1.00000000000000     
    17.8915348049999992    0.0000000000000000    0.0000000000000000
   -16.1023807529999985    7.7987394329999997    0.0000000000000000
     0.0000002830000000   -0.0000000650000000   13.8288354869999992
   Ge
    96
Direct
  0.9438663720000022  0.5561335089999986  0.3989096580000009
  0.0228133239999977  0.9771866800000026  0.0000000100000008
  0.1807081549999978  0.8192918299999974  0.0938610580000017
  0.3386029899999983  0.6613969799999992  0.1877221169999999
  0.4964978100000010  0.5035021899999990  0.2815831599999967
  0.3122873310000003  0.6877126099999984  0.4693052169999987
  0.4438663720000022  0.5561336279999978  0.3989096580000009
  0.3122870620000029  0.6877129080000017  0.0234652939999975
  0.4701818819999986  0.5298180580000036  0.1173263190000000
  0.1857347489999981  0.7356135850000030  0.4999999400000021
  0.7859715820000019  0.2140284030000004  0.3050484660000023
  0.9438664320000001  0.0561335499999984  0.3989095390000017
  0.6543926000000013  0.3456073999999987  0.3754442330000032
  0.5228132610000031  0.4771866500000002  0.0000000000000000
  0.6807081099999976  0.3192918299999974  0.0938610509999975
  0.8386029600000029  0.1613970100000017  0.1877220869999974
  0.9964978100000010  0.0035021540000031  0.2815831300000013
  0.3122874499999995  0.1877124909999992  0.4693052769999966
  0.6017612220000004  0.3982388379999975  0.4927706719999989
  0.8122870919999983  0.1877129080000017  0.0234654619999972
  0.9701818229999972  0.0298181269999986  0.1173264529999969
  0.1280766730000025  0.8719232680000033  0.2111875860000012
  0.2859715219999970  0.7140283580000002  0.3050486149999969
  0.1017612220000004  0.8982388379999975  0.4927704629999994
  0.1543926000000013  0.8456073999999987  0.3754442330000032
  0.5228132610000031  0.9771866800000026  0.0000000109999974
  0.6807081099999976  0.8192918900000024  0.0938610509999975
  0.8386029600000029  0.6613970399999971  0.1877220869999974
  0.9964977500000032  0.5035022499999968  0.2815831300000013
  0.1017612220000004  0.3982387779999996  0.4927706719999989
  0.8436294199999992  0.0777187349999977  0.5938610429999969
  0.8122872710000024  0.6877128479999968  0.0234654340000020
  0.9701821210000006  0.5298180580000036  0.1173264829999994
  0.1280769110000008  0.3719232380000008  0.2111875120000022
  0.2859717609999990  0.2140283880000027  0.3050486149999969
  0.6857346299999989  0.2356135850000030  0.4999999400000021
  0.8122875090000008  0.6877124909999992  0.4693052470000012
  0.0228133869999994  0.4771866500000002  0.0000000140000012
  0.1807081999999980  0.3192918299999974  0.0938610429999969
  0.3386030500000032  0.1613969799999992  0.1877221169999999
  0.4964978400000035  0.0035021899999990  0.2815831300000013
  0.6543926599999992  0.8456073400000008  0.3754442330000032
  0.1543926000000013  0.3456073999999987  0.3754442330000032
  0.3122870620000029  0.1877128779999993  0.0234654489999997
  0.4701818819999986  0.0298180859999988  0.1173264829999994
  0.6280767319999967  0.8719232680000033  0.2111875559999987
  0.7859715219999970  0.7140284179999981  0.3050486149999969
  0.8122874499999995  0.1877125500000005  0.4693052470000012
  0.9752085800000003  0.4461395140000022  0.9693052169999987
  0.8436294199999992  0.5777187939999990  0.5938609239999977
  0.3436294790000005  0.0777187349999977  0.5938610429999969
  0.5015242699999973  0.9198239449999974  0.6877220869999974
  0.1017612220000004  0.3982387779999996  0.4927706719999989
  0.8173138499999979  0.6040342450000011  0.8754442330000032
  0.2646823529999978  0.1566658019999991  0.9927706120000011
  0.3436295090000030  0.5777187349999977  0.5938609239999977
  0.9752084019999998  0.4461399019999988  0.5234653950000023
  0.7909979820000004  0.6303501729999965  0.7111873630000005
  0.9488928319999985  0.4724553229999984  0.8050484660000023
  0.1067875620000009  0.3145604730000002  0.8989095089999992
  0.4752084610000011  0.9461395140000022  0.9693052169999987
  0.6857346299999989  0.7356135850000030  0.4999999400000021
  0.1857346740000025  0.2356135850000030  0.4999999400000021
  0.0015242099999995  0.4198239150000020  0.6877220869999974
  0.1594189409999984  0.2619290949999993  0.7815831300000013
  0.3173137309999987  0.1040341850000033  0.8754441139999969
  0.7646823529999978  0.6566656829999999  0.9927707310000002
  0.6331031920000001  0.7882450820000031  0.6173262599999987
  0.9752087000000031  0.9461398119999984  0.5234653950000023
  0.2909980419999982  0.1303502319999978  0.7111874220000018
  0.4488927720000007  0.9724553819999997  0.8050485850000015
  0.6067876219999988  0.8145604730000002  0.8989096279999984
  0.9752086399999982  0.9461393950000030  0.9693050979999995
  0.1331033709999971  0.7882449629999968  0.6173264379999992
  0.4752084019999998  0.9461398720000034  0.5234652760000031
  0.5015243289999987  0.4198238849999996  0.6877220869999974
  0.6594190599999976  0.2619290949999993  0.7815831300000013
  0.8173139100000029  0.1040341850000033  0.8754442330000032
  0.2646823529999978  0.6566656230000021  0.9927707310000002
  0.4752084019999998  0.4461398420000009  0.5234653950000023
  0.6331031920000001  0.2882450219999981  0.6173264379999992
  0.7909979820000004  0.1303501129999987  0.7111874819999997
  0.9488927720000007  0.9724553819999997  0.8050485249999966
  0.1067875620000009  0.8145604730000002  0.8989096279999984
  0.4752085800000003  0.4461394550000009  0.9693050979999995
  0.4438667300000034  0.0561335200000030  0.3989096279999984
  0.6017614599999987  0.8982387189999983  0.4927706419999964
  0.0015242099999995  0.9198239449999974  0.6877220869999974
  0.1594189409999984  0.7619292139999985  0.7815831300000013
  0.3173137309999987  0.6040343049999990  0.8754441139999969
  0.7646825910000032  0.1566655640000008  0.9927707310000002
  0.1331031320000022  0.2882450520000006  0.6173264379999992
  0.1857347489999981  0.7356135850000030  0.4999999400000021
  0.2909982799999966  0.6303501129999987  0.7111874220000018
  0.4488930110000027  0.4724553229999984  0.8050485249999966
  0.6067878599999972  0.3145604130000024  0.8989096279999984
 
  0.00000000E+00  0.00000000E+00  0.00000000E+00
  0.00000000E+00  0.00000000E+00  0.00000000E+00
  0.00000000E+00  0.00000000E+00  0.00000000E+00
  0.00000000E+00  0.00000000E+00  0.00000000E+00
  0.00000000E+00  0.00000000E+00  0.00000000E+00
  0.00000000E+00  0.00000000E+00  0.00000000E+00
  0.00000000E+00  0.00000000E+00  0.00000000E+00
  0.00000000E+00  0.00000000E+00  0.00000000E+00
  0.00000000E+00  0.00000000E+00  0.00000000E+00
  0.00000000E+00  0.00000000E+00  0.00000000E+00
  0.00000000E+00  0.00000000E+00  0.00000000E+00
  0.00000000E+00  0.00000000E+00  0.00000000E+00
  0.00000000E+00  0.00000000E+00  0.00000000E+00
  0.00000000E+00  0.00000000E+00  0.00000000E+00
  0.00000000E+00  0.00000000E+00  0.00000000E+00
  0.00000000E+00  0.00000000E+00  0.00000000E+00
  0.00000000E+00  0.00000000E+00  0.00000000E+00
  0.00000000E+00  0.00000000E+00  0.00000000E+00
  0.00000000E+00  0.00000000E+00  0.00000000E+00
  0.00000000E+00  0.00000000E+00  0.00000000E+00
  0.00000000E+00  0.00000000E+00  0.00000000E+00
  0.00000000E+00  0.00000000E+00  0.00000000E+00
  0.00000000E+00  0.00000000E+00  0.00000000E+00
  0.00000000E+00  0.00000000E+00  0.00000000E+00
  0.00000000E+00  0.00000000E+00  0.00000000E+00
  0.00000000E+00  0.00000000E+00  0.00000000E+00
  0.00000000E+00  0.00000000E+00  0.00000000E+00
  0.00000000E+00  0.00000000E+00  0.00000000E+00
  0.00000000E+00  0.00000000E+00  0.00000000E+00
  0.00000000E+00  0.00000000E+00  0.00000000E+00
  0.00000000E+00  0.00000000E+00  0.00000000E+00
  0.00000000E+00  0.00000000E+00  0.00000000E+00
  0.00000000E+00  0.00000000E+00  0.00000000E+00
  0.00000000E+00  0.00000000E+00  0.00000000E+00
  0.00000000E+00  0.00000000E+00  0.00000000E+00
  0.00000000E+00  0.00000000E+00  0.00000000E+00
  0.00000000E+00  0.00000000E+00  0.00000000E+00
  0.00000000E+00  0.00000000E+00  0.00000000E+00
  0.00000000E+00  0.00000000E+00  0.00000000E+00
  0.00000000E+00  0.00000000E+00  0.00000000E+00
  0.00000000E+00  0.00000000E+00  0.00000000E+00
  0.00000000E+00  0.00000000E+00  0.00000000E+00
  0.00000000E+00  0.00000000E+00  0.00000000E+00
  0.00000000E+00  0.00000000E+00  0.00000000E+00
  0.00000000E+00  0.00000000E+00  0.00000000E+00
  0.00000000E+00  0.00000000E+00  0.00000000E+00
  0.00000000E+00  0.00000000E+00  0.00000000E+00
  0.00000000E+00  0.00000000E+00  0.00000000E+00
  0.00000000E+00  0.00000000E+00  0.00000000E+00
  0.00000000E+00  0.00000000E+00  0.00000000E+00
  0.00000000E+00  0.00000000E+00  0.00000000E+00
  0.00000000E+00  0.00000000E+00  0.00000000E+00
  0.00000000E+00  0.00000000E+00  0.00000000E+00
  0.00000000E+00  0.00000000E+00  0.00000000E+00
  0.00000000E+00  0.00000000E+00  0.00000000E+00
  0.00000000E+00  0.00000000E+00  0.00000000E+00
  0.00000000E+00  0.00000000E+00  0.00000000E+00
  0.00000000E+00  0.00000000E+00  0.00000000E+00
  0.00000000E+00  0.00000000E+00  0.00000000E+00
  0.00000000E+00  0.00000000E+00  0.00000000E+00
  0.00000000E+00  0.00000000E+00  0.00000000E+00
  0.00000000E+00  0.00000000E+00  0.00000000E+00
  0.00000000E+00  0.00000000E+00  0.00000000E+00
  0.00000000E+00  0.00000000E+00  0.00000000E+00
  0.00000000E+00  0.00000000E+00  0.00000000E+00
  0.00000000E+00  0.00000000E+00  0.00000000E+00
  0.00000000E+00  0.00000000E+00  0.00000000E+00
  0.00000000E+00  0.00000000E+00  0.00000000E+00
  0.00000000E+00  0.00000000E+00  0.00000000E+00
  0.00000000E+00  0.00000000E+00  0.00000000E+00
  0.00000000E+00  0.00000000E+00  0.00000000E+00
  0.00000000E+00  0.00000000E+00  0.00000000E+00
  0.00000000E+00  0.00000000E+00  0.00000000E+00
  0.00000000E+00  0.00000000E+00  0.00000000E+00
  0.00000000E+00  0.00000000E+00  0.00000000E+00
  0.00000000E+00  0.00000000E+00  0.00000000E+00
  0.00000000E+00  0.00000000E+00  0.00000000E+00
  0.00000000E+00  0.00000000E+00  0.00000000E+00
  0.00000000E+00  0.00000000E+00  0.00000000E+00
  0.00000000E+00  0.00000000E+00  0.00000000E+00
  0.00000000E+00  0.00000000E+00  0.00000000E+00
  0.00000000E+00  0.00000000E+00  0.00000000E+00
  0.00000000E+00  0.00000000E+00  0.00000000E+00
  0.00000000E+00  0.00000000E+00  0.00000000E+00
  0.00000000E+00  0.00000000E+00  0.00000000E+00
  0.00000000E+00  0.00000000E+00  0.00000000E+00
  0.00000000E+00  0.00000000E+00  0.00000000E+00
  0.00000000E+00  0.00000000E+00  0.00000000E+00
  0.00000000E+00  0.00000000E+00  0.00000000E+00
  0.00000000E+00  0.00000000E+00  0.00000000E+00
  0.00000000E+00  0.00000000E+00  0.00000000E+00
  0.00000000E+00  0.00000000E+00  0.00000000E+00
  0.00000000E+00  0.00000000E+00  0.00000000E+00
  0.00000000E+00  0.00000000E+00  0.00000000E+00
  0.00000000E+00  0.00000000E+00  0.00000000E+00
  0.00000000E+00  0.00000000E+00  0.00000000E+00
