Si+C
    1.000000000
   13.303179741    0.000000000    0.000000000
    6.651589394   11.520891190    0.000000000
    0.000000000    0.000000000   21.679414749
Si  C  
72     308
Direct
    0.000000000    0.681493819    0.289268851
    0.000000000    0.014827055    0.000000008
    0.000000000    0.348160446    0.144634441
    0.333333343    0.014827132    0.289268851
    0.333333343    0.348160386    0.000000009
    0.333333343    0.681493819    0.144634441
    0.666666687    0.348160386    0.289268821
    0.666666687    0.681493759    0.000000006
    0.666666687    0.014827132    0.144634441
    0.000000000    0.014827251    0.325427473
    0.000000000    0.348160416    0.036158621
    0.000000000    0.681493819    0.180793047
    0.333333343    0.348160505    0.325427443
    0.333333343    0.681493819    0.036158621
    0.333333343    0.014827132    0.180793032
    0.666666746    0.681493998    0.325427473
    0.666666746    0.014827132    0.036158621
    0.666666746    0.348160505    0.180793062
    0.166666672    0.848160446    0.289268821
    0.166666672    0.181493714    0.000000004
    0.166666672    0.514827132    0.144634441
    0.500000060    0.181493759    0.289268821
    0.500000000    0.514827073    0.000000001
    0.500000000    0.848160505    0.144634441
    0.833333373    0.514827251    0.289268851
    0.833333373    0.848160446    0.000000000
    0.833333373    0.181493759    0.144634411
    0.166666687    0.181493759    0.325427383
    0.166666687    0.514827073    0.036158580
    0.166666687    0.848160505    0.180793002
    0.500000000    0.514827132    0.325427383
    0.500000000    0.848160326    0.036158577
    0.500000000    0.181493759    0.180793017
    0.833333313    0.848160446    0.325427383
    0.833333313    0.181493714    0.036158577
    0.833333313    0.514827132    0.180793047
    0.000000000    0.181493759    0.289268821
    0.000000000    0.514827073    0.000000011
    0.000000000    0.848160446    0.144634441
    0.333333343    0.514827251    0.289268851
    0.333333343    0.848160505    0.000000016
    0.333333343    0.181493878    0.144634470
    0.666666687    0.848160446    0.289268821
    0.666666687    0.181493714    0.000000001
    0.666666687    0.514827132    0.144634441
    0.000000014    0.514827251    0.325427443
    0.000000014    0.848160446    0.036158580
    0.000000014    0.181493878    0.180793032
    0.333333373    0.848160446    0.325427443
    0.333333373    0.181493714    0.036158580
    0.333333373    0.514827073    0.180793002
    0.666666746    0.181493878    0.325427443
    0.666666746    0.514827073    0.036158580
    0.666666746    0.848160505    0.180793017
    0.166666672    0.348160386    0.289268821
    0.166666672    0.681493759    0.000000009
    0.166666672    0.014827132    0.144634470
    0.500000000    0.681493759    0.289268851
    0.500000000    0.014827051    0.000000009
    0.500000000    0.348160475    0.144634441
    0.833333313    0.014827132    0.289268821
    0.833333313    0.348160416    0.000000006
    0.833333313    0.681493759    0.144634426
    0.166666687    0.681493878    0.325427473
    0.166666687    0.014827132    0.036158640
    0.166666687    0.348160386    0.180793032
    0.500000000    0.014827251    0.325427473
    0.500000000    0.348160416    0.036158610
    0.500000000    0.681493759    0.180793032
    0.833333373    0.348160505    0.325427443
    0.833333373    0.681493700    0.036158621
    0.833333373    0.014827013    0.180793032
    0.188691109    0.901339054    0.876437724
    0.950596094    0.091815591    0.496484041
    0.760119915    0.044196486    0.591472507
    0.569643557    0.996577322    0.686460912
    0.379167289    0.948958218    0.781449318
    0.331548303    0.187053397    0.876437724
    0.093453169    0.377529919    0.496484011
    0.902976990    0.329910815    0.591472507
    0.712500691    0.282291651    0.686460912
    0.522024453    0.234672517    0.781449318
    0.474405438    0.472767740    0.876437724
    0.236310333    0.663244188    0.496484011
    0.045834184    0.615625143    0.591472507
    0.855357885    0.568005979    0.686460912
    0.664881587    0.520386815    0.781449378
    0.760119796    0.044196248    0.876437724
    0.522024632    0.234672785    0.496484011
    0.331548452    0.187053651    0.591472447
    0.141072139    0.139434487    0.686460912
    0.950595915    0.091815352    0.781449318
    0.617262602    0.758481920    0.876437724
    0.379167497    0.948958516    0.496484011
    0.188691258    0.901339352    0.591472447
    0.998215139    0.853720248    0.686460793
    0.807738662    0.806101024    0.781449318
    0.902976871    0.329910517    0.876437724
    0.664881825    0.520387053    0.496484011
    0.474405587    0.472767949    0.591472507
    0.283929408    0.425148815    0.686460853
    0.093452930    0.377529651    0.781449318
    0.045833945    0.615624785    0.876437724
    0.807738900    0.806101382    0.496484011
    0.617262721    0.758482218    0.591472447
    0.426786393    0.710863113    0.686460912
    0.236310095    0.663243949    0.781449318
    0.283929199    0.425148636    0.900184810
    0.236310363    0.663244307    0.425242722
    0.045834184    0.615625143    0.520231128
    0.855357885    0.568006039    0.615219593
    0.664881587    0.520386875    0.710208058
    0.474405378    0.472767740    0.805196404
    0.569643497    0.996577203    0.900184810
    0.522024691    0.234672874    0.425242752
    0.331548452    0.187053740    0.520231128
    0.141072169    0.139434606    0.615219593
    0.950595856    0.091815472    0.710208058
    0.760119677    0.044196367    0.805196404
    0.426786274    0.710862935    0.900184810
    0.379167527    0.948958635    0.425242722
    0.188691258    0.901339471    0.520231128
    0.998215079    0.853720307    0.615219593
    0.807738721    0.806101143    0.710208058
    0.617262483    0.758482039    0.805196404
    0.712500632    0.282291472    0.900184810
    0.664881885    0.520387173    0.425242722
    0.474405587    0.472768009    0.520231128
    0.283929318    0.425148904    0.615219593
    0.093453050    0.377529740    0.710208058
    0.902976811    0.329910606    0.805196404
    0.855357766    0.568005741    0.900184810
    0.807739019    0.806101501    0.425242722
    0.617262721    0.758482277    0.520231187
    0.426786453    0.710863173    0.615219593
    0.236310154    0.663244009    0.710208058
    0.045833945    0.615624905    0.805196404
    0.141072005    0.139434278    0.900184870
    0.093453288    0.377529979    0.425242752
    0.902976990    0.329910845    0.520231128
    0.712500811    0.282291710    0.615219593
    0.522024453    0.234672546    0.710208058
    0.331548244    0.187053412    0.805196464
    0.998214900    0.853720069    0.900184810
    0.950596094    0.091815710    0.425242722
    0.760119855    0.044196606    0.520231128
    0.569643617    0.996577501    0.615219593
    0.379167318    0.948958278    0.710208058
    0.188691095    0.901339173    0.805196404
    0.260119706    0.044196248    0.876437724
    0.022024632    0.234672755    0.496484011
    0.831548452    0.187053621    0.591472507
    0.641072154    0.139434472    0.686460912
    0.450595826    0.091815352    0.781449378
    0.402976841    0.329910576    0.876437724
    0.164881766    0.520387053    0.496484011
    0.974405587    0.472768009    0.591472507
    0.783929288    0.425148815    0.686460912
    0.593452990    0.377529681    0.781449318
    0.688691139    0.901339114    0.876437724
    0.450596035    0.091815710    0.496484011
    0.260119855    0.044196486    0.591472507
    0.069643497    0.996577322    0.686460912
    0.879167259    0.948958218    0.781449378
    0.545833945    0.615624785    0.876437724
    0.307738900    0.806101382    0.496484011
    0.117262647    0.758482277    0.591472507
    0.926786542    0.710863173    0.686460853
    0.736310124    0.663243949    0.781449378
    0.831548333    0.187053382    0.876437724
    0.593453288    0.377529919    0.496483982
    0.402977020    0.329910815    0.591472507
    0.212500870    0.282291681    0.686460853
    0.022024512    0.234672502    0.781449318
    0.974405527    0.472767681    0.876437724
    0.736310422    0.663244247    0.496484011
    0.545834243    0.615625143    0.591472447
    0.355357915    0.568005919    0.686460912
    0.164881647    0.520386815    0.781449318
    0.117262661    0.758481979    0.876437724
    0.879167616    0.948958516    0.496484011
    0.688691378    0.901339352    0.591472507
    0.498215079    0.853720188    0.686460912
    0.307738781    0.806101084    0.781449318
    0.212500662    0.282291442    0.900184810
    0.164881825    0.520387113    0.425242722
    0.974405587    0.472767979    0.520231128
    0.783929408    0.425148875    0.615219533
    0.593453050    0.377529681    0.710208058
    0.402976841    0.329910576    0.805196404
    0.355357736    0.568005800    0.900184810
    0.307738960    0.806101441    0.425242692
    0.117262706    0.758482337    0.520231128
    0.926786542    0.710863173    0.615219533
    0.736310244    0.663244009    0.710208058
    0.545834005    0.615624905    0.805196404
    0.641072094    0.139434308    0.900184810
    0.593453228    0.377529979    0.425242722
    0.402976990    0.329910845    0.520231128
    0.212500811    0.282291710    0.615219533
    0.022024512    0.234672561    0.710208058
    0.831548274    0.187053442    0.805196404
    0.498214930    0.853720129    0.900184810
    0.450596094    0.091815710    0.425242722
    0.260119826    0.044196606    0.520231128
    0.069643617    0.996577561    0.615219533
    0.879167318    0.948958397    0.710208058
    0.688691139    0.901339233    0.805196404
    0.783929229    0.425148696    0.900184810
    0.736310422    0.663244367    0.425242722
    0.545834124    0.615625262    0.520231128
    0.355357915    0.568006098    0.615219533
    0.164881617    0.520386934    0.710208058
    0.974405408    0.472767800    0.805196404
    0.069643497    0.996577203    0.900184810
    0.022024751    0.234672874    0.425242692
    0.831548512    0.187053740    0.520231128
    0.641072333    0.139434591    0.615219533
    0.450596005    0.091815472    0.710208058
    0.260119766    0.044196367    0.805196404
    0.926786363    0.710862875    0.900184810
    0.879167557    0.948958576    0.425242692
    0.688691318    0.901339471    0.520231128
    0.498215109    0.853720367    0.615219533
    0.307738751    0.806101143    0.710208058
    0.117262557    0.758482039    0.805196345
    0.260119706    0.544196248    0.876437724
    0.022024632    0.734672785    0.496484011
    0.831548452    0.687053740    0.591472507
    0.641072154    0.639434516    0.686460912
    0.450595826    0.591815352    0.781449318
    0.545834005    0.115624785    0.876437724
    0.307738900    0.306101322    0.496484041
    0.117262706    0.258482218    0.591472507
    0.926786423    0.210863054    0.686460912
    0.736310124    0.163243905    0.781449378
    0.402976841    0.829910517    0.876437724
    0.164881825    0.020387053    0.496483982
    0.974405587    0.972767949    0.591472447
    0.783929408    0.925148845    0.686460793
    0.593452990    0.877529681    0.781449318
    0.688691139    0.401339084    0.876437724
    0.450596064    0.591815591    0.496484011
    0.260119796    0.544196486    0.591472507
    0.069643617    0.496577382    0.686460853
    0.879167259    0.448958188    0.781449318
    0.974405408    0.972767651    0.876437724
    0.736310363    0.163244203    0.496484011
    0.545834124    0.115625024    0.591472507
    0.355357915    0.068005919    0.686460853
    0.164881542    0.020386696    0.781449318
    0.831548333    0.687053442    0.876437724
    0.593453288    0.877529979    0.496484011
    0.402977049    0.829910874    0.591472447
    0.212500736    0.782291710    0.686460912
    0.022024512    0.734672546    0.781449318
    0.117262602    0.258481979    0.876437724
    0.879167557    0.448958516    0.496484011
    0.688691318    0.401339382    0.591472507
    0.498215020    0.353720248    0.686460912
    0.307738721    0.306101084    0.781449318
    0.355357796    0.068005800    0.900184810
    0.307738960    0.306101441    0.425242722
    0.117262706    0.258482307    0.520231128
    0.926786542    0.210863173    0.615219533
    0.736310244    0.163244009    0.710208058
    0.545834005    0.115624905    0.805196404
    0.212500602    0.782291472    0.900184810
    0.164881796    0.020387173    0.425242722
    0.974405587    0.972768068    0.520231128
    0.783929408    0.925148964    0.615219533
    0.593453050    0.877529740    0.710208058
    0.402976841    0.829910636    0.805196404
    0.498214930    0.353720069    0.900184810
    0.450596094    0.591815710    0.425242722
    0.260119855    0.544196606    0.520231128
    0.069643617    0.496577471    0.615219533
    0.879167378    0.448958308    0.710208058
    0.688691139    0.401339173    0.805196404
    0.783929229    0.925148606    0.900184810
    0.736310363    0.163244277    0.425242722
    0.545834124    0.115625143    0.520231128
    0.355357945    0.068006039    0.615219533
    0.164881617    0.020386934    0.710208058
    0.974405408    0.972767711    0.805196404
    0.641072094    0.639434397    0.900184810
    0.593453288    0.877530038    0.425242692
    0.402976990    0.829910934    0.520231128
    0.212500796    0.782291830    0.615219533
    0.022024512    0.734672606    0.710208058
    0.831548274    0.687053502    0.805196404
    0.926786363    0.210862935    0.900184810
    0.879167616    0.448958606    0.425242692
    0.688691318    0.401339471    0.520231128
    0.498215109    0.353720307    0.615219533
    0.307738781    0.306101173    0.710208058
    0.117262557    0.258482069    0.805196404
    0.069643378    0.496577233    0.900184810
    0.022024632    0.734672904    0.425242722
    0.831548393    0.687053800    0.520231128
    0.641072214    0.639434636    0.615219533
    0.450595826    0.591815472    0.710208058
    0.260119617    0.544196367    0.805196404
    0.188691109    0.401339084    0.876437724
    0.950596094    0.591815591    0.496484011
    0.760119855    0.544196486    0.591472507
    0.569643557    0.496577352    0.686460912
    0.379167229    0.448958218    0.781449378
    0.474405438    0.972767711    0.876437724
    0.236310333    0.163244188    0.496484011
    0.045834184    0.115625143    0.591472507
    0.855357885    0.068005919    0.686460912
    0.664881587    0.020386696    0.781449318
    0.331548244    0.687053323    0.876437724
    0.093453169    0.877529860    0.496484011
    0.902976990    0.829910755    0.591472507
    0.712500811    0.782291651    0.686460853
    0.522024393    0.734672427    0.781449318
    0.617262602    0.258481920    0.876437724
    0.379167527    0.448958457    0.496483982
    0.188691273    0.401339322    0.591472507
    0.998215139    0.353720218    0.686460853
    0.807738721    0.306101084    0.781449318
    0.760119796    0.544196248    0.876437724
    0.522024632    0.734672844    0.496484011
    0.331548452    0.687053680    0.591472447
    0.141072139    0.639434516    0.686460912
    0.950595856    0.591815412    0.781449318
    0.045833945    0.115624905    0.876437724
    0.807738900    0.306101352    0.496484011
    0.617262781    0.258482218    0.591472507
    0.426786393    0.210863084    0.686460912
    0.236310095    0.163243949    0.781449318
    0.902976871    0.829910517    0.876437724
    0.664881825    0.020387173    0.496484011
    0.474405557    0.972767949    0.591472507
    0.283929229    0.925148845    0.686460912
    0.093452930    0.877529621    0.781449318
    0.283929139    0.925148606    0.900184870
    0.236310393    0.163244292    0.425242752
    0.045834184    0.115625143    0.520231128
    0.855357945    0.068006039    0.615219593
    0.664881647    0.020386934    0.710208058
    0.474405438    0.972767711    0.805196404
    0.426786333    0.210862875    0.900184870
    0.379167527    0.448958576    0.425242752
    0.188691318    0.401339412    0.520231128
    0.998215079    0.353720307    0.615219653
    0.807738781    0.306101143    0.710208058
    0.617262602    0.258482009    0.805196404
    0.569643497    0.496577233    0.900184810
    0.522024691    0.734672904    0.425242722
    0.331548393    0.687053800    0.520231128
    0.141072154    0.639434636    0.615219653
    0.950595856    0.591815472    0.710208058
    0.760119677    0.544196367    0.805196404
    0.855357766    0.068005800    0.900184810
    0.807739019    0.306101441    0.425242722
    0.617262781    0.258482277    0.520231128
    0.426786482    0.210863143    0.615219653
    0.236310184    0.163243994    0.710208058
    0.045833945    0.115624905    0.805196404
    0.712500632    0.782291532    0.900184810
    0.664881825    0.020387173    0.425242722
    0.474405527    0.972768068    0.520231187
    0.283929318    0.925148904    0.615219593
    0.093453050    0.877529740    0.710208058
    0.902976811    0.829910636    0.805196464
    0.998214900    0.353720009    0.900184810
    0.950596154    0.591815710    0.425242722
    0.760119855    0.544196606    0.520231128
    0.569643617    0.496577442    0.615219533
    0.379167289    0.448958278    0.710208058
    0.188691080    0.401339173    0.805196404
    0.141072124    0.639434338    0.900184810
    0.093453288    0.877530038    0.425242722
    0.902977109    0.829910874    0.520231128
    0.712500811    0.782291770    0.615219593
    0.522024512    0.734672546    0.710208058
    0.331548303    0.687053442    0.805196404
