Si+C
    1.000000000
   13.303179741    0.000000000    0.000000000
   -6.651589394   11.520891190    0.000000000
    0.000000000    0.000000000   17.351545334
Si  C  
72     308
Direct
    0.348160356    0.681493700    0.000000016
    0.681493759    0.014827132    0.180709526
    0.014827251    0.348160625    0.361419111
    0.014827028    0.014827028    0.000000018
    0.348160386    0.348160386    0.180709526
    0.681493878    0.681493878    0.361419111
    0.681493700    0.348160356    0.000000000
    0.014827132    0.681493759    0.180709526
    0.348160625    0.014827251    0.361419052
    0.014827013    0.681493759    0.045177393
    0.348160386    0.014827132    0.225886911
    0.681493878    0.348160625    0.406596482
    0.348160416    0.348160416    0.045177408
    0.681493759    0.681493819    0.225886926
    0.014827251    0.014827251    0.406596482
    0.681493759    0.014827013    0.045177393
    0.014827132    0.348160386    0.225886911
    0.348160625    0.681493878    0.406596452
    0.014827028    0.514827013    0.000000021
    0.348160416    0.848160446    0.180709556
    0.681493819    0.181493878    0.361419111
    0.681493759    0.848160386    0.000000047
    0.014827132    0.181493759    0.180709526
    0.348160625    0.514827251    0.361419111
    0.348160386    0.181493685    0.000000010
    0.681493759    0.514827073    0.180709526
    0.014827132    0.848160505    0.361419052
    0.348160416    0.848160267    0.045177344
    0.681493878    0.181493759    0.225886896
    0.014827132    0.514827013    0.406596422
    0.014827132    0.181493700    0.045177374
    0.348160505    0.514827132    0.225886896
    0.681493759    0.848160446    0.406596363
    0.681493819    0.514827073    0.045177355
    0.014827251    0.848160505    0.225886911
    0.348160625    0.181493878    0.406596422
    0.181493700    0.848160386    0.000000029
    0.514827073    0.181493759    0.180709526
    0.848160565    0.514827251    0.361419111
    0.514827013    0.514827013    0.000000018
    0.848160446    0.848160386    0.180709526
    0.181493878    0.181493878    0.361419111
    0.848160386    0.181493700    0.000000006
    0.181493759    0.514827073    0.180709511
    0.514827251    0.848160565    0.361419111
    0.181493685    0.514827013    0.045177355
    0.514827132    0.848160505    0.225886911
    0.848160446    0.181493759    0.406596422
    0.848160386    0.848160386    0.045177333
    0.181493878    0.181493878    0.225886911
    0.514827251    0.514827251    0.406596422
    0.514827073    0.181493670    0.045177355
    0.848160505    0.514827132    0.225886911
    0.181493759    0.848160446    0.406596422
    0.181493700    0.348160356    0.000000016
    0.514827073    0.681493759    0.180709526
    0.848160505    0.014827132    0.361419111
    0.848160386    0.681493759    0.000000034
    0.181493759    0.014827132    0.180709526
    0.514827251    0.348160625    0.361419111
    0.514827013    0.014827021    0.000000016
    0.848160386    0.348160416    0.180709526
    0.181493878    0.681493819    0.361419111
    0.514827013    0.681493640    0.045177408
    0.848160386    0.014827013    0.225886911
    0.181493878    0.348160505    0.406596482
    0.181493655    0.014827013    0.045177400
    0.514827013    0.348160386    0.225886911
    0.848160446    0.681493878    0.406596482
    0.848160446    0.348160386    0.045177393
    0.181493878    0.681493759    0.225886911
    0.514827251    0.014827251    0.406596452
    0.804492056    0.005615115    0.970329642
    0.566396952    0.957996130    0.495607078
    0.375920743    0.719900906    0.614287734
    0.185444459    0.481805563    0.732968450
    0.994968176    0.243710279    0.851649046
    0.947349191    0.434186578    0.970329881
    0.709254086    0.386567652    0.495607078
    0.518777847    0.148472399    0.614287734
    0.328301579    0.910377026    0.732968450
    0.137825295    0.672281742    0.851649165
    0.518777728    0.148472250    0.970329881
    0.280682623    0.100853324    0.495607078
    0.090206437    0.862758100    0.614287734
    0.899730146    0.624662757    0.732968450
    0.709253907    0.386567414    0.851649165
    0.661634922    0.577043653    0.970329642
    0.423539817    0.529424787    0.495607078
    0.233063594    0.291329533    0.614287734
    0.042587284    0.053234152    0.732968450
    0.852111042    0.815138817    0.851649165
    0.090206325    0.862758040    0.970329642
    0.852111220    0.815138996    0.495607078
    0.661634982    0.577043772    0.614287734
    0.471158683    0.338948429    0.732968450
    0.280682445    0.100853145    0.851649046
    0.233063459    0.291329384    0.970329642
    0.994968355    0.243710458    0.495607078
    0.804492116    0.005615212    0.614287734
    0.614015877    0.767519891    0.732968450
    0.423539579    0.529424548    0.851649046
    0.375920594    0.719900846    0.970329642
    0.137825504    0.672281921    0.495607078
    0.947349310    0.434186667    0.614287734
    0.756873012    0.196091294    0.732968450
    0.566396713    0.957995951    0.851649046
    0.042587221    0.053234100    0.999999881
    0.994968414    0.243710473    0.406596541
    0.804492116    0.005615180    0.525277257
    0.614015937    0.767519891    0.643957973
    0.423539639    0.529424548    0.762638569
    0.233063340    0.291329265    0.881319344
    0.756872892    0.196091235    0.999999881
    0.709254146    0.386567712    0.406596541
    0.518777907    0.148472399    0.525277197
    0.328301638    0.910377085    0.643957913
    0.137825340    0.672281742    0.762638569
    0.947349131    0.434186518    0.881319225
    0.899730146    0.624662757    1.000000000
    0.852111340    0.815139174    0.406596541
    0.661635101    0.577043831    0.525277257
    0.471158832    0.338948548    0.643957913
    0.280682534    0.100853190    0.762638569
    0.090206333    0.862757921    0.881319344
    0.328301489    0.910377026    0.999999881
    0.280682683    0.100853369    0.406596541
    0.090206437    0.862758040    0.525277257
    0.899730206    0.624662757    0.643957973
    0.709253907    0.386567414    0.762638569
    0.518777609    0.148472190    0.881319404
    0.471158624    0.338948429    0.999999881
    0.423539877    0.529424787    0.406596541
    0.233063608    0.291329533    0.525277257
    0.042587355    0.053234212    0.643957973
    0.852111042    0.815138817    0.762638569
    0.661634803    0.577043593    0.881319344
    0.614015818    0.767519832    1.000000000
    0.566397011    0.957996249    0.406596541
    0.375920773    0.719900966    0.525277257
    0.185444519    0.481805712    0.643957973
    0.994968235    0.243710324    0.762638569
    0.804491997    0.005615100    0.881319344
    0.185444355    0.481805563    1.000000000
    0.137825534    0.672281921    0.406596541
    0.947349250    0.434186637    0.525277257
    0.756873012    0.196091339    0.643957973
    0.566396713    0.957996011    0.762638569
    0.375920534    0.719900727    0.881319404
    0.018777842    0.148472250    0.970329642
    0.780682743    0.100853339    0.495607078
    0.590206563    0.862758100    0.614287734
    0.399730206    0.624662757    0.732968450
    0.209253967    0.386567473    0.851649046
    0.590206325    0.862757921    0.970329642
    0.352111220    0.815139055    0.495607078
    0.161635011    0.577043772    0.614287734
    0.971158743    0.338948429    0.732968450
    0.780682445    0.100853086    0.851649165
    0.733063459    0.291329443    0.970329642
    0.494968414    0.243710458    0.495607078
    0.304492176    0.005615224    0.614287734
    0.114015907    0.767519891    0.732968450
    0.923539639    0.529424548    0.851649165
    0.875920534    0.719900846    0.970329881
    0.637825489    0.672281921    0.495607078
    0.447349280    0.434186637    0.614287734
    0.256872982    0.196091279    0.732968450
    0.066396683    0.957995951    0.851649165
    0.304491997    0.005615056    0.970329642
    0.066396922    0.957996190    0.495607078
    0.875920713    0.719900966    0.614287734
    0.685444415    0.481805503    0.732968450
    0.494968176    0.243710220    0.851649165
    0.447349131    0.434186518    0.970329642
    0.209254056    0.386567593    0.495607078
    0.018777864    0.148472384    0.614287734
    0.828301549    0.910377026    0.732968450
    0.637825310    0.672281682    0.851649165
    0.161634862    0.577043653    0.970329642
    0.923539758    0.529424727    0.495607078
    0.733063579    0.291329503    0.614287734
    0.542587280    0.053234156    0.732968450
    0.352110982    0.815138817    0.851649046
    0.828301549    0.910376906    1.000000000
    0.780682743    0.100853376    0.406596541
    0.590206563    0.862758100    0.525277257
    0.399730325    0.624662757    0.643957973
    0.209253952    0.386567414    0.762638569
    0.018777747    0.148472190    0.881319344
    0.971158683    0.338948369    1.000000000
    0.923539937    0.529424787    0.406596541
    0.733063698    0.291329503    0.525277257
    0.542587459    0.053234201    0.643957973
    0.352111101    0.815138817    0.762638569
    0.161634907    0.577043593    0.881319344
    0.542587280    0.053234100    0.999999881
    0.494968414    0.243710503    0.406596541
    0.304492176    0.005615204    0.525277197
    0.114015974    0.767520010    0.643957853
    0.923539639    0.529424608    0.762638569
    0.733063459    0.291329384    0.881319225
    0.685444415    0.481805563    0.999999881
    0.637825608    0.672281981    0.406596482
    0.447349340    0.434186667    0.525277197
    0.256873161    0.196091458    0.643957853
    0.066396825    0.957996070    0.762638569
    0.875920594    0.719900787    0.881319225
    0.256872952    0.196091235    0.999999881
    0.209254116    0.386567652    0.406596541
    0.018777858    0.148472354    0.525277197
    0.828301668    0.910377145    0.643957853
    0.637825370    0.672281742    0.762638569
    0.447349191    0.434186578    0.881319225
    0.399730146    0.624662757    0.999999881
    0.352111310    0.815139174    0.406596541
    0.161635026    0.577043831    0.525277197
    0.971158862    0.338948578    0.643957853
    0.780682504    0.100853197    0.762638569
    0.590206265    0.862757921    0.881319225
    0.114015758    0.767519891    0.999999881
    0.066396967    0.957996309    0.406596541
    0.875920713    0.719900966    0.525277197
    0.685444474    0.481805772    0.643957853
    0.494968176    0.243710339    0.762638569
    0.304491937    0.005615101    0.881319225
    0.947349250    0.934186578    0.970329881
    0.709254146    0.886567593    0.495607078
    0.518777966    0.648472369    0.614287734
    0.328301609    0.410377026    0.732968450
    0.137825370    0.172281742    0.851649165
    0.661634922    0.077043712    0.970329881
    0.423539847    0.029424772    0.495607078
    0.233063623    0.791329503    0.614287734
    0.042587344    0.553234220    0.732968450
    0.852111101    0.315138876    0.851649165
    0.804492056    0.505615115    0.970329642
    0.566396952    0.457996160    0.495607078
    0.375920743    0.219900921    0.614287734
    0.185444444    0.981805563    0.732968450
    0.994968116    0.743710279    0.851649046
    0.375920594    0.219900787    0.970329642
    0.137825504    0.172281876    0.495607078
    0.947349310    0.934186637    0.614287734
    0.756873012    0.696091294    0.732968450
    0.566396773    0.457995951    0.851649046
    0.518777728    0.648472190    0.970329642
    0.280682683    0.600853324    0.495607078
    0.090206459    0.362758070    0.614287734
    0.899730146    0.124662705    0.732968450
    0.709253907    0.886567354    0.851649046
    0.090206265    0.362757921    0.970329642
    0.852111220    0.315139025    0.495607078
    0.661634982    0.077043794    0.614287734
    0.471158683    0.838948429    0.732968450
    0.280682385    0.600853086    0.851649046
    0.233063400    0.791329384    0.970329881
    0.994968355    0.743710518    0.495607018
    0.804492116    0.505615234    0.614287734
    0.614015937    0.267520040    0.732968390
    0.423539519    0.029424550    0.851649165
    0.899730086    0.124662578    1.000000000
    0.852111340    0.315139025    0.406596541
    0.661635101    0.077043742    0.525277257
    0.471158832    0.838948429    0.643957973
    0.280682504    0.600853086    0.762638569
    0.090206318    0.362757862    0.881319344
    0.042587280    0.553234100    0.999999881
    0.994968474    0.743710518    0.406596541
    0.804492176    0.505615234    0.525277257
    0.614015937    0.267519921    0.643957973
    0.423539639    0.029424557    0.762638569
    0.233063400    0.791329265    0.881319344
    0.614015818    0.267519832    1.000000000
    0.566397011    0.457996279    0.406596541
    0.375920773    0.219900951    0.525277257
    0.185444579    0.981805742    0.643957913
    0.994968235    0.743710339    0.762638569
    0.804491997    0.505615115    0.881319344
    0.756873012    0.696091294    0.999999881
    0.709254146    0.886567652    0.406596541
    0.518777907    0.648472369    0.525277197
    0.328301728    0.410377145    0.643957853
    0.137825415    0.172281742    0.762638569
    0.947349191    0.934186459    0.881319225
    0.185444415    0.981805444    0.999999881
    0.137825564    0.172281906    0.406596541
    0.947349310    0.934186578    0.525277197
    0.756873131    0.696091354    0.643957853
    0.566396832    0.457996011    0.762638569
    0.375920594    0.219900787    0.881319225
    0.328301549    0.410377026    0.999999881
    0.280682713    0.600853443    0.406596541
    0.090206459    0.362758100    0.525277197
    0.899730265    0.124662876    0.643957853
    0.709253907    0.886567473    0.762638569
    0.518777728    0.648472190    0.881319225
    0.471158683    0.838948369    0.999999881
    0.423539847    0.029424770    0.406596541
    0.233063608    0.791329443    0.525277197
    0.042587396    0.553234220    0.643957853
    0.852111101    0.315138876    0.762638569
    0.661634862    0.077043653    0.881319225
    0.875920713    0.219900846    0.970329881
    0.637825608    0.172281876    0.495607078
    0.447349370    0.934186637    0.614287734
    0.256873101    0.696091294    0.732968450
    0.066396788    0.457995951    0.851649225
    0.018777801    0.648472250    0.970329642
    0.780682743    0.600853324    0.495607018
    0.590206504    0.362758100    0.614287734
    0.399730235    0.124662749    0.732968450
    0.209253922    0.886567414    0.851649046
    0.447349191    0.934186459    0.970329642
    0.209254071    0.886567593    0.495607078
    0.018777868    0.648472309    0.614287734
    0.828301549    0.410376966    0.732968450
    0.637825251    0.172281682    0.851649165
    0.590206385    0.362757981    0.970329642
    0.352111191    0.315139025    0.495607078
    0.161635011    0.077043794    0.614287734
    0.971158743    0.838948488    0.732968450
    0.780682445    0.600853086    0.851649165
    0.733063519    0.791329443    0.970329642
    0.494968414    0.743710518    0.495607018
    0.304492205    0.505615294    0.614287734
    0.114015907    0.267519921    0.732968450
    0.923539639    0.029424587    0.851649165
    0.161634862    0.077043712    0.970329642
    0.923539758    0.029424740    0.495607078
    0.733063579    0.791329503    0.614287734
    0.542587280    0.553234100    0.732968450
    0.352110982    0.315138817    0.851649165
    0.304492056    0.505615115    0.970329642
    0.066396922    0.457996249    0.495607078
    0.875920713    0.219901010    0.614287734
    0.685444415    0.981805682    0.732968450
    0.494968176    0.743710399    0.851649046
    0.685444355    0.981805563    1.000000000
    0.637825608    0.172281966    0.406596541
    0.447349399    0.934186697    0.525277257
    0.256873131    0.696091413    0.643957973
    0.066396840    0.457996070    0.762638569
    0.875920653    0.219900727    0.881319344
    0.828301668    0.410376966    0.999999881
    0.780682802    0.600853443    0.406596541
    0.590206563    0.362758100    0.525277197
    0.399730295    0.124662794    0.643957913
    0.209254012    0.886567473    0.762638569
    0.018777795    0.648472190    0.881319225
    0.971158683    0.838948369    0.999999881
    0.923539877    0.029424803    0.406596541
    0.733063638    0.791329503    0.525277197
    0.542587459    0.553234220    0.643957973
    0.352111071    0.315138817    0.762638569
    0.161634892    0.077043533    0.881319344
    0.399730086    0.124662638    1.000000000
    0.352111310    0.315139085    0.406596541
    0.161635056    0.077043802    0.525277257
    0.971158803    0.838948488    0.643957973
    0.780682504    0.600853205    0.762638569
    0.590206325    0.362757921    0.881319344
    0.542587161    0.553234100    0.999999881
    0.494968414    0.743710518    0.406596541
    0.304492176    0.505615234    0.525277197
    0.114015914    0.267519921    0.643957913
    0.923539639    0.029424571    0.762638569
    0.733063459    0.791329324    0.881319344
    0.114015818    0.267519891    0.999999881
    0.066396996    0.457996249    0.406596541
    0.875920773    0.219900981    0.525277257
    0.685444474    0.981805682    0.643957973
    0.494968176    0.743710279    0.762638569
    0.304491937    0.505615056    0.881319344
    0.256872952    0.696091294    0.999999881
    0.209254175    0.886567712    0.406596541
    0.018777916    0.648472369    0.525277197
    0.828301668    0.410377085    0.643957973
    0.637825370    0.172281757    0.762638569
    0.447349191    0.934186518    0.881319225
