Si+Si
    1.000000000
   12.144085884    0.000000000    0.000000000
  -12.144085884   12.144085884    0.000000000
    0.000000000    0.000000000   13.577501297
Si 
120
Direct
    0.035956185    0.000000000    0.000000000
    0.535956204    0.000000032    0.200000003
    0.035956264    0.000000120    0.400000036
    0.635956228    0.200000003    0.000000000
    0.135956287    0.200000033    0.200000003
    0.635956407    0.200000107    0.400000036
    0.235956207    0.400000006    0.000000000
    0.735956192    0.400000066    0.200000003
    0.235956311    0.400000125    0.400000036
    0.835956335    0.600000083    0.000000000
    0.335956335    0.600000143    0.200000003
    0.835956454    0.600000143    0.400000036
    0.435956240    0.800000012    0.000000000
    0.935956299    0.800000131    0.200000003
    0.435956359    0.800000131    0.400000036
    0.235956311    0.150000021    0.100000009
    0.735956430    0.150000051    0.300000042
    0.235956669    0.150000125    0.500000000
    0.835956335    0.350000054    0.100000009
    0.335956335    0.350000083    0.300000042
    0.835956454    0.350000143    0.500000000
    0.435956210    0.550000012    0.100000009
    0.935956299    0.550000012    0.300000042
    0.435956240    0.550000072    0.500000000
    0.035956264    0.750000060    0.100000009
    0.535956383    0.750000119    0.300000042
    0.035956383    0.750000119    0.500000000
    0.635956228    0.950000107    0.100000009
    0.135956287    0.950000167    0.300000042
    0.635956287    0.950000226    0.500000000
    0.835956275    0.100000016    0.000000000
    0.335956335    0.100000046    0.200000003
    0.835956454    0.100000143    0.400000036
    0.435956270    0.300000042    0.000000000
    0.935956240    0.300000072    0.200000003
    0.435956359    0.300000101    0.400000036
    0.035956185    0.500000060    0.000000000
    0.535956204    0.500000119    0.200000003
    0.035956264    0.500000119    0.400000036
    0.635956287    0.700000107    0.000000000
    0.135956287    0.700000167    0.200000003
    0.635956407    0.700000167    0.400000036
    0.235956177    0.900000095    0.000000000
    0.735956192    0.900000155    0.200000003
    0.235956311    0.900000155    0.400000036
    0.435956240    0.050000001    0.100000009
    0.935956299    0.050000034    0.300000042
    0.435956359    0.050000101    0.500000000
    0.035956264    0.250000030    0.100000009
    0.535956264    0.250000030    0.300000042
    0.035956383    0.250000149    0.500000000
    0.635956228    0.450000048    0.100000009
    0.135956287    0.450000107    0.300000042
    0.635956287    0.450000077    0.500000000
    0.235956192    0.650000036    0.100000009
    0.735956311    0.650000095    0.300000042
    0.235956192    0.650000155    0.500000000
    0.835956275    0.850000083    0.100000009
    0.335956335    0.850000203    0.300000042
    0.835956335    0.850000143    0.500000000
    0.235956252    0.800000012    0.500000000
    0.735956252    0.800000131    0.699999988
    0.235956311    0.800000191    0.900000095
    0.435956270    0.600000083    0.500000000
    0.935956359    0.600000203    0.699999988
    0.435956478    0.600000262    0.900000095
    0.635956228    0.400000036    0.500000000
    0.135956287    0.400000095    0.699999988
    0.635956407    0.400000155    0.900000095
    0.835956335    0.200000033    0.500000000
    0.335956335    0.200000137    0.699999988
    0.835956454    0.200000212    0.900000095
    0.035956189    0.000000000    0.500000000
    0.535956264    0.000000088    0.699999988
    0.035956383    0.000000180    0.900000095
    0.935956240    0.850000143    0.600000024
    0.435956359    0.850000203    0.800000072
    0.935956359    0.850000262    1.000000000
    0.135956287    0.650000095    0.600000024
    0.635956407    0.650000155    0.800000072
    0.135956526    0.650000215    1.000000000
    0.335956246    0.450000048    0.600000024
    0.835956335    0.450000107    0.800000072
    0.335956335    0.450000197    1.000000000
    0.535956264    0.250000030    0.600000024
    0.035956383    0.250000089    0.800000072
    0.535956383    0.250000149    1.000000000
    0.735956252    0.050000023    0.600000024
    0.235956311    0.050000098    0.800000072
    0.735956430    0.050000139    1.000000000
    0.635956228    0.900000095    0.500000000
    0.135956287    0.900000215    0.699999988
    0.635956407    0.900000274    0.900000095
    0.835956156    0.699999988    0.500000000
    0.335956216    0.700000107    0.699999988
    0.835956335    0.700000167    0.900000095
    0.035956189    0.500000060    0.500000000
    0.535956264    0.500000119    0.699999988
    0.035956383    0.500000179    0.900000095
    0.235956237    0.300000042    0.500000000
    0.735956252    0.300000101    0.699999988
    0.235956311    0.300000161    0.900000095
    0.435956240    0.100000001    0.500000000
    0.935956299    0.100000076    0.699999988
    0.435956359    0.100000121    0.900000095
    0.335956246    0.950000167    0.600000024
    0.835956335    0.950000226    0.800000072
    0.335956335    0.950000346    1.000000000
    0.535956383    0.750000060    0.600000024
    0.035956383    0.750000119    0.800000072
    0.535956502    0.750000238    1.000000000
    0.735956252    0.550000012    0.600000024
    0.235956311    0.550000072    0.800000072
    0.735956430    0.550000131    1.000000000
    0.935956299    0.350000054    0.600000024
    0.435956478    0.350000083    0.800000072
    0.935956478    0.350000232    1.000000000
    0.135956287    0.150000051    0.600000024
    0.635956407    0.150000095    0.800000072
    0.135956526    0.150000170    1.000000000
