Automatic KPOINTS generated
0
Gamma
2 3 4
0 0 0
