Sn+Si                                   
   1.00000000000000     
    19.4675998690000007    0.0000000000000000    0.0000000000000000
     0.0000000000000000   19.4675998690000007    0.0000000000000000
     0.0000000000000000    0.0000000000000000   19.1002521509999994
   Sn   Si
   108   156
Direct
  0.9770585300000008  0.5659815670000015  0.8900538680000025
  0.8283684250000007  0.6666666870000029  0.1698721050000032
  0.5732126239999999  0.5852123499999990  0.5346264840000003
  0.9578278059999974  0.6621354819999965  0.8189682960000013
  0.8283684250000007  0.3333333429999996  0.1698721050000032
  0.6617017390000015  0.3333333429999996  0.3397441799999967
  0.7462893129999983  0.7198277709999985  0.8900538680000025
  0.8283684250000007  0.0000000000000000  0.1698721050000032
  0.6617017390000015  0.0000000000000000  0.3397441799999967
  0.3283684550000032  0.6666666870000029  0.0000000000000000
  0.1617017390000015  0.6666666870000029  0.1698721050000032
  0.1501356659999971  0.7005968690000017  0.5346264840000003
  0.6309047940000028  0.2967508139999993  0.8900538680000025
  0.1617017390000015  0.3333333429999996  0.1698721050000032
  0.9950351119999965  0.3333333429999996  0.3397441799999967
  0.3283684550000032  0.0000000000000000  0.0000000000000000
  0.2078278359999999  0.4121354219999986  0.8900538680000025
  0.9950351119999965  0.0000000000000000  0.3397441799999967
  0.6617017980000028  0.6666666870000029  0.0000000000000000
  0.1309047040000024  0.7967509030000031  0.8900538680000025
  0.3283684550000032  0.6666666870000029  0.3397441799999967
  0.6617017980000028  0.3333333429999996  0.0000000000000000
  0.7847507600000014  0.5275200609999970  0.8900538680000025
  0.3283684550000032  0.3333333429999996  0.3397441799999967
  0.9001354580000012  0.9505969880000009  0.8900538680000025
  0.0155200960000030  0.3736738560000035  0.8900538680000025
  0.0732125039999971  0.5852123499999990  0.6767973299999994
  0.0783684330000014  0.9166667459999971  0.0849360529999998
  0.9117017980000028  0.9166667459999971  0.2548080979999980
  0.7270587089999978  0.8159815070000036  0.5346264840000003
  0.5155200960000030  0.8736739160000013  0.8900538680000025
  0.9117017980000028  0.5833334330000000  0.2548080979999980
  0.7078280449999994  0.9121354219999986  0.6057119370000024
  0.5539817809999974  0.6813662050000033  0.8900538680000025
  0.9578280449999994  0.6621354219999986  0.5346264840000003
  0.4962895809999992  0.9698277119999972  0.5346264840000003
  0.4117017689999969  0.9166667459999971  0.0849360529999998
  0.8809049130000020  0.0467507839999968  0.5346264840000003
  0.0783683809999971  0.9166667459999971  0.4246802329999966
  0.3232124150000004  0.8352123499999990  0.8900538680000025
  0.5347511169999990  0.7775198820000000  0.5346264840000003
  0.3809049429999973  0.5467507239999989  0.5346264840000003
  0.4117017689999969  0.2500000000000000  0.0849360529999998
  0.7655202750000001  0.6236737970000021  0.5346264840000003
  0.0783683809999971  0.2500000000000000  0.4246802329999966
  0.7450351720000015  0.9166667459999971  0.0849360529999998
  0.5783685450000036  0.9166667459999971  0.2548080979999980
  0.4117017980000028  0.9166667459999971  0.4246802329999966
  0.7450351720000015  0.5833334330000000  0.0849360529999998
  0.5783685450000036  0.5833334330000000  0.2548080979999980
  0.4117017980000028  0.5833334330000000  0.4246802329999966
  0.7450351720000015  0.2500000000000000  0.0849360529999998
  0.5783685450000036  0.2500000000000000  0.2548080979999980
  0.6501356360000017  0.2005968690000017  0.5346264840000003
  0.0924431609999985  0.9890585540000032  0.8900538680000025
  0.9950350519999986  0.8333333129999971  0.1698721050000032
  0.2655203340000014  0.1236737669999997  0.5346264840000003
  0.1617017689999969  0.5000000000000000  0.0000000000000000
  0.9950350519999986  0.5000000000000000  0.1698721050000032
  0.3039818700000012  0.9313660859999970  0.5346264840000003
  0.5924432870000018  0.4890585240000007  0.8900538680000025
  0.9950350519999986  0.1666666719999981  0.1698721050000032
  0.8283684250000007  0.1666666719999981  0.3397441799999967
  0.4950351119999965  0.8333333129999971  0.0000000000000000
  0.9385969639999985  0.7582892779999995  0.8900538680000025
  0.0732126239999999  0.0852122080000015  0.5346264840000003
  0.4950351119999965  0.5000000000000000  0.0000000000000000
  0.6693662409999988  0.1044431850000009  0.8900538680000025
  0.1617017539999992  0.5000000000000000  0.3397441799999967
  0.4950351119999965  0.1666666719999981  0.0000000000000000
  0.3283684250000007  0.1666666719999981  0.1698721050000032
  0.1617017539999992  0.1666666719999981  0.3397441799999967
  0.8283685450000036  0.8333333129999971  0.0000000000000000
  0.6617018580000007  0.8333333129999971  0.1698721050000032
  0.4950352010000003  0.8333333129999971  0.3397441799999967
  0.8283685450000036  0.5000000000000000  0.0000000000000000
  0.6617018580000007  0.5000000000000000  0.1698721050000032
  0.4950352010000003  0.5000000000000000  0.3397441799999967
  0.8283685450000036  0.1666666719999981  0.0000000000000000
  0.6617018580000007  0.1666666719999981  0.1698721050000032
  0.4950352010000003  0.1666666719999981  0.3397441799999967
  0.2450350969999988  0.7500000599999979  0.0849360529999998
  0.4193665089999996  0.3544430430000034  0.5346264840000003
  0.9117017390000015  0.7500000599999979  0.4246802329999966
  0.4001355770000004  0.4505969880000009  0.8900538680000025
  0.0783684330000014  0.4166667160000017  0.2548080979999980
  0.3424434069999975  0.7390584950000019  0.5346264840000003
  0.2450350969999988  0.0833333429999996  0.0849360529999998
  0.6885972019999969  0.0082892180000016  0.5346264840000003
  0.8424434659999989  0.2390583749999990  0.5346264840000003
  0.3232125640000021  0.3352122900000012  0.7478827830000014
  0.4117018580000007  0.7500000599999979  0.2548080979999980
  0.2450351270000013  0.7500000599999979  0.4246802329999966
  0.5783684849999986  0.4166667160000017  0.0849360529999998
  0.4117018580000007  0.4166667160000017  0.2548080979999980
  0.2450351270000013  0.4166667160000017  0.4246802329999966
  0.5783684849999986  0.0833333429999996  0.0849360529999998
  0.4117018580000007  0.0833333429999996  0.2548080979999980
  0.2450351270000013  0.0833333429999996  0.4246802329999966
  0.9117017390000015  0.7500000599999979  0.0849360529999998
  0.7450350519999986  0.7500000599999979  0.2548080979999980
  0.5783683659999994  0.7500000599999979  0.4246802329999966
  0.8232123259999966  0.3352123800000015  0.8900538680000025
  0.7450350519999986  0.4166667160000017  0.2548080979999980
  0.5783683659999994  0.4166667160000017  0.4246802329999966
  0.9117017390000015  0.0833333429999996  0.0849360529999998
  0.7450350519999986  0.0833333429999996  0.2548080979999980
  0.5783683659999994  0.0833333429999996  0.4246802329999966
  0.9117017390000015  0.0833333429999996  0.4246802329999966
  0.7270587679999991  0.3159815069999965  0.6767973299999994
  0.6116740699999994  0.3929046690000035  0.8189682960000013
  0.9962896110000017  0.4698275920000015  0.5346264840000003
  0.8809049130000020  0.5467506649999976  0.6767973299999994
  0.7655202150000022  0.6236738560000035  0.8189682960000013
  0.4578280449999994  0.1621353029999995  0.5346264840000003
  0.3424433469999997  0.2390584349999969  0.6767973299999994
  0.2270586489999999  0.3159815670000015  0.8189682960000013
  0.6116741900000022  0.3929045799999997  0.5346264840000003
  0.4962894920000025  0.4698277119999972  0.6767973299999994
  0.3809047940000028  0.5467508440000017  0.8189682960000013
  0.2450350969999988  0.2500000000000000  0.2548080979999980
  0.6501355770000004  0.7005969289999996  0.6767973299999994
  0.5347508790000006  0.7775200609999970  0.8189682960000013
  0.9193664189999993  0.8544431329999966  0.5346264840000003
  0.8039817209999995  0.9313662650000012  0.6767973299999994
  0.6885970229999998  0.0082893370000008  0.8189682960000013
  0.1617017539999992  0.8333333129999971  0.3397441799999967
  0.9578278660000024  0.1621353330000019  0.6767973299999994
  0.8424431680000026  0.2390584649999994  0.8189682960000013
  0.2270587679999991  0.3159814770000011  0.5346264840000003
  0.1116740699999994  0.3929046089999986  0.6767973299999994
  0.9962893129999983  0.4698277410000031  0.8189682960000013
  0.0783683809999971  0.5833334330000000  0.4246802329999966
  0.2655202150000022  0.6236738560000035  0.6767973299999994
  0.1501355170000025  0.7005969880000009  0.8189682960000013
  0.2450350969999988  0.5833334330000000  0.2548080979999980
  0.4193664189999993  0.8544430139999974  0.6767973299999994
  0.3039816920000007  0.9313661460000020  0.8189682960000013
  0.0783684330000014  0.0833333429999996  0.2548080979999980
  0.5732125039999971  0.0852123419999984  0.6767973299999994
  0.4578278359999999  0.1621354819999965  0.8189682960000013
  0.9950351119999965  0.6666666870000029  0.3397441799999967
  0.0347509380000020  0.7775200009999992  0.6767973299999994
  0.9193662409999988  0.8544431919999980  0.8189682960000013
  0.8283684250000007  0.5000000000000000  0.3397441799999967
  0.1885971720000015  0.0082890990000024  0.6767973299999994
  0.0732123849999979  0.0852123419999984  0.8189682960000013
  0.0539817809999974  0.1813660859999970  0.6057119370000024
  0.9385970829999977  0.2582892180000016  0.7478827830000014
  0.9117017390000015  0.4166667160000017  0.0849360529999998
  0.6693664189999993  0.1044430660000017  0.6057119370000024
  0.5539817809999974  0.1813662050000033  0.7478827830000014
  0.4385970229999998  0.2582893370000008  0.8900538680000025
  0.8232126830000013  0.3352122309999999  0.6057119370000024
  0.7078279850000015  0.4121353920000033  0.7478827830000014
  0.1617017689999969  0.1666666719999981  0.0000000000000000
  0.9770587679999991  0.5659814480000023  0.6057119370000024
  0.8616740699999994  0.6429046390000011  0.7478827830000014
  0.9950351119999965  0.0000000000000000  0.0000000000000000
  0.4385972620000018  0.2582891579999966  0.6057119370000024
  0.5783684849999986  0.7500000599999979  0.0849360529999998
  0.1617017390000015  0.0000000000000000  0.1698721050000032
  0.5924433469999997  0.4890584649999994  0.6057119370000024
  0.4770586790000024  0.5659815670000015  0.7478827830000014
  0.3616739510000002  0.6429047580000002  0.8900538680000025
  0.7462894920000025  0.7198276519999993  0.6057119370000024
  0.6309047940000028  0.7967507839999968  0.7478827830000014
  0.0783684330000014  0.5833334330000000  0.0849360529999998
  0.9001356360000017  0.9505969289999996  0.6057119370000024
  0.7847509380000020  0.0275200609999970  0.7478827830000014
  0.3283684250000007  0.5000000000000000  0.1698721050000032
  0.2078279850000015  0.4121353330000019  0.6057119370000024
  0.0924432950000025  0.4890584349999969  0.7478827830000014
  0.9950351119999965  0.6666666870000029  0.0000000000000000
  0.3616741299999973  0.6429046390000011  0.6057119370000024
  0.2462894319999975  0.7198277119999972  0.7478827830000014
  0.4950351119999965  0.6666666870000029  0.1698721050000032
  0.5155202750000001  0.8736737970000021  0.6057119370000024
  0.4001355770000004  0.9505969289999996  0.7478827830000014
  0.2847508489999981  0.0275200609999970  0.8900538680000025
  0.1309048979999972  0.7967507239999989  0.6057119370000024
  0.0155202150000022  0.8736739160000013  0.7478827830000014
  0.6617017980000028  0.0000000000000000  0.0000000000000000
  0.2847510579999977  0.0275199410000013  0.6057119370000024
  0.1693663300000026  0.1044430660000017  0.7478827830000014
  0.0539816619999982  0.1813662050000033  0.8900538680000025
  0.0347510579999977  0.2775199709999967  0.5346264840000003
  0.9193663599999979  0.3544431030000013  0.6767973299999994
  0.8039816619999982  0.4313662650000012  0.8189682960000013
  0.4117017980000028  0.2500000000000000  0.4246802329999966
  0.5347509380000020  0.2775200009999992  0.6767973299999994
  0.4193662699999976  0.3544431329999966  0.8189682960000013
  0.8039818999999966  0.4313661750000009  0.5346264840000003
  0.6885971430000026  0.5082892779999995  0.6767973299999994
  0.5732125039999971  0.5852124689999982  0.8189682960000013
  0.9117017980000028  0.2500000000000000  0.2548080979999980
  0.8424432870000018  0.7390585540000032  0.6767973299999994
  0.7270585890000021  0.8159816860000006  0.8189682960000013
  0.8283684250000007  0.8333333129999971  0.3397441799999967
  0.1501356360000017  0.2005968989999971  0.6767973299999994
  0.0347509380000020  0.2775200310000017  0.8189682960000013
  0.0783684330000014  0.7500000599999979  0.2548080979999980
  0.3039818109999999  0.4313661750000009  0.6767973299999994
  0.1885970829999977  0.5082892779999995  0.8189682960000013
  0.6617017390000015  0.6666666870000029  0.3397441799999967
  0.4578279260000002  0.6621354819999965  0.6767973299999994
  0.3424432280000005  0.7390586140000011  0.8189682960000013
  0.7450350519999986  0.9166667459999971  0.4246802329999966
  0.6116740109999981  0.8929046390000011  0.6767973299999994
  0.4962893430000008  0.9698277709999985  0.8189682960000013
  0.2450350969999988  0.9166667459999971  0.2548080979999980
  0.7655202150000022  0.1236739080000007  0.6767973299999994
  0.6501355170000025  0.2005970479999988  0.8189682960000013
  0.1885972319999993  0.5082892180000016  0.5346264840000003
  0.3283684550000032  0.0000000000000000  0.3397441799999967
  0.9950351119999965  0.3333333429999996  0.0000000000000000
  0.9117017390000015  0.4166667160000017  0.4246802329999966
  0.2270587089999978  0.8159816269999993  0.6767973299999994
  0.1116740029999974  0.8929047580000002  0.8189682960000013
  0.7450350519999986  0.2500000000000000  0.4246802329999966
  0.3809048529999970  0.0467507839999968  0.6767973299999994
  0.2655201549999973  0.1236739080000007  0.8189682960000013
  0.1116741299999973  0.8929045799999997  0.5346264840000003
  0.9962894319999975  0.9698277119999972  0.6767973299999994
  0.8809046749999965  0.0467507839999968  0.8189682960000013
  0.8616742490000036  0.1429045349999996  0.6057119370000024
  0.7462894920000025  0.2198276820000018  0.7478827830000014
  0.3283684550000032  0.3333333429999996  0.0000000000000000
  0.0155202150000022  0.3736737669999997  0.6057119370000024
  0.9001355170000025  0.4505969289999996  0.7478827830000014
  0.4950351119999965  0.3333333429999996  0.1698721050000032
  0.6309049729999998  0.2967506950000001  0.6057119370000024
  0.5155202750000001  0.3736738260000010  0.7478827830000014
  0.2450350969999988  0.4166667160000017  0.0849360529999998
  0.7847511769999969  0.5275199410000013  0.6057119370000024
  0.6693664789999971  0.6044430729999988  0.7478827830000014
  0.0783684330000014  0.2500000000000000  0.0849360529999998
  0.9385973810000010  0.7582892180000016  0.6057119370000024
  0.8232126830000013  0.8352123499999990  0.7478827830000014
  0.7078279260000002  0.9121354819999965  0.8900538680000025
  0.2462895509999967  0.2198275630000026  0.6057119370000024
  0.1309048379999993  0.2967506950000001  0.7478827830000014
  0.4950351119999965  0.0000000000000000  0.1698721050000032
  0.4001357260000020  0.4505968690000017  0.6057119370000024
  0.2847510280000023  0.5275200009999992  0.7478827830000014
  0.1693663000000001  0.6044431329999966  0.8900538680000025
  0.5539818410000024  0.6813660859999970  0.6057119370000024
  0.4385971720000015  0.7582892180000016  0.7478827830000014
  0.4117017689999969  0.5833334330000000  0.0849360529999998
  0.7450350519999986  0.5833334330000000  0.4246802329999966
  0.5924433469999997  0.9890585540000032  0.7478827830000014
  0.4770586189999975  0.0659816269999993  0.8900538680000025
  0.1693664189999993  0.6044430139999974  0.6057119370000024
  0.0539817809999974  0.6813661460000020  0.7478827830000014
  0.3283684250000007  0.8333333129999971  0.1698721050000032
  0.3232125939999975  0.8352122309999999  0.6057119370000024
  0.2078278959999977  0.9121353629999973  0.7478827830000014
  0.1617017689999969  0.8333333129999971  0.0000000000000000
  0.4770588279999970  0.0659815069999965  0.6057119370000024
  0.3616741299999973  0.1429047580000002  0.7478827830000014
  0.2462894020000022  0.2198278899999977  0.8900538680000025
  0.0924433619999974  0.9890583749999990  0.6057119370000024
  0.9770585890000021  0.0659815069999965  0.7478827830000014
  0.8616738919999989  0.1429046390000011  0.8900538680000025
 
  0.00000000E+00  0.00000000E+00  0.00000000E+00
  0.00000000E+00  0.00000000E+00  0.00000000E+00
  0.00000000E+00  0.00000000E+00  0.00000000E+00
  0.00000000E+00  0.00000000E+00  0.00000000E+00
  0.00000000E+00  0.00000000E+00  0.00000000E+00
  0.00000000E+00  0.00000000E+00  0.00000000E+00
  0.00000000E+00  0.00000000E+00  0.00000000E+00
  0.00000000E+00  0.00000000E+00  0.00000000E+00
  0.00000000E+00  0.00000000E+00  0.00000000E+00
  0.00000000E+00  0.00000000E+00  0.00000000E+00
  0.00000000E+00  0.00000000E+00  0.00000000E+00
  0.00000000E+00  0.00000000E+00  0.00000000E+00
  0.00000000E+00  0.00000000E+00  0.00000000E+00
  0.00000000E+00  0.00000000E+00  0.00000000E+00
  0.00000000E+00  0.00000000E+00  0.00000000E+00
  0.00000000E+00  0.00000000E+00  0.00000000E+00
  0.00000000E+00  0.00000000E+00  0.00000000E+00
  0.00000000E+00  0.00000000E+00  0.00000000E+00
  0.00000000E+00  0.00000000E+00  0.00000000E+00
  0.00000000E+00  0.00000000E+00  0.00000000E+00
  0.00000000E+00  0.00000000E+00  0.00000000E+00
  0.00000000E+00  0.00000000E+00  0.00000000E+00
  0.00000000E+00  0.00000000E+00  0.00000000E+00
  0.00000000E+00  0.00000000E+00  0.00000000E+00
  0.00000000E+00  0.00000000E+00  0.00000000E+00
  0.00000000E+00  0.00000000E+00  0.00000000E+00
  0.00000000E+00  0.00000000E+00  0.00000000E+00
  0.00000000E+00  0.00000000E+00  0.00000000E+00
  0.00000000E+00  0.00000000E+00  0.00000000E+00
  0.00000000E+00  0.00000000E+00  0.00000000E+00
  0.00000000E+00  0.00000000E+00  0.00000000E+00
  0.00000000E+00  0.00000000E+00  0.00000000E+00
  0.00000000E+00  0.00000000E+00  0.00000000E+00
  0.00000000E+00  0.00000000E+00  0.00000000E+00
  0.00000000E+00  0.00000000E+00  0.00000000E+00
  0.00000000E+00  0.00000000E+00  0.00000000E+00
  0.00000000E+00  0.00000000E+00  0.00000000E+00
  0.00000000E+00  0.00000000E+00  0.00000000E+00
  0.00000000E+00  0.00000000E+00  0.00000000E+00
  0.00000000E+00  0.00000000E+00  0.00000000E+00
  0.00000000E+00  0.00000000E+00  0.00000000E+00
  0.00000000E+00  0.00000000E+00  0.00000000E+00
  0.00000000E+00  0.00000000E+00  0.00000000E+00
  0.00000000E+00  0.00000000E+00  0.00000000E+00
  0.00000000E+00  0.00000000E+00  0.00000000E+00
  0.00000000E+00  0.00000000E+00  0.00000000E+00
  0.00000000E+00  0.00000000E+00  0.00000000E+00
  0.00000000E+00  0.00000000E+00  0.00000000E+00
  0.00000000E+00  0.00000000E+00  0.00000000E+00
  0.00000000E+00  0.00000000E+00  0.00000000E+00
  0.00000000E+00  0.00000000E+00  0.00000000E+00
  0.00000000E+00  0.00000000E+00  0.00000000E+00
  0.00000000E+00  0.00000000E+00  0.00000000E+00
  0.00000000E+00  0.00000000E+00  0.00000000E+00
  0.00000000E+00  0.00000000E+00  0.00000000E+00
  0.00000000E+00  0.00000000E+00  0.00000000E+00
  0.00000000E+00  0.00000000E+00  0.00000000E+00
  0.00000000E+00  0.00000000E+00  0.00000000E+00
  0.00000000E+00  0.00000000E+00  0.00000000E+00
  0.00000000E+00  0.00000000E+00  0.00000000E+00
  0.00000000E+00  0.00000000E+00  0.00000000E+00
  0.00000000E+00  0.00000000E+00  0.00000000E+00
  0.00000000E+00  0.00000000E+00  0.00000000E+00
  0.00000000E+00  0.00000000E+00  0.00000000E+00
  0.00000000E+00  0.00000000E+00  0.00000000E+00
  0.00000000E+00  0.00000000E+00  0.00000000E+00
  0.00000000E+00  0.00000000E+00  0.00000000E+00
  0.00000000E+00  0.00000000E+00  0.00000000E+00
  0.00000000E+00  0.00000000E+00  0.00000000E+00
  0.00000000E+00  0.00000000E+00  0.00000000E+00
  0.00000000E+00  0.00000000E+00  0.00000000E+00
  0.00000000E+00  0.00000000E+00  0.00000000E+00
  0.00000000E+00  0.00000000E+00  0.00000000E+00
  0.00000000E+00  0.00000000E+00  0.00000000E+00
  0.00000000E+00  0.00000000E+00  0.00000000E+00
  0.00000000E+00  0.00000000E+00  0.00000000E+00
  0.00000000E+00  0.00000000E+00  0.00000000E+00
  0.00000000E+00  0.00000000E+00  0.00000000E+00
  0.00000000E+00  0.00000000E+00  0.00000000E+00
  0.00000000E+00  0.00000000E+00  0.00000000E+00
  0.00000000E+00  0.00000000E+00  0.00000000E+00
  0.00000000E+00  0.00000000E+00  0.00000000E+00
  0.00000000E+00  0.00000000E+00  0.00000000E+00
  0.00000000E+00  0.00000000E+00  0.00000000E+00
  0.00000000E+00  0.00000000E+00  0.00000000E+00
  0.00000000E+00  0.00000000E+00  0.00000000E+00
  0.00000000E+00  0.00000000E+00  0.00000000E+00
  0.00000000E+00  0.00000000E+00  0.00000000E+00
  0.00000000E+00  0.00000000E+00  0.00000000E+00
  0.00000000E+00  0.00000000E+00  0.00000000E+00
  0.00000000E+00  0.00000000E+00  0.00000000E+00
  0.00000000E+00  0.00000000E+00  0.00000000E+00
  0.00000000E+00  0.00000000E+00  0.00000000E+00
  0.00000000E+00  0.00000000E+00  0.00000000E+00
  0.00000000E+00  0.00000000E+00  0.00000000E+00
  0.00000000E+00  0.00000000E+00  0.00000000E+00
  0.00000000E+00  0.00000000E+00  0.00000000E+00
  0.00000000E+00  0.00000000E+00  0.00000000E+00
  0.00000000E+00  0.00000000E+00  0.00000000E+00
  0.00000000E+00  0.00000000E+00  0.00000000E+00
  0.00000000E+00  0.00000000E+00  0.00000000E+00
  0.00000000E+00  0.00000000E+00  0.00000000E+00
  0.00000000E+00  0.00000000E+00  0.00000000E+00
  0.00000000E+00  0.00000000E+00  0.00000000E+00
  0.00000000E+00  0.00000000E+00  0.00000000E+00
  0.00000000E+00  0.00000000E+00  0.00000000E+00
  0.00000000E+00  0.00000000E+00  0.00000000E+00
  0.00000000E+00  0.00000000E+00  0.00000000E+00
  0.00000000E+00  0.00000000E+00  0.00000000E+00
  0.00000000E+00  0.00000000E+00  0.00000000E+00
  0.00000000E+00  0.00000000E+00  0.00000000E+00
  0.00000000E+00  0.00000000E+00  0.00000000E+00
  0.00000000E+00  0.00000000E+00  0.00000000E+00
  0.00000000E+00  0.00000000E+00  0.00000000E+00
  0.00000000E+00  0.00000000E+00  0.00000000E+00
  0.00000000E+00  0.00000000E+00  0.00000000E+00
  0.00000000E+00  0.00000000E+00  0.00000000E+00
  0.00000000E+00  0.00000000E+00  0.00000000E+00
  0.00000000E+00  0.00000000E+00  0.00000000E+00
  0.00000000E+00  0.00000000E+00  0.00000000E+00
  0.00000000E+00  0.00000000E+00  0.00000000E+00
  0.00000000E+00  0.00000000E+00  0.00000000E+00
  0.00000000E+00  0.00000000E+00  0.00000000E+00
  0.00000000E+00  0.00000000E+00  0.00000000E+00
  0.00000000E+00  0.00000000E+00  0.00000000E+00
  0.00000000E+00  0.00000000E+00  0.00000000E+00
  0.00000000E+00  0.00000000E+00  0.00000000E+00
  0.00000000E+00  0.00000000E+00  0.00000000E+00
  0.00000000E+00  0.00000000E+00  0.00000000E+00
  0.00000000E+00  0.00000000E+00  0.00000000E+00
  0.00000000E+00  0.00000000E+00  0.00000000E+00
  0.00000000E+00  0.00000000E+00  0.00000000E+00
  0.00000000E+00  0.00000000E+00  0.00000000E+00
  0.00000000E+00  0.00000000E+00  0.00000000E+00
  0.00000000E+00  0.00000000E+00  0.00000000E+00
  0.00000000E+00  0.00000000E+00  0.00000000E+00
  0.00000000E+00  0.00000000E+00  0.00000000E+00
  0.00000000E+00  0.00000000E+00  0.00000000E+00
  0.00000000E+00  0.00000000E+00  0.00000000E+00
  0.00000000E+00  0.00000000E+00  0.00000000E+00
  0.00000000E+00  0.00000000E+00  0.00000000E+00
  0.00000000E+00  0.00000000E+00  0.00000000E+00
  0.00000000E+00  0.00000000E+00  0.00000000E+00
  0.00000000E+00  0.00000000E+00  0.00000000E+00
  0.00000000E+00  0.00000000E+00  0.00000000E+00
  0.00000000E+00  0.00000000E+00  0.00000000E+00
  0.00000000E+00  0.00000000E+00  0.00000000E+00
  0.00000000E+00  0.00000000E+00  0.00000000E+00
  0.00000000E+00  0.00000000E+00  0.00000000E+00
  0.00000000E+00  0.00000000E+00  0.00000000E+00
  0.00000000E+00  0.00000000E+00  0.00000000E+00
  0.00000000E+00  0.00000000E+00  0.00000000E+00
  0.00000000E+00  0.00000000E+00  0.00000000E+00
  0.00000000E+00  0.00000000E+00  0.00000000E+00
  0.00000000E+00  0.00000000E+00  0.00000000E+00
  0.00000000E+00  0.00000000E+00  0.00000000E+00
  0.00000000E+00  0.00000000E+00  0.00000000E+00
  0.00000000E+00  0.00000000E+00  0.00000000E+00
  0.00000000E+00  0.00000000E+00  0.00000000E+00
  0.00000000E+00  0.00000000E+00  0.00000000E+00
  0.00000000E+00  0.00000000E+00  0.00000000E+00
  0.00000000E+00  0.00000000E+00  0.00000000E+00
  0.00000000E+00  0.00000000E+00  0.00000000E+00
  0.00000000E+00  0.00000000E+00  0.00000000E+00
  0.00000000E+00  0.00000000E+00  0.00000000E+00
  0.00000000E+00  0.00000000E+00  0.00000000E+00
  0.00000000E+00  0.00000000E+00  0.00000000E+00
  0.00000000E+00  0.00000000E+00  0.00000000E+00
  0.00000000E+00  0.00000000E+00  0.00000000E+00
  0.00000000E+00  0.00000000E+00  0.00000000E+00
  0.00000000E+00  0.00000000E+00  0.00000000E+00
  0.00000000E+00  0.00000000E+00  0.00000000E+00
  0.00000000E+00  0.00000000E+00  0.00000000E+00
  0.00000000E+00  0.00000000E+00  0.00000000E+00
  0.00000000E+00  0.00000000E+00  0.00000000E+00
  0.00000000E+00  0.00000000E+00  0.00000000E+00
  0.00000000E+00  0.00000000E+00  0.00000000E+00
  0.00000000E+00  0.00000000E+00  0.00000000E+00
  0.00000000E+00  0.00000000E+00  0.00000000E+00
  0.00000000E+00  0.00000000E+00  0.00000000E+00
  0.00000000E+00  0.00000000E+00  0.00000000E+00
  0.00000000E+00  0.00000000E+00  0.00000000E+00
  0.00000000E+00  0.00000000E+00  0.00000000E+00
  0.00000000E+00  0.00000000E+00  0.00000000E+00
  0.00000000E+00  0.00000000E+00  0.00000000E+00
  0.00000000E+00  0.00000000E+00  0.00000000E+00
  0.00000000E+00  0.00000000E+00  0.00000000E+00
  0.00000000E+00  0.00000000E+00  0.00000000E+00
  0.00000000E+00  0.00000000E+00  0.00000000E+00
  0.00000000E+00  0.00000000E+00  0.00000000E+00
  0.00000000E+00  0.00000000E+00  0.00000000E+00
  0.00000000E+00  0.00000000E+00  0.00000000E+00
  0.00000000E+00  0.00000000E+00  0.00000000E+00
  0.00000000E+00  0.00000000E+00  0.00000000E+00
  0.00000000E+00  0.00000000E+00  0.00000000E+00
  0.00000000E+00  0.00000000E+00  0.00000000E+00
  0.00000000E+00  0.00000000E+00  0.00000000E+00
  0.00000000E+00  0.00000000E+00  0.00000000E+00
  0.00000000E+00  0.00000000E+00  0.00000000E+00
  0.00000000E+00  0.00000000E+00  0.00000000E+00
  0.00000000E+00  0.00000000E+00  0.00000000E+00
  0.00000000E+00  0.00000000E+00  0.00000000E+00
  0.00000000E+00  0.00000000E+00  0.00000000E+00
  0.00000000E+00  0.00000000E+00  0.00000000E+00
  0.00000000E+00  0.00000000E+00  0.00000000E+00
  0.00000000E+00  0.00000000E+00  0.00000000E+00
  0.00000000E+00  0.00000000E+00  0.00000000E+00
  0.00000000E+00  0.00000000E+00  0.00000000E+00
  0.00000000E+00  0.00000000E+00  0.00000000E+00
  0.00000000E+00  0.00000000E+00  0.00000000E+00
  0.00000000E+00  0.00000000E+00  0.00000000E+00
  0.00000000E+00  0.00000000E+00  0.00000000E+00
  0.00000000E+00  0.00000000E+00  0.00000000E+00
  0.00000000E+00  0.00000000E+00  0.00000000E+00
  0.00000000E+00  0.00000000E+00  0.00000000E+00
  0.00000000E+00  0.00000000E+00  0.00000000E+00
  0.00000000E+00  0.00000000E+00  0.00000000E+00
  0.00000000E+00  0.00000000E+00  0.00000000E+00
  0.00000000E+00  0.00000000E+00  0.00000000E+00
  0.00000000E+00  0.00000000E+00  0.00000000E+00
  0.00000000E+00  0.00000000E+00  0.00000000E+00
  0.00000000E+00  0.00000000E+00  0.00000000E+00
  0.00000000E+00  0.00000000E+00  0.00000000E+00
  0.00000000E+00  0.00000000E+00  0.00000000E+00
  0.00000000E+00  0.00000000E+00  0.00000000E+00
  0.00000000E+00  0.00000000E+00  0.00000000E+00
  0.00000000E+00  0.00000000E+00  0.00000000E+00
  0.00000000E+00  0.00000000E+00  0.00000000E+00
  0.00000000E+00  0.00000000E+00  0.00000000E+00
  0.00000000E+00  0.00000000E+00  0.00000000E+00
  0.00000000E+00  0.00000000E+00  0.00000000E+00
  0.00000000E+00  0.00000000E+00  0.00000000E+00
  0.00000000E+00  0.00000000E+00  0.00000000E+00
  0.00000000E+00  0.00000000E+00  0.00000000E+00
  0.00000000E+00  0.00000000E+00  0.00000000E+00
  0.00000000E+00  0.00000000E+00  0.00000000E+00
  0.00000000E+00  0.00000000E+00  0.00000000E+00
  0.00000000E+00  0.00000000E+00  0.00000000E+00
  0.00000000E+00  0.00000000E+00  0.00000000E+00
  0.00000000E+00  0.00000000E+00  0.00000000E+00
  0.00000000E+00  0.00000000E+00  0.00000000E+00
  0.00000000E+00  0.00000000E+00  0.00000000E+00
  0.00000000E+00  0.00000000E+00  0.00000000E+00
  0.00000000E+00  0.00000000E+00  0.00000000E+00
  0.00000000E+00  0.00000000E+00  0.00000000E+00
  0.00000000E+00  0.00000000E+00  0.00000000E+00
  0.00000000E+00  0.00000000E+00  0.00000000E+00
  0.00000000E+00  0.00000000E+00  0.00000000E+00
  0.00000000E+00  0.00000000E+00  0.00000000E+00
  0.00000000E+00  0.00000000E+00  0.00000000E+00
  0.00000000E+00  0.00000000E+00  0.00000000E+00
  0.00000000E+00  0.00000000E+00  0.00000000E+00
  0.00000000E+00  0.00000000E+00  0.00000000E+00
  0.00000000E+00  0.00000000E+00  0.00000000E+00
  0.00000000E+00  0.00000000E+00  0.00000000E+00
  0.00000000E+00  0.00000000E+00  0.00000000E+00
  0.00000000E+00  0.00000000E+00  0.00000000E+00
  0.00000000E+00  0.00000000E+00  0.00000000E+00
  0.00000000E+00  0.00000000E+00  0.00000000E+00
  0.00000000E+00  0.00000000E+00  0.00000000E+00
  0.00000000E+00  0.00000000E+00  0.00000000E+00
  0.00000000E+00  0.00000000E+00  0.00000000E+00
  0.00000000E+00  0.00000000E+00  0.00000000E+00
  0.00000000E+00  0.00000000E+00  0.00000000E+00
