Ge+Ge                                   
   1.00000000000000     
    12.6512260439999995    0.0000000000000000    0.0000000000000000
     2.5302453040000001   12.3956203459999994    0.0000000000000000
     0.0000000000000000    0.0000000000000000   13.9339103699999995
   Ge
    96
Direct
  0.7842565770000007  0.4897986650000021  0.4144186380000008
  0.9925903680000019  0.9481325149999975  0.0000000220000018
  0.9509235619999998  0.6564657690000004  0.0828837600000014
  0.9092568160000027  0.3647989030000005  0.1657675060000017
  0.8675900699999985  0.0731322170000013  0.2486512210000029
  0.8259233240000015  0.7814655299999984  0.3315348920000005
  0.8350372310000012  0.4945743979999975  0.5828837159999978
  0.4925903680000019  0.4481325149999975  0.0000000280000023
  0.4509236219999977  0.1564657690000004  0.0828837600000014
  0.4092568760000006  0.8647989629999984  0.1657675060000017
  0.5017039780000019  0.4112411739999970  0.5000000000000000
  0.3259233830000028  0.2814655299999984  0.3315349220000030
  0.3767039780000019  0.2862411739999970  0.5000000000000000
  0.3675903979999973  0.8231326339999967  0.0000000120000010
  0.3259236219999977  0.5314658280000017  0.0828837600000014
  0.2842568760000006  0.2397990079999985  0.1657675359999971
  0.2425901740000000  0.9481323959999983  0.2486511919999970
  0.9183704849999970  0.3279076809999992  0.6657675499999982
  0.8767039780000019  0.7862411739999970  0.5000000000000000
  0.8675904870000011  0.3231325750000025  0.0000000120000010
  0.8259236809999990  0.0314657759999974  0.0828837600000014
  0.7842568760000006  0.7397989030000005  0.1657675060000017
  0.0850371120000020  0.2445743079999971  0.5828837159999978
  0.7009233830000028  0.1564655299999984  0.3315348920000005
  0.8767039780000019  0.7862411739999970  0.5000000000000000
  0.2425903529999971  0.6981326339999967  0.0000000000000000
  0.2009235920000023  0.4064657990000029  0.0828837529999973
  0.1592568459999981  0.1147989560000013  0.1657675060000017
  0.8350372310000012  0.4945743979999975  0.5828837159999978
  0.0759233389999991  0.5314655299999984  0.3315348920000005
  0.6683704849999970  0.5779076809999992  0.6657675499999982
  0.7425904270000032  0.1981325149999975  0.0000000209999982
  0.7009236219999977  0.9064657090000026  0.0828837680000021
  0.6592568760000006  0.6147989030000005  0.1657675060000017
  0.6175902490000027  0.3231323360000005  0.2486512210000029
  0.5759234430000006  0.0314654709999971  0.3315348920000005
  0.5850371719999998  0.7445744280000000  0.5828837159999978
  0.1175903600000012  0.0731325149999975  0.0000000209999982
  0.0759235989999993  0.7814657690000004  0.0828837600000014
  0.0342568459999981  0.4897989629999984  0.1657675060000017
  0.9925900699999985  0.1981322170000013  0.2486512210000029
  0.2933704849999970  0.7029076809999992  0.6657675499999982
  0.4092566070000032  0.1147988439999992  0.4144186970000021
  0.6175904870000011  0.5731325750000025  0.0000000120000010
  0.5759236219999977  0.2814658280000017  0.0828837529999973
  0.5342569350000019  0.9897990230000033  0.1657675359999971
  0.4925901889999977  0.6981322769999991  0.2486512509999983
  0.1267039780000019  0.5362411739999970  0.5000000000000000
  0.9183701279999994  0.0779073240000017  0.9144186970000021
  0.1592566369999986  0.3647987840000013  0.4144186970000021
  0.7425901289999999  0.4481323360000005  0.2486511919999970
  0.7933703659999978  0.2029075620000000  0.6657675499999982
  0.5017036200000007  0.1612408160000030  0.7486512660000031
  0.2100369930000028  0.1195740699999988  0.8315349820000009
  0.4183701279999994  0.5779074430000009  0.9144186970000021
  0.6592565770000007  0.8647986650000021  0.4144186380000008
  0.9092565770000007  0.6147987840000013  0.4144186970000021
  0.9509233830000028  0.9064655299999984  0.3315349220000030
  0.0017037389999999  0.6612409350000021  0.7486512660000031
  0.7100368739999965  0.6195741889999979  0.8315349820000009
  0.7933702469999986  0.4529074430000009  0.9144186970000021
  0.2517040970000011  0.6612411739999970  0.5000000000000000
  0.9600372310000012  0.6195744280000000  0.5828837159999978
  0.5342566970000036  0.7397986650000021  0.4144186970000021
  0.3767038579999991  0.5362409950000000  0.7486512660000031
  0.0850371120000020  0.4945741889999979  0.8315349820000009
  0.2933701279999994  0.9529074430000009  0.9144185780000029
  0.2009233830000028  0.6564656500000012  0.3315349220000030
  0.4600372020000023  0.1195745469999991  0.5828837159999978
  0.1683704849999970  0.0779076809999992  0.6657675499999982
  0.8767037389999999  0.0362410549999979  0.7486512660000031
  0.5850369930000028  0.9945741889999979  0.8315349820000009
  0.6683701279999994  0.3279073830000030  0.9144186970000021
  0.4509234430000006  0.4064655299999984  0.3315349519999984
  0.1175900850000033  0.8231323959999983  0.2486511769999993
  0.5433704849999970  0.4529076520000004  0.6657675499999982
  0.2517037389999999  0.4112409060000033  0.7486511469999968
  0.9600369930000028  0.3695741590000026  0.8315348630000017
  0.1683701279999994  0.8279075029999987  0.9144186970000021
  0.6267039780000019  0.0362412930000033  0.5000000000000000
  0.3350371120000020  0.9945744870000013  0.5828837159999978
  0.0433703659999978  0.9529076809999992  0.6657675499999982
  0.7517037389999999  0.9112410549999979  0.7486512660000031
  0.4600369039999990  0.8695742490000029  0.8315349820000009
  0.0433701279999994  0.2029073240000017  0.9144186970000021
  0.3675901289999999  0.5731322769999991  0.2486512210000029
  0.2100371120000020  0.3695744280000000  0.5828837159999978
  0.2009233830000028  0.6564656500000012  0.3315349220000030
  0.6267036200000007  0.2862409350000021  0.7486511469999968
  0.3350369930000028  0.2445741889999979  0.8315349820000009
  0.5433702469999986  0.7029075029999987  0.9144186970000021
  0.1592566369999986  0.3647987840000013  0.4144186970000021
  0.7100372310000012  0.8695744280000000  0.5828837159999978
  0.4183704849999970  0.8279077409999971  0.6657675499999982
  0.1267037389999999  0.7862409950000000  0.7486512660000031
  0.8350369930000028  0.7445742490000029  0.8315349820000009
 
  0.00000000E+00  0.00000000E+00  0.00000000E+00
  0.00000000E+00  0.00000000E+00  0.00000000E+00
  0.00000000E+00  0.00000000E+00  0.00000000E+00
  0.00000000E+00  0.00000000E+00  0.00000000E+00
  0.00000000E+00  0.00000000E+00  0.00000000E+00
  0.00000000E+00  0.00000000E+00  0.00000000E+00
  0.00000000E+00  0.00000000E+00  0.00000000E+00
  0.00000000E+00  0.00000000E+00  0.00000000E+00
  0.00000000E+00  0.00000000E+00  0.00000000E+00
  0.00000000E+00  0.00000000E+00  0.00000000E+00
  0.00000000E+00  0.00000000E+00  0.00000000E+00
  0.00000000E+00  0.00000000E+00  0.00000000E+00
  0.00000000E+00  0.00000000E+00  0.00000000E+00
  0.00000000E+00  0.00000000E+00  0.00000000E+00
  0.00000000E+00  0.00000000E+00  0.00000000E+00
  0.00000000E+00  0.00000000E+00  0.00000000E+00
  0.00000000E+00  0.00000000E+00  0.00000000E+00
  0.00000000E+00  0.00000000E+00  0.00000000E+00
  0.00000000E+00  0.00000000E+00  0.00000000E+00
  0.00000000E+00  0.00000000E+00  0.00000000E+00
  0.00000000E+00  0.00000000E+00  0.00000000E+00
  0.00000000E+00  0.00000000E+00  0.00000000E+00
  0.00000000E+00  0.00000000E+00  0.00000000E+00
  0.00000000E+00  0.00000000E+00  0.00000000E+00
  0.00000000E+00  0.00000000E+00  0.00000000E+00
  0.00000000E+00  0.00000000E+00  0.00000000E+00
  0.00000000E+00  0.00000000E+00  0.00000000E+00
  0.00000000E+00  0.00000000E+00  0.00000000E+00
  0.00000000E+00  0.00000000E+00  0.00000000E+00
  0.00000000E+00  0.00000000E+00  0.00000000E+00
  0.00000000E+00  0.00000000E+00  0.00000000E+00
  0.00000000E+00  0.00000000E+00  0.00000000E+00
  0.00000000E+00  0.00000000E+00  0.00000000E+00
  0.00000000E+00  0.00000000E+00  0.00000000E+00
  0.00000000E+00  0.00000000E+00  0.00000000E+00
  0.00000000E+00  0.00000000E+00  0.00000000E+00
  0.00000000E+00  0.00000000E+00  0.00000000E+00
  0.00000000E+00  0.00000000E+00  0.00000000E+00
  0.00000000E+00  0.00000000E+00  0.00000000E+00
  0.00000000E+00  0.00000000E+00  0.00000000E+00
  0.00000000E+00  0.00000000E+00  0.00000000E+00
  0.00000000E+00  0.00000000E+00  0.00000000E+00
  0.00000000E+00  0.00000000E+00  0.00000000E+00
  0.00000000E+00  0.00000000E+00  0.00000000E+00
  0.00000000E+00  0.00000000E+00  0.00000000E+00
  0.00000000E+00  0.00000000E+00  0.00000000E+00
  0.00000000E+00  0.00000000E+00  0.00000000E+00
  0.00000000E+00  0.00000000E+00  0.00000000E+00
  0.00000000E+00  0.00000000E+00  0.00000000E+00
  0.00000000E+00  0.00000000E+00  0.00000000E+00
  0.00000000E+00  0.00000000E+00  0.00000000E+00
  0.00000000E+00  0.00000000E+00  0.00000000E+00
  0.00000000E+00  0.00000000E+00  0.00000000E+00
  0.00000000E+00  0.00000000E+00  0.00000000E+00
  0.00000000E+00  0.00000000E+00  0.00000000E+00
  0.00000000E+00  0.00000000E+00  0.00000000E+00
  0.00000000E+00  0.00000000E+00  0.00000000E+00
  0.00000000E+00  0.00000000E+00  0.00000000E+00
  0.00000000E+00  0.00000000E+00  0.00000000E+00
  0.00000000E+00  0.00000000E+00  0.00000000E+00
  0.00000000E+00  0.00000000E+00  0.00000000E+00
  0.00000000E+00  0.00000000E+00  0.00000000E+00
  0.00000000E+00  0.00000000E+00  0.00000000E+00
  0.00000000E+00  0.00000000E+00  0.00000000E+00
  0.00000000E+00  0.00000000E+00  0.00000000E+00
  0.00000000E+00  0.00000000E+00  0.00000000E+00
  0.00000000E+00  0.00000000E+00  0.00000000E+00
  0.00000000E+00  0.00000000E+00  0.00000000E+00
  0.00000000E+00  0.00000000E+00  0.00000000E+00
  0.00000000E+00  0.00000000E+00  0.00000000E+00
  0.00000000E+00  0.00000000E+00  0.00000000E+00
  0.00000000E+00  0.00000000E+00  0.00000000E+00
  0.00000000E+00  0.00000000E+00  0.00000000E+00
  0.00000000E+00  0.00000000E+00  0.00000000E+00
  0.00000000E+00  0.00000000E+00  0.00000000E+00
  0.00000000E+00  0.00000000E+00  0.00000000E+00
  0.00000000E+00  0.00000000E+00  0.00000000E+00
  0.00000000E+00  0.00000000E+00  0.00000000E+00
  0.00000000E+00  0.00000000E+00  0.00000000E+00
  0.00000000E+00  0.00000000E+00  0.00000000E+00
  0.00000000E+00  0.00000000E+00  0.00000000E+00
  0.00000000E+00  0.00000000E+00  0.00000000E+00
  0.00000000E+00  0.00000000E+00  0.00000000E+00
  0.00000000E+00  0.00000000E+00  0.00000000E+00
  0.00000000E+00  0.00000000E+00  0.00000000E+00
  0.00000000E+00  0.00000000E+00  0.00000000E+00
  0.00000000E+00  0.00000000E+00  0.00000000E+00
  0.00000000E+00  0.00000000E+00  0.00000000E+00
  0.00000000E+00  0.00000000E+00  0.00000000E+00
  0.00000000E+00  0.00000000E+00  0.00000000E+00
  0.00000000E+00  0.00000000E+00  0.00000000E+00
  0.00000000E+00  0.00000000E+00  0.00000000E+00
  0.00000000E+00  0.00000000E+00  0.00000000E+00
  0.00000000E+00  0.00000000E+00  0.00000000E+00
  0.00000000E+00  0.00000000E+00  0.00000000E+00
  0.00000000E+00  0.00000000E+00  0.00000000E+00
