Si Ge                                   
   1.00000000000000     
     7.6117242877588467   -0.0188662691353376    2.4379788703937808
    -0.0030024944086753    5.1341376585989966   -0.0604969106024011
    12.8824455698503026   -0.3572243901302149   35.6034558224915187
   Si   Ge
    10    10
Direct
  0.9996856360118611  0.2531814393839839  0.0093384258837222
  0.9978485970920773  0.7489931279014413  0.0545457430858814
  0.5654585825683049  0.7587532648549022  0.1191307345795383
  0.5299324997870651  0.2446873167520373  0.1513580619867875
  0.0761053636393406  0.2534157033847335  0.2026205065009358
  0.0738404645082704  0.7614461153643011  0.2688246628788808
  0.5125334270426936  0.7540253099578170  0.3269347075731673
  0.3949349600640738  0.2455912301603660  0.4041145038109142
  0.8807340681541729  0.2462756068082070  0.3263400893379643
  0.0742985019723240  0.7584834259662913  0.3761653002326862
  0.3750578110881242  0.2300783648577595  0.5465518096415768
  0.0545489849682342  0.7549999707926953  0.6684057195520243
  0.7266749837736981  0.7432925148194569  0.5594998514770406
  0.8108227340276744  0.2556469293537228  0.6391711919901785
  0.2313217841964142  0.2525082888970306  0.7163486847063461
  0.3424550866987079  0.7510906471464343  0.7796247468361290
  0.7102245161454418  0.7519611006390932  0.8257558681773122
  0.6836867935191431  0.2495135273005577  0.8594353269403786
  0.3103007108114742  0.2566241520767313  0.9260321459323104
  0.2036843183102404  0.7461166402559447  0.9795265785904161
 
  0.00000000E+00  0.00000000E+00  0.00000000E+00
  0.00000000E+00  0.00000000E+00  0.00000000E+00
  0.00000000E+00  0.00000000E+00  0.00000000E+00
  0.00000000E+00  0.00000000E+00  0.00000000E+00
  0.00000000E+00  0.00000000E+00  0.00000000E+00
  0.00000000E+00  0.00000000E+00  0.00000000E+00
  0.00000000E+00  0.00000000E+00  0.00000000E+00
  0.00000000E+00  0.00000000E+00  0.00000000E+00
  0.00000000E+00  0.00000000E+00  0.00000000E+00
  0.00000000E+00  0.00000000E+00  0.00000000E+00
  0.00000000E+00  0.00000000E+00  0.00000000E+00
  0.00000000E+00  0.00000000E+00  0.00000000E+00
  0.00000000E+00  0.00000000E+00  0.00000000E+00
  0.00000000E+00  0.00000000E+00  0.00000000E+00
  0.00000000E+00  0.00000000E+00  0.00000000E+00
  0.00000000E+00  0.00000000E+00  0.00000000E+00
  0.00000000E+00  0.00000000E+00  0.00000000E+00
  0.00000000E+00  0.00000000E+00  0.00000000E+00
  0.00000000E+00  0.00000000E+00  0.00000000E+00
  0.00000000E+00  0.00000000E+00  0.00000000E+00
