Si Ge
 1.0000000000000000
     3.9201999948982196    0.0000000000000000    0.0000000000000000
     0.0000000000000000    3.9201999948982196    0.0000000000000000
     0.0000000000000000    0.0000000000000000   24.3623642985894939
 Si  Ge 
  10  10
Cartesian
  0.0082888707127990  0.9847895605349168  0.0027669943018548
  0.0082888707127990  2.9448895579840264  1.3602669943018548
  1.9683888681619088  2.9448895579840269  2.7177669943018548
  1.9683888681619091  0.9847895605349168  4.0752669943018542
  3.9284888656110186  0.9847895605349173  5.4327669943018542
  3.9284888656110182  2.9448895579840269  6.7902669943018541
  1.9683888681619082  2.9448895579840277  8.1477669943018540
  1.9683888681619091  0.9847895605349173  9.5052669943018557
  3.9284888656110182  0.9847895605349177 10.8627669943018539
  3.9284888656110173  2.9448895579840277 12.2202669943018538
  0.9929889421373356  0.9818511638552083 11.2515050384894337
  0.9929889421373356  2.9419511613043183 12.6660050384894340
  2.9530889395864448  2.9419511613043179 14.0805050384894344
  2.9530889395864448  0.9818511638552085 15.4950050384894347
  0.9929889421373356  0.9818511638552083 16.9095050384894350
  0.9929889421373356  2.9419511613043183 18.3240050384894317
  2.9530889395864448  2.9419511613043179 19.7385050384894356
  2.9530889395864448  0.9818511638552083 21.1530050384894324
  0.9929889421373356  0.9818511638552083 22.5675050384894362
  0.9929889421373356  2.9419511613043179 23.9820050384894330
