Si+Ge
    1.000000000
   16.293001175    0.000000000    0.000000000
    0.000000000   17.174329758    0.000000000
    0.000000000    0.000000253   10.402348518
Si  Ge 
72     48
Direct
    0.130378902    0.826204658    0.412751913
    0.963712454    0.076203912    0.000000057
    0.797045708    0.426204026    0.082550436
    0.630379081    0.776204169    0.165100768
    0.463712275    0.126204491    0.247651175
    0.297045529    0.476204634    0.330201566
    0.463712275    0.826204658    0.412751913
    0.297045797    0.076203912    0.000000057
    0.130379081    0.426204026    0.082550436
    0.963712394    0.776204169    0.165100768
    0.797045588    0.126204491    0.247651175
    0.630378842    0.476204634    0.330201566
    0.797045588    0.826204658    0.412751913
    0.630379140    0.076203912    0.000000057
    0.463712424    0.426204026    0.082550436
    0.297045767    0.776204169    0.165100768
    0.130378976    0.126204491    0.247651175
    0.963712215    0.476204634    0.330201566
    0.213712215    0.576204777    0.412751853
    0.047045767    0.826204002    0.000000000
    0.880379081    0.176204205    0.082550406
    0.713712335    0.526204467    0.165100709
    0.547045588    0.876204610    0.247651130
    0.380378962    0.226204634    0.330201447
    0.547045588    0.576204777    0.412751853
    0.380379081    0.826204002    0.000000000
    0.213712379    0.176204205    0.082550406
    0.047045693    0.526204467    0.165100709
    0.880378962    0.876204610    0.247651130
    0.713712335    0.226204634    0.330201447
    0.880378902    0.576204777    0.412751853
    0.713712394    0.826204002    0.000000000
    0.547045708    0.176204205    0.082550406
    0.380378991    0.526204467    0.165100709
    0.213712230    0.876204610    0.247651130
    0.047045581    0.226204634    0.330201447
    0.130378902    0.326204777    0.412751913
    0.963712394    0.576204002    0.000000023
    0.797045708    0.926204145    0.082550384
    0.630379021    0.276204228    0.165100709
    0.463712275    0.626204491    0.247651175
    0.297045648    0.976204634    0.330201447
    0.463712275    0.326204777    0.412751913
    0.297045767    0.576204002    0.000000023
    0.130379051    0.926204145    0.082550384
    0.963712394    0.276204228    0.165100709
    0.797045588    0.626204491    0.247651175
    0.630378962    0.976204634    0.330201447
    0.797045588    0.326204777    0.412751913
    0.630379140    0.576204002    0.000000023
    0.463712394    0.926204145    0.082550384
    0.297045738    0.276204228    0.165100709
    0.130378976    0.626204491    0.247651175
    0.963712335    0.976204634    0.330201447
    0.213712215    0.076204777    0.412751824
    0.047045767    0.326203912    0.000000057
    0.880379081    0.676204026    0.082550392
    0.713712394    0.026204228    0.165100724
    0.547045588    0.376204491    0.247651130
    0.380378842    0.726204753    0.330201447
    0.547045588    0.076204777    0.412751824
    0.380379111    0.326203912    0.000000057
    0.213712409    0.676204026    0.082550392
    0.047045726    0.026204228    0.165100724
    0.880378962    0.376204491    0.247651130
    0.713712215    0.726204753    0.330201447
    0.880378962    0.076204777    0.412751824
    0.713712454    0.326203912    0.000000057
    0.547045767    0.676204026    0.082550392
    0.380379081    0.026204228    0.165100724
    0.213712290    0.376204491    0.247651130
    0.047045540    0.726204753    0.330201447
    0.049040198    0.430492163    0.546128571
    0.674040198    0.041603208    0.610227466
    0.299040258    0.652714312    0.674326420
    0.924040258    0.263825178    0.738425493
    0.549040258    0.874936402    0.802524388
    0.174040154    0.486047268    0.866623282
    0.549040139    0.430492163    0.546128571
    0.174040183    0.041603088    0.610227466
    0.799040198    0.652714252    0.674326420
    0.424040139    0.263825178    0.738425374
    0.049040318    0.874936283    0.802524388
    0.674040258    0.486047506    0.866623402
    0.174040198    0.180492043    0.546128571
    0.799040198    0.791603088    0.610227466
    0.424040258    0.402714252    0.674326420
    0.049040318    0.013825178    0.738425374
    0.674040139    0.624936223    0.802524328
    0.299040139    0.236047506    0.866623282
    0.674040139    0.180492043    0.546128571
    0.299040169    0.791603088    0.610227466
    0.924040198    0.402714252    0.674326420
    0.549040139    0.013825297    0.738425374
    0.174040213    0.624936283    0.802524388
    0.799040139    0.236047506    0.866623282
    0.424040198    0.180492043    0.546128571
    0.049040198    0.791603088    0.610227466
    0.674040258    0.402714252    0.674326420
    0.299040258    0.013825178    0.738425374
    0.924040258    0.624936283    0.802524328
    0.549040258    0.236047268    0.866623282
    0.924040139    0.180491924    0.546128571
    0.549040198    0.791603088    0.610227466
    0.174040243    0.402714252    0.674326420
    0.799040198    0.013825178    0.738425374
    0.424040139    0.624936283    0.802524328
    0.049040318    0.236047506    0.866623282
    0.299040198    0.430492163    0.546128571
    0.924040139    0.041603088    0.610227466
    0.549040258    0.652714312    0.674326420
    0.174040213    0.263825178    0.738425493
    0.799040258    0.874936402    0.802524209
    0.424040139    0.486047268    0.866623282
    0.799040139    0.430492163    0.546128631
    0.424040198    0.041603088    0.610227466
    0.049040198    0.652714312    0.674326420
    0.674040258    0.263825178    0.738425493
    0.299040139    0.874936283    0.802524209
    0.924040258    0.486047506    0.866623282
