Ge+Sn
    1.000000000
   11.315600395    0.000000000    0.000000000
    0.000000000   16.002676010    0.000000000
    0.000000000    0.000000000   25.800939560
Ge  Sn 
96     72
Direct
    0.970662773    0.455994159    0.000000018
    0.720662713    0.080994137    0.077529535
    0.470662773    0.705994129    0.155059069
    0.220662892    0.330994248    0.232588530
    0.970662713    0.955994129    0.310118079
    0.720662713    0.580994129    0.387647629
    0.470662773    0.455994159    0.000000018
    0.220662758    0.080994137    0.077529535
    0.970662773    0.705994129    0.155059069
    0.720662832    0.330994248    0.232588530
    0.470662832    0.955994129    0.310118079
    0.220662773    0.580994129    0.387647629
    0.970662773    0.955994129    0.000000016
    0.720662713    0.580994129    0.077529542
    0.470662773    0.205994129    0.155059054
    0.220662892    0.830994368    0.232588530
    0.970662713    0.455994129    0.310118109
    0.720662713    0.080994129    0.387647599
    0.470662773    0.955994129    0.000000016
    0.220662758    0.580994129    0.077529542
    0.970662773    0.205994129    0.155059054
    0.720662832    0.830994368    0.232588530
    0.470662832    0.455994129    0.310118109
    0.220662773    0.080994129    0.387647599
    0.970662773    0.705994129    0.000000021
    0.720662713    0.330994129    0.077529535
    0.470662773    0.955994129    0.155059054
    0.220662892    0.580994248    0.232588559
    0.970662713    0.205994189    0.310118109
    0.720662713    0.830994129    0.387647629
    0.470662773    0.705994129    0.000000021
    0.220662758    0.330994129    0.077529535
    0.970662773    0.955994129    0.155059054
    0.720662832    0.580994248    0.232588559
    0.470662832    0.205994189    0.310118109
    0.220662773    0.830994129    0.387647629
    0.970662773    0.205994144    0.000000017
    0.720662713    0.830994129    0.077529535
    0.470662773    0.455994129    0.155059054
    0.220662892    0.080994248    0.232588559
    0.970662713    0.705994248    0.310118079
    0.720662713    0.330994129    0.387647599
    0.470662773    0.205994144    0.000000017
    0.220662758    0.830994129    0.077529535
    0.970662773    0.455994129    0.155059054
    0.720662832    0.080994248    0.232588559
    0.470662832    0.705994248    0.310118079
    0.220662773    0.330994129    0.387647599
    0.345662743    0.580994189    0.000000026
    0.095662758    0.205994159    0.077529535
    0.845662773    0.830994129    0.155059054
    0.595662832    0.455994248    0.232588530
    0.345662773    0.080994189    0.310118109
    0.095662713    0.705994129    0.387647629
    0.845662832    0.580994189    0.000000026
    0.595662773    0.205994159    0.077529535
    0.345662802    0.830994129    0.155059054
    0.095662884    0.455994248    0.232588530
    0.845662832    0.080994189    0.310118109
    0.595662773    0.705994129    0.387647629
    0.345662743    0.080994137    0.000000013
    0.095662758    0.705994129    0.077529535
    0.845662773    0.330994129    0.155059054
    0.595662832    0.955994248    0.232588559
    0.345662773    0.580994248    0.310118079
    0.095662713    0.205994010    0.387647599
    0.845662832    0.080994137    0.000000013
    0.595662773    0.705994129    0.077529535
    0.345662802    0.330994129    0.155059054
    0.095662884    0.955994248    0.232588559
    0.845662832    0.580994248    0.310118079
    0.595662773    0.205994010    0.387647599
    0.345662743    0.830994189    0.000000000
    0.095662758    0.455994189    0.077529535
    0.845662773    0.080994174    0.155059054
    0.595662832    0.705994308    0.232588530
    0.345662773    0.330994248    0.310118079
    0.095662713    0.955994129    0.387647569
    0.845662832    0.830994189    0.000000000
    0.595662773    0.455994189    0.077529535
    0.345662802    0.080994174    0.155059054
    0.095662884    0.705994308    0.232588530
    0.845662832    0.330994248    0.310118079
    0.595662773    0.955994129    0.387647569
    0.345662743    0.330994129    0.000000018
    0.095662758    0.955994129    0.077529542
    0.845662773    0.580994129    0.155059054
    0.595662832    0.205994248    0.232588559
    0.345662773    0.830994129    0.310118079
    0.095662713    0.455994129    0.387647599
    0.845662832    0.330994129    0.000000018
    0.595662773    0.955994129    0.077529542
    0.345662802    0.580994129    0.155059054
    0.095662884    0.205994248    0.232588559
    0.845662832    0.830994129    0.310118079
    0.595662773    0.455994129    0.387647599
    0.223214284    0.472586513    0.471518010
    0.223214269    0.222586393    0.560440361
    0.223214149    0.972586274    0.649362683
    0.223214149    0.722586155    0.738284945
    0.223214030    0.472586036    0.827207208
    0.223214030    0.222585917    0.916129589
    0.889881015    0.805919886    0.471518010
    0.889880955    0.555919826    0.560440361
    0.889880896    0.305919647    0.649362683
    0.889880896    0.055919528    0.738284945
    0.889880836    0.805919528    0.827207267
    0.889880776    0.555919290    0.916129589
    0.556547701    0.139253259    0.471518010
    0.556547642    0.889253139    0.560440361
    0.556547582    0.639253020    0.649362683
    0.556547523    0.389252901    0.738284945
    0.556547463    0.139252901    0.827207267
    0.556547463    0.889252663    0.916129589
    0.556547642    0.639253199    0.471518010
    0.556547582    0.389253139    0.560440361
    0.556547523    0.139253020    0.649362683
    0.556547523    0.889252782    0.738284945
    0.556547523    0.639252782    0.827207208
    0.556547463    0.389252663    0.916129589
    0.223214284    0.972586513    0.471518010
    0.223214269    0.722586513    0.560440361
    0.223214149    0.472586393    0.649362683
    0.223214149    0.222586155    0.738284945
    0.223214030    0.972586155    0.827207208
    0.223214030    0.722586036    0.916129589
    0.889881074    0.305920005    0.471518010
    0.889881015    0.055919886    0.560440421
    0.889880896    0.805919707    0.649362683
    0.889880896    0.555919588    0.738284945
    0.889880776    0.305919528    0.827207267
    0.889880776    0.055919409    0.916129589
    0.806547642    0.639253199    0.471518040
    0.806547642    0.389253139    0.560440361
    0.806547582    0.139252901    0.649362683
    0.806547463    0.889252901    0.738284945
    0.806547523    0.639252782    0.827207208
    0.806547403    0.389252782    0.916129589
    0.473214269    0.972586513    0.471518040
    0.473214209    0.722586453    0.560440361
    0.473214209    0.472586393    0.649362683
    0.473214090    0.222586155    0.738284945
    0.473214030    0.972586155    0.827207267
    0.473214000    0.722586036    0.916129589
    0.139881015    0.305919886    0.471518010
    0.139880896    0.055919886    0.560440361
    0.139880776    0.805919647    0.649362683
    0.139880776    0.555919588    0.738284945
    0.139880776    0.305919528    0.827207208
    0.139880776    0.055919290    0.916129589
    0.473214328    0.472586513    0.471518010
    0.473214269    0.222586513    0.560440421
    0.473214269    0.972586274    0.649362683
    0.473214149    0.722586155    0.738284945
    0.473214090    0.472586155    0.827207267
    0.473213971    0.222586036    0.916129589
    0.139881134    0.805919886    0.471518040
    0.139881015    0.555919826    0.560440421
    0.139880896    0.305919647    0.649362683
    0.139880896    0.055919528    0.738284945
    0.139880896    0.805919528    0.827207208
    0.139880776    0.555919409    0.916129589
    0.806547701    0.139253259    0.471518040
    0.806547582    0.889253139    0.560440421
    0.806547523    0.639253020    0.649362683
    0.806547523    0.389252901    0.738284945
    0.806547463    0.139252901    0.827207208
    0.806547463    0.889252782    0.916129589
