Si+C
    1.000000000
   13.303179741    0.000000000    0.000000000
   -6.651589394   14.873406410    0.000000000
    0.000000000    0.000000000    7.994748592
Si  C  
36     84
Direct
    0.017094348    0.991452813    0.000000000
    0.217094451    0.891452730    0.151900828
    0.417094558    0.791452646    0.303801656
    0.017094348    0.324786127    0.000000000
    0.217094451    0.224786043    0.151900828
    0.417094558    0.124785945    0.303801656
    0.017094348    0.658119500    0.000000000
    0.217094451    0.558119357    0.151900828
    0.417094558    0.458119243    0.303801656
    0.367094278    0.191452786    0.075950265
    0.567094386    0.091452695    0.227851123
    0.767094493    0.991452634    0.379751980
    0.367094278    0.524786055    0.075950265
    0.567094386    0.424786001    0.227851123
    0.767094493    0.324785918    0.379751980
    0.367094278    0.858119428    0.075950265
    0.567094386    0.758119226    0.227851123
    0.767094493    0.658119202    0.379751980
    0.517094374    0.991452813    0.000000004
    0.717094421    0.891452670    0.151900813
    0.917094529    0.791452587    0.303801656
    0.517094374    0.324786127    0.000000004
    0.717094421    0.224786013    0.151900813
    0.917094529    0.124785922    0.303801656
    0.517094374    0.658119380    0.000000004
    0.717094421    0.558119297    0.151900813
    0.917094529    0.458119243    0.303801656
    0.867094278    0.191452801    0.075950272
    0.067094445    0.091452725    0.227851138
    0.267094374    0.991452634    0.379751921
    0.867094278    0.524786115    0.075950272
    0.067094445    0.424786001    0.227851138
    0.267094374    0.324785918    0.379751921
    0.867094278    0.858119488    0.075950272
    0.067094445    0.758119345    0.227851138
    0.267094374    0.658119261    0.379751921
    0.924754083    0.839457273    0.764696479
    0.296182513    0.868028820    0.565175235
    0.610468328    0.853743136    0.664935887
    0.067611217    0.696600080    0.764696538
    0.439039618    0.725171685    0.565175235
    0.753325403    0.710885882    0.664935887
    0.210468292    0.553743005    0.764696479
    0.581896782    0.582314551    0.565175235
    0.896182597    0.568028808    0.664935887
    0.353325486    0.410885841    0.764696479
    0.724753976    0.439457417    0.565175235
    0.039039850    0.425171614    0.664935887
    0.496182561    0.268028706    0.764696479
    0.867611110    0.296600282    0.565175235
    0.181896925    0.282314509    0.664935887
    0.639039755    0.125171572    0.764696479
    0.010468245    0.153743148    0.565175235
    0.324754000    0.139457375    0.664935887
    0.781896949    0.982314408    0.764696479
    0.153325379    0.010885954    0.565175235
    0.467611164    0.996600211    0.664935887
    0.474753976    0.939457297    0.814576626
    0.846182346    0.968028843    0.615055501
    0.160468221    0.953743100    0.714816153
    0.617611051    0.796600103    0.814576685
    0.989039421    0.825171649    0.615055501
    0.303325176    0.810885847    0.714816093
    0.760468364    0.653743029    0.814576685
    0.131896734    0.682314515    0.615055501
    0.446182609    0.668028831    0.714816093
    0.903325438    0.510885954    0.814576685
    0.274753809    0.539457440    0.615055501
    0.589039683    0.525171697    0.714816093
    0.046182394    0.368028730    0.814576685
    0.417610914    0.396600276    0.615055501
    0.731896698    0.382314533    0.714816153
    0.189039707    0.225171566    0.814576685
    0.560468197    0.253743172    0.615055501
    0.874753952    0.239457369    0.714816153
    0.331896901    0.082314476    0.814576685
    0.703325272    0.110886015    0.615055501
    0.017611027    0.096600249    0.714816153
    0.424754143    0.839457273    0.764696538
    0.796182573    0.868028939    0.565175235
    0.110468388    0.853743076    0.664935887
    0.567611337    0.696600080    0.764696538
    0.939039826    0.725171745    0.565175235
    0.253325462    0.710885882    0.664935887
    0.710468531    0.553742945    0.764696538
    0.081896901    0.582314610    0.565175235
    0.396182656    0.568028808    0.664935887
    0.853325546    0.410885900    0.764696538
    0.224753976    0.439457446    0.565175235
    0.539039791    0.425171643    0.664935887
    0.996182680    0.268028677    0.764696479
    0.367611110    0.296600252    0.565175235
    0.681896925    0.282314479    0.664935887
    0.139039755    0.125171557    0.764696479
    0.510468245    0.153743118    0.565175235
    0.824754059    0.139457345    0.664935887
    0.281896949    0.982314408    0.764696479
    0.653325379    0.010886073    0.565175235
    0.967611194    0.996600211    0.664935887
    0.974753916    0.939457297    0.814576685
    0.346182406    0.968028843    0.615055501
    0.660468161    0.953743041    0.714816153
    0.117610931    0.796600223    0.814576685
    0.489039510    0.825171769    0.615055501
    0.803325236    0.810885966    0.714816153
    0.260468245    0.653743029    0.814576626
    0.631896734    0.682314515    0.615055501
    0.946182549    0.668028772    0.714816153
    0.403325438    0.510885835    0.814576685
    0.774753869    0.539457381    0.615055501
    0.089039564    0.525171578    0.714816153
    0.546182513    0.368028760    0.814576685
    0.917610884    0.396600246    0.615055561
    0.231896758    0.382314503    0.714816153
    0.689039826    0.225171596    0.814576745
    0.060468197    0.253743172    0.615055501
    0.374753952    0.239457399    0.714816153
    0.831896901    0.082314499    0.814576626
    0.203325272    0.110886008    0.615055501
    0.517611146    0.096600287    0.714816153
