fcc Si+fcc Ge                           
   1.00000000000000     
     5.4800000000000004    0.0000000000000000    0.0000000000000000
     0.0000000000000000    5.4800000000000004    0.0000000000000000
     0.0000000000000000    0.0000000000000000   29.0500000000000007
   Si   Ge
    22    22
Direct
  0.2500000000000000  0.0000000000000000  0.0471600690000002
  0.7500000000000000  0.0000000000000000  0.1414802070000007
  0.2500000000000000  0.0000000000000000  0.2358003439999976
  0.7500000000000000  0.0000000000000000  0.3301204819999981
  0.2500000000000000  0.0000000000000000  0.4244406199999986
  0.7500000000000000  0.5000000000000000  0.0471600690000002
  0.2500000000000000  0.5000000000000000  0.1414802070000007
  0.7500000000000000  0.5000000000000000  0.2358003439999976
  0.2500000000000000  0.5000000000000000  0.3301204819999981
  0.7500000000000000  0.5000000000000000  0.4244406199999986
  0.0000000000000000  0.2500000000000000  0.0000000000000000
  0.5000000000000000  0.2500000000000000  0.0943201380000005
  0.0000000000000000  0.2500000000000000  0.1886402749999974
  0.5000000000000000  0.2500000000000000  0.2829604129999979
  0.0000000000000000  0.2500000000000000  0.3772805509999984
  0.5000000000000000  0.2500000000000000  0.4716006880000023
  0.5000000000000000  0.7500000000000000  0.0000000000000000
  0.0000000000000000  0.7500000000000000  0.0943201380000005
  0.5000000000000000  0.7500000000000000  0.1886402749999974
  0.0000000000000000  0.7500000000000000  0.2829604129999979
  0.5000000000000000  0.7500000000000000  0.3772805509999984
  0.0000000000000000  0.7500000000000000  0.4716006880000023
  0.0740740740000021  0.3333333329999988  0.4922547330000029
  0.5740740740000021  0.3333333329999988  0.5896729780000030
  0.0740740740000021  0.3333333329999988  0.6870912219999994
  0.5740740740000021  0.3333333329999988  0.7845094660000029
  0.0740740740000021  0.3333333329999988  0.8819277110000030
  0.5740740740000021  0.3333333329999988  0.9793459549999994
  0.5740740740000021  0.8333333329999988  0.4922547330000029
  0.0740740740000021  0.8333333329999988  0.5896729780000030
  0.5740740740000021  0.8333333329999988  0.6870912219999994
  0.0740740740000021  0.8333333329999988  0.7845094660000029
  0.5740740740000021  0.8333333329999988  0.8819277110000030
  0.0740740740000021  0.8333333329999988  0.9793459549999994
  0.3240740740000021  0.5833333329999988  0.5409638550000011
  0.8240740740000021  0.5833333329999988  0.6383821000000012
  0.3240740740000021  0.5833333329999988  0.7358003439999976
  0.8240740740000021  0.5833333329999988  0.8332185889999977
  0.3240740740000021  0.5833333329999988  0.9306368330000012
  0.8240740740000021  0.0833333329999988  0.5409638550000011
  0.3240740740000021  0.0833333329999988  0.6383821000000012
  0.8240740740000021  0.0833333329999988  0.7358003439999976
  0.3240740740000021  0.0833333329999988  0.8332185889999977
  0.8240740740000021  0.0833333329999988  0.9306368330000012
 
  0.00000000E+00  0.00000000E+00  0.00000000E+00
  0.00000000E+00  0.00000000E+00  0.00000000E+00
  0.00000000E+00  0.00000000E+00  0.00000000E+00
  0.00000000E+00  0.00000000E+00  0.00000000E+00
  0.00000000E+00  0.00000000E+00  0.00000000E+00
  0.00000000E+00  0.00000000E+00  0.00000000E+00
  0.00000000E+00  0.00000000E+00  0.00000000E+00
  0.00000000E+00  0.00000000E+00  0.00000000E+00
  0.00000000E+00  0.00000000E+00  0.00000000E+00
  0.00000000E+00  0.00000000E+00  0.00000000E+00
  0.00000000E+00  0.00000000E+00  0.00000000E+00
  0.00000000E+00  0.00000000E+00  0.00000000E+00
  0.00000000E+00  0.00000000E+00  0.00000000E+00
  0.00000000E+00  0.00000000E+00  0.00000000E+00
  0.00000000E+00  0.00000000E+00  0.00000000E+00
  0.00000000E+00  0.00000000E+00  0.00000000E+00
  0.00000000E+00  0.00000000E+00  0.00000000E+00
  0.00000000E+00  0.00000000E+00  0.00000000E+00
  0.00000000E+00  0.00000000E+00  0.00000000E+00
  0.00000000E+00  0.00000000E+00  0.00000000E+00
  0.00000000E+00  0.00000000E+00  0.00000000E+00
  0.00000000E+00  0.00000000E+00  0.00000000E+00
  0.00000000E+00  0.00000000E+00  0.00000000E+00
  0.00000000E+00  0.00000000E+00  0.00000000E+00
  0.00000000E+00  0.00000000E+00  0.00000000E+00
  0.00000000E+00  0.00000000E+00  0.00000000E+00
  0.00000000E+00  0.00000000E+00  0.00000000E+00
  0.00000000E+00  0.00000000E+00  0.00000000E+00
  0.00000000E+00  0.00000000E+00  0.00000000E+00
  0.00000000E+00  0.00000000E+00  0.00000000E+00
  0.00000000E+00  0.00000000E+00  0.00000000E+00
  0.00000000E+00  0.00000000E+00  0.00000000E+00
  0.00000000E+00  0.00000000E+00  0.00000000E+00
  0.00000000E+00  0.00000000E+00  0.00000000E+00
  0.00000000E+00  0.00000000E+00  0.00000000E+00
  0.00000000E+00  0.00000000E+00  0.00000000E+00
  0.00000000E+00  0.00000000E+00  0.00000000E+00
  0.00000000E+00  0.00000000E+00  0.00000000E+00
  0.00000000E+00  0.00000000E+00  0.00000000E+00
  0.00000000E+00  0.00000000E+00  0.00000000E+00
  0.00000000E+00  0.00000000E+00  0.00000000E+00
  0.00000000E+00  0.00000000E+00  0.00000000E+00
  0.00000000E+00  0.00000000E+00  0.00000000E+00
  0.00000000E+00  0.00000000E+00  0.00000000E+00
