Si+Si                                   
   1.00000000000000     
    12.1440858840000008    0.0000000000000000    0.0000000000000000
    -9.7152681350000005    7.2864513400000002    0.0000000000000000
     0.0000000000000000    0.0000000000000000    9.0516691209999998
   Si
    48
Direct
  0.3451979159999965  0.6725989580000018  0.0000000000000000
  0.6785312889999986  0.8392657039999989  0.2999999230000014
  0.0118646620000007  0.0059324500000031  0.5999998449999993
  0.0118645740000005  0.0059322890000004  0.0000000000000000
  0.3451979459999990  0.1725990329999973  0.2999999230000014
  0.6785313489999965  0.3392657939999992  0.5999998449999993
  0.6785313489999965  0.3392656740000035  0.0000000000000000
  0.0118646620000007  0.5059323910000018  0.2999999230000014
  0.3451980350000028  0.6725991369999988  0.5999998449999993
  0.0951977969999973  0.9225989580000018  0.1499999609999989
  0.4285312889999986  0.0892657039999989  0.4499999880000018
  0.7618647809999999  0.2559325699999988  0.7499998210000030
  0.4285312889999986  0.5892657039999989  0.1499999609999989
  0.7618646620000007  0.7559324500000031  0.4499999880000018
  0.0951981540000020  0.9225992559999980  0.7499998210000030
  0.7618646029999994  0.2559323010000014  0.1499999609999989
  0.0951980350000028  0.4225990770000010  0.4499999880000018
  0.4285315280000006  0.5892658830000030  0.7499998210000030
  0.1785312149999996  0.8392655849999997  0.0000000000000000
  0.5118646029999994  0.0059323309999968  0.2999999230000014
  0.8451979760000015  0.1725989580000018  0.5999998449999993
  0.5118646029999994  0.5059322709999989  0.0000000000000000
  0.8451979760000015  0.6725990770000010  0.2999999230000014
  0.1785314079999978  0.8392658229999981  0.5999998449999993
  0.8451979760000015  0.1725989879999972  0.0000000000000000
  0.1785312889999986  0.3392657340000014  0.2999999230000014
  0.5118646620000007  0.5059324500000031  0.5999998449999993
  0.2618646029999994  0.7559323309999968  0.1499999609999989
  0.5951979760000015  0.9225990770000010  0.4499999880000018
  0.9285314680000027  0.0892659430000009  0.7499998210000030
  0.5951979760000015  0.4225989879999972  0.1499999609999989
  0.9285314079999978  0.5892657639999968  0.4499999880000018
  0.2618649010000027  0.7559325699999988  0.7499998210000030
  0.9285313489999965  0.0892656819999971  0.1499999609999989
  0.2618646620000007  0.2559323910000018  0.4499999880000018
  0.5951981540000020  0.4225992260000027  0.7499998210000030
  0.9628466369999984  0.9893847700000009  0.7499998210000030
  0.5739576220000018  0.8782735469999992  0.8499998449999993
  0.1850686069999981  0.7671623829999987  0.9499999880000018
  0.4628466369999984  0.4893847410000021  0.7499998210000030
  0.0739576000000000  0.3782735469999992  0.8499998449999993
  0.6850686069999981  0.2671623230000009  0.9499999880000018
  0.7684021000000030  0.6838291290000029  0.7999998929999990
  0.3795130849999993  0.5727179650000025  0.8999999170000024
  0.9906240700000026  0.4616067409999971  0.9999999400000021
  0.2684021000000030  0.1838291440000006  0.7999998929999990
  0.8795130849999993  0.0727179650000025  0.8999999170000024
  0.4906240700000026  0.9616068010000021  0.9999999400000021
 
  0.00000000E+00  0.00000000E+00  0.00000000E+00
  0.00000000E+00  0.00000000E+00  0.00000000E+00
  0.00000000E+00  0.00000000E+00  0.00000000E+00
  0.00000000E+00  0.00000000E+00  0.00000000E+00
  0.00000000E+00  0.00000000E+00  0.00000000E+00
  0.00000000E+00  0.00000000E+00  0.00000000E+00
  0.00000000E+00  0.00000000E+00  0.00000000E+00
  0.00000000E+00  0.00000000E+00  0.00000000E+00
  0.00000000E+00  0.00000000E+00  0.00000000E+00
  0.00000000E+00  0.00000000E+00  0.00000000E+00
  0.00000000E+00  0.00000000E+00  0.00000000E+00
  0.00000000E+00  0.00000000E+00  0.00000000E+00
  0.00000000E+00  0.00000000E+00  0.00000000E+00
  0.00000000E+00  0.00000000E+00  0.00000000E+00
  0.00000000E+00  0.00000000E+00  0.00000000E+00
  0.00000000E+00  0.00000000E+00  0.00000000E+00
  0.00000000E+00  0.00000000E+00  0.00000000E+00
  0.00000000E+00  0.00000000E+00  0.00000000E+00
  0.00000000E+00  0.00000000E+00  0.00000000E+00
  0.00000000E+00  0.00000000E+00  0.00000000E+00
  0.00000000E+00  0.00000000E+00  0.00000000E+00
  0.00000000E+00  0.00000000E+00  0.00000000E+00
  0.00000000E+00  0.00000000E+00  0.00000000E+00
  0.00000000E+00  0.00000000E+00  0.00000000E+00
  0.00000000E+00  0.00000000E+00  0.00000000E+00
  0.00000000E+00  0.00000000E+00  0.00000000E+00
  0.00000000E+00  0.00000000E+00  0.00000000E+00
  0.00000000E+00  0.00000000E+00  0.00000000E+00
  0.00000000E+00  0.00000000E+00  0.00000000E+00
  0.00000000E+00  0.00000000E+00  0.00000000E+00
  0.00000000E+00  0.00000000E+00  0.00000000E+00
  0.00000000E+00  0.00000000E+00  0.00000000E+00
  0.00000000E+00  0.00000000E+00  0.00000000E+00
  0.00000000E+00  0.00000000E+00  0.00000000E+00
  0.00000000E+00  0.00000000E+00  0.00000000E+00
  0.00000000E+00  0.00000000E+00  0.00000000E+00
  0.00000000E+00  0.00000000E+00  0.00000000E+00
  0.00000000E+00  0.00000000E+00  0.00000000E+00
  0.00000000E+00  0.00000000E+00  0.00000000E+00
  0.00000000E+00  0.00000000E+00  0.00000000E+00
  0.00000000E+00  0.00000000E+00  0.00000000E+00
  0.00000000E+00  0.00000000E+00  0.00000000E+00
  0.00000000E+00  0.00000000E+00  0.00000000E+00
  0.00000000E+00  0.00000000E+00  0.00000000E+00
  0.00000000E+00  0.00000000E+00  0.00000000E+00
  0.00000000E+00  0.00000000E+00  0.00000000E+00
  0.00000000E+00  0.00000000E+00  0.00000000E+00
  0.00000000E+00  0.00000000E+00  0.00000000E+00
