Si+C
    1.000000000
   16.293001175    0.000000000    0.000000000
  -10.862000465   12.144085884    0.000000000
    0.000000000    0.000000000    7.006474018
Si  C  
36     84
Direct
    0.974358499    0.982905626    0.000000002
    0.674358428    0.782905579    0.173326701
    0.374358416    0.582905531    0.346653402
    0.307691783    0.982905626    0.000000002
    0.007691726    0.782905579    0.173326701
    0.707691669    0.582905531    0.346653402
    0.641025066    0.982905626    0.000000002
    0.341025025    0.782905579    0.173326701
    0.041024987    0.582905531    0.346653402
    0.157691970    0.632905602    0.086663172
    0.857691944    0.432905525    0.259989887
    0.557691932    0.232905507    0.433316529
    0.491025209    0.632905602    0.086663172
    0.191025153    0.432905525    0.259989887
    0.891025186    0.232905507    0.433316529
    0.824358463    0.632905602    0.086663172
    0.524358392    0.432905525    0.259989887
    0.224358499    0.232905507    0.433316529
    0.141025156    0.482905596    0.000000000
    0.841025114    0.282905489    0.173326701
    0.541025102    0.082905434    0.346653402
    0.474358439    0.482905596    0.000000000
    0.174358383    0.282905489    0.173326701
    0.874358356    0.082905434    0.346653402
    0.807691693    0.482905596    0.000000000
    0.507691681    0.282905489    0.173326701
    0.207691625    0.082905434    0.346653402
    0.991025209    0.132905662    0.086663179
    0.691025138    0.932905614    0.259989887
    0.391025186    0.732905567    0.433316529
    0.324358463    0.132905662    0.086663179
    0.024358414    0.932905614    0.259989887
    0.724358439    0.732905567    0.433316529
    0.657691658    0.132905662    0.086663179
    0.357691616    0.932905614    0.259989887
    0.057691652    0.732905567    0.433316529
    0.302592576    0.706957102    0.574368298
    0.545449793    0.678385735    0.688200295
    0.788307011    0.649814129    0.802032351
    0.588306844    0.849814296    0.574368298
    0.831164062    0.821242809    0.688200295
    0.074021339    0.792671323    0.802032351
    0.874021053    0.992671371    0.574368298
    0.116878271    0.964099884    0.688200295
    0.359735608    0.935528457    0.802032351
    0.159735441    0.135528564    0.574368298
    0.402592659    0.106957078    0.688200295
    0.645449996    0.078385592    0.802032351
    0.445449710    0.278385639    0.574368298
    0.688306928    0.249814272    0.688200295
    0.931164145    0.221242785    0.802032351
    0.731163979    0.421242952    0.574368298
    0.974021256    0.392671347    0.688200295
    0.216878414    0.364099979    0.802032351
    0.016878247    0.564100027    0.574368298
    0.259735465    0.535528421    0.688200295
    0.502592683    0.506957054    0.802032351
    0.138306737    0.799814284    0.631284237
    0.381164074    0.771242797    0.745116174
    0.624021292    0.742671311    0.858948231
    0.424020946    0.942671418    0.631284177
    0.666878223    0.914099932    0.745116293
    0.909735441    0.885528445    0.858948231
    0.709735274    0.085528612    0.631284177
    0.952592552    0.056957126    0.745116293
    0.195449829    0.028385639    0.858948231
    0.995449662    0.228385687    0.631284177
    0.238306999    0.199814200    0.745116293
    0.481164217    0.171242833    0.858948231
    0.281163812    0.371242881    0.631284177
    0.524021149    0.342671394    0.745116293
    0.766878247    0.314099908    0.858948231
    0.566878259    0.514100075    0.631284237
    0.809735537    0.485528469    0.745116293
    0.052592754    0.456957102    0.858948231
    0.852592409    0.656957150    0.631284237
    0.095449686    0.628385663    0.745116293
    0.338306904    0.599814177    0.858948231
    0.945449829    0.778385758    0.574368298
    0.188306928    0.749814212    0.688200295
    0.431164265    0.721242785    0.802032351
    0.231164217    0.921242893    0.574368298
    0.474021316    0.892671347    0.688200295
    0.716878414    0.864099860    0.802032351
    0.516878307    0.064100027    0.574368298
    0.759735525    0.035528541    0.688200295
    0.002592802    0.006957054    0.802032351
    0.802592516    0.206957102    0.574368298
    0.045449734    0.178385735    0.688200295
    0.288307071    0.149814248    0.802032351
    0.088306904    0.349814296    0.574368298
    0.331164122    0.321242809    0.688200295
    0.574021220    0.292671323    0.802032351
    0.374021113    0.492671490    0.574368298
    0.616878390    0.464100122    0.688200355
    0.859735668    0.435528517    0.802032351
    0.659735441    0.635528564    0.574368298
    0.902592599    0.606957197    0.688200355
    0.145449877    0.578385711    0.802032351
    0.495449722    0.728385746    0.631284177
    0.738306999    0.699814200    0.745116293
    0.981164277    0.671242714    0.858948231
    0.781163871    0.871242881    0.631284177
    0.024021149    0.842671394    0.745116293
    0.266878366    0.814099908    0.858948231
    0.066878080    0.014099956    0.631284177
    0.309735537    0.985528588    0.745116293
    0.552592754    0.956957102    0.858948231
    0.352592349    0.156957150    0.631284177
    0.595449686    0.128385663    0.745116174
    0.838306904    0.099814177    0.858948231
    0.638306797    0.299814224    0.631284177
    0.881164134    0.271242738    0.745116293
    0.124021292    0.242671251    0.858948231
    0.924021125    0.442671418    0.631284177
    0.166878462    0.414099932    0.745116293
    0.409735680    0.385528564    0.858948231
    0.209735274    0.585528612    0.631284177
    0.452592611    0.556957126    0.745116293
    0.695449829    0.528385639    0.858948231
