Si+C                                    
   1.00000000000000     
    13.3031797409999992    0.0000000000000000    0.0000000000000000
     6.6515893940000002   14.8734064099999994    0.0000000000000000
     0.0000000000000000    0.0000000000000000    7.9947524070000000
   Si   C 
    36    84
Direct
  0.2832494969999999  0.6416247490000018  0.0000000470000003
  0.8165827990000025  0.4082912800000003  0.1519008280000023
  0.3499159810000023  0.1749577670000022  0.3038016559999974
  0.6165827510000028  0.3082913759999997  0.0000000570000012
  0.1499160529999983  0.0749579299999965  0.1519008280000023
  0.6832492349999981  0.8416244390000003  0.3038016260000020
  0.9499161239999978  0.9749580619999989  0.0000000400000033
  0.4832494850000018  0.7416245940000010  0.1519008280000023
  0.0165826679999981  0.5082911249999995  0.3038016260000020
  0.7999162670000004  0.7749580139999992  0.0759502869999977
  0.3332495089999981  0.5416245460000013  0.2278510929999982
  0.8665827510000028  0.3082910780000034  0.3797519510000029
  0.1332496850000027  0.4416247609999999  0.0759503020000025
  0.6665829419999980  0.2082912770000007  0.2278510929999982
  0.1999162440000006  0.9749577640000027  0.3797519510000029
  0.4665828939999983  0.1082915369999995  0.0759503020000025
  0.9999161360000031  0.8749580380000026  0.2278510929999982
  0.5332493780000007  0.6416245699999976  0.3797519510000029
  0.7832495569999978  0.6416247490000018  0.0000000000000000
  0.3165828289999979  0.4082912800000003  0.1519008129999975
  0.8499160410000002  0.1749577819999999  0.3038016559999974
  0.1165827960000030  0.3082914049999985  0.0000000570000012
  0.6499160529999983  0.0749579519999983  0.1519008579999976
  0.1832492950000031  0.8416244980000016  0.3038016559999974
  0.4499161239999978  0.9749580619999989  0.0000000570000012
  0.9832494260000004  0.7416245940000010  0.1519008579999976
  0.5165826679999981  0.5082911249999995  0.3038016559999974
  0.2999161779999966  0.7749581340000020  0.0759503020000025
  0.8332494499999967  0.5416246650000005  0.2278511519999995
  0.3665826920000015  0.3082911970000026  0.3797519210000004
  0.6332494019999970  0.4416247309999974  0.0759503170000002
  0.1665826440000018  0.2082912620000030  0.2278511519999995
  0.6999159459999973  0.9749578240000005  0.3797518909999980
  0.9665827159999978  0.1082915510000007  0.0759503020000025
  0.4999159569999989  0.8749580380000026  0.2278511519999995
  0.0332492590000015  0.6416246289999989  0.3797519510000029
  0.0143089290000020  0.8394571540000015  0.7646964790000013
  0.3571659919999988  0.8680288199999993  0.5651752950000031
  0.6857374909999976  0.8537430169999993  0.6649358869999986
  0.3000231090000014  0.6966000800000032  0.7646964790000013
  0.6428803209999998  0.7251716849999994  0.5651752950000031
  0.9714517589999971  0.7108858819999995  0.6649358869999986
  0.5857374070000034  0.5537429450000033  0.7646964790000013
  0.9285945299999980  0.5823145510000032  0.5651752950000031
  0.2571659389999965  0.5680287480000032  0.6649358869999986
  0.8714517949999987  0.4108857809999975  0.7646964790000013
  0.2143088580000025  0.4394573869999974  0.5651752349999981
  0.5428803559999977  0.4251716139999999  0.6649358869999986
  0.1571660339999994  0.2680286470000013  0.7646964790000013
  0.5000231269999986  0.2966002519999975  0.5651752349999981
  0.8285945650000031  0.2823144790000001  0.6649358869999986
  0.4428803030000026  0.1251715419999968  0.7646964790000013
  0.7857373949999982  0.1537431479999967  0.5651752349999981
  0.1143088709999986  0.1394573749999992  0.6649358869999986
  0.7285947199999967  0.9823144080000006  0.7646965380000026
  0.0714517310000033  0.0108859540000026  0.5651752349999981
  0.4000231919999990  0.9966002110000005  0.6649358869999986
  0.4643087689999987  0.9394571779999978  0.8145766849999987
  0.8071659209999993  0.9680287839999977  0.6150555010000005
  0.1357373299999978  0.9537429209999999  0.7148161530000010
  0.7500230670000008  0.7966000440000016  0.8145766849999987
  0.0928801669999970  0.8251716489999978  0.6150555010000005
  0.4214515979999973  0.8108857869999966  0.7148161530000010
  0.0357372759999990  0.6537429090000018  0.8145768050000015
  0.3785944580000020  0.6823145150000016  0.6150554419999992
  0.7071659559999972  0.6680287120000017  0.7148160930000031
  0.3214516939999967  0.5108858350000034  0.8145766849999987
  0.6643088459999973  0.5394573809999983  0.6150554419999992
  0.9928802250000004  0.5251716380000033  0.7148161530000010
  0.6071661109999980  0.3680287299999989  0.8145768050000015
  0.9500231740000018  0.3966003060000034  0.6150554419999992
  0.2785945239999990  0.3823145329999988  0.7148160930000031
  0.8928802610000020  0.2251715359999977  0.8145768050000015
  0.2357374130000025  0.2537431419999976  0.6150555010000005
  0.5643088819999988  0.2394573389999977  0.7148161530000010
  0.1785946190000018  0.0823144020000015  0.8145766849999987
  0.5214517710000024  0.1108860000000007  0.6150555010000005
  0.8500231499999984  0.0966002119999985  0.7148160930000031
  0.5143088700000007  0.8394572139999994  0.7646964790000013
  0.8571659919999988  0.8680286999999964  0.5651752349999981
  0.1857372819999981  0.8537430169999993  0.6649359459999999
  0.8000233169999973  0.6966000800000032  0.7646965380000026
  0.1428803209999998  0.7251716849999994  0.5651752349999981
  0.4714517589999971  0.7108858819999995  0.6649358869999986
  0.0857376230000000  0.5537429450000033  0.7646965380000026
  0.4285945889999994  0.5823145510000032  0.5651752349999981
  0.7571660879999982  0.5680287480000032  0.6649358869999986
  0.3714517650000033  0.4108858410000025  0.7646965380000026
  0.7143088580000025  0.4394574169999999  0.5651752349999981
  0.0428802149999967  0.4251716429999988  0.6649358869999986
  0.6571659450000027  0.2680287660000005  0.7646965380000026
  0.0000231269999986  0.2966002820000000  0.5651752349999981
  0.3285945949999984  0.2823144790000001  0.6649358869999986
  0.9428803919999993  0.1251715570000016  0.7646965380000026
  0.2857374250000007  0.1537431180000013  0.5651752950000031
  0.6143089529999983  0.1394573150000014  0.6649358869999986
  0.2285945710000021  0.9823144670000019  0.7646965380000026
  0.5714516640000014  0.0108860730000018  0.5651752950000031
  0.9000231619999965  0.9966002110000005  0.6649358869999986
  0.9643088580000025  0.9394572969999970  0.8145766849999987
  0.3071659510000018  0.9680288429999990  0.6150555010000005
  0.6357373600000003  0.9537429809999978  0.7148160930000031
  0.2500231559999975  0.7966001030000029  0.8145766849999987
  0.5928803090000017  0.8251717090000028  0.6150555010000005
  0.9214516879999977  0.8108858470000015  0.7148160930000031
  0.5357374550000031  0.6537429090000018  0.8145766849999987
  0.8785946369999991  0.6823145150000016  0.6150555010000005
  0.2071661060000025  0.6680286530000004  0.7148160930000031
  0.8214516040000035  0.5108858350000034  0.8145766259999974
  0.1643088160000019  0.5394573210000004  0.6150554419999992
  0.4928802550000029  0.5251715779999984  0.7148160930000031
  0.1071660890000032  0.3680286709999976  0.8145766849999987
  0.4500232339999997  0.3966002459999984  0.6150554419999992
  0.7785946730000006  0.3823144730000010  0.7148160930000031
  0.3928801120000003  0.2251715060000024  0.8145766849999987
  0.7357373239999987  0.2537431120000022  0.6150554419999992
  0.0643086810000000  0.2394573389999977  0.7148160930000031
  0.6785945299999980  0.0823144760000005  0.8145766849999987
  0.0214517120000011  0.1108859779999989  0.6150555010000005
  0.3500230610000017  0.0966002050000014  0.7148161530000010
 
  0.00000000E+00  0.00000000E+00  0.00000000E+00
  0.00000000E+00  0.00000000E+00  0.00000000E+00
  0.00000000E+00  0.00000000E+00  0.00000000E+00
  0.00000000E+00  0.00000000E+00  0.00000000E+00
  0.00000000E+00  0.00000000E+00  0.00000000E+00
  0.00000000E+00  0.00000000E+00  0.00000000E+00
  0.00000000E+00  0.00000000E+00  0.00000000E+00
  0.00000000E+00  0.00000000E+00  0.00000000E+00
  0.00000000E+00  0.00000000E+00  0.00000000E+00
  0.00000000E+00  0.00000000E+00  0.00000000E+00
  0.00000000E+00  0.00000000E+00  0.00000000E+00
  0.00000000E+00  0.00000000E+00  0.00000000E+00
  0.00000000E+00  0.00000000E+00  0.00000000E+00
  0.00000000E+00  0.00000000E+00  0.00000000E+00
  0.00000000E+00  0.00000000E+00  0.00000000E+00
  0.00000000E+00  0.00000000E+00  0.00000000E+00
  0.00000000E+00  0.00000000E+00  0.00000000E+00
  0.00000000E+00  0.00000000E+00  0.00000000E+00
  0.00000000E+00  0.00000000E+00  0.00000000E+00
  0.00000000E+00  0.00000000E+00  0.00000000E+00
  0.00000000E+00  0.00000000E+00  0.00000000E+00
  0.00000000E+00  0.00000000E+00  0.00000000E+00
  0.00000000E+00  0.00000000E+00  0.00000000E+00
  0.00000000E+00  0.00000000E+00  0.00000000E+00
  0.00000000E+00  0.00000000E+00  0.00000000E+00
  0.00000000E+00  0.00000000E+00  0.00000000E+00
  0.00000000E+00  0.00000000E+00  0.00000000E+00
  0.00000000E+00  0.00000000E+00  0.00000000E+00
  0.00000000E+00  0.00000000E+00  0.00000000E+00
  0.00000000E+00  0.00000000E+00  0.00000000E+00
  0.00000000E+00  0.00000000E+00  0.00000000E+00
  0.00000000E+00  0.00000000E+00  0.00000000E+00
  0.00000000E+00  0.00000000E+00  0.00000000E+00
  0.00000000E+00  0.00000000E+00  0.00000000E+00
  0.00000000E+00  0.00000000E+00  0.00000000E+00
  0.00000000E+00  0.00000000E+00  0.00000000E+00
  0.00000000E+00  0.00000000E+00  0.00000000E+00
  0.00000000E+00  0.00000000E+00  0.00000000E+00
  0.00000000E+00  0.00000000E+00  0.00000000E+00
  0.00000000E+00  0.00000000E+00  0.00000000E+00
  0.00000000E+00  0.00000000E+00  0.00000000E+00
  0.00000000E+00  0.00000000E+00  0.00000000E+00
  0.00000000E+00  0.00000000E+00  0.00000000E+00
  0.00000000E+00  0.00000000E+00  0.00000000E+00
  0.00000000E+00  0.00000000E+00  0.00000000E+00
  0.00000000E+00  0.00000000E+00  0.00000000E+00
  0.00000000E+00  0.00000000E+00  0.00000000E+00
  0.00000000E+00  0.00000000E+00  0.00000000E+00
  0.00000000E+00  0.00000000E+00  0.00000000E+00
  0.00000000E+00  0.00000000E+00  0.00000000E+00
  0.00000000E+00  0.00000000E+00  0.00000000E+00
  0.00000000E+00  0.00000000E+00  0.00000000E+00
  0.00000000E+00  0.00000000E+00  0.00000000E+00
  0.00000000E+00  0.00000000E+00  0.00000000E+00
  0.00000000E+00  0.00000000E+00  0.00000000E+00
  0.00000000E+00  0.00000000E+00  0.00000000E+00
  0.00000000E+00  0.00000000E+00  0.00000000E+00
  0.00000000E+00  0.00000000E+00  0.00000000E+00
  0.00000000E+00  0.00000000E+00  0.00000000E+00
  0.00000000E+00  0.00000000E+00  0.00000000E+00
  0.00000000E+00  0.00000000E+00  0.00000000E+00
  0.00000000E+00  0.00000000E+00  0.00000000E+00
  0.00000000E+00  0.00000000E+00  0.00000000E+00
  0.00000000E+00  0.00000000E+00  0.00000000E+00
  0.00000000E+00  0.00000000E+00  0.00000000E+00
  0.00000000E+00  0.00000000E+00  0.00000000E+00
  0.00000000E+00  0.00000000E+00  0.00000000E+00
  0.00000000E+00  0.00000000E+00  0.00000000E+00
  0.00000000E+00  0.00000000E+00  0.00000000E+00
  0.00000000E+00  0.00000000E+00  0.00000000E+00
  0.00000000E+00  0.00000000E+00  0.00000000E+00
  0.00000000E+00  0.00000000E+00  0.00000000E+00
  0.00000000E+00  0.00000000E+00  0.00000000E+00
  0.00000000E+00  0.00000000E+00  0.00000000E+00
  0.00000000E+00  0.00000000E+00  0.00000000E+00
  0.00000000E+00  0.00000000E+00  0.00000000E+00
  0.00000000E+00  0.00000000E+00  0.00000000E+00
  0.00000000E+00  0.00000000E+00  0.00000000E+00
  0.00000000E+00  0.00000000E+00  0.00000000E+00
  0.00000000E+00  0.00000000E+00  0.00000000E+00
  0.00000000E+00  0.00000000E+00  0.00000000E+00
  0.00000000E+00  0.00000000E+00  0.00000000E+00
  0.00000000E+00  0.00000000E+00  0.00000000E+00
  0.00000000E+00  0.00000000E+00  0.00000000E+00
  0.00000000E+00  0.00000000E+00  0.00000000E+00
  0.00000000E+00  0.00000000E+00  0.00000000E+00
  0.00000000E+00  0.00000000E+00  0.00000000E+00
  0.00000000E+00  0.00000000E+00  0.00000000E+00
  0.00000000E+00  0.00000000E+00  0.00000000E+00
  0.00000000E+00  0.00000000E+00  0.00000000E+00
  0.00000000E+00  0.00000000E+00  0.00000000E+00
  0.00000000E+00  0.00000000E+00  0.00000000E+00
  0.00000000E+00  0.00000000E+00  0.00000000E+00
  0.00000000E+00  0.00000000E+00  0.00000000E+00
  0.00000000E+00  0.00000000E+00  0.00000000E+00
  0.00000000E+00  0.00000000E+00  0.00000000E+00
  0.00000000E+00  0.00000000E+00  0.00000000E+00
  0.00000000E+00  0.00000000E+00  0.00000000E+00
  0.00000000E+00  0.00000000E+00  0.00000000E+00
  0.00000000E+00  0.00000000E+00  0.00000000E+00
  0.00000000E+00  0.00000000E+00  0.00000000E+00
  0.00000000E+00  0.00000000E+00  0.00000000E+00
  0.00000000E+00  0.00000000E+00  0.00000000E+00
  0.00000000E+00  0.00000000E+00  0.00000000E+00
  0.00000000E+00  0.00000000E+00  0.00000000E+00
  0.00000000E+00  0.00000000E+00  0.00000000E+00
  0.00000000E+00  0.00000000E+00  0.00000000E+00
  0.00000000E+00  0.00000000E+00  0.00000000E+00
  0.00000000E+00  0.00000000E+00  0.00000000E+00
  0.00000000E+00  0.00000000E+00  0.00000000E+00
  0.00000000E+00  0.00000000E+00  0.00000000E+00
  0.00000000E+00  0.00000000E+00  0.00000000E+00
  0.00000000E+00  0.00000000E+00  0.00000000E+00
  0.00000000E+00  0.00000000E+00  0.00000000E+00
  0.00000000E+00  0.00000000E+00  0.00000000E+00
  0.00000000E+00  0.00000000E+00  0.00000000E+00
  0.00000000E+00  0.00000000E+00  0.00000000E+00
  0.00000000E+00  0.00000000E+00  0.00000000E+00
  0.00000000E+00  0.00000000E+00  0.00000000E+00
  0.00000000E+00  0.00000000E+00  0.00000000E+00
