C+Si
    1.000000000
   13.345743179    0.000000000    0.000000000
   -6.672872543   11.557754517    0.000000000
    0.000000759    0.000001606   21.497350693
C   Si 
308     72
Direct
    0.825397253    0.543650508    0.455016285
    0.301587492    0.924603105    0.071844727
    0.682539821    0.829364955    0.167637631
    0.063492298    0.734126747    0.263430566
    0.444444656    0.638888597    0.359223515
    0.253968477    0.686507583    0.455016285
    0.730158925    0.067460209    0.071844727
    0.111111283    0.972222149    0.167637631
    0.492063761    0.876983881    0.263430566
    0.873016238    0.781745732    0.359223485
    0.682539940    0.829364896    0.455016255
    0.158730388    0.210317418    0.071844719
    0.539682746    0.115079314    0.167637661
    0.920635343    0.019841040    0.263430536
    0.301587820    0.924602926    0.359223545
    0.111111403    0.972221851    0.455016285
    0.587301791    0.353174508    0.071844719
    0.968254149    0.257936448    0.167637631
    0.349206686    0.162698254    0.263430566
    0.730159044    0.067460023    0.359223485
    0.539682865    0.115079165    0.455016345
    0.015873194    0.496031702    0.071844742
    0.396825671    0.400793582    0.167637661
    0.777778149    0.305555373    0.263430566
    0.158730745    0.210317209    0.359223515
    0.968254209    0.257936150    0.455016345
    0.444444627    0.638888836    0.071844734
    0.825396955    0.543650746    0.167637631
    0.206349492    0.448412538    0.263430566
    0.587301970    0.353174359    0.359223515
    0.396825790    0.400793403    0.455016285
    0.873016059    0.781745970    0.071844719
    0.253968477    0.686507881    0.167637631
    0.634920955    0.591269672    0.263430566
    0.015873432    0.496031493    0.359223515
    0.634921074    0.591269493    0.478964627
    0.730158925    0.067460306    0.000000058
    0.111111283    0.972222149    0.095792964
    0.492063761    0.876984000    0.191585898
    0.873016357    0.781745911    0.287378818
    0.253968716    0.686507702    0.383171737
    0.063492537    0.734126627    0.478964567
    0.158730358    0.210317448    0.000000052
    0.539682746    0.115079306    0.095792942
    0.920635283    0.019841162    0.191585869
    0.301587701    0.924603045    0.287378788
    0.682540178    0.829364777    0.383171737
    0.492063999    0.876983881    0.478964597
    0.587301791    0.353174567    0.000000042
    0.968254209    0.257936418    0.095792949
    0.349206686    0.162698299    0.191585869
    0.730159283    0.067460120    0.287378818
    0.111111641    0.972221911    0.383171737
    0.920635223    0.019840864    0.478964627
    0.015873149    0.496031731    0.000000056
    0.396825552    0.400793582    0.095792949
    0.777778029    0.305555373    0.191585869
    0.158730507    0.210317269    0.287378788
    0.539682984    0.115079038    0.383171737
    0.349206924    0.162698239    0.478964627
    0.444444627    0.638888955    0.000000043
    0.825397015    0.543650806    0.095792957
    0.206349492    0.448412627    0.191585869
    0.587301970    0.353174508    0.287378818
    0.968254447    0.257936299    0.383171767
    0.777778149    0.305555135    0.478964627
    0.873015940    0.781746030    0.000000039
    0.253968477    0.686507821    0.095792934
    0.634920955    0.591269672    0.191585869
    0.015873432    0.496031553    0.287378788
    0.396826029    0.400793433    0.383171767
    0.206349611    0.448412478    0.478964657
    0.301587433    0.924603224    0.000000050
    0.682539821    0.829365075    0.095792927
    0.063492179    0.734126866    0.191585839
    0.444444895    0.638888776    0.287378818
    0.825397134    0.543650508    0.383171707
    0.325397015    0.543650389    0.455016375
    0.801587462    0.924603045    0.071844727
    0.182539821    0.829365015    0.167637587
    0.563492417    0.734126806    0.263430536
    0.944444776    0.638888657    0.359223485
    0.753968716    0.686507583    0.455016345
    0.230159044    0.067460246    0.071844757
    0.611111283    0.972222149    0.167637631
    0.992063761    0.876983941    0.263430536
    0.373016119    0.781745791    0.359223485
    0.182539940    0.829364777    0.455016285
    0.658730388    0.210317403    0.071844734
    0.039682746    0.115079291    0.167637631
    0.420635223    0.019841112    0.263430536
    0.801587582    0.924602926    0.359223485
    0.611111403    0.972221911    0.455016285
    0.087301850    0.353174508    0.071844727
    0.468254209    0.257936388    0.167637631
    0.849206686    0.162698179    0.263430536
    0.230159044    0.067460135    0.359223515
    0.039682627    0.115079060    0.455016345
    0.515873194    0.496031702    0.071844719
    0.896825552    0.400793612    0.167637631
    0.277778149    0.305555403    0.263430566
    0.658730507    0.210317224    0.359223485
    0.468254328    0.257936239    0.455016285
    0.944444656    0.638888836    0.071844697
    0.325397015    0.543650687    0.167637661
    0.706349611    0.448412508    0.263430566
    0.087301970    0.353174418    0.359223485
    0.896825552    0.400793284    0.455016345
    0.373016000    0.781745970    0.071844712
    0.753968418    0.686507881    0.167637631
    0.134920716    0.591269672    0.263430536
    0.515873313    0.496031463    0.359223515
    0.134921074    0.591269553    0.478964567
    0.230158895    0.067460284    0.000000013
    0.611111343    0.972222149    0.095792919
    0.992063701    0.876984000    0.191585839
    0.373016238    0.781745851    0.287378728
    0.753968716    0.686507702    0.383171707
    0.563492537    0.734126627    0.478964508
    0.658730388    0.210317433    0.000000022
    0.039682865    0.115079269    0.095792919
    0.420635223    0.019841123    0.191585794
    0.801587582    0.924602926    0.287378728
    0.182540178    0.829364777    0.383171707
    0.992063880    0.876983821    0.478964597
    0.087301694    0.353174597    0.000000014
    0.468254149    0.257936418    0.095792942
    0.849206507    0.162698269    0.191585794
    0.230158925    0.067460075    0.287378699
    0.611111522    0.972221911    0.383171678
    0.420635462    0.019840980    0.478964567
    0.515873194    0.496031761    0.000000023
    0.896825612    0.400793552    0.095792934
    0.277778029    0.305555433    0.191585839
    0.658730388    0.210317209    0.287378728
    0.039682865    0.115079090    0.383171678
    0.849206686    0.162698060    0.478964597
    0.944444537    0.638888955    0.000000003
    0.325397015    0.543650806    0.095792934
    0.706349373    0.448412687    0.191585839
    0.087301970    0.353174478    0.287378728
    0.468254328    0.257936299    0.383171618
    0.277777910    0.305555344    0.478964597
    0.373016000    0.781746030    0.000000030
    0.753968477    0.686507881    0.095792949
    0.134920835    0.591269732    0.191585794
    0.515873313    0.496031523    0.287378699
    0.896825790    0.400793374    0.383171707
    0.706349611    0.448412418    0.478964567
    0.801587403    0.924603224    0.000000000
    0.182539821    0.829365075    0.095792942
    0.563492298    0.734126925    0.191585839
    0.944444776    0.638888717    0.287378788
    0.325397015    0.543650627    0.383171678
    0.539683104    0.615079045    0.455016375
    0.015873194    0.996031702    0.071844742
    0.396825552    0.900793612    0.167637631
    0.777778149    0.805555344    0.263430566
    0.158730507    0.710317254    0.359223515
    0.968254447    0.757936180    0.455016285
    0.444444627    0.138888806    0.071844719
    0.825396895    0.043650664    0.167637631
    0.206349492    0.948412478    0.263430536
    0.587301970    0.853174329    0.359223515
    0.396825790    0.900793433    0.455016345
    0.873016119    0.281745970    0.071844727
    0.253968477    0.186507791    0.167637587
    0.634921074    0.091269650    0.263430566
    0.015873432    0.996031404    0.359223485
    0.825397134    0.043650459    0.455016345
    0.301587492    0.424603105    0.071844727
    0.682539821    0.329364955    0.167637631
    0.063492417    0.234126836    0.263430595
    0.444444895    0.138888687    0.359223515
    0.253968716    0.186507717    0.455016345
    0.730158925    0.567460299    0.071844719
    0.111111283    0.472222179    0.167637631
    0.492063999    0.376984000    0.263430595
    0.873016357    0.281745821    0.359223515
    0.682539940    0.329364836    0.455016404
    0.158730388    0.710317373    0.071844704
    0.539682746    0.615079284    0.167637661
    0.920635223    0.519841135    0.263430536
    0.301587582    0.424602896    0.359223455
    0.111111403    0.472222060    0.455016345
    0.587301672    0.853174627    0.071844704
    0.968254149    0.757936418    0.167637587
    0.349206448    0.662698388    0.263430506
    0.730159044    0.567460060    0.359223515
    0.349206686    0.662698090    0.478964597
    0.444444597    0.138888851    0.000000028
    0.825397074    0.043650683    0.095792934
    0.206349492    0.948412538    0.191585839
    0.587301970    0.853174388    0.287378728
    0.968254447    0.757936180    0.383171707
    0.777778387    0.805555284    0.478964567
    0.873016119    0.281746000    0.000000016
    0.253968596    0.186507821    0.095792927
    0.634921074    0.091269717    0.191585839
    0.015873432    0.996031582    0.287378728
    0.396826029    0.900793374    0.383171678
    0.206349850    0.948412299    0.478964597
    0.301587462    0.424603164    0.000000021
    0.682539880    0.329364985    0.095792942
    0.063492298    0.234126821    0.191585839
    0.444444656    0.138888732    0.287378728
    0.825397253    0.043650553    0.383171678
    0.634921074    0.091269575    0.478964627
    0.730158925    0.567460299    0.000000019
    0.111111403    0.472222120    0.095792957
    0.492063761    0.376984000    0.191585839
    0.873016238    0.281745821    0.287378788
    0.253968716    0.186507568    0.383171707
    0.063492298    0.234126672    0.478964597
    0.158730239    0.710317492    0.000000017
    0.539682686    0.615079343    0.095792927
    0.920635045    0.519841135    0.191585839
    0.301587582    0.424603075    0.287378788
    0.682539940    0.329364926    0.383171678
    0.492063761    0.376983792    0.478964508
    0.587301672    0.853174567    0.000000026
    0.968254149    0.757936358    0.095792934
    0.349206567    0.662698269    0.191585839
    0.730158925    0.567460060    0.287378728
    0.111111641    0.472221881    0.383171707
    0.920635462    0.519841015    0.478964567
    0.015873156    0.996031702    0.000000022
    0.396825612    0.900793493    0.095792934
    0.777777970    0.805555344    0.191585839
    0.158730507    0.710317254    0.287378728
    0.539682984    0.615079045    0.383171707
    0.039682865    0.615079045    0.455016285
    0.515873194    0.996031642    0.071844719
    0.896825552    0.900793493    0.167637631
    0.277778149    0.805555344    0.263430566
    0.658730507    0.710317194    0.359223515
    0.468254328    0.757936299    0.455016285
    0.944444656    0.138888836    0.071844727
    0.325397015    0.043650653    0.167637587
    0.706349611    0.948412478    0.263430566
    0.087301970    0.853174269    0.359223485
    0.896825671    0.900793314    0.455016345
    0.373016030    0.281745940    0.071844727
    0.753968358    0.186507806    0.167637631
    0.134920955    0.091269657    0.263430595
    0.515873432    0.996031463    0.359223515
    0.325397253    0.043650568    0.455016375
    0.801587462    0.424603134    0.071844727
    0.182539940    0.329364926    0.167637587
    0.563492537    0.234126791    0.263430566
    0.944444776    0.138888553    0.359223515
    0.753968716    0.186507702    0.455016345
    0.230158806    0.567460239    0.071844712
    0.611111283    0.472222090    0.167637661
    0.992063880    0.376983970    0.263430566
    0.373016357    0.281745762    0.359223396
    0.182540178    0.329364866    0.455016345
    0.658730209    0.710317433    0.071844712
    0.039682746    0.615079284    0.167637587
    0.420635104    0.519841135    0.263430536
    0.801587701    0.424602836    0.359223485
    0.611111641    0.472221941    0.455016375
    0.087301850    0.853174567    0.071844697
    0.468254209    0.757936418    0.167637661
    0.849206686    0.662698269    0.263430566
    0.230159044    0.567460120    0.359223485
    0.849206686    0.662698150    0.478964657
    0.944444478    0.138888851    0.000000066
    0.325396776    0.043650754    0.095792942
    0.706349373    0.948412538    0.191585869
    0.087301970    0.853174448    0.287378818
    0.468254328    0.757936180    0.383171737
    0.277778149    0.805555224    0.478964597
    0.373015970    0.281746030    0.000000044
    0.753968298    0.186507866    0.095792949
    0.134920835    0.091269732    0.191585898
    0.515873313    0.996031582    0.287378788
    0.896825790    0.900793433    0.383171737
    0.706349611    0.948412418    0.478964627
    0.801587403    0.424603164    0.000000043
    0.182539821    0.329365015    0.095792957
    0.563492179    0.234126955    0.191585898
    0.944444895    0.138888717    0.287378788
    0.325397491    0.043650601    0.383171707
    0.134921074    0.091269463    0.478964657
    0.230158865    0.567460299    0.000000056
    0.611111224    0.472222149    0.095792949
    0.992063761    0.376984000    0.191585869
    0.373016238    0.281745821    0.287378788
    0.753968596    0.186507627    0.383171737
    0.563492537    0.234126776    0.478964597
    0.658730209    0.710317433    0.000000043
    0.039682627    0.615079343    0.095792927
    0.420635104    0.519841194    0.191585869
    0.801587582    0.424603045    0.287378818
    0.182540178    0.329364777    0.383171737
    0.992063880    0.376983762    0.478964627
    0.087301679    0.853174567    0.000000042
    0.468254060    0.757936418    0.095792949
    0.849206567    0.662698209    0.191585869
    0.230159044    0.567460060    0.287378818
    0.611111522    0.472221911    0.383171737
    0.420635223    0.519840837    0.478964597
    0.515873134    0.996031642    0.000000048
    0.896825552    0.900793433    0.095792957
    0.277778029    0.805555344    0.191585898
    0.658730388    0.710317135    0.287378818
    0.039682865    0.615078986    0.383171737
    0.302705824    0.090909094    0.575390458
    0.636039138    0.090909094    0.721249819
    0.969372630    0.090909094    0.867109179
    0.969372511    0.424242437    0.575390458
    0.302705914    0.424242437    0.721249819
    0.636039376    0.424242437    0.867109179
    0.636039138    0.757575750    0.575390458
    0.969372511    0.757575750    0.721249819
    0.302706033    0.757575750    0.867109179
    0.636039197    0.090909094    0.611855268
    0.969372511    0.090909094    0.757714689
    0.302706033    0.090909094    0.903574049
    0.302705795    0.424242437    0.611855268
    0.636039138    0.424242437    0.757714689
    0.969372630    0.424242437    0.903574049
    0.969372511    0.757575750    0.611855268
    0.302705914    0.757575750    0.757714748
    0.636039376    0.757575750    0.903573990
    0.636039138    0.257575750    0.575390458
    0.969372511    0.257575750    0.721249819
    0.302705914    0.257575750    0.867109179
    0.302705824    0.590909123    0.575390458
    0.636039138    0.590909123    0.721249819
    0.969372630    0.590909123    0.867109179
    0.969372511    0.924242496    0.575390458
    0.302705914    0.924242496    0.721249819
    0.636039257    0.924242496    0.867109179
    0.969372630    0.257575780    0.611855268
    0.302706033    0.257575780    0.757714689
    0.636039376    0.257575780    0.903573990
    0.636039138    0.590909123    0.611855268
    0.969372630    0.590909123    0.757714689
    0.302706033    0.590909123    0.903573990
    0.302705914    0.924242496    0.611855268
    0.636039257    0.924242496    0.757714689
    0.969372511    0.924242496    0.903573930
    0.802705765    0.090909094    0.575390458
    0.136039257    0.090909094    0.721249819
    0.469372660    0.090909094    0.867109179
    0.469372481    0.424242437    0.575390458
    0.802705884    0.424242437    0.721249819
    0.136039376    0.424242437    0.867109179
    0.136039138    0.757575750    0.575390458
    0.469372541    0.757575750    0.721249819
    0.802706003    0.757575750    0.867109179
    0.136039138    0.090909109    0.611855209
    0.469372660    0.090909109    0.757714689
    0.802706003    0.090909109    0.903573990
    0.802705884    0.424242437    0.611855268
    0.136039257    0.424242437    0.757714689
    0.469372660    0.424242437    0.903573990
    0.469372422    0.757575750    0.611855268
    0.802705884    0.757575750    0.757714689
    0.136039138    0.757575750    0.903573990
    0.136039138    0.257575750    0.575390458
    0.469372541    0.257575750    0.721249819
    0.802706003    0.257575750    0.867109179
    0.802705765    0.590909123    0.575390458
    0.136039138    0.590909123    0.721249819
    0.469372660    0.590909123    0.867109179
    0.469372511    0.924242377    0.575390458
    0.802705884    0.924242377    0.721249819
    0.136039257    0.924242377    0.867109179
    0.469372422    0.257575780    0.611855268
    0.802705884    0.257575780    0.757714689
    0.136039257    0.257575780    0.903574049
    0.136039257    0.590909123    0.611855268
    0.469372660    0.590909123    0.757714689
    0.802706003    0.590909123    0.903573990
    0.802705765    0.924242496    0.611855268
    0.136039138    0.924242496    0.757714689
    0.469372660    0.924242496    0.903574049
