Ge+Sn
    1.000000000
   11.315600395    0.000000000    0.000000000
  -11.315600395   16.002676010    0.000000000
    0.000000000    0.000000000   25.604219437
Ge  Sn 
96     72
Direct
    0.469067723    0.989689231    0.000000017
    0.094067708    0.864689231    0.078125209
    0.719067633    0.739689231    0.156250417
    0.344067693    0.614689231    0.234375581
    0.969067812    0.489689291    0.312500775
    0.594067693    0.364689231    0.390625983
    0.969067693    0.989689231    0.000000017
    0.594067693    0.864689231    0.078125209
    0.219067633    0.739689231    0.156250417
    0.844067693    0.614689231    0.234375581
    0.469067812    0.489689291    0.312500775
    0.094067693    0.364689231    0.390625983
    0.469067693    0.489689231    0.000000009
    0.094067700    0.364689231    0.078125209
    0.719067574    0.239689216    0.156250417
    0.344067693    0.114689231    0.234375581
    0.969067812    0.989689231    0.312500775
    0.594067693    0.864689231    0.390625983
    0.969067693    0.489689231    0.000000009
    0.594067693    0.364689231    0.078125209
    0.219067574    0.239689216    0.156250417
    0.844067693    0.114689231    0.234375581
    0.469067693    0.989689231    0.312500775
    0.094067574    0.864689231    0.390625983
    0.719067693    0.239689231    0.000000017
    0.344067663    0.114689231    0.078125209
    0.969067574    0.989689231    0.156250417
    0.594067693    0.864689231    0.234375581
    0.219067693    0.739689231    0.312500775
    0.844067574    0.614689231    0.390625983
    0.219067678    0.239689231    0.000000017
    0.844067693    0.114689231    0.078125209
    0.469067633    0.989689231    0.156250417
    0.094067693    0.864689231    0.234375581
    0.719067812    0.739689231    0.312500775
    0.344067693    0.614689231    0.390625983
    0.719067633    0.739689231    0.000000021
    0.344067663    0.614689231    0.078125224
    0.969067574    0.489689201    0.156250432
    0.594067633    0.364689231    0.234375611
    0.219067693    0.239689246    0.312500805
    0.844067693    0.114689231    0.390625983
    0.219067693    0.739689231    0.000000021
    0.844067693    0.614689231    0.078125224
    0.469067574    0.489689201    0.156250432
    0.094067693    0.364689231    0.234375611
    0.719067693    0.239689246    0.312500805
    0.344067574    0.114689231    0.390625983
    0.469067663    0.364689231    0.000000016
    0.094067693    0.239689231    0.078125216
    0.719067633    0.114689209    0.156250432
    0.344067693    0.989689231    0.234375611
    0.969067812    0.864689231    0.312500775
    0.594067693    0.739689231    0.390625983
    0.969067693    0.364689231    0.000000016
    0.594067693    0.239689231    0.078125216
    0.219067633    0.114689209    0.156250432
    0.844067693    0.989689231    0.234375611
    0.469067812    0.864689231    0.312500775
    0.094067693    0.739689231    0.390625983
    0.469067752    0.864689291    0.000000000
    0.094067737    0.739689291    0.078125209
    0.719067693    0.614689291    0.156250402
    0.344067693    0.489689291    0.234375581
    0.969067812    0.364689291    0.312500775
    0.594067693    0.239689291    0.390625954
    0.969067693    0.864689291    0.000000000
    0.594067574    0.739689291    0.078125209
    0.219067574    0.614689291    0.156250402
    0.844067574    0.489689291    0.234375581
    0.469067574    0.364689291    0.312500775
    0.094067693    0.239689291    0.390625954
    0.719067693    0.114689223    0.000000017
    0.344067663    0.989689231    0.078125209
    0.969067633    0.864689231    0.156250417
    0.594067693    0.739689231    0.234375611
    0.219067693    0.614689231    0.312500775
    0.844067693    0.489689231    0.390625983
    0.219067678    0.114689223    0.000000017
    0.844067693    0.989689231    0.078125209
    0.469067633    0.864689231    0.156250417
    0.094067693    0.739689231    0.234375611
    0.719067812    0.614689231    0.312500775
    0.344067693    0.489689231    0.390625983
    0.719067693    0.614689231    0.000000015
    0.344067693    0.489689231    0.078125216
    0.969067633    0.364689231    0.156250417
    0.594067693    0.239689231    0.234375611
    0.219067752    0.114689253    0.312500775
    0.844067574    0.989689231    0.390625983
    0.219067723    0.614689231    0.000000015
    0.844067693    0.489689231    0.078125216
    0.469067633    0.364689231    0.156250417
    0.094067693    0.239689231    0.234375611
    0.719067812    0.114689253    0.312500775
    0.344067693    0.989689231    0.390625983
    0.512027144    0.761569381    0.471299201
    0.762027144    0.011569381    0.560904682
    0.012027383    0.261569560    0.650510252
    0.262027621    0.511569679    0.740115762
    0.512027502    0.761569679    0.829721272
    0.762027621    0.011569858    0.919326842
    0.178693801    0.094902597    0.471299201
    0.428693831    0.344902664    0.560904741
    0.678694069    0.594902813    0.650510252
    0.928694248    0.844902933    0.740115821
    0.178694263    0.094903059    0.829721272
    0.428694367    0.344903171    0.919326842
    0.845360518    0.428235948    0.471299201
    0.095360637    0.678236008    0.560904741
    0.345360756    0.928236127    0.650510252
    0.595360994    0.178236306    0.740115762
    0.845360875    0.428236306    0.829721272
    0.095361233    0.678236544    0.919326842
    0.345360488    0.928236008    0.471299171
    0.595360458    0.178236067    0.560904682
    0.845360696    0.428236187    0.650510252
    0.095360994    0.678236306    0.740115762
    0.345360756    0.928236425    0.829721272
    0.595360994    0.178236663    0.919326842
    0.678693891    0.594902635    0.471299201
    0.928693771    0.844902694    0.560904741
    0.178694025    0.094902821    0.650510252
    0.428694248    0.344903052    0.740115762
    0.678694248    0.594902933    0.829721272
    0.928694129    0.844903171    0.919326842
    0.012027264    0.261569291    0.471299201
    0.262027383    0.511569381    0.560904741
    0.512027502    0.761569500    0.650510252
    0.762027621    0.011569738    0.740115762
    0.012027502    0.261569679    0.829721272
    0.262027860    0.511569917    0.919326842
    0.262027204    0.761569262    0.471299171
    0.512027264    0.011569262    0.560904741
    0.762027264    0.261569440    0.650510252
    0.012027502    0.511569560    0.740115762
    0.262027502    0.761569560    0.829721272
    0.512027502    0.011569858    0.919326842
    0.595360518    0.428235948    0.471299201
    0.845360518    0.678235948    0.560904741
    0.095360756    0.928236127    0.650510252
    0.345360875    0.178236187    0.740115762
    0.595360756    0.428236306    0.829721272
    0.845360875    0.678236425    0.919326842
    0.928693831    0.094902597    0.471299201
    0.178693905    0.344902664    0.560904741
    0.428694010    0.594902754    0.650510252
    0.678694248    0.844902933    0.740115821
    0.928694367    0.094903059    0.829721272
    0.178694382    0.344903052    0.919326842
    0.428693831    0.594902694    0.471299201
    0.678693891    0.844902635    0.560904741
    0.928693950    0.094902821    0.650510252
    0.178694144    0.344902933    0.740115821
    0.428694129    0.594902933    0.829721272
    0.678694248    0.844903171    0.919326782
    0.095360518    0.928235948    0.471299201
    0.345360637    0.178236067    0.560904741
    0.595360756    0.428236187    0.650510252
    0.845360994    0.678236306    0.740115821
    0.095360875    0.928236306    0.829721272
    0.345361352    0.178236663    0.919326782
    0.762027204    0.261569321    0.471299201
    0.012027144    0.511569321    0.560904741
    0.262027264    0.761569500    0.650510252
    0.512027383    0.011569619    0.740115762
    0.762027383    0.261569679    0.829721272
    0.012027383    0.511569798    0.919326842
