Si+C                                    
   1.00000000000000     
    13.3031797409999992    0.0000000000000000    0.0000000000000000
    -6.6515893940000002   14.8734064099999994    0.0000000000000000
     0.0000000000000000    0.0000000000000000    7.2041301730000002
   Si   C 
    36    84
Direct
  0.9971509579999989  0.9800565840000033  0.0000000000000000
  0.9638175369999971  0.7467231749999996  0.1685712640000006
  0.9304841160000024  0.5133898260000009  0.3371425269999975
  0.3304842109999981  0.3133898680000016  0.0000000000000000
  0.2971507910000000  0.0800564740000027  0.1685712640000006
  0.2638173699999982  0.8467230799999967  0.3371425269999975
  0.6638174650000011  0.6467231510000033  0.0000000000000000
  0.6304840450000029  0.4133897130000008  0.1685712640000006
  0.5971506240000011  0.1800563339999997  0.3371425269999975
  0.3138175309999980  0.9467233419999985  0.0842854599999967
  0.2804841100000033  0.7133899929999998  0.2528567310000014
  0.2471506890000015  0.4800565840000033  0.4214278760000028
  0.6471508150000034  0.2800565659999990  0.0842854599999967
  0.6138173940000016  0.0467231940000019  0.2528566720000001
  0.5804839729999998  0.8133897780000012  0.4214279349999970
  0.9804844259999967  0.6133898499999972  0.0842854830000022
  0.9471510050000020  0.3800564710000032  0.2528566720000001
  0.9138175849999968  0.1467230920000020  0.4214278760000028
  0.1638175699999991  0.6467230920000020  0.0000000020000002
  0.1304841640000021  0.4133897130000008  0.1685712640000006
  0.0971507499999973  0.1800563190000020  0.3371425269999975
  0.4971508980000010  0.9800566429999975  0.0000000060000005
  0.4638174179999979  0.7467231749999996  0.1685711889999979
  0.4304840559999974  0.5133898260000009  0.3371424380000008
  0.8304841519999968  0.3133898680000016  0.0000000060000005
  0.7971507310000021  0.0800565259999999  0.1685711889999979
  0.7638173100000003  0.8467230799999967  0.3371424380000008
  0.1471509040000001  0.2800565659999990  0.0842854679999974
  0.1138174829999983  0.0467231650000031  0.2528567310000014
  0.0804840699999971  0.8133897780000012  0.4214279349999970
  0.4804842169999972  0.6133899089999986  0.0842854679999974
  0.4471508259999979  0.3800565299999974  0.2528566720000001
  0.4138174059999997  0.1467231660000010  0.4214279349999970
  0.8138175010000026  0.9467232820000007  0.0842854599999967
  0.7804841399999987  0.7133898740000006  0.2528566720000001
  0.7471507189999969  0.4800564649999970  0.4214279349999970
  0.9247540830000034  0.9567412139999973  0.7937455180000015
  0.2961825129999980  0.9853127599999993  0.5723278520000008
  0.6104683280000032  0.9710270759999986  0.6830367450000026
  0.0676112169999996  0.8138840200000033  0.7937456370000007
  0.4390396180000025  0.8424556260000031  0.5723278520000008
  0.7533254029999981  0.8281698230000032  0.6830367450000026
  0.2104682920000016  0.6710269450000013  0.7937455180000015
  0.5818967820000012  0.6995984910000033  0.5723278520000008
  0.8961825969999992  0.6853127480000012  0.6830367450000026
  0.3533254860000028  0.5281698109999979  0.7937455180000015
  0.7247539760000024  0.5567413569999999  0.5723278520000008
  0.0390398500000018  0.5424555540000000  0.6830367450000026
  0.4961825609999977  0.3853126759999981  0.7937455180000015
  0.8676111099999986  0.4138842229999966  0.5723278520000008
  0.1818969249999967  0.3995984789999980  0.6830367450000026
  0.6390397549999989  0.2424555119999994  0.7937455180000015
  0.0104682449999984  0.2710270879999968  0.5723278520000008
  0.3247539999999987  0.2567413149999993  0.6830367450000026
  0.7818969490000001  0.0995984079999985  0.7937455770000028
  0.1533253790000018  0.1281698940000027  0.5723278520000008
  0.4676111639999974  0.1138842109999985  0.6830367450000026
  0.4747539760000024  0.0567412380000007  0.8490998150000024
  0.8461823459999991  0.0853128429999970  0.6276821490000017
  0.1604682210000021  0.0710270399999970  0.7383910420000035
  0.6176110509999972  0.9138840439999996  0.8490998150000024
  0.9890394210000011  0.9424555900000016  0.6276821490000017
  0.3033251760000013  0.9281697870000016  0.7383910420000035
  0.7604683639999976  0.7710269689999976  0.8490998150000024
  0.1318967340000015  0.7995984550000017  0.6276821490000017
  0.4461826089999974  0.7853127719999975  0.7383910420000035
  0.9033254380000031  0.6281698940000027  0.8490998150000024
  0.2747538090000035  0.6567413810000033  0.6276821490000017
  0.5890396830000029  0.6424556369999976  0.7383910420000035
  0.0461823939999988  0.4853127000000015  0.8490998739999966
  0.4176109140000008  0.5138842460000035  0.6276822089999996
  0.7318966979999999  0.4995985030000014  0.7383910420000035
  0.1890397069999992  0.3424555060000003  0.8490998739999966
  0.5604681969999987  0.3710271120000002  0.6276821490000017
  0.8747539519999989  0.3567413090000002  0.7383910420000035
  0.3318969010000004  0.1995984320000019  0.8490998739999966
  0.7033252720000007  0.2281699629999991  0.6276821490000017
  0.0176110270000009  0.2138842049999994  0.7383910420000035
  0.4247541430000012  0.9567412139999973  0.7937456370000007
  0.7961825730000029  0.9853128789999985  0.5723278520000008
  0.1104683880000010  0.9710270169999973  0.6830367450000026
  0.5676113370000024  0.8138840200000033  0.7937456370000007
  0.9390398259999984  0.8424556849999973  0.5723278520000008
  0.2533254619999994  0.8281698230000032  0.6830367450000026
  0.7104685309999965  0.6710268859999999  0.7937456370000007
  0.0818969010000004  0.6995985510000011  0.5723278520000008
  0.3961826560000006  0.6853127480000012  0.6830367450000026
  0.8533255460000007  0.5281698699999993  0.7937456370000007
  0.2247539760000024  0.5567414160000013  0.5723278520000008
  0.5390397910000004  0.5424556139999979  0.6830367450000026
  0.9961826799999969  0.3853126169999967  0.7937455180000015
  0.3676111099999986  0.4138842229999966  0.5723278520000008
  0.6818969249999967  0.3995984199999967  0.6830367450000026
  0.1390397549999989  0.2424555119999994  0.7937455180000015
  0.5104682449999984  0.2710270879999968  0.5723278520000008
  0.8247540590000000  0.2567412849999968  0.6830367450000026
  0.2818969490000001  0.0995984079999985  0.7937455180000015
  0.6533253790000018  0.1281700130000019  0.5723278520000008
  0.9676111939999998  0.1138842109999985  0.6830367450000026
  0.9747539159999974  0.0567412380000007  0.8490998150000024
  0.3461824059999969  0.0853128429999970  0.6276822089999996
  0.6604681609999972  0.0710270399999970  0.7383910420000035
  0.1176109310000015  0.9138841629999988  0.8490998150000024
  0.4890395099999978  0.9424557090000008  0.6276822089999996
  0.8033252359999992  0.9281699060000008  0.7383910420000035
  0.2604682449999984  0.7710269689999976  0.8490998150000024
  0.6318967340000015  0.7995984550000017  0.6276822089999996
  0.9461825489999995  0.7853127119999996  0.7383910420000035
  0.4033254380000031  0.6281697750000035  0.8490998150000024
  0.7747538690000013  0.6567413209999984  0.6276822089999996
  0.0890395639999966  0.6424555179999984  0.7383910420000035
  0.5461825129999980  0.4853127000000015  0.8490998150000024
  0.9176108839999984  0.5138841870000022  0.6276822089999996
  0.2318967579999978  0.4995984440000001  0.7383910420000035
  0.6890398259999984  0.3424555360000028  0.8491000530000008
  0.0604681969999987  0.3710271120000002  0.6276821490000017
  0.3747539519999989  0.3567413390000027  0.7383910420000035
  0.8318969010000004  0.1995984460000031  0.8490998150000024
  0.2033252720000007  0.2281699480000015  0.6276822089999996
  0.5176111460000001  0.2138842339999982  0.7383910420000035
 
  0.00000000E+00  0.00000000E+00  0.00000000E+00
  0.00000000E+00  0.00000000E+00  0.00000000E+00
  0.00000000E+00  0.00000000E+00  0.00000000E+00
  0.00000000E+00  0.00000000E+00  0.00000000E+00
  0.00000000E+00  0.00000000E+00  0.00000000E+00
  0.00000000E+00  0.00000000E+00  0.00000000E+00
  0.00000000E+00  0.00000000E+00  0.00000000E+00
  0.00000000E+00  0.00000000E+00  0.00000000E+00
  0.00000000E+00  0.00000000E+00  0.00000000E+00
  0.00000000E+00  0.00000000E+00  0.00000000E+00
  0.00000000E+00  0.00000000E+00  0.00000000E+00
  0.00000000E+00  0.00000000E+00  0.00000000E+00
  0.00000000E+00  0.00000000E+00  0.00000000E+00
  0.00000000E+00  0.00000000E+00  0.00000000E+00
  0.00000000E+00  0.00000000E+00  0.00000000E+00
  0.00000000E+00  0.00000000E+00  0.00000000E+00
  0.00000000E+00  0.00000000E+00  0.00000000E+00
  0.00000000E+00  0.00000000E+00  0.00000000E+00
  0.00000000E+00  0.00000000E+00  0.00000000E+00
  0.00000000E+00  0.00000000E+00  0.00000000E+00
  0.00000000E+00  0.00000000E+00  0.00000000E+00
  0.00000000E+00  0.00000000E+00  0.00000000E+00
  0.00000000E+00  0.00000000E+00  0.00000000E+00
  0.00000000E+00  0.00000000E+00  0.00000000E+00
  0.00000000E+00  0.00000000E+00  0.00000000E+00
  0.00000000E+00  0.00000000E+00  0.00000000E+00
  0.00000000E+00  0.00000000E+00  0.00000000E+00
  0.00000000E+00  0.00000000E+00  0.00000000E+00
  0.00000000E+00  0.00000000E+00  0.00000000E+00
  0.00000000E+00  0.00000000E+00  0.00000000E+00
  0.00000000E+00  0.00000000E+00  0.00000000E+00
  0.00000000E+00  0.00000000E+00  0.00000000E+00
  0.00000000E+00  0.00000000E+00  0.00000000E+00
  0.00000000E+00  0.00000000E+00  0.00000000E+00
  0.00000000E+00  0.00000000E+00  0.00000000E+00
  0.00000000E+00  0.00000000E+00  0.00000000E+00
  0.00000000E+00  0.00000000E+00  0.00000000E+00
  0.00000000E+00  0.00000000E+00  0.00000000E+00
  0.00000000E+00  0.00000000E+00  0.00000000E+00
  0.00000000E+00  0.00000000E+00  0.00000000E+00
  0.00000000E+00  0.00000000E+00  0.00000000E+00
  0.00000000E+00  0.00000000E+00  0.00000000E+00
  0.00000000E+00  0.00000000E+00  0.00000000E+00
  0.00000000E+00  0.00000000E+00  0.00000000E+00
  0.00000000E+00  0.00000000E+00  0.00000000E+00
  0.00000000E+00  0.00000000E+00  0.00000000E+00
  0.00000000E+00  0.00000000E+00  0.00000000E+00
  0.00000000E+00  0.00000000E+00  0.00000000E+00
  0.00000000E+00  0.00000000E+00  0.00000000E+00
  0.00000000E+00  0.00000000E+00  0.00000000E+00
  0.00000000E+00  0.00000000E+00  0.00000000E+00
  0.00000000E+00  0.00000000E+00  0.00000000E+00
  0.00000000E+00  0.00000000E+00  0.00000000E+00
  0.00000000E+00  0.00000000E+00  0.00000000E+00
  0.00000000E+00  0.00000000E+00  0.00000000E+00
  0.00000000E+00  0.00000000E+00  0.00000000E+00
  0.00000000E+00  0.00000000E+00  0.00000000E+00
  0.00000000E+00  0.00000000E+00  0.00000000E+00
  0.00000000E+00  0.00000000E+00  0.00000000E+00
  0.00000000E+00  0.00000000E+00  0.00000000E+00
  0.00000000E+00  0.00000000E+00  0.00000000E+00
  0.00000000E+00  0.00000000E+00  0.00000000E+00
  0.00000000E+00  0.00000000E+00  0.00000000E+00
  0.00000000E+00  0.00000000E+00  0.00000000E+00
  0.00000000E+00  0.00000000E+00  0.00000000E+00
  0.00000000E+00  0.00000000E+00  0.00000000E+00
  0.00000000E+00  0.00000000E+00  0.00000000E+00
  0.00000000E+00  0.00000000E+00  0.00000000E+00
  0.00000000E+00  0.00000000E+00  0.00000000E+00
  0.00000000E+00  0.00000000E+00  0.00000000E+00
  0.00000000E+00  0.00000000E+00  0.00000000E+00
  0.00000000E+00  0.00000000E+00  0.00000000E+00
  0.00000000E+00  0.00000000E+00  0.00000000E+00
  0.00000000E+00  0.00000000E+00  0.00000000E+00
  0.00000000E+00  0.00000000E+00  0.00000000E+00
  0.00000000E+00  0.00000000E+00  0.00000000E+00
  0.00000000E+00  0.00000000E+00  0.00000000E+00
  0.00000000E+00  0.00000000E+00  0.00000000E+00
  0.00000000E+00  0.00000000E+00  0.00000000E+00
  0.00000000E+00  0.00000000E+00  0.00000000E+00
  0.00000000E+00  0.00000000E+00  0.00000000E+00
  0.00000000E+00  0.00000000E+00  0.00000000E+00
  0.00000000E+00  0.00000000E+00  0.00000000E+00
  0.00000000E+00  0.00000000E+00  0.00000000E+00
  0.00000000E+00  0.00000000E+00  0.00000000E+00
  0.00000000E+00  0.00000000E+00  0.00000000E+00
  0.00000000E+00  0.00000000E+00  0.00000000E+00
  0.00000000E+00  0.00000000E+00  0.00000000E+00
  0.00000000E+00  0.00000000E+00  0.00000000E+00
  0.00000000E+00  0.00000000E+00  0.00000000E+00
  0.00000000E+00  0.00000000E+00  0.00000000E+00
  0.00000000E+00  0.00000000E+00  0.00000000E+00
  0.00000000E+00  0.00000000E+00  0.00000000E+00
  0.00000000E+00  0.00000000E+00  0.00000000E+00
  0.00000000E+00  0.00000000E+00  0.00000000E+00
  0.00000000E+00  0.00000000E+00  0.00000000E+00
  0.00000000E+00  0.00000000E+00  0.00000000E+00
  0.00000000E+00  0.00000000E+00  0.00000000E+00
  0.00000000E+00  0.00000000E+00  0.00000000E+00
  0.00000000E+00  0.00000000E+00  0.00000000E+00
  0.00000000E+00  0.00000000E+00  0.00000000E+00
  0.00000000E+00  0.00000000E+00  0.00000000E+00
  0.00000000E+00  0.00000000E+00  0.00000000E+00
  0.00000000E+00  0.00000000E+00  0.00000000E+00
  0.00000000E+00  0.00000000E+00  0.00000000E+00
  0.00000000E+00  0.00000000E+00  0.00000000E+00
  0.00000000E+00  0.00000000E+00  0.00000000E+00
  0.00000000E+00  0.00000000E+00  0.00000000E+00
  0.00000000E+00  0.00000000E+00  0.00000000E+00
  0.00000000E+00  0.00000000E+00  0.00000000E+00
  0.00000000E+00  0.00000000E+00  0.00000000E+00
  0.00000000E+00  0.00000000E+00  0.00000000E+00
  0.00000000E+00  0.00000000E+00  0.00000000E+00
  0.00000000E+00  0.00000000E+00  0.00000000E+00
  0.00000000E+00  0.00000000E+00  0.00000000E+00
  0.00000000E+00  0.00000000E+00  0.00000000E+00
  0.00000000E+00  0.00000000E+00  0.00000000E+00
  0.00000000E+00  0.00000000E+00  0.00000000E+00
  0.00000000E+00  0.00000000E+00  0.00000000E+00
  0.00000000E+00  0.00000000E+00  0.00000000E+00
