Si
 1.0000000000000000
     5.4310000000000000    0.0000000000000000    0.0000000000000000
     0.0000000000000000    5.4310000000000000    0.0000000000000000
     0.0000000000000000    0.0000000000000000   60.3662499999999937
 Si 
  32
Direct
  0.0000000000000000  0.0000000000000000  0.3313109560391775
  0.2499999999999999  0.2499999999999999  0.3538028285672872
  0.0000000000000000  0.4999999999999997  0.3762947010953969
  0.2499999999999999  0.7499999999999996  0.3987865736235065
  0.4999999999999997  0.0000000000000000  0.3762947010953969
  0.7499999999999996  0.2499999999999999  0.3987865736235065
  0.4999999999999997  0.4999999999999997  0.3313109560391775
  0.7499999999999996  0.7499999999999996  0.3538028285672872
  0.0000000000000000  0.0000000000000000  0.4212784461516162
  0.2499999999999999  0.2499999999999999  0.4437703186797258
  0.0000000000000000  0.4999999999999997  0.4662621912078355
  0.2499999999999999  0.7499999999999996  0.4887540637359452
  0.4999999999999997  0.0000000000000000  0.4662621912078355
  0.7499999999999996  0.2499999999999999  0.4887540637359452
  0.4999999999999997  0.4999999999999997  0.4212784461516162
  0.7499999999999996  0.7499999999999996  0.4437703186797258
  0.0000000000000000  0.0000000000000000  0.5112459362640549
  0.2499999999999999  0.2499999999999999  0.5337378087921645
  0.0000000000000000  0.4999999999999997  0.5562296813202741
  0.2499999999999999  0.7499999999999996  0.5787215538483839
  0.4999999999999997  0.0000000000000000  0.5562296813202741
  0.7499999999999996  0.2499999999999999  0.5787215538483839
  0.4999999999999997  0.4999999999999997  0.5112459362640549
  0.7499999999999996  0.7499999999999996  0.5337378087921645
  0.0000000000000000  0.0000000000000000  0.6012134263764934
  0.2499999999999999  0.2499999999999999  0.6237052989046030
  0.0000000000000000  0.4999999999999997  0.6461971714327128
  0.2499999999999999  0.7499999999999996  0.6686890439608224
  0.4999999999999997  0.0000000000000000  0.6461971714327128
  0.7499999999999996  0.2499999999999999  0.6686890439608224
  0.4999999999999997  0.4999999999999997  0.6012134263764934
  0.7499999999999996  0.7499999999999996  0.6237052989046030
