Si+C
    1.000000000
   13.303179741    0.000000000    0.000000000
   -6.651589394   11.520891190    0.000000000
    0.000000000    0.000000000   21.679416656
Si  C  
72     308
Direct
    0.348160356    0.681493700    0.000000013
    0.681493759    0.014827132    0.144634396
    0.014827251    0.348160625    0.289268821
    0.014827028    0.014827028    0.000000014
    0.348160386    0.348160386    0.144634396
    0.681493878    0.681493878    0.289268821
    0.681493700    0.348160356    0.000000000
    0.014827132    0.681493759    0.144634396
    0.348160625    0.014827251    0.289268792
    0.014827013    0.681493759    0.036158606
    0.348160386    0.014827132    0.180793017
    0.681493878    0.348160625    0.325427473
    0.348160416    0.348160416    0.036158621
    0.681493759    0.681493819    0.180793032
    0.014827251    0.014827251    0.325427473
    0.681493759    0.014827013    0.036158606
    0.014827132    0.348160386    0.180793017
    0.348160625    0.681493878    0.325427443
    0.014827028    0.514827013    0.000000017
    0.348160416    0.848160446    0.144634411
    0.681493819    0.181493878    0.289268821
    0.681493759    0.848160386    0.000000038
    0.014827132    0.181493759    0.144634396
    0.348160625    0.514827251    0.289268821
    0.348160386    0.181493685    0.000000008
    0.681493759    0.514827073    0.144634396
    0.014827132    0.848160505    0.289268792
    0.348160416    0.848160267    0.036158569
    0.681493878    0.181493759    0.180793002
    0.014827132    0.514827013    0.325427413
    0.014827132    0.181493700    0.036158592
    0.348160505    0.514827132    0.180793002
    0.681493759    0.848160446    0.325427353
    0.681493819    0.514827073    0.036158577
    0.014827251    0.848160505    0.180793017
    0.348160625    0.181493878    0.325427413
    0.181493700    0.848160386    0.000000024
    0.514827073    0.181493759    0.144634396
    0.848160565    0.514827251    0.289268821
    0.514827013    0.514827013    0.000000014
    0.848160446    0.848160386    0.144634396
    0.181493878    0.181493878    0.289268821
    0.848160386    0.181493700    0.000000005
    0.181493759    0.514827073    0.144634381
    0.514827251    0.848160565    0.289268821
    0.181493685    0.514827013    0.036158577
    0.514827132    0.848160505    0.180793017
    0.848160446    0.181493759    0.325427413
    0.848160386    0.848160386    0.036158562
    0.181493878    0.181493878    0.180793017
    0.514827251    0.514827251    0.325427413
    0.514827073    0.181493670    0.036158577
    0.848160505    0.514827132    0.180793017
    0.181493759    0.848160446    0.325427413
    0.181493700    0.348160356    0.000000013
    0.514827073    0.681493759    0.144634396
    0.848160505    0.014827132    0.289268821
    0.848160386    0.681493759    0.000000027
    0.181493759    0.014827132    0.144634396
    0.514827251    0.348160625    0.289268821
    0.514827013    0.014827021    0.000000013
    0.848160386    0.348160416    0.144634396
    0.181493878    0.681493819    0.289268821
    0.514827013    0.681493640    0.036158621
    0.848160386    0.014827013    0.180793017
    0.181493878    0.348160505    0.325427473
    0.181493655    0.014827013    0.036158614
    0.514827013    0.348160386    0.180793017
    0.848160446    0.681493878    0.325427473
    0.848160446    0.348160386    0.036158606
    0.181493878    0.681493759    0.180793017
    0.514827251    0.014827251    0.325427443
    0.902976930    0.164706022    0.876437604
    0.664881825    0.117087007    0.496484011
    0.474405587    0.878991842    0.591472447
    0.283929318    0.640896440    0.686460853
    0.093453050    0.402801186    0.781449199
    0.045834064    0.593277454    0.876437724
    0.807738960    0.545658588    0.496484041
    0.617262721    0.307563305    0.591472447
    0.426786423    0.069467902    0.686460853
    0.236310154    0.831372619    0.781449258
    0.617262602    0.307563156    0.876437724
    0.379167467    0.259944230    0.496484011
    0.188691288    0.021849036    0.591472447
    0.998215020    0.783753633    0.686460853
    0.807738781    0.545658350    0.781449258
    0.760119796    0.736134529    0.876437604
    0.522024691    0.688515663    0.496484011
    0.331548452    0.450420439    0.591472447
    0.141072139    0.212325066    0.686460853
    0.950595915    0.974229693    0.781449258
    0.188691169    0.021848917    0.876437604
    0.950596094    0.974229932    0.496484011
    0.760119855    0.736134648    0.591472447
    0.569643557    0.498039335    0.686460853
    0.379167289    0.259944052    0.781449199
    0.331548303    0.450420290    0.876437604
    0.093453169    0.402801365    0.496484011
    0.902976990    0.164706111    0.591472447
    0.712500751    0.926610827    0.686460853
    0.522024453    0.688515425    0.781449199
    0.474405438    0.878991723    0.876437604
    0.236310363    0.831372857    0.496484011
    0.045834184    0.593277574    0.591472447
    0.855357885    0.355182201    0.686460853
    0.664881587    0.117086887    0.781449199
    0.141072065    0.212325007    0.900184691
    0.093453288    0.402801394    0.425242722
    0.902976990    0.164706081    0.520231128
    0.712500811    0.926610827    0.615219593
    0.522024512    0.688515425    0.710207939
    0.331548184    0.450420171    0.805196404
    0.855357766    0.355182141    0.900184691
    0.807739019    0.545658588    0.425242692
    0.617262781    0.307563305    0.520231068
    0.426786482    0.069468021    0.615219533
    0.236310184    0.831372619    0.710207939
    0.045833945    0.593277454    0.805196345
    0.998215020    0.783753633    0.900184751
    0.950596213    0.974230051    0.425242692
    0.760119975    0.736134768    0.520231128
    0.569643676    0.498039454    0.615219533
    0.379167378    0.259944081    0.710207939
    0.188691184    0.021848798    0.805196404
    0.426786333    0.069467902    0.900184691
    0.379167527    0.259944260    0.425242722
    0.188691288    0.021848917    0.520231128
    0.998215079    0.783753633    0.615219593
    0.807738781    0.545658350    0.710207939
    0.617262483    0.307563096    0.805196464
    0.569643497    0.498039335    0.900184691
    0.522024751    0.688515663    0.425242722
    0.331548452    0.450420439    0.520231128
    0.141072214    0.212325126    0.615219593
    0.950595915    0.974229693    0.710207939
    0.760119677    0.736134529    0.805196404
    0.712500691    0.926610708    0.900184751
    0.664881885    0.117087126    0.425242722
    0.474405617    0.878991842    0.520231128
    0.283929378    0.640896618    0.615219593
    0.093453050    0.402801216    0.710207939
    0.902976871    0.164706007    0.805196404
    0.283929199    0.640896440    0.900184751
    0.236310393    0.831372857    0.425242722
    0.045834064    0.593277574    0.520231128
    0.855357885    0.355182230    0.615219593
    0.664881587    0.117086887    0.710207939
    0.474405378    0.878991604    0.805196464
    0.117262691    0.307563156    0.876437604
    0.879167616    0.259944260    0.496484011
    0.688691437    0.021849036    0.591472447
    0.498215050    0.783753633    0.686460853
    0.307738811    0.545658350    0.781449199
    0.688691199    0.021848798    0.876437604
    0.450596064    0.974229932    0.496484011
    0.260119855    0.736134648    0.591472447
    0.069643617    0.498039335    0.686460853
    0.879167318    0.259943992    0.781449258
    0.831548333    0.450420350    0.876437604
    0.593453288    0.402801365    0.496484041
    0.402977020    0.164706126    0.591472447
    0.212500751    0.926610827    0.686460853
    0.022024512    0.688515425    0.781449258
    0.974405408    0.878991723    0.876437724
    0.736310363    0.831372857    0.496484041
    0.545834124    0.593277574    0.591472447
    0.355357826    0.355182171    0.686460853
    0.164881527    0.117086887    0.781449258
    0.402976841    0.164705962    0.876437604
    0.164881766    0.117087126    0.496484011
    0.974405587    0.878991842    0.591472447
    0.783929288    0.640896440    0.686460853
    0.593453050    0.402801126    0.781449258
    0.545834005    0.593277454    0.876437604
    0.307738900    0.545658469    0.496484041
    0.117262714    0.307563305    0.591472447
    0.926786423    0.069467902    0.686460853
    0.736310184    0.831372619    0.781449258
    0.260119706    0.736134529    0.876437604
    0.022024632    0.688515663    0.496484011
    0.831548452    0.450420409    0.591472447
    0.641072154    0.212325066    0.686460853
    0.450595826    0.974229693    0.781449199
    0.926786423    0.069467783    0.900184751
    0.879167616    0.259944290    0.425242722
    0.688691437    0.021849036    0.520231128
    0.498215169    0.783753633    0.615219593
    0.307738811    0.545658350    0.710207939
    0.117262602    0.307563096    0.805196404
    0.069643497    0.498039275    0.900184751
    0.022024751    0.688515663    0.425242722
    0.831548572    0.450420409    0.520231128
    0.641072333    0.212325111    0.615219593
    0.450595945    0.974229693    0.710207939
    0.260119766    0.736134529    0.805196404
    0.641072154    0.212325007    0.900184691
    0.593453288    0.402801394    0.425242692
    0.402977020    0.164706111    0.520231068
    0.212500826    0.926610947    0.615219474
    0.022024512    0.688515544    0.710207939
    0.831548333    0.450420290    0.805196345
    0.783929288    0.640896440    0.900184691
    0.736310482    0.831372857    0.425242662
    0.545834184    0.593277574    0.520231068
    0.355358005    0.355182350    0.615219474
    0.164881676    0.117087007    0.710207939
    0.974405468    0.878991723    0.805196345
    0.355357796    0.355182141    0.900184691
    0.307738960    0.545658588    0.425242692
    0.117262706    0.307563245    0.520231068
    0.926786542    0.069468021    0.615219474
    0.736310244    0.831372619    0.710207939
    0.545834064    0.593277454    0.805196345
    0.498214990    0.783753633    0.900184691
    0.450596154    0.974230051    0.425242692
    0.260119885    0.736134768    0.520231068
    0.069643736    0.498039484    0.615219474
    0.879167378    0.259944111    0.710207939
    0.688691139    0.021848798    0.805196345
    0.212500602    0.926610827    0.900184691
    0.164881825    0.117087245    0.425242692
    0.974405587    0.878991842    0.520231068
    0.783929348    0.640896678    0.615219474
    0.593453050    0.402801245    0.710207939
    0.402976781    0.164706007    0.805196345
    0.045834064    0.093277454    0.876437724
    0.807739019    0.045658469    0.496484041
    0.617262840    0.807563305    0.591472447
    0.426786453    0.569467902    0.686460853
    0.236310214    0.331372648    0.781449258
    0.760119796    0.236134619    0.876437724
    0.522024691    0.188515678    0.496484041
    0.331548482    0.950420380    0.591472447
    0.141072199    0.712325096    0.686460853
    0.950595975    0.474229783    0.781449258
    0.902976930    0.664705992    0.876437604
    0.664881825    0.617087066    0.496484011
    0.474405587    0.378991842    0.591472447
    0.283929288    0.140896440    0.686460853
    0.093452930    0.902801156    0.781449199
    0.474405438    0.378991693    0.876437604
    0.236310363    0.331372797    0.496484011
    0.045834184    0.093277574    0.591472447
    0.855357885    0.855182171    0.686460853
    0.664881647    0.617086887    0.781449199
    0.617262602    0.807563066    0.876437604
    0.379167527    0.759944201    0.496484011
    0.188691318    0.521848977    0.591472447
    0.998215020    0.283753604    0.686460853
    0.807738781    0.045658231    0.781449199
    0.188691109    0.521848798    0.876437604
    0.950596094    0.474229932    0.496484011
    0.760119855    0.236134708    0.591472447
    0.569643557    0.998039365    0.686460853
    0.379167229    0.759943962    0.781449199
    0.331548244    0.950420260    0.876437724
    0.093453169    0.902801394    0.496483982
    0.902976990    0.664706111    0.591472447
    0.712500811    0.426610947    0.686460793
    0.522024393    0.188515455    0.781449258
    0.998214960    0.283753484    0.900184751
    0.950596213    0.474229932    0.425242722
    0.760119975    0.236134648    0.520231128
    0.569643676    0.998039365    0.615219593
    0.379167348    0.759943962    0.710207939
    0.188691169    0.521848798    0.805196404
    0.141072124    0.712324977    0.900184691
    0.093453288    0.902801394    0.425242722
    0.902977049    0.664706111    0.520231128
    0.712500811    0.426610827    0.615219593
    0.522024512    0.188515469    0.710207939
    0.331548244    0.950420141    0.805196404
    0.712500691    0.426610738    0.900184751
    0.664881885    0.617087185    0.425242692
    0.474405617    0.378991842    0.520231128
    0.283929437    0.140896678    0.615219533
    0.093453050    0.902801275    0.710207939
    0.902976871    0.664705992    0.805196404
    0.855357885    0.855182171    0.900184691
    0.807739019    0.045658588    0.425242692
    0.617262781    0.807563305    0.520231068
    0.426786572    0.569468021    0.615219474
    0.236310273    0.331372648    0.710207939
    0.045834064    0.093277335    0.805196345
    0.283929259    0.140896320    0.900184691
    0.236310422    0.331372797    0.425242692
    0.045834184    0.093277454    0.520231068
    0.855358005    0.855182290    0.615219474
    0.664881706    0.617086887    0.710207939
    0.474405438    0.378991693    0.805196345
    0.426786393    0.569467902    0.900184691
    0.379167557    0.759944320    0.425242692
    0.188691318    0.521849036    0.520231068
    0.998215139    0.283753783    0.615219474
    0.807738781    0.045658350    0.710207939
    0.617262602    0.807563066    0.805196345
    0.569643557    0.998039246    0.900184691
    0.522024691    0.188515678    0.425242692
    0.331548452    0.950420380    0.520231068
    0.141072243    0.712325096    0.615219474
    0.950595975    0.474229783    0.710207939
    0.760119736    0.236134559    0.805196345
    0.974405587    0.378991753    0.876437724
    0.736310482    0.331372797    0.496484041
    0.545834243    0.093277574    0.591472447
    0.355357945    0.855182171    0.686460853
    0.164881647    0.617086887    0.781449318
    0.117262654    0.807563186    0.876437604
    0.879167616    0.759944201    0.496483982
    0.688691378    0.521849036    0.591472447
    0.498215079    0.283753663    0.686460853
    0.307738781    0.045658350    0.781449199
    0.545834064    0.093277335    0.876437604
    0.307738930    0.045658469    0.496484011
    0.117262721    0.807563186    0.591472447
    0.926786423    0.569467902    0.686460853
    0.736310124    0.331372589    0.781449258
    0.688691258    0.521848917    0.876437604
    0.450596035    0.474229932    0.496484011
    0.260119855    0.236134708    0.591472447
    0.069643617    0.998039365    0.686460853
    0.879167318    0.759943962    0.781449258
    0.831548393    0.950420380    0.876437604
    0.593453288    0.902801394    0.496483982
    0.402977049    0.664706230    0.591472447
    0.212500751    0.426610827    0.686460853
    0.022024512    0.188515499    0.781449258
    0.260119706    0.236134619    0.876437604
    0.022024632    0.188515648    0.496484011
    0.831548452    0.950420380    0.591472447
    0.641072154    0.712324977    0.686460853
    0.450595826    0.474229723    0.781449258
    0.402976900    0.664705992    0.876437604
    0.164881766    0.617087126    0.496484011
    0.974405587    0.378991902    0.591472447
    0.783929288    0.140896559    0.686460853
    0.593453050    0.902801275    0.781449199
    0.783929229    0.140896440    0.900184751
    0.736310482    0.331372857    0.425242722
    0.545834243    0.093277574    0.520231128
    0.355357975    0.855182290    0.615219593
    0.164881691    0.617087007    0.710207939
    0.974405527    0.378991634    0.805196404
    0.926786542    0.569467902    0.900184691
    0.879167676    0.759944320    0.425242692
    0.688691437    0.521849036    0.520231068
    0.498215139    0.283753693    0.615219533
    0.307738870    0.045658350    0.710207939
    0.117262647    0.807563066    0.805196345
    0.069643497    0.998039246    0.900184691
    0.022024751    0.188515708    0.425242692
    0.831548512    0.950420380    0.520231068
    0.641072333    0.712325096    0.615219593
    0.450595915    0.474229723    0.710207939
    0.260119736    0.236134440    0.805196404
    0.498214930    0.283753544    0.900184751
    0.450596154    0.474229991    0.425242722
    0.260119915    0.236134708    0.520231128
    0.069643617    0.998039365    0.615219593
    0.879167378    0.759944081    0.710207939
    0.688691199    0.521848798    0.805196404
    0.641072035    0.712324977    0.900184691
    0.593453288    0.902801394    0.425242692
    0.402977020    0.664706111    0.520231068
    0.212500766    0.426610827    0.615219533
    0.022024512    0.188515484    0.710207939
    0.831548333    0.950420260    0.805196404
    0.212500662    0.426610798    0.900184691
    0.164881855    0.617087126    0.425242722
    0.974405646    0.378991902    0.520231128
    0.783929348    0.140896559    0.615219593
    0.593453050    0.902801156    0.710207939
    0.402976781    0.664705992    0.805196404
    0.355357796    0.855182171    0.900184691
    0.307739019    0.045658588    0.425242692
    0.117262766    0.807563305    0.520231068
    0.926786542    0.569468021    0.615219593
    0.736310244    0.331372678    0.710207939
    0.545834064    0.093277454    0.805196345
