Si+Ge
    1.000000000
   16.293001175    0.000000000    0.000000000
    0.000000000   17.174329758    0.000000000
    0.000000000    0.000000257   10.600552559
Si  Ge 
72     48
Direct
    0.130378902    0.826204658    0.405034482
    0.963712454    0.076203912    0.000000056
    0.797045708    0.426204026    0.081006944
    0.630379081    0.776204169    0.162013784
    0.463712275    0.126204491    0.243020713
    0.297045529    0.476204634    0.324027598
    0.463712275    0.826204658    0.405034482
    0.297045797    0.076203912    0.000000056
    0.130379081    0.426204026    0.081006944
    0.963712394    0.776204169    0.162013784
    0.797045588    0.126204491    0.243020713
    0.630378842    0.476204634    0.324027598
    0.797045588    0.826204658    0.405034482
    0.630379140    0.076203912    0.000000056
    0.463712424    0.426204026    0.081006944
    0.297045767    0.776204169    0.162013784
    0.130378976    0.126204491    0.243020713
    0.963712215    0.476204634    0.324027598
    0.213712215    0.576204777    0.405034423
    0.047045767    0.826204002    0.000000000
    0.880379081    0.176204205    0.081006922
    0.713712335    0.526204467    0.162013739
    0.547045588    0.876204610    0.243020654
    0.380378962    0.226204634    0.324027508
    0.547045588    0.576204777    0.405034423
    0.380379081    0.826204002    0.000000000
    0.213712379    0.176204205    0.081006922
    0.047045693    0.526204467    0.162013739
    0.880378962    0.876204610    0.243020654
    0.713712335    0.226204634    0.324027508
    0.880378902    0.576204777    0.405034423
    0.713712394    0.826204002    0.000000000
    0.547045708    0.176204205    0.081006922
    0.380378991    0.526204467    0.162013739
    0.213712230    0.876204610    0.243020654
    0.047045581    0.226204634    0.324027508
    0.130378902    0.326204777    0.405034482
    0.963712394    0.576204002    0.000000023
    0.797045708    0.926204145    0.081006892
    0.630379021    0.276204228    0.162013739
    0.463712275    0.626204491    0.243020713
    0.297045648    0.976204634    0.324027508
    0.463712275    0.326204777    0.405034482
    0.297045767    0.576204002    0.000000023
    0.130379051    0.926204145    0.081006892
    0.963712394    0.276204228    0.162013739
    0.797045588    0.626204491    0.243020713
    0.630378962    0.976204634    0.324027508
    0.797045588    0.326204777    0.405034482
    0.630379140    0.576204002    0.000000023
    0.463712394    0.926204145    0.081006892
    0.297045738    0.276204228    0.162013739
    0.130378976    0.626204491    0.243020713
    0.963712335    0.976204634    0.324027508
    0.213712215    0.076204777    0.405034393
    0.047045767    0.326203912    0.000000056
    0.880379081    0.676204026    0.081006899
    0.713712394    0.026204228    0.162013754
    0.547045588    0.376204491    0.243020654
    0.380378842    0.726204753    0.324027508
    0.547045588    0.076204777    0.405034393
    0.380379111    0.326203912    0.000000056
    0.213712409    0.676204026    0.081006899
    0.047045726    0.026204228    0.162013754
    0.880378962    0.376204491    0.243020654
    0.713712215    0.726204753    0.324027508
    0.880378962    0.076204777    0.405034393
    0.713712454    0.326203912    0.000000056
    0.547045767    0.676204026    0.081006899
    0.380379081    0.026204228    0.162013754
    0.213712290    0.376204491    0.243020654
    0.047045540    0.726204753    0.324027508
    0.215706825    0.986047685    0.545266092
    0.840706885    0.597158790    0.608166516
    0.465706944    0.208269894    0.671066999
    0.090706944    0.819380820    0.733967483
    0.715706944    0.430491984    0.796867907
    0.340706825    0.041602850    0.859768331
    0.715706825    0.986047685    0.545266092
    0.340706855    0.597158730    0.608166516
    0.965706885    0.208269835    0.671066999
    0.590706825    0.819380820    0.733967423
    0.215706944    0.430491865    0.796867907
    0.840706944    0.041603088    0.859768450
    0.340706855    0.736047626    0.545266092
    0.965706885    0.347158700    0.608166516
    0.590706944    0.958269775    0.671066999
    0.215706944    0.569380820    0.733967423
    0.840706825    0.180491805    0.796867847
    0.465706825    0.791603029    0.859768331
    0.840706825    0.736047626    0.545266092
    0.465706825    0.347158700    0.608166516
    0.090706825    0.958269775    0.671066999
    0.715706825    0.569380879    0.733967423
    0.340706885    0.180491865    0.796867907
    0.965706825    0.791603029    0.859768331
    0.590706885    0.736047626    0.545266092
    0.215706825    0.347158700    0.608166516
    0.840706944    0.958269775    0.671066999
    0.465706944    0.569380820    0.733967423
    0.090706944    0.180491865    0.796867847
    0.715706944    0.791602910    0.859768331
    0.090706825    0.736047566    0.545266092
    0.715706825    0.347158700    0.608166516
    0.340706915    0.958269775    0.671066999
    0.965706885    0.569380820    0.733967423
    0.590706825    0.180491865    0.796867847
    0.215706944    0.791603029    0.859768331
    0.465706855    0.986047685    0.545266092
    0.090706825    0.597158730    0.608166516
    0.715706944    0.208269894    0.671066999
    0.340706885    0.819380820    0.733967483
    0.965706944    0.430491984    0.796867788
    0.590706825    0.041602850    0.859768331
    0.965706825    0.986047685    0.545266151
    0.590706885    0.597158730    0.608166516
    0.215706825    0.208269894    0.671066999
    0.840706944    0.819380820    0.733967483
    0.465706825    0.430491865    0.796867788
    0.090706944    0.041603088    0.859768331
