Ge+Sn
    1.000000000
   16.002676010    0.000000000    0.000000000
    8.001338005   13.858724594    0.000000000
    0.000000000    0.000000000   20.304012299
Ge  Sn 
96     72
Direct
    0.310883224    0.310883164    0.321762353
    0.977550030    0.977550030    0.000000025
    0.644216537    0.644216597    0.160881206
    0.810883164    0.310883164    0.321762353
    0.477550000    0.977550030    0.000000033
    0.144216582    0.644216597    0.160881206
    0.310883164    0.810883164    0.321762353
    0.977550030    0.477550000    0.000000031
    0.644216597    0.144216582    0.160881206
    0.810883164    0.810883164    0.321762353
    0.477550000    0.477550000    0.000000000
    0.144216567    0.144216567    0.160881177
    0.477549791    0.477549732    0.361982673
    0.144216686    0.144216612    0.040220331
    0.810883284    0.810883224    0.201101482
    0.977549791    0.477549672    0.361982673
    0.644216657    0.144216627    0.040220331
    0.310883284    0.810883224    0.201101482
    0.477549672    0.977549791    0.361982673
    0.144216627    0.644216657    0.040220331
    0.810883224    0.310883284    0.201101482
    0.977549672    0.977549791    0.361982644
    0.644216597    0.644216657    0.040220331
    0.310883164    0.310883254    0.201101452
    0.560883164    0.560883164    0.321762383
    0.227550015    0.227550015    0.000000035
    0.894216597    0.894216597    0.160881177
    0.060883213    0.560883164    0.321762413
    0.727550030    0.227550045    0.000000035
    0.394216597    0.894216597    0.160881206
    0.560883164    0.060883176    0.321762353
    0.227550015    0.727549970    0.000000012
    0.894216537    0.394216597    0.160881177
    0.060883190    0.060883105    0.321762353
    0.727550030    0.727549911    0.000000023
    0.394216627    0.394216567    0.160881206
    0.727549791    0.727549791    0.361982644
    0.394216627    0.394216627    0.040220268
    0.060883194    0.060883190    0.201101452
    0.227549791    0.727549791    0.361982644
    0.894216597    0.394216627    0.040220287
    0.560883164    0.060883190    0.201101452
    0.727549791    0.227549851    0.361982644
    0.394216627    0.894216657    0.040220287
    0.060883202    0.560883284    0.201101452
    0.227549851    0.227549851    0.361982644
    0.894216716    0.894216657    0.040220276
    0.560883284    0.560883284    0.201101452
    0.310883164    0.560883164    0.321762353
    0.977550030    0.227550015    0.000000020
    0.644216537    0.894216597    0.160881206
    0.810883164    0.560883164    0.321762383
    0.477550030    0.227550015    0.000000027
    0.144216597    0.894216597    0.160881206
    0.310883164    0.060883176    0.321762353
    0.977550030    0.727549970    0.000000027
    0.644216597    0.394216597    0.160881206
    0.810883164    0.060883090    0.321762353
    0.477550000    0.727549911    0.000000023
    0.144216612    0.394216537    0.160881177
    0.477549791    0.727549791    0.361982644
    0.144216612    0.394216597    0.040220287
    0.810883164    0.060883190    0.201101452
    0.977549732    0.727549791    0.361982644
    0.644216597    0.394216627    0.040220287
    0.310883164    0.060883190    0.201101452
    0.477549732    0.227549851    0.361982614
    0.144216627    0.894216657    0.040220276
    0.810883164    0.560883284    0.201101452
    0.977549791    0.227549851    0.361982614
    0.644216657    0.894216657    0.040220268
    0.310883224    0.560883284    0.201101452
    0.560883105    0.310883164    0.321762353
    0.227550015    0.977550030    0.000000022
    0.894216597    0.644216597    0.160881206
    0.060883183    0.310883164    0.321762383
    0.727549970    0.977550030    0.000000029
    0.394216627    0.644216597    0.160881206
    0.560883164    0.810883164    0.321762383
    0.227550000    0.477550000    0.000000031
    0.894216597    0.144216582    0.160881206
    0.060883179    0.810883105    0.321762353
    0.727549970    0.477549940    0.000000014
    0.394216597    0.144216537    0.160881177
    0.727549791    0.477549851    0.361982673
    0.394216686    0.144216716    0.040220316
    0.060883284    0.810883343    0.201101482
    0.227549672    0.477549851    0.361982673
    0.894216657    0.144216731    0.040220324
    0.560883284    0.810883343    0.201101452
    0.727549791    0.977549851    0.361982644
    0.394216686    0.644216716    0.040220331
    0.060883276    0.310883373    0.201101482
    0.227549732    0.977549791    0.361982673
    0.894216657    0.644216657    0.040220316
    0.560883284    0.310883284    0.201101452
    0.144654095    0.893251121    0.842448294
    0.144654095    0.559917808    0.473403871
    0.144654095    0.226584435    0.657926083
    0.477987438    0.226584435    0.842448235
    0.477987438    0.893251181    0.473403871
    0.477987438    0.559917808    0.657926083
    0.811320782    0.559917808    0.842448294
    0.811320782    0.226584435    0.473403871
    0.811320782    0.893251181    0.657926083
    0.477987438    0.893251181    0.888578892
    0.477987438    0.559917808    0.519534409
    0.477987438    0.226584435    0.704056621
    0.144654095    0.559917808    0.888578892
    0.144654095    0.226584435    0.519534409
    0.144654095    0.893251061    0.704056621
    0.811320841    0.226584435    0.888578892
    0.811320841    0.893251061    0.519534409
    0.811320841    0.559917688    0.704056621
    0.644654036    0.893251121    0.842448235
    0.644654036    0.559917808    0.473403871
    0.644654036    0.226584435    0.657926083
    0.311320782    0.559917808    0.842448235
    0.311320782    0.226584435    0.473403841
    0.311320782    0.893251181    0.657926083
    0.977987468    0.226584435    0.842448294
    0.977987468    0.893251181    0.473403871
    0.977987468    0.559917808    0.657926142
    0.311320752    0.226584554    0.888578892
    0.311320782    0.893251181    0.519534409
    0.311320782    0.559917808    0.704056621
    0.977987468    0.893251181    0.888578832
    0.977987468    0.559917808    0.519534349
    0.977987468    0.226584435    0.704056561
    0.644654095    0.559917808    0.888578892
    0.644654095    0.226584435    0.519534349
    0.644654095    0.893251121    0.704056561
    0.311320782    0.059917808    0.842448294
    0.311320782    0.726584494    0.473403871
    0.311320782    0.393251181    0.657926083
    0.644654036    0.393251181    0.842448294
    0.644654036    0.059917808    0.473403871
    0.644654036    0.726584435    0.657926083
    0.977987349    0.726584554    0.842448235
    0.977987349    0.393251181    0.473403811
    0.977987349    0.059917927    0.657926023
    0.644654036    0.059917927    0.888578892
    0.644654036    0.726584435    0.519534409
    0.644654036    0.393251181    0.704056621
    0.311320722    0.726584554    0.888578832
    0.311320722    0.393251181    0.519534349
    0.311320722    0.059917808    0.704056561
    0.977987468    0.393251181    0.888578892
    0.977987468    0.059917808    0.519534409
    0.977987468    0.726584435    0.704056621
    0.144654095    0.393251181    0.842448294
    0.144654095    0.059917808    0.473403871
    0.144654095    0.726584435    0.657926083
    0.811320782    0.059917808    0.842448235
    0.811320782    0.726584494    0.473403871
    0.811320782    0.393251181    0.657926083
    0.477987438    0.726584375    0.842448294
    0.477987438    0.393251061    0.473403871
    0.477987438    0.059917688    0.657926023
    0.144654095    0.059917927    0.888578892
    0.144654095    0.726584554    0.519534409
    0.144654095    0.393251181    0.704056621
    0.477987438    0.393251181    0.888578892
    0.477987438    0.059917808    0.519534409
    0.477987438    0.726584494    0.704056621
    0.811320782    0.726584554    0.888578892
    0.811320782    0.393251181    0.519534469
    0.811320782    0.059917927    0.704056621
