fcc Si+fcc Ge
    1.000000000
   12.253652517    0.000000000    0.000000000
    0.000000000   12.253652517    0.000000000
    0.000000000    0.000000000   32.050000000
Si    Ge   
110     110
Direct
    0.200000000    0.600000000    0.000000000
    0.300000000    0.400000000    0.085491420
    0.400000000    0.200000000    0.170982839
    0.500000000    0.000000000    0.256474259
    0.600000000    0.800000000    0.341965679
    0.700000000    0.600000000    0.427457098
    0.600000000    0.800000000    0.000000000
    0.700000000    0.600000000    0.085491420
    0.800000000    0.400000000    0.170982839
    0.900000000    0.200000000    0.256474259
    0.000000000    0.000000000    0.341965679
    0.100000000    0.800000000    0.427457098
    0.000000000    0.000000000    0.000000000
    0.100000000    0.800000000    0.085491420
    0.200000000    0.600000000    0.170982839
    0.300000000    0.400000000    0.256474259
    0.400000000    0.200000000    0.341965679
    0.500000000    0.000000000    0.427457098
    0.400000000    0.200000000    0.000000000
    0.500000000    0.000000000    0.085491420
    0.600000000    0.800000000    0.170982839
    0.700000000    0.600000000    0.256474259
    0.800000000    0.400000000    0.341965679
    0.900000000    0.200000000    0.427457098
    0.800000000    0.400000000    0.000000000
    0.900000000    0.200000000    0.085491420
    0.000000000    0.000000000    0.170982839
    0.100000000    0.800000000    0.256474259
    0.200000000    0.600000000    0.341965679
    0.300000000    0.400000000    0.427457098
    0.300000000    0.900000000    0.000000000
    0.400000000    0.700000000    0.085491420
    0.500000000    0.500000000    0.170982839
    0.600000000    0.300000000    0.256474259
    0.700000000    0.100000000    0.341965679
    0.800000000    0.900000000    0.427457098
    0.100000000    0.300000000    0.000000000
    0.200000000    0.100000000    0.085491420
    0.300000000    0.900000000    0.170982839
    0.400000000    0.700000000    0.256474259
    0.500000000    0.500000000    0.341965679
    0.600000000    0.300000000    0.427457098
    0.500000000    0.500000000    0.000000000
    0.600000000    0.300000000    0.085491420
    0.700000000    0.100000000    0.170982839
    0.800000000    0.900000000    0.256474259
    0.900000000    0.700000000    0.341965679
    0.000000000    0.500000000    0.427457098
    0.900000000    0.700000000    0.000000000
    0.000000000    0.500000000    0.085491420
    0.100000000    0.300000000    0.170982839
    0.200000000    0.100000000    0.256474259
    0.300000000    0.900000000    0.341965679
    0.400000000    0.700000000    0.427457098
    0.700000000    0.100000000    0.000000000
    0.800000000    0.900000000    0.085491420
    0.900000000    0.700000000    0.170982839
    0.000000000    0.500000000    0.256474259
    0.100000000    0.300000000    0.341965679
    0.200000000    0.100000000    0.427457098
    0.150000000    0.950000000    0.042745710
    0.250000000    0.750000000    0.128237129
    0.350000000    0.550000000    0.213728549
    0.450000000    0.350000000    0.299219969
    0.550000000    0.150000000    0.384711388
    0.350000000    0.550000000    0.042745710
    0.450000000    0.350000000    0.128237129
    0.550000000    0.150000000    0.213728549
    0.650000000    0.950000000    0.299219969
    0.750000000    0.750000000    0.384711388
    0.750000000    0.750000000    0.042745710
    0.850000000    0.550000000    0.128237129
    0.950000000    0.350000000    0.213728549
    0.050000000    0.150000000    0.299219969
    0.150000000    0.950000000    0.384711388
    0.550000000    0.150000000    0.042745710
    0.650000000    0.950000000    0.128237129
    0.750000000    0.750000000    0.213728549
    0.850000000    0.550000000    0.299219969
    0.950000000    0.350000000    0.384711388
    0.950000000    0.350000000    0.042745710
    0.050000000    0.150000000    0.128237129
    0.150000000    0.950000000    0.213728549
    0.250000000    0.750000000    0.299219969
    0.350000000    0.550000000    0.384711388
    0.050000000    0.650000000    0.042745710
    0.150000000    0.450000000    0.128237129
    0.250000000    0.250000000    0.213728549
    0.350000000    0.050000000    0.299219969
    0.450000000    0.850000000    0.384711388
    0.450000000    0.850000000    0.042745710
    0.550000000    0.650000000    0.128237129
    0.650000000    0.450000000    0.213728549
    0.750000000    0.250000000    0.299219969
    0.850000000    0.050000000    0.384711388
    0.250000000    0.250000000    0.042745710
    0.350000000    0.050000000    0.128237129
    0.450000000    0.850000000    0.213728549
    0.550000000    0.650000000    0.299219969
    0.650000000    0.450000000    0.384711388
    0.650000000    0.450000000    0.042745710
    0.750000000    0.250000000    0.128237129
    0.850000000    0.050000000    0.213728549
    0.950000000    0.850000000    0.299219969
    0.050000000    0.650000000    0.384711388
    0.850000000    0.050000000    0.042745710
    0.950000000    0.850000000    0.128237129
    0.050000000    0.650000000    0.213728549
    0.150000000    0.450000000    0.299219969
    0.250000000    0.250000000    0.384711388
    0.057377049    0.250000000    0.537129485
    0.057377049    0.750000000    0.625429017
    0.057377049    0.250000000    0.713728549
    0.057377049    0.750000000    0.802028081
    0.057377049    0.250000000    0.890327613
    0.257377049    0.650000000    0.537129485
    0.257377049    0.150000000    0.625429017
    0.257377049    0.650000000    0.713728549
    0.257377049    0.150000000    0.802028081
    0.257377049    0.650000000    0.890327613
    0.457377049    0.050000000    0.537129485
    0.457377049    0.550000000    0.625429017
    0.457377049    0.050000000    0.713728549
    0.457377049    0.550000000    0.802028081
    0.457377049    0.050000000    0.890327613
    0.657377049    0.450000000    0.537129485
    0.657377049    0.950000000    0.625429017
    0.657377049    0.450000000    0.713728549
    0.657377049    0.950000000    0.802028081
    0.657377049    0.450000000    0.890327613
    0.857377049    0.850000000    0.537129485
    0.857377049    0.350000000    0.625429017
    0.857377049    0.850000000    0.713728549
    0.857377049    0.350000000    0.802028081
    0.857377049    0.850000000    0.890327613
    0.157377049    0.950000000    0.537129485
    0.157377049    0.450000000    0.625429017
    0.157377049    0.950000000    0.713728549
    0.157377049    0.450000000    0.802028081
    0.157377049    0.950000000    0.890327613
    0.357377049    0.350000000    0.537129485
    0.357377049    0.850000000    0.625429017
    0.357377049    0.350000000    0.713728549
    0.357377049    0.850000000    0.802028081
    0.357377049    0.350000000    0.890327613
    0.557377049    0.750000000    0.537129485
    0.557377049    0.250000000    0.625429017
    0.557377049    0.750000000    0.713728549
    0.557377049    0.250000000    0.802028081
    0.557377049    0.750000000    0.890327613
    0.757377049    0.150000000    0.537129485
    0.757377049    0.650000000    0.625429017
    0.757377049    0.150000000    0.713728549
    0.757377049    0.650000000    0.802028081
    0.757377049    0.150000000    0.890327613
    0.957377049    0.550000000    0.537129485
    0.957377049    0.050000000    0.625429017
    0.957377049    0.550000000    0.713728549
    0.957377049    0.050000000    0.802028081
    0.957377049    0.550000000    0.890327613
    0.207377049    0.800000000    0.492979719
    0.207377049    0.300000000    0.581279251
    0.207377049    0.800000000    0.669578783
    0.207377049    0.300000000    0.757878315
    0.207377049    0.800000000    0.846177847
    0.207377049    0.300000000    0.934477379
    0.407377049    0.200000000    0.492979719
    0.407377049    0.700000000    0.581279251
    0.407377049    0.200000000    0.669578783
    0.407377049    0.700000000    0.757878315
    0.407377049    0.200000000    0.846177847
    0.407377049    0.700000000    0.934477379
    0.607377049    0.600000000    0.492979719
    0.607377049    0.100000000    0.581279251
    0.607377049    0.600000000    0.669578783
    0.607377049    0.100000000    0.757878315
    0.607377049    0.600000000    0.846177847
    0.607377049    0.100000000    0.934477379
    0.807377049    0.000000000    0.492979719
    0.807377049    0.500000000    0.581279251
    0.807377049    0.000000000    0.669578783
    0.807377049    0.500000000    0.757878315
    0.807377049    0.000000000    0.846177847
    0.807377049    0.500000000    0.934477379
    0.007377049    0.400000000    0.492979719
    0.007377049    0.900000000    0.581279251
    0.007377049    0.400000000    0.669578783
    0.007377049    0.900000000    0.757878315
    0.007377049    0.400000000    0.846177847
    0.007377049    0.900000000    0.934477379
    0.107377049    0.100000000    0.492979719
    0.107377049    0.600000000    0.581279251
    0.107377049    0.100000000    0.669578783
    0.107377049    0.600000000    0.757878315
    0.107377049    0.100000000    0.846177847
    0.107377049    0.600000000    0.934477379
    0.307377049    0.500000000    0.492979719
    0.307377049    0.000000000    0.581279251
    0.307377049    0.500000000    0.669578783
    0.307377049    0.000000000    0.757878315
    0.307377049    0.500000000    0.846177847
    0.307377049    0.000000000    0.934477379
    0.507377049    0.900000000    0.492979719
    0.507377049    0.400000000    0.581279251
    0.507377049    0.900000000    0.669578783
    0.507377049    0.400000000    0.757878315
    0.507377049    0.900000000    0.846177847
    0.507377049    0.400000000    0.934477379
    0.707377049    0.300000000    0.492979719
    0.707377049    0.800000000    0.581279251
    0.707377049    0.300000000    0.669578783
    0.707377049    0.800000000    0.757878315
    0.707377049    0.300000000    0.846177847
    0.707377049    0.800000000    0.934477379
    0.907377049    0.700000000    0.492979719
    0.907377049    0.200000000    0.581279251
    0.907377049    0.700000000    0.669578783
    0.907377049    0.200000000    0.757878315
    0.907377049    0.700000000    0.846177847
    0.907377049    0.200000000    0.934477379
