Sn+Ge
    1.000000000
   12.978400230    0.000000000    0.000000000
  -12.978400230   12.978400230    0.000000000
    0.000000000    0.000000000   19.583751678
Sn  Ge 
48     60
Direct
    0.492552608    0.000000000    0.000000000
    0.242552638    0.000000000    0.165678188
    0.992552698    0.000000000    0.331356287
    0.992552638    0.000000000    0.000000000
    0.742552638    0.000000000    0.165678188
    0.492552757    0.000000000    0.331356287
    0.492552608    0.499999970    0.000000000
    0.242552638    0.499999970    0.165678188
    0.992552698    0.499999970    0.331356287
    0.992552638    0.499999970    0.000000000
    0.742552638    0.499999970    0.165678188
    0.492552698    0.499999970    0.331356287
    0.492552608    0.124999993    0.082839087
    0.242552668    0.124999993    0.248517260
    0.992552638    0.124999993    0.414195418
    0.992552638    0.124999993    0.082839087
    0.742552757    0.124999993    0.248517260
    0.492552698    0.124999993    0.414195418
    0.492552578    0.624999940    0.082839087
    0.242552638    0.624999940    0.248517260
    0.992552638    0.624999940    0.414195418
    0.992552638    0.624999940    0.082839087
    0.742552698    0.624999940    0.248517260
    0.492552698    0.624999940    0.414195418
    0.492552638    0.249999985    0.000000000
    0.242552638    0.249999985    0.165678188
    0.992552698    0.249999985    0.331356287
    0.992552638    0.249999985    0.000000000
    0.742552638    0.249999985    0.165678188
    0.492552757    0.249999985    0.331356287
    0.492552608    0.749999940    0.000000000
    0.242552593    0.749999940    0.165678188
    0.992552698    0.749999940    0.331356287
    0.992552638    0.749999940    0.000000000
    0.742552638    0.749999940    0.165678188
    0.492552698    0.749999940    0.331356287
    0.492552608    0.374999970    0.082839087
    0.242552668    0.374999970    0.248517260
    0.992552638    0.374999970    0.414195418
    0.992552638    0.374999970    0.082839087
    0.742552757    0.374999970    0.248517260
    0.492552698    0.374999970    0.414195418
    0.492552608    0.874999940    0.082839087
    0.242552698    0.874999940    0.248517260
    0.992552638    0.874999940    0.414195418
    0.992552638    0.874999940    0.082839087
    0.742552757    0.874999940    0.248517260
    0.492552757    0.874999940    0.414195418
    0.943870127    0.673362017    0.526533484
    0.843870103    0.773362041    0.670984805
    0.743870020    0.873362064    0.815436304
    0.143870115    0.473362029    0.526533484
    0.043870091    0.573362052    0.670984805
    0.943870068    0.673362076    0.815436304
    0.743870199    0.873362064    0.526533484
    0.643870115    0.973362088    0.670984805
    0.543870091    0.073362112    0.815436304
    0.543870151    0.073362112    0.526533484
    0.443870127    0.173362136    0.670984805
    0.343870103    0.273362160    0.815436304
    0.343870133    0.273362160    0.526533484
    0.243870109    0.373362184    0.670984805
    0.143870115    0.473362118    0.815436304
    0.043870211    0.823362052    0.598759174
    0.943870127    0.923362076    0.743210614
    0.843870103    0.023362160    0.887661994
    0.243870139    0.623362064    0.598759174
    0.143870115    0.723362088    0.743210614
    0.043870091    0.823362112    0.887661994
    0.843870163    0.023362041    0.598759174
    0.743870080    0.123362184    0.743210614
    0.643870056    0.223362207    0.887661994
    0.643870175    0.223362088    0.598759174
    0.543870151    0.323362112    0.743210614
    0.443870068    0.423362136    0.887661994
    0.443870068    0.423362136    0.598759174
    0.343870044    0.523362160    0.743210614
    0.243869990    0.623362184    0.887661994
    0.543870151    0.573362052    0.526533484
    0.443870127    0.673362076    0.670984805
    0.343870103    0.773362100    0.815436304
    0.343870133    0.773362041    0.526533484
    0.243870109    0.873362064    0.670984805
    0.143869996    0.973362088    0.815436304
    0.943870127    0.173362136    0.526533484
    0.843870103    0.273362160    0.670984805
    0.743870080    0.373362184    0.815436304
    0.143870115    0.973362088    0.526533484
    0.043870091    0.073362112    0.670984805
    0.943870068    0.173362136    0.815436304
    0.743870080    0.373362184    0.526533484
    0.643870056    0.473362118    0.670984805
    0.543869972    0.573362231    0.815436304
    0.843870163    0.523362041    0.598759174
    0.743870080    0.623362064    0.743210614
    0.643870056    0.723362148    0.887661994
    0.643870115    0.723362088    0.598759174
    0.543870091    0.823362112    0.743210614
    0.443870068    0.923362136    0.887661994
    0.443870127    0.923362076    0.598759174
    0.343870074    0.023362160    0.743210614
    0.243870050    0.123362184    0.887661994
    0.043870211    0.323362112    0.598759174
    0.943870187    0.423362136    0.743210614
    0.843870163    0.523362160    0.887661994
    0.243870080    0.123362064    0.598759174
    0.143869996    0.223362088    0.743210614
    0.043869972    0.323362112    0.887661994
