Si+Si
    1.000000000
    7.680594444    0.000000000    0.000000000
    3.840296984   11.520891190    0.000000000
    0.000000000    0.000000000    9.051668167
Si 
48
Direct
    0.660734296    0.660734296    0.000000000
    0.494067580    0.494067639    0.299999923
    0.327400833    0.327400953    0.599999905
    0.327401012    0.327401012    0.000000000
    0.160734266    0.160734326    0.299999923
    0.994067550    0.994067669    0.599999905
    0.994067729    0.994067729    0.000000000
    0.827400982    0.827401042    0.299999923
    0.660734236    0.660734355    0.599999905
    0.410734326    0.660734296    0.149999976
    0.244067580    0.494067609    0.449999899
    0.077400811    0.327400923    0.749999881
    0.744067609    0.994067669    0.149999976
    0.577400863    0.827401042    0.449999899
    0.410734087    0.660734296    0.749999881
    0.077401020    0.327401012    0.149999976
    0.910734296    0.160734341    0.449999899
    0.744067550    0.994067669    0.749999881
    0.827400982    0.327401012    0.000000000
    0.660734236    0.160734355    0.299999923
    0.494067520    0.994067669    0.599999905
    0.160734355    0.660734355    0.000000000
    0.994067609    0.494067669    0.299999923
    0.827400863    0.327400982    0.599999905
    0.494067669    0.994067729    0.000000000
    0.327400923    0.827401042    0.299999923
    0.160734192    0.660734355    0.599999905
    0.910734475    0.660734236    0.149999976
    0.744067729    0.494067580    0.449999899
    0.577400923    0.327400893    0.749999881
    0.577400982    0.327400982    0.149999976
    0.410734266    0.160734311    0.449999899
    0.244067490    0.994067609    0.749999881
    0.244067669    0.994067729    0.149999976
    0.077400938    0.827401042    0.449999899
    0.910734177    0.660734296    0.749999881
    0.989384770    0.973461866    0.749999881
    0.878273606    0.695684075    0.849999785
    0.767162442    0.417906225    0.949999928
    0.489384741    0.973461866    0.749999881
    0.378273547    0.695684075    0.849999785
    0.267162383    0.417906225    0.949999928
    0.683829129    0.084572926    0.799999952
    0.572717965    0.806795120    0.899999976
    0.461606801    0.529017210    1.000000000
    0.183829144    0.084572934    0.799999952
    0.072717994    0.806795120    0.899999976
    0.961606801    0.529017210    1.000000000
