fcc Si+fcc Ge
    1.000000000
   12.253652517    0.000000000    0.000000000
    0.000000000   12.253652517    0.000000000
    0.000000000    0.000000000   32.050000000
Si    Ge   
110     110
Direct
    0.200000000    0.600000000    0.000000000
    0.300000000    0.400000000    0.085491420
    0.400000000    0.200000000    0.170982839
    0.500000000    0.000000000    0.256474259
    0.600000000    0.800000000    0.341965679
    0.700000000    0.600000000    0.427457098
    0.600000000    0.800000000    0.000000000
    0.700000000    0.600000000    0.085491420
    0.800000000    0.400000000    0.170982839
    0.900000000    0.200000000    0.256474259
    0.000000000    0.000000000    0.341965679
    0.100000000    0.800000000    0.427457098
    0.000000000    0.000000000    0.000000000
    0.100000000    0.800000000    0.085491420
    0.200000000    0.600000000    0.170982839
    0.300000000    0.400000000    0.256474259
    0.400000000    0.200000000    0.341965679
    0.500000000    0.000000000    0.427457098
    0.400000000    0.200000000    0.000000000
    0.500000000    0.000000000    0.085491420
    0.600000000    0.800000000    0.170982839
    0.700000000    0.600000000    0.256474259
    0.800000000    0.400000000    0.341965679
    0.900000000    0.200000000    0.427457098
    0.800000000    0.400000000    0.000000000
    0.900000000    0.200000000    0.085491420
    0.000000000    0.000000000    0.170982839
    0.100000000    0.800000000    0.256474259
    0.200000000    0.600000000    0.341965679
    0.300000000    0.400000000    0.427457098
    0.300000000    0.900000000    0.000000000
    0.400000000    0.700000000    0.085491420
    0.500000000    0.500000000    0.170982839
    0.600000000    0.300000000    0.256474259
    0.700000000    0.100000000    0.341965679
    0.800000000    0.900000000    0.427457098
    0.100000000    0.300000000    0.000000000
    0.200000000    0.100000000    0.085491420
    0.300000000    0.900000000    0.170982839
    0.400000000    0.700000000    0.256474259
    0.500000000    0.500000000    0.341965679
    0.600000000    0.300000000    0.427457098
    0.500000000    0.500000000    0.000000000
    0.600000000    0.300000000    0.085491420
    0.700000000    0.100000000    0.170982839
    0.800000000    0.900000000    0.256474259
    0.900000000    0.700000000    0.341965679
    0.000000000    0.500000000    0.427457098
    0.900000000    0.700000000    0.000000000
    0.000000000    0.500000000    0.085491420
    0.100000000    0.300000000    0.170982839
    0.200000000    0.100000000    0.256474259
    0.300000000    0.900000000    0.341965679
    0.400000000    0.700000000    0.427457098
    0.700000000    0.100000000    0.000000000
    0.800000000    0.900000000    0.085491420
    0.900000000    0.700000000    0.170982839
    0.000000000    0.500000000    0.256474259
    0.100000000    0.300000000    0.341965679
    0.200000000    0.100000000    0.427457098
    0.150000000    0.950000000    0.042745710
    0.250000000    0.750000000    0.128237129
    0.350000000    0.550000000    0.213728549
    0.450000000    0.350000000    0.299219969
    0.550000000    0.150000000    0.384711388
    0.350000000    0.550000000    0.042745710
    0.450000000    0.350000000    0.128237129
    0.550000000    0.150000000    0.213728549
    0.650000000    0.950000000    0.299219969
    0.750000000    0.750000000    0.384711388
    0.750000000    0.750000000    0.042745710
    0.850000000    0.550000000    0.128237129
    0.950000000    0.350000000    0.213728549
    0.050000000    0.150000000    0.299219969
    0.150000000    0.950000000    0.384711388
    0.550000000    0.150000000    0.042745710
    0.650000000    0.950000000    0.128237129
    0.750000000    0.750000000    0.213728549
    0.850000000    0.550000000    0.299219969
    0.950000000    0.350000000    0.384711388
    0.950000000    0.350000000    0.042745710
    0.050000000    0.150000000    0.128237129
    0.150000000    0.950000000    0.213728549
    0.250000000    0.750000000    0.299219969
    0.350000000    0.550000000    0.384711388
    0.050000000    0.650000000    0.042745710
    0.150000000    0.450000000    0.128237129
    0.250000000    0.250000000    0.213728549
    0.350000000    0.050000000    0.299219969
    0.450000000    0.850000000    0.384711388
    0.450000000    0.850000000    0.042745710
    0.550000000    0.650000000    0.128237129
    0.650000000    0.450000000    0.213728549
    0.750000000    0.250000000    0.299219969
    0.850000000    0.050000000    0.384711388
    0.250000000    0.250000000    0.042745710
    0.350000000    0.050000000    0.128237129
    0.450000000    0.850000000    0.213728549
    0.550000000    0.650000000    0.299219969
    0.650000000    0.450000000    0.384711388
    0.650000000    0.450000000    0.042745710
    0.750000000    0.250000000    0.128237129
    0.850000000    0.050000000    0.213728549
    0.950000000    0.850000000    0.299219969
    0.050000000    0.650000000    0.384711388
    0.850000000    0.050000000    0.042745710
    0.950000000    0.850000000    0.128237129
    0.050000000    0.650000000    0.213728549
    0.150000000    0.450000000    0.299219969
    0.250000000    0.250000000    0.384711388
    0.049180328    0.250000000    0.537129485
    0.049180328    0.750000000    0.625429017
    0.049180328    0.250000000    0.713728549
    0.049180328    0.750000000    0.802028081
    0.049180328    0.250000000    0.890327613
    0.249180328    0.650000000    0.537129485
    0.249180328    0.150000000    0.625429017
    0.249180328    0.650000000    0.713728549
    0.249180328    0.150000000    0.802028081
    0.249180328    0.650000000    0.890327613
    0.449180328    0.050000000    0.537129485
    0.449180328    0.550000000    0.625429017
    0.449180328    0.050000000    0.713728549
    0.449180328    0.550000000    0.802028081
    0.449180328    0.050000000    0.890327613
    0.649180328    0.450000000    0.537129485
    0.649180328    0.950000000    0.625429017
    0.649180328    0.450000000    0.713728549
    0.649180328    0.950000000    0.802028081
    0.649180328    0.450000000    0.890327613
    0.849180328    0.850000000    0.537129485
    0.849180328    0.350000000    0.625429017
    0.849180328    0.850000000    0.713728549
    0.849180328    0.350000000    0.802028081
    0.849180328    0.850000000    0.890327613
    0.149180328    0.950000000    0.537129485
    0.149180328    0.450000000    0.625429017
    0.149180328    0.950000000    0.713728549
    0.149180328    0.450000000    0.802028081
    0.149180328    0.950000000    0.890327613
    0.349180328    0.350000000    0.537129485
    0.349180328    0.850000000    0.625429017
    0.349180328    0.350000000    0.713728549
    0.349180328    0.850000000    0.802028081
    0.349180328    0.350000000    0.890327613
    0.549180328    0.750000000    0.537129485
    0.549180328    0.250000000    0.625429017
    0.549180328    0.750000000    0.713728549
    0.549180328    0.250000000    0.802028081
    0.549180328    0.750000000    0.890327613
    0.749180328    0.150000000    0.537129485
    0.749180328    0.650000000    0.625429017
    0.749180328    0.150000000    0.713728549
    0.749180328    0.650000000    0.802028081
    0.749180328    0.150000000    0.890327613
    0.949180328    0.550000000    0.537129485
    0.949180328    0.050000000    0.625429017
    0.949180328    0.550000000    0.713728549
    0.949180328    0.050000000    0.802028081
    0.949180328    0.550000000    0.890327613
    0.199180328    0.800000000    0.492979719
    0.199180328    0.300000000    0.581279251
    0.199180328    0.800000000    0.669578783
    0.199180328    0.300000000    0.757878315
    0.199180328    0.800000000    0.846177847
    0.199180328    0.300000000    0.934477379
    0.399180328    0.200000000    0.492979719
    0.399180328    0.700000000    0.581279251
    0.399180328    0.200000000    0.669578783
    0.399180328    0.700000000    0.757878315
    0.399180328    0.200000000    0.846177847
    0.399180328    0.700000000    0.934477379
    0.599180328    0.600000000    0.492979719
    0.599180328    0.100000000    0.581279251
    0.599180328    0.600000000    0.669578783
    0.599180328    0.100000000    0.757878315
    0.599180328    0.600000000    0.846177847
    0.599180328    0.100000000    0.934477379
    0.799180328    0.000000000    0.492979719
    0.799180328    0.500000000    0.581279251
    0.799180328    0.000000000    0.669578783
    0.799180328    0.500000000    0.757878315
    0.799180328    0.000000000    0.846177847
    0.799180328    0.500000000    0.934477379
    0.999180328    0.400000000    0.492979719
    0.999180328    0.900000000    0.581279251
    0.999180328    0.400000000    0.669578783
    0.999180328    0.900000000    0.757878315
    0.999180328    0.400000000    0.846177847
    0.999180328    0.900000000    0.934477379
    0.099180328    0.100000000    0.492979719
    0.099180328    0.600000000    0.581279251
    0.099180328    0.100000000    0.669578783
    0.099180328    0.600000000    0.757878315
    0.099180328    0.100000000    0.846177847
    0.099180328    0.600000000    0.934477379
    0.299180328    0.500000000    0.492979719
    0.299180328    0.000000000    0.581279251
    0.299180328    0.500000000    0.669578783
    0.299180328    0.000000000    0.757878315
    0.299180328    0.500000000    0.846177847
    0.299180328    0.000000000    0.934477379
    0.499180328    0.900000000    0.492979719
    0.499180328    0.400000000    0.581279251
    0.499180328    0.900000000    0.669578783
    0.499180328    0.400000000    0.757878315
    0.499180328    0.900000000    0.846177847
    0.499180328    0.400000000    0.934477379
    0.699180328    0.300000000    0.492979719
    0.699180328    0.800000000    0.581279251
    0.699180328    0.300000000    0.669578783
    0.699180328    0.800000000    0.757878315
    0.699180328    0.300000000    0.846177847
    0.699180328    0.800000000    0.934477379
    0.899180328    0.700000000    0.492979719
    0.899180328    0.200000000    0.581279251
    0.899180328    0.700000000    0.669578783
    0.899180328    0.200000000    0.757878315
    0.899180328    0.700000000    0.846177847
    0.899180328    0.200000000    0.934477379
