Ge+Ge                                   
   1.00000000000000     
     8.0013380049999991    0.0000000000000000    0.0000000000000000
     4.0006690029999996   12.0020065309999993    0.0000000000000000
     0.0000000000000000    0.0000000000000000   11.6117439269999991
   Ge
    48
Direct
  0.6609721179999966  0.6609721179999966  0.0000000000000000
  0.4943053719999995  0.4943054619999998  0.2436240319999996
  0.3276386260000024  0.3276387749999969  0.4872480929999981
  0.3276388049999994  0.3276388049999994  0.0000000000000000
  0.1609720889999977  0.1609721479999990  0.2436240319999996
  0.9943053129999981  0.9943054909999987  0.4872480929999981
  0.9943054909999987  0.9943054909999987  0.0000000000000000
  0.8276388049999994  0.8276388649999973  0.2436240319999996
  0.6609719989999974  0.6609721780000015  0.4872480929999981
  0.4109720889999977  0.6609720590000023  0.1218120159999998
  0.2443053719999995  0.4943054020000019  0.3654360769999982
  0.0776386260000024  0.3276387160000027  0.6090601679999992
  0.7443054909999987  0.9943054909999987  0.1218120159999998
  0.5776386860000002  0.8276388649999973  0.3654360769999982
  0.4109719400000031  0.6609721179999966  0.6090601679999992
  0.0776388419999989  0.3276388350000019  0.1218120159999998
  0.9109721179999966  0.1609721479999990  0.3654360769999982
  0.7443053719999995  0.9943054319999973  0.6090601679999992
  0.8276387450000016  0.3276388350000019  0.0000000000000000
  0.6609720590000023  0.1609721780000015  0.2436240319999996
  0.4943053129999981  0.9943054909999987  0.4872480929999981
  0.1609722079999969  0.6609721179999966  0.0000000000000000
  0.9943054909999987  0.4943054909999987  0.2436240319999996
  0.8276387450000016  0.3276387749999969  0.4872480929999981
  0.4943054319999973  0.9943054909999987  0.0000000000000000
  0.3276387160000027  0.8276388649999973  0.2436240319999996
  0.1609719989999974  0.6609721179999966  0.4872480929999981
  0.9109722970000007  0.6609720590000023  0.1218120159999998
  0.7443054909999987  0.4943054020000019  0.3654360769999982
  0.5776387450000016  0.3276387160000027  0.6090601679999992
  0.5776388049999994  0.3276388350000019  0.1218120159999998
  0.4109720289999998  0.1609721479999990  0.3654360769999982
  0.2443052830000028  0.9943054319999973  0.6090601679999992
  0.2443054769999975  0.9943054909999987  0.1218120159999998
  0.0776387229999997  0.8276388649999973  0.3654360769999982
  0.9109719989999974  0.6609721179999966  0.6090601679999992
  0.1665999889999981  0.7194936280000022  0.7030199769999967
  0.0554888249999976  0.4417158369999967  0.7842280269999975
  0.9443776609999972  0.1639380459999984  0.8654360769999982
  0.6665999290000002  0.7194936280000022  0.7030199769999967
  0.5554887649999998  0.4417157170000010  0.7842280269999975
  0.4443776310000018  0.1639380459999984  0.8654360769999982
  0.8610442880000022  0.8306046719999998  0.7436240319999996
  0.7499331240000018  0.5528268810000014  0.8248320820000004
  0.6388219589999977  0.2750489709999968  0.9060401320000011
  0.3610443470000035  0.8306046719999998  0.7436240319999996
  0.2499331980000008  0.5528268810000014  0.8248320820000004
  0.1388220790000005  0.2750489709999968  0.9060401320000011
 
  0.00000000E+00  0.00000000E+00  0.00000000E+00
  0.00000000E+00  0.00000000E+00  0.00000000E+00
  0.00000000E+00  0.00000000E+00  0.00000000E+00
  0.00000000E+00  0.00000000E+00  0.00000000E+00
  0.00000000E+00  0.00000000E+00  0.00000000E+00
  0.00000000E+00  0.00000000E+00  0.00000000E+00
  0.00000000E+00  0.00000000E+00  0.00000000E+00
  0.00000000E+00  0.00000000E+00  0.00000000E+00
  0.00000000E+00  0.00000000E+00  0.00000000E+00
  0.00000000E+00  0.00000000E+00  0.00000000E+00
  0.00000000E+00  0.00000000E+00  0.00000000E+00
  0.00000000E+00  0.00000000E+00  0.00000000E+00
  0.00000000E+00  0.00000000E+00  0.00000000E+00
  0.00000000E+00  0.00000000E+00  0.00000000E+00
  0.00000000E+00  0.00000000E+00  0.00000000E+00
  0.00000000E+00  0.00000000E+00  0.00000000E+00
  0.00000000E+00  0.00000000E+00  0.00000000E+00
  0.00000000E+00  0.00000000E+00  0.00000000E+00
  0.00000000E+00  0.00000000E+00  0.00000000E+00
  0.00000000E+00  0.00000000E+00  0.00000000E+00
  0.00000000E+00  0.00000000E+00  0.00000000E+00
  0.00000000E+00  0.00000000E+00  0.00000000E+00
  0.00000000E+00  0.00000000E+00  0.00000000E+00
  0.00000000E+00  0.00000000E+00  0.00000000E+00
  0.00000000E+00  0.00000000E+00  0.00000000E+00
  0.00000000E+00  0.00000000E+00  0.00000000E+00
  0.00000000E+00  0.00000000E+00  0.00000000E+00
  0.00000000E+00  0.00000000E+00  0.00000000E+00
  0.00000000E+00  0.00000000E+00  0.00000000E+00
  0.00000000E+00  0.00000000E+00  0.00000000E+00
  0.00000000E+00  0.00000000E+00  0.00000000E+00
  0.00000000E+00  0.00000000E+00  0.00000000E+00
  0.00000000E+00  0.00000000E+00  0.00000000E+00
  0.00000000E+00  0.00000000E+00  0.00000000E+00
  0.00000000E+00  0.00000000E+00  0.00000000E+00
  0.00000000E+00  0.00000000E+00  0.00000000E+00
  0.00000000E+00  0.00000000E+00  0.00000000E+00
  0.00000000E+00  0.00000000E+00  0.00000000E+00
  0.00000000E+00  0.00000000E+00  0.00000000E+00
  0.00000000E+00  0.00000000E+00  0.00000000E+00
  0.00000000E+00  0.00000000E+00  0.00000000E+00
  0.00000000E+00  0.00000000E+00  0.00000000E+00
  0.00000000E+00  0.00000000E+00  0.00000000E+00
  0.00000000E+00  0.00000000E+00  0.00000000E+00
  0.00000000E+00  0.00000000E+00  0.00000000E+00
  0.00000000E+00  0.00000000E+00  0.00000000E+00
  0.00000000E+00  0.00000000E+00  0.00000000E+00
  0.00000000E+00  0.00000000E+00  0.00000000E+00
