Ge+Ge
    1.000000000
    8.001338005    0.000000000    0.000000000
    4.000669003   12.002006531    0.000000000
    0.000000000    0.000000000   11.611743927
Ge 
48
Direct
    0.660972118    0.660972118    0.000000000
    0.494305372    0.494305462    0.243624032
    0.327638626    0.327638775    0.487248093
    0.327638805    0.327638805    0.000000000
    0.160972089    0.160972148    0.243624032
    0.994305313    0.994305491    0.487248093
    0.994305491    0.994305491    0.000000000
    0.827638805    0.827638865    0.243624032
    0.660971999    0.660972178    0.487248093
    0.410972089    0.660972059    0.121812016
    0.244305372    0.494305402    0.365436077
    0.077638626    0.327638716    0.609060168
    0.744305491    0.994305491    0.121812016
    0.577638686    0.827638865    0.365436077
    0.410971940    0.660972118    0.609060168
    0.077638842    0.327638835    0.121812016
    0.910972118    0.160972148    0.365436077
    0.744305372    0.994305432    0.609060168
    0.827638745    0.327638835    0.000000000
    0.660972059    0.160972178    0.243624032
    0.494305313    0.994305491    0.487248093
    0.160972208    0.660972118    0.000000000
    0.994305491    0.494305491    0.243624032
    0.827638745    0.327638775    0.487248093
    0.494305432    0.994305491    0.000000000
    0.327638716    0.827638865    0.243624032
    0.160971999    0.660972118    0.487248093
    0.910972297    0.660972059    0.121812016
    0.744305491    0.494305402    0.365436077
    0.577638745    0.327638716    0.609060168
    0.577638805    0.327638835    0.121812016
    0.410972029    0.160972148    0.365436077
    0.244305283    0.994305432    0.609060168
    0.244305477    0.994305491    0.121812016
    0.077638723    0.827638865    0.365436077
    0.910971999    0.660972118    0.609060168
    0.166599989    0.719493628    0.703019977
    0.055488825    0.441715837    0.784228027
    0.944377661    0.163938046    0.865436077
    0.666599929    0.719493628    0.703019977
    0.555488765    0.441715717    0.784228027
    0.444377631    0.163938046    0.865436077
    0.861044288    0.830604672    0.743624032
    0.749933124    0.552826881    0.824832082
    0.638821959    0.275048971    0.906040132
    0.361044347    0.830604672    0.743624032
    0.249933198    0.552826881    0.824832082
    0.138822079    0.275048971    0.906040132
