Si+Ge                                   
   1.00000000000000     
     7.6805944439999996    0.0000000000000000    0.0000000000000000
     0.0000000000000000   16.2929992679999991    0.0000000000000000
     0.0000000000000000    0.0000000000000000   13.4637784959999998
   Si   Ge
    24    48
Direct
  0.9435140490000009  0.9121329780000025  0.0000000060000005
  0.6935139890000031  0.5232440229999966  0.0475386569999969
  0.4435139890000031  0.1343551280000028  0.0950773429999998
  0.1935139300000017  0.7454661129999991  0.1426159589999969
  0.9435138699999968  0.3565771580000003  0.1901546719999985
  0.6935137509999976  0.9676878450000004  0.2376932649999972
  0.1935140790000034  0.6621330380000003  0.0000000000000000
  0.9435140490000009  0.2732440229999966  0.0475386569999969
  0.6935140490000009  0.8843551280000028  0.0950773129999973
  0.4435138699999968  0.4954660530000012  0.1426159740000017
  0.1935138110000025  0.1065770390000012  0.1901546269999983
  0.9435137509999976  0.7176879639999996  0.2376933540000010
  0.6935141680000001  0.6621330380000003  0.0000000000000000
  0.4435140490000009  0.2732439939999978  0.0475386490000034
  0.1935140340000032  0.8843550679999979  0.0950773129999973
  0.9435139890000031  0.4954660530000012  0.1426159740000017
  0.6935138699999968  0.1065770390000012  0.1901546269999983
  0.4435138110000025  0.7176879639999996  0.2376933099999974
  0.4435140790000034  0.9121329780000025  0.0000000040000003
  0.1935139890000031  0.5232440229999966  0.0475386789999988
  0.9435139890000031  0.1343551280000028  0.0950773429999998
  0.6935139890000031  0.7454661129999991  0.1426159589999969
  0.4435139300000017  0.3565770390000012  0.1901546719999985
  0.1935136909999997  0.9676880840000024  0.2376933540000010
  0.0704057219999967  0.3722723719999976  0.3562067749999969
  0.8204056619999989  0.2472723719999976  0.5663186310000015
  0.5704056619999989  0.1222723719999976  0.7764305469999968
  0.0704056020000010  0.8722723130000034  0.3562067749999969
  0.8204056619999989  0.7472723719999976  0.5663186310000015
  0.5704056619999989  0.6222723719999976  0.7764305469999968
  0.5704056020000010  0.6222723719999976  0.3562067749999969
  0.3204056320000035  0.4972723719999976  0.5663186310000015
  0.0704057219999967  0.3722723719999976  0.7764305469999968
  0.5704056020000010  0.1222722529999984  0.3562067749999969
  0.3204056619999989  0.9972723130000034  0.5663186310000015
  0.0704056020000010  0.8722723130000034  0.7764305469999968
  0.3204056619999989  0.3722723719999976  0.4612627030000027
  0.0704057219999967  0.2472723719999976  0.6713745590000002
  0.8204056619999989  0.1222723719999976  0.8814865350000005
  0.3204056020000010  0.8722723130000034  0.4612627030000027
  0.0704056020000010  0.7472723130000034  0.6713745590000002
  0.8204056020000010  0.6222723130000034  0.8814865350000005
  0.8204056619999989  0.6222723719999976  0.4612627030000027
  0.5704056619999989  0.4972723719999976  0.6713745590000002
  0.3204056619999989  0.3722723719999976  0.8814865350000005
  0.8204056619999989  0.1222722529999984  0.4612627030000027
  0.5704056020000010  0.9972723130000034  0.6713745590000002
  0.3204056320000035  0.8722723719999976  0.8814865350000005
  0.0704057219999967  0.6222723719999976  0.3562067749999969
  0.8204056619999989  0.4972723719999976  0.5663186310000015
  0.5704056619999989  0.3722723719999976  0.7764305469999968
  0.5704056020000010  0.3722723719999976  0.3562067749999969
  0.3204056320000035  0.2472723719999976  0.5663186310000015
  0.0704057219999967  0.1222723719999976  0.7764305469999968
  0.0704056020000010  0.1222723719999976  0.3562067749999969
  0.8204056619999989  0.9972723719999976  0.5663186310000015
  0.5704056619999989  0.8722723719999976  0.7764305469999968
  0.5704056020000010  0.8722723719999976  0.3562067749999969
  0.3204056619999989  0.7472723719999976  0.5663186310000015
  0.0704057219999967  0.6222723719999976  0.7764305469999968
  0.3204056619999989  0.6222723719999976  0.4612627030000027
  0.0704057219999967  0.4972723719999976  0.6713745590000002
  0.8204056619999989  0.3722723719999976  0.8814865350000005
  0.8204056020000010  0.3722723719999976  0.4612627030000027
  0.5704056020000010  0.2472723719999976  0.6713745590000002
  0.3204056020000010  0.1222722529999984  0.8814865350000005
  0.3204056619999989  0.1222722529999984  0.4612627030000027
  0.0704057219999967  0.9972723130000034  0.6713745590000002
  0.8204056619999989  0.8722723130000034  0.8814865350000005
  0.8204056020000010  0.8722723130000034  0.4612627030000027
  0.5704056020000010  0.7472723719999976  0.6713745590000002
  0.3204056020000010  0.6222723130000034  0.8814865350000005
 
  0.00000000E+00  0.00000000E+00  0.00000000E+00
  0.00000000E+00  0.00000000E+00  0.00000000E+00
  0.00000000E+00  0.00000000E+00  0.00000000E+00
  0.00000000E+00  0.00000000E+00  0.00000000E+00
  0.00000000E+00  0.00000000E+00  0.00000000E+00
  0.00000000E+00  0.00000000E+00  0.00000000E+00
  0.00000000E+00  0.00000000E+00  0.00000000E+00
  0.00000000E+00  0.00000000E+00  0.00000000E+00
  0.00000000E+00  0.00000000E+00  0.00000000E+00
  0.00000000E+00  0.00000000E+00  0.00000000E+00
  0.00000000E+00  0.00000000E+00  0.00000000E+00
  0.00000000E+00  0.00000000E+00  0.00000000E+00
  0.00000000E+00  0.00000000E+00  0.00000000E+00
  0.00000000E+00  0.00000000E+00  0.00000000E+00
  0.00000000E+00  0.00000000E+00  0.00000000E+00
  0.00000000E+00  0.00000000E+00  0.00000000E+00
  0.00000000E+00  0.00000000E+00  0.00000000E+00
  0.00000000E+00  0.00000000E+00  0.00000000E+00
  0.00000000E+00  0.00000000E+00  0.00000000E+00
  0.00000000E+00  0.00000000E+00  0.00000000E+00
  0.00000000E+00  0.00000000E+00  0.00000000E+00
  0.00000000E+00  0.00000000E+00  0.00000000E+00
  0.00000000E+00  0.00000000E+00  0.00000000E+00
  0.00000000E+00  0.00000000E+00  0.00000000E+00
  0.00000000E+00  0.00000000E+00  0.00000000E+00
  0.00000000E+00  0.00000000E+00  0.00000000E+00
  0.00000000E+00  0.00000000E+00  0.00000000E+00
  0.00000000E+00  0.00000000E+00  0.00000000E+00
  0.00000000E+00  0.00000000E+00  0.00000000E+00
  0.00000000E+00  0.00000000E+00  0.00000000E+00
  0.00000000E+00  0.00000000E+00  0.00000000E+00
  0.00000000E+00  0.00000000E+00  0.00000000E+00
  0.00000000E+00  0.00000000E+00  0.00000000E+00
  0.00000000E+00  0.00000000E+00  0.00000000E+00
  0.00000000E+00  0.00000000E+00  0.00000000E+00
  0.00000000E+00  0.00000000E+00  0.00000000E+00
  0.00000000E+00  0.00000000E+00  0.00000000E+00
  0.00000000E+00  0.00000000E+00  0.00000000E+00
  0.00000000E+00  0.00000000E+00  0.00000000E+00
  0.00000000E+00  0.00000000E+00  0.00000000E+00
  0.00000000E+00  0.00000000E+00  0.00000000E+00
  0.00000000E+00  0.00000000E+00  0.00000000E+00
  0.00000000E+00  0.00000000E+00  0.00000000E+00
  0.00000000E+00  0.00000000E+00  0.00000000E+00
  0.00000000E+00  0.00000000E+00  0.00000000E+00
  0.00000000E+00  0.00000000E+00  0.00000000E+00
  0.00000000E+00  0.00000000E+00  0.00000000E+00
  0.00000000E+00  0.00000000E+00  0.00000000E+00
  0.00000000E+00  0.00000000E+00  0.00000000E+00
  0.00000000E+00  0.00000000E+00  0.00000000E+00
  0.00000000E+00  0.00000000E+00  0.00000000E+00
  0.00000000E+00  0.00000000E+00  0.00000000E+00
  0.00000000E+00  0.00000000E+00  0.00000000E+00
  0.00000000E+00  0.00000000E+00  0.00000000E+00
  0.00000000E+00  0.00000000E+00  0.00000000E+00
  0.00000000E+00  0.00000000E+00  0.00000000E+00
  0.00000000E+00  0.00000000E+00  0.00000000E+00
  0.00000000E+00  0.00000000E+00  0.00000000E+00
  0.00000000E+00  0.00000000E+00  0.00000000E+00
  0.00000000E+00  0.00000000E+00  0.00000000E+00
  0.00000000E+00  0.00000000E+00  0.00000000E+00
  0.00000000E+00  0.00000000E+00  0.00000000E+00
  0.00000000E+00  0.00000000E+00  0.00000000E+00
  0.00000000E+00  0.00000000E+00  0.00000000E+00
  0.00000000E+00  0.00000000E+00  0.00000000E+00
  0.00000000E+00  0.00000000E+00  0.00000000E+00
  0.00000000E+00  0.00000000E+00  0.00000000E+00
  0.00000000E+00  0.00000000E+00  0.00000000E+00
  0.00000000E+00  0.00000000E+00  0.00000000E+00
  0.00000000E+00  0.00000000E+00  0.00000000E+00
  0.00000000E+00  0.00000000E+00  0.00000000E+00
  0.00000000E+00  0.00000000E+00  0.00000000E+00
