Si+Ge                                   
   1.00000000000000     
     7.6805944439999996    0.0000000000000000    0.0000000000000000
     0.0000000000000000   16.2929992679999991    0.0000000000000000
     0.0000000000000000    0.0000000000000000   10.2725019450000001
   Si   Ge
    24    48
Direct
  0.9435140490000009  0.9121329780000025  0.0000000080000007
  0.6935139890000031  0.5232440229999966  0.0623071159999995
  0.4435139890000031  0.1343551280000028  0.1246142689999985
  0.1935139300000017  0.7454661129999991  0.1869213430000016
  0.9435138699999968  0.3565771580000003  0.2492285220000028
  0.6935137509999976  0.9676878450000004  0.3115355670000000
  0.1935140790000034  0.6621330380000003  0.0000000000000000
  0.9435140490000009  0.2732440229999966  0.0623071159999995
  0.6935140490000009  0.8843551280000028  0.1246142310000025
  0.4435138699999968  0.4954660530000012  0.1869213729999970
  0.1935138110000025  0.1065770390000012  0.2492284630000015
  0.9435137509999976  0.7176879639999996  0.3115356859999991
  0.6935141680000001  0.6621330380000003  0.0000000000000000
  0.4435140490000009  0.2732439939999978  0.0623071039999985
  0.1935140340000032  0.8843550679999979  0.1246142310000025
  0.9435139890000031  0.4954660530000012  0.1869213729999970
  0.6935138699999968  0.1065770390000012  0.2492284630000015
  0.4435138110000025  0.7176879639999996  0.3115356559999967
  0.4435140790000034  0.9121329780000025  0.0000000049999969
  0.1935139890000031  0.5232440229999966  0.0623071420000016
  0.9435139890000031  0.1343551280000028  0.1246142689999985
  0.6935139890000031  0.7454661129999991  0.1869213430000016
  0.4435139300000017  0.3565770390000012  0.2492285220000028
  0.1935136909999997  0.9676880840000024  0.3115356859999991
  0.9914582970000012  0.9957291480000023  0.3115357160000016
  0.7414582970000012  0.8707291480000023  0.5869213940000009
  0.4914582970000012  0.7457291480000023  0.8623070720000001
  0.9914582370000034  0.4957290890000010  0.3115357160000016
  0.7414582970000012  0.3707291190000035  0.5869213940000009
  0.4914582970000012  0.2457291190000035  0.8623070720000001
  0.4914582370000034  0.2457291190000035  0.3115357160000016
  0.2414582669999987  0.1207291329999975  0.5869213940000009
  0.9914582970000012  0.9957291480000023  0.8623070720000001
  0.4914582370000034  0.7457290890000010  0.3115357160000016
  0.2414582820000035  0.6207290890000010  0.5869213940000009
  0.9914582370000034  0.4957290890000010  0.8623070720000001
  0.2414582820000035  0.9957291480000023  0.4492285250000023
  0.9914582970000012  0.8707291480000023  0.7246142030000016
  0.7414582970000012  0.7457291480000023  0.0000000000000000
  0.2414582370000034  0.4957290890000010  0.4492285250000023
  0.9914582370000034  0.3707290890000010  0.7246142030000016
  0.7414582370000034  0.2457290890000010  0.0000000000000000
  0.7414582970000012  0.2457291480000023  0.4492285250000023
  0.4914582970000012  0.1207291480000023  0.7246142030000016
  0.2414582820000035  0.9957291480000023  0.0000000000000000
  0.7414582970000012  0.7457290890000010  0.4492285250000023
  0.4914582669999987  0.6207290890000010  0.7246142030000016
  0.2414582669999987  0.4957291190000035  0.0000000000000000
  0.9914582970000012  0.2457291329999975  0.3115357160000016
  0.7414582970000012  0.1207291329999975  0.5869213940000009
  0.4914582970000012  0.9957291480000023  0.8623070720000001
  0.4914582669999987  0.9957291480000023  0.3115357160000016
  0.2414582669999987  0.8707291480000023  0.5869213940000009
  0.9914582970000012  0.7457291480000023  0.8623070720000001
  0.9914582370000034  0.7457291480000023  0.3115357160000016
  0.7414582970000012  0.6207291480000023  0.5869213940000009
  0.4914582970000012  0.4957291480000023  0.8623070720000001
  0.4914582669999987  0.4957291190000035  0.3115357160000016
  0.2414583119999989  0.3707291480000023  0.5869213940000009
  0.9914582970000012  0.2457291480000023  0.8623070720000001
  0.2414582820000035  0.2457291190000035  0.4492285250000023
  0.9914582970000012  0.1207291329999975  0.7246142030000016
  0.7414582970000012  0.9957291480000023  0.0000000000000000
  0.7414582370000034  0.9957291480000023  0.4492285250000023
  0.4914582669999987  0.8707291480000023  0.7246142030000016
  0.2414582520000010  0.7457290890000010  0.0000000000000000
  0.2414582820000035  0.7457290890000010  0.4492285250000023
  0.9914582970000012  0.6207290890000010  0.7246142030000016
  0.7414582970000012  0.4957290890000010  0.0000000000000000
  0.7414582370000034  0.4957290890000010  0.4492285250000023
  0.4914582669999987  0.3707291190000035  0.7246142030000016
  0.2414582520000010  0.2457290890000010  0.0000000000000000
 
  0.00000000E+00  0.00000000E+00  0.00000000E+00
  0.00000000E+00  0.00000000E+00  0.00000000E+00
  0.00000000E+00  0.00000000E+00  0.00000000E+00
  0.00000000E+00  0.00000000E+00  0.00000000E+00
  0.00000000E+00  0.00000000E+00  0.00000000E+00
  0.00000000E+00  0.00000000E+00  0.00000000E+00
  0.00000000E+00  0.00000000E+00  0.00000000E+00
  0.00000000E+00  0.00000000E+00  0.00000000E+00
  0.00000000E+00  0.00000000E+00  0.00000000E+00
  0.00000000E+00  0.00000000E+00  0.00000000E+00
  0.00000000E+00  0.00000000E+00  0.00000000E+00
  0.00000000E+00  0.00000000E+00  0.00000000E+00
  0.00000000E+00  0.00000000E+00  0.00000000E+00
  0.00000000E+00  0.00000000E+00  0.00000000E+00
  0.00000000E+00  0.00000000E+00  0.00000000E+00
  0.00000000E+00  0.00000000E+00  0.00000000E+00
  0.00000000E+00  0.00000000E+00  0.00000000E+00
  0.00000000E+00  0.00000000E+00  0.00000000E+00
  0.00000000E+00  0.00000000E+00  0.00000000E+00
  0.00000000E+00  0.00000000E+00  0.00000000E+00
  0.00000000E+00  0.00000000E+00  0.00000000E+00
  0.00000000E+00  0.00000000E+00  0.00000000E+00
  0.00000000E+00  0.00000000E+00  0.00000000E+00
  0.00000000E+00  0.00000000E+00  0.00000000E+00
  0.00000000E+00  0.00000000E+00  0.00000000E+00
  0.00000000E+00  0.00000000E+00  0.00000000E+00
  0.00000000E+00  0.00000000E+00  0.00000000E+00
  0.00000000E+00  0.00000000E+00  0.00000000E+00
  0.00000000E+00  0.00000000E+00  0.00000000E+00
  0.00000000E+00  0.00000000E+00  0.00000000E+00
  0.00000000E+00  0.00000000E+00  0.00000000E+00
  0.00000000E+00  0.00000000E+00  0.00000000E+00
  0.00000000E+00  0.00000000E+00  0.00000000E+00
  0.00000000E+00  0.00000000E+00  0.00000000E+00
  0.00000000E+00  0.00000000E+00  0.00000000E+00
  0.00000000E+00  0.00000000E+00  0.00000000E+00
  0.00000000E+00  0.00000000E+00  0.00000000E+00
  0.00000000E+00  0.00000000E+00  0.00000000E+00
  0.00000000E+00  0.00000000E+00  0.00000000E+00
  0.00000000E+00  0.00000000E+00  0.00000000E+00
  0.00000000E+00  0.00000000E+00  0.00000000E+00
  0.00000000E+00  0.00000000E+00  0.00000000E+00
  0.00000000E+00  0.00000000E+00  0.00000000E+00
  0.00000000E+00  0.00000000E+00  0.00000000E+00
  0.00000000E+00  0.00000000E+00  0.00000000E+00
  0.00000000E+00  0.00000000E+00  0.00000000E+00
  0.00000000E+00  0.00000000E+00  0.00000000E+00
  0.00000000E+00  0.00000000E+00  0.00000000E+00
  0.00000000E+00  0.00000000E+00  0.00000000E+00
  0.00000000E+00  0.00000000E+00  0.00000000E+00
  0.00000000E+00  0.00000000E+00  0.00000000E+00
  0.00000000E+00  0.00000000E+00  0.00000000E+00
  0.00000000E+00  0.00000000E+00  0.00000000E+00
  0.00000000E+00  0.00000000E+00  0.00000000E+00
  0.00000000E+00  0.00000000E+00  0.00000000E+00
  0.00000000E+00  0.00000000E+00  0.00000000E+00
  0.00000000E+00  0.00000000E+00  0.00000000E+00
  0.00000000E+00  0.00000000E+00  0.00000000E+00
  0.00000000E+00  0.00000000E+00  0.00000000E+00
  0.00000000E+00  0.00000000E+00  0.00000000E+00
  0.00000000E+00  0.00000000E+00  0.00000000E+00
  0.00000000E+00  0.00000000E+00  0.00000000E+00
  0.00000000E+00  0.00000000E+00  0.00000000E+00
  0.00000000E+00  0.00000000E+00  0.00000000E+00
  0.00000000E+00  0.00000000E+00  0.00000000E+00
  0.00000000E+00  0.00000000E+00  0.00000000E+00
  0.00000000E+00  0.00000000E+00  0.00000000E+00
  0.00000000E+00  0.00000000E+00  0.00000000E+00
  0.00000000E+00  0.00000000E+00  0.00000000E+00
  0.00000000E+00  0.00000000E+00  0.00000000E+00
  0.00000000E+00  0.00000000E+00  0.00000000E+00
  0.00000000E+00  0.00000000E+00  0.00000000E+00
