C+Si
    1.000000000
   13.345743179    0.000000000    0.000000000
   -6.672873020   14.920996666    0.000000000
    0.000000000    0.000000000    8.390060425
C   Si 
84     36
Direct
    0.803541958    0.827111602    0.190120459
    0.174970403    0.855683148    0.000000030
    0.489256203    0.841397464    0.095060259
    0.946399033    0.684254408    0.190120518
    0.317827493    0.712826014    0.000000005
    0.632113278    0.698540211    0.095060259
    0.089256167    0.541397333    0.190120459
    0.460684687    0.569968879    0.000000030
    0.774970472    0.555683136    0.095060259
    0.232113361    0.398540169    0.190120459
    0.603541851    0.427111745    0.000000030
    0.917827666    0.412825942    0.095060259
    0.374970436    0.255683035    0.190120459
    0.746398985    0.284254611    0.000000030
    0.060684800    0.269968837    0.095060259
    0.517827630    0.112825885    0.190120459
    0.889256120    0.141397476    0.000000030
    0.203541875    0.127111688    0.095060259
    0.660684824    0.969968736    0.190120474
    0.032113254    0.998540282    0.000000019
    0.346399039    0.984254539    0.095060259
    0.353541851    0.927111626    0.237650424
    0.724970222    0.955683172    0.047530036
    0.039256096    0.941397429    0.142590284
    0.496398926    0.784254432    0.237650484
    0.867827296    0.812825978    0.047530040
    0.182113051    0.798540175    0.142590240
    0.639256239    0.641397357    0.237650484
    0.010684609    0.669968843    0.047530033
    0.324970484    0.655683160    0.142590240
    0.782113314    0.498540282    0.237650484
    0.153541684    0.527111769    0.047530033
    0.467827559    0.512826025    0.142590240
    0.924970269    0.355683059    0.237650514
    0.296398789    0.384254605    0.047530055
    0.610684574    0.369968861    0.142590255
    0.067827582    0.212825894    0.237650514
    0.439256072    0.241397485    0.047530048
    0.753541827    0.227111697    0.142590255
    0.210684776    0.069968797    0.237650514
    0.582113147    0.098540336    0.047530051
    0.896398902    0.084254570    0.142590284
    0.303542018    0.827111602    0.190120518
    0.674970448    0.855683267    0.000000000
    0.989256203    0.841397405    0.095060259
    0.446399212    0.684254408    0.190120518
    0.817827702    0.712826073    0.000000000
    0.132113338    0.698540211    0.095060259
    0.589256406    0.541397274    0.190120518
    0.960684776    0.569968939    0.000000000
    0.274970531    0.555683136    0.095060259
    0.732113421    0.398540229    0.190120518
    0.103541844    0.427111775    0.000000012
    0.417827666    0.412825972    0.095060252
    0.874970555    0.255683005    0.190120459
    0.246398970    0.284254581    0.000000015
    0.560684800    0.269968808    0.095060252
    0.017827630    0.112825878    0.190120459
    0.389256120    0.141397446    0.000000014
    0.703541934    0.127111673    0.095060252
    0.160684824    0.969968736    0.190120459
    0.532113254    0.998540342    0.000000014
    0.846399069    0.984254539    0.095060252
    0.853541791    0.927111626    0.237650484
    0.224970296    0.955683172    0.047530055
    0.539256036    0.941397369    0.142590284
    0.996398866    0.784254551    0.237650484
    0.367827386    0.812826097    0.047530055
    0.682113111    0.798540294    0.142590284
    0.139256120    0.641397357    0.237650424
    0.510684609    0.669968843    0.047530055
    0.824970424    0.655683100    0.142590284
    0.282113314    0.498540163    0.237650484
    0.653541744    0.527111709    0.047530055
    0.967827499    0.512825906    0.142590284
    0.424970388    0.355683088    0.237650484
    0.796398759    0.384254575    0.047530062
    0.110684633    0.369968832    0.142590284
    0.567827702    0.212825909    0.237650543
    0.939256072    0.241397485    0.047530051
    0.253541827    0.227111712    0.142590284
    0.710684776    0.069968820    0.237650424
    0.082113147    0.098540328    0.047530055
    0.396399021    0.084254608    0.142590284
    0.035029769    0.103513360    0.437895596
    0.001696348    0.870179951    0.582639396
    0.968362927    0.636846602    0.727383196
    0.368362993    0.436846673    0.437895596
    0.335029572    0.203513265    0.582639396
    0.301696151    0.970179856    0.727383196
    0.701696277    0.770179927    0.437895596
    0.668362856    0.536846519    0.582639396
    0.635029435    0.303513110    0.727383196
    0.351696312    0.070180178    0.510267317
    0.318362892    0.836846769    0.655011117
    0.285029471    0.603513360    0.799754858
    0.685029626    0.403513372    0.510267317
    0.651696205    0.170179993    0.655011058
    0.618362784    0.936846554    0.799754918
    0.018363237    0.736846626    0.510267317
    0.985029817    0.503513277    0.655011058
    0.951696396    0.270179868    0.799754858
    0.201696366    0.770179868    0.437895596
    0.168362945    0.536846519    0.582639396
    0.135029539    0.303513110    0.727383196
    0.535029709    0.103513479    0.437895596
    0.501696229    0.870179951    0.582639337
    0.468362838    0.636846602    0.727383137
    0.868362963    0.436846673    0.437895596
    0.835029542    0.203513324    0.582639337
    0.801696122    0.970179856    0.727383137
    0.185029685    0.403513372    0.510267317
    0.151696265    0.170179963    0.655011117
    0.118362859    0.936846554    0.799754918
    0.518362999    0.736846685    0.510267317
    0.485029608    0.503513336    0.655011058
    0.451696187    0.270179957    0.799754918
    0.851696312    0.070180058    0.510267317
    0.818362951    0.836846650    0.655011058
    0.785029531    0.603513241    0.799754918
