Si+C                                    
   1.00000000000000     
    13.3031797409999992    0.0000000000000000    0.0000000000000000
     6.6515893940000002   14.8734064099999994    0.0000000000000000
     0.0000000000000000    0.0000000000000000    8.3900594710000007
   Si   C 
    36    84
Direct
  0.9829056259999973  0.6581194999999980  0.0000000049999969
  0.7829055790000012  0.5581192969999975  0.1447438000000005
  0.5829054120000023  0.4581190939999971  0.2894876000000011
  0.9829056259999973  0.3247861270000030  0.0000000049999969
  0.7829055790000012  0.2247859690000027  0.1447438000000005
  0.5829054120000023  0.1247858030000017  0.2894876000000011
  0.9829056259999973  0.9914528130000022  0.0000000049999969
  0.7829055790000012  0.8914526699999996  0.1447438000000005
  0.5829054120000023  0.7914525269999970  0.2894876000000011
  0.6329056619999989  0.6914526819999978  0.0723717440000016
  0.4329055850000003  0.5914524789999973  0.2171155509999991
  0.2329055220000029  0.4914524260000022  0.3618593509999997
  0.6329056619999989  0.3581194280000020  0.0723717440000016
  0.4329055850000003  0.2581192849999994  0.2171155509999991
  0.2329055220000029  0.1581191419999968  0.3618593509999997
  0.6329056619999989  0.0247861369999995  0.0723717440000016
  0.4329055850000003  0.9247859720000022  0.2171155509999991
  0.2329055220000029  0.8247858289999996  0.3618593509999997
  0.4829056259999973  0.6581194999999980  0.0000000000000000
  0.2829055489999988  0.5581192969999975  0.1447438000000005
  0.0829054419999977  0.4581190939999971  0.2894876000000011
  0.4829056259999973  0.3247861270000030  0.0000000000000000
  0.2829055489999988  0.2247859539999979  0.1447438000000005
  0.0829054419999977  0.1247858110000024  0.2894876000000011
  0.4829056259999973  0.9914528130000022  0.0000000000000000
  0.2829055489999988  0.8914526699999996  0.1447438000000005
  0.0829054419999977  0.7914525269999970  0.2894876000000011
  0.1329056769999966  0.6914527420000027  0.0723717589999993
  0.9329055549999978  0.5914524789999973  0.2171155509999991
  0.7329055069999981  0.4914523959999997  0.3618593509999997
  0.1329056769999966  0.3581194879999998  0.0723717589999993
  0.9329055549999978  0.2581192849999994  0.2171155509999991
  0.7329055069999981  0.1581191269999991  0.3618593509999997
  0.1329056769999966  0.0247861369999995  0.0723717589999993
  0.9329055549999978  0.9247859720000022  0.2171155509999991
  0.7329055069999981  0.8247858289999996  0.3618593509999997
  0.8607170579999988  0.1450181009999980  0.5621044040000029
  0.8321454519999989  0.4164467160000029  0.6571646929999986
  0.8035738470000027  0.6878753299999971  0.7522249220000035
  0.0035741330000008  0.2878752350000013  0.5621044040000029
  0.9750025869999988  0.5593038800000016  0.6571646929999986
  0.9464310409999968  0.8307325239999983  0.7522249220000035
  0.1464312080000028  0.4307323990000000  0.5621044040000029
  0.1178597210000021  0.7021610139999979  0.6571646929999986
  0.0892882349999979  0.9735897179999995  0.7522249220000035
  0.2892884019999968  0.5735895629999987  0.5621044040000029
  0.2607169150000033  0.8450182079999990  0.6571646929999986
  0.2321453090000034  0.1164468529999994  0.7522249220000035
  0.4321455959999980  0.7164466979999986  0.5621044040000029
  0.4035739899999982  0.9878752830000010  0.6571646929999986
  0.3750023839999983  0.2593039269999977  0.7522249220000035
  0.5750026700000035  0.8593037719999970  0.5621044040000029
  0.5464310650000002  0.1307324169999973  0.6571646929999986
  0.5178595779999995  0.4021610019999997  0.7522249220000035
  0.7178598639999976  0.0021610260000031  0.5621044040000029
  0.6892883780000005  0.2735896109999985  0.6571646929999986
  0.6607166530000015  0.5450181960000009  0.7522249220000035
  0.9535741810000005  0.8878750800000006  0.6096344589999987
  0.9250026349999985  0.1593036650000030  0.7046946880000036
  0.8964310879999999  0.4307323689999976  0.7997549179999979
  0.0964312549999988  0.0307323930000010  0.6096344589999987
  0.0678596500000026  0.3021609780000034  0.7046946880000036
  0.0392881630000019  0.5735896830000016  0.7997549179999979
  0.2392884490000000  0.1735894680000030  0.6096344589999987
  0.2107168439999967  0.4450181719999975  0.7046946880000036
  0.1821452379999968  0.7164467569999999  0.7997548580000000
  0.3821455240000020  0.3164465429999979  0.6096344589999987
  0.3535740379999979  0.5878751870000016  0.7046946880000036
  0.3250024319999980  0.8593037130000027  0.7997548580000000
  0.5250027180000032  0.4593038260000029  0.6096344589999987
  0.4964311120000033  0.7307324410000007  0.7046946880000036
  0.4678595070000000  0.0021611450000023  0.7997548580000000
  0.6678597929999981  0.6021609310000002  0.6096344589999987
  0.6392881869999982  0.8735895749999969  0.7046946880000036
  0.6107168200000004  0.1450182199999972  0.7997549179999979
  0.8107169869999993  0.7450180649999965  0.6096344589999987
  0.7821454999999986  0.0164467099999968  0.7046946880000036
  0.7535738950000024  0.2878751750000035  0.7997548580000000
  0.9321455360000002  0.7164466380000007  0.5621044040000029
  0.9035739899999982  0.9878752830000010  0.6571646929999986
  0.8750023839999983  0.2593039269999977  0.7522249220000035
  0.0750026700000035  0.8593037719999970  0.5621044040000029
  0.0464310650000002  0.1307324169999973  0.6571646929999986
  0.0178596969999987  0.4021611209999989  0.7522249220000035
  0.2178598639999976  0.0021609069999968  0.5621044040000029
  0.1892883780000005  0.2735896109999985  0.6571646929999986
  0.1607167720000007  0.5450181960000009  0.7522248630000021
  0.3607170579999988  0.1450181009999980  0.5621044040000029
  0.3321454519999989  0.4164467160000029  0.6571646929999986
  0.3035738470000027  0.6878753299999971  0.7522249220000035
  0.5035741330000008  0.2878751750000035  0.5621044040000029
  0.4750025270000009  0.5593038199999967  0.6571646929999986
  0.4464310409999968  0.8307324649999970  0.7522249220000035
  0.6464313270000019  0.4307323990000000  0.5621044040000029
  0.6178597210000021  0.7021610139999979  0.6571646929999986
  0.5892882349999979  0.9735896589999982  0.7522249220000035
  0.7892885210000031  0.5735895039999974  0.5621044040000029
  0.7607169150000033  0.8450181480000012  0.6571646929999986
  0.7321453090000034  0.1164467329999965  0.7522249220000035
  0.8821455240000020  0.3164465730000003  0.6096344589999987
  0.8535740379999979  0.5878751870000016  0.7046946880000036
  0.8250024319999980  0.8593038320000019  0.7997548580000000
  0.0250027180000032  0.4593036170000033  0.6096344589999987
  0.9964311720000012  0.7307322619999965  0.7046946880000036
  0.9678596259999992  0.0021609069999968  0.7997548580000000
  0.1678597929999981  0.6021609310000002  0.6096344589999987
  0.1392883059999974  0.8735895160000027  0.7046946880000036
  0.1107167010000012  0.1450181009999980  0.7997549179999979
  0.3107169869999993  0.7450180049999986  0.6096344589999987
  0.2821453809999994  0.0164465900000010  0.7046946880000036
  0.2535738950000024  0.2878751750000035  0.7997549179999979
  0.4535740609999976  0.8878750209999993  0.6096344589999987
  0.4250025750000006  0.1593036650000030  0.7046946880000036
  0.3964309690000007  0.4307323689999976  0.7997549179999979
  0.5964312549999988  0.0307322740000018  0.6096344589999987
  0.5678596500000026  0.3021609780000034  0.7046946880000036
  0.5392880440000027  0.5735894439999996  0.7997549179999979
  0.7392883300000008  0.1735893489999967  0.6096344589999987
  0.7107167240000010  0.4450179339999991  0.7046946880000036
  0.6821451189999976  0.7164465190000016  0.7997548580000000
 
  0.00000000E+00  0.00000000E+00  0.00000000E+00
  0.00000000E+00  0.00000000E+00  0.00000000E+00
  0.00000000E+00  0.00000000E+00  0.00000000E+00
  0.00000000E+00  0.00000000E+00  0.00000000E+00
  0.00000000E+00  0.00000000E+00  0.00000000E+00
  0.00000000E+00  0.00000000E+00  0.00000000E+00
  0.00000000E+00  0.00000000E+00  0.00000000E+00
  0.00000000E+00  0.00000000E+00  0.00000000E+00
  0.00000000E+00  0.00000000E+00  0.00000000E+00
  0.00000000E+00  0.00000000E+00  0.00000000E+00
  0.00000000E+00  0.00000000E+00  0.00000000E+00
  0.00000000E+00  0.00000000E+00  0.00000000E+00
  0.00000000E+00  0.00000000E+00  0.00000000E+00
  0.00000000E+00  0.00000000E+00  0.00000000E+00
  0.00000000E+00  0.00000000E+00  0.00000000E+00
  0.00000000E+00  0.00000000E+00  0.00000000E+00
  0.00000000E+00  0.00000000E+00  0.00000000E+00
  0.00000000E+00  0.00000000E+00  0.00000000E+00
  0.00000000E+00  0.00000000E+00  0.00000000E+00
  0.00000000E+00  0.00000000E+00  0.00000000E+00
  0.00000000E+00  0.00000000E+00  0.00000000E+00
  0.00000000E+00  0.00000000E+00  0.00000000E+00
  0.00000000E+00  0.00000000E+00  0.00000000E+00
  0.00000000E+00  0.00000000E+00  0.00000000E+00
  0.00000000E+00  0.00000000E+00  0.00000000E+00
  0.00000000E+00  0.00000000E+00  0.00000000E+00
  0.00000000E+00  0.00000000E+00  0.00000000E+00
  0.00000000E+00  0.00000000E+00  0.00000000E+00
  0.00000000E+00  0.00000000E+00  0.00000000E+00
  0.00000000E+00  0.00000000E+00  0.00000000E+00
  0.00000000E+00  0.00000000E+00  0.00000000E+00
  0.00000000E+00  0.00000000E+00  0.00000000E+00
  0.00000000E+00  0.00000000E+00  0.00000000E+00
  0.00000000E+00  0.00000000E+00  0.00000000E+00
  0.00000000E+00  0.00000000E+00  0.00000000E+00
  0.00000000E+00  0.00000000E+00  0.00000000E+00
  0.00000000E+00  0.00000000E+00  0.00000000E+00
  0.00000000E+00  0.00000000E+00  0.00000000E+00
  0.00000000E+00  0.00000000E+00  0.00000000E+00
  0.00000000E+00  0.00000000E+00  0.00000000E+00
  0.00000000E+00  0.00000000E+00  0.00000000E+00
  0.00000000E+00  0.00000000E+00  0.00000000E+00
  0.00000000E+00  0.00000000E+00  0.00000000E+00
  0.00000000E+00  0.00000000E+00  0.00000000E+00
  0.00000000E+00  0.00000000E+00  0.00000000E+00
  0.00000000E+00  0.00000000E+00  0.00000000E+00
  0.00000000E+00  0.00000000E+00  0.00000000E+00
  0.00000000E+00  0.00000000E+00  0.00000000E+00
  0.00000000E+00  0.00000000E+00  0.00000000E+00
  0.00000000E+00  0.00000000E+00  0.00000000E+00
  0.00000000E+00  0.00000000E+00  0.00000000E+00
  0.00000000E+00  0.00000000E+00  0.00000000E+00
  0.00000000E+00  0.00000000E+00  0.00000000E+00
  0.00000000E+00  0.00000000E+00  0.00000000E+00
  0.00000000E+00  0.00000000E+00  0.00000000E+00
  0.00000000E+00  0.00000000E+00  0.00000000E+00
  0.00000000E+00  0.00000000E+00  0.00000000E+00
  0.00000000E+00  0.00000000E+00  0.00000000E+00
  0.00000000E+00  0.00000000E+00  0.00000000E+00
  0.00000000E+00  0.00000000E+00  0.00000000E+00
  0.00000000E+00  0.00000000E+00  0.00000000E+00
  0.00000000E+00  0.00000000E+00  0.00000000E+00
  0.00000000E+00  0.00000000E+00  0.00000000E+00
  0.00000000E+00  0.00000000E+00  0.00000000E+00
  0.00000000E+00  0.00000000E+00  0.00000000E+00
  0.00000000E+00  0.00000000E+00  0.00000000E+00
  0.00000000E+00  0.00000000E+00  0.00000000E+00
  0.00000000E+00  0.00000000E+00  0.00000000E+00
  0.00000000E+00  0.00000000E+00  0.00000000E+00
  0.00000000E+00  0.00000000E+00  0.00000000E+00
  0.00000000E+00  0.00000000E+00  0.00000000E+00
  0.00000000E+00  0.00000000E+00  0.00000000E+00
  0.00000000E+00  0.00000000E+00  0.00000000E+00
  0.00000000E+00  0.00000000E+00  0.00000000E+00
  0.00000000E+00  0.00000000E+00  0.00000000E+00
  0.00000000E+00  0.00000000E+00  0.00000000E+00
  0.00000000E+00  0.00000000E+00  0.00000000E+00
  0.00000000E+00  0.00000000E+00  0.00000000E+00
  0.00000000E+00  0.00000000E+00  0.00000000E+00
  0.00000000E+00  0.00000000E+00  0.00000000E+00
  0.00000000E+00  0.00000000E+00  0.00000000E+00
  0.00000000E+00  0.00000000E+00  0.00000000E+00
  0.00000000E+00  0.00000000E+00  0.00000000E+00
  0.00000000E+00  0.00000000E+00  0.00000000E+00
  0.00000000E+00  0.00000000E+00  0.00000000E+00
  0.00000000E+00  0.00000000E+00  0.00000000E+00
  0.00000000E+00  0.00000000E+00  0.00000000E+00
  0.00000000E+00  0.00000000E+00  0.00000000E+00
  0.00000000E+00  0.00000000E+00  0.00000000E+00
  0.00000000E+00  0.00000000E+00  0.00000000E+00
  0.00000000E+00  0.00000000E+00  0.00000000E+00
  0.00000000E+00  0.00000000E+00  0.00000000E+00
  0.00000000E+00  0.00000000E+00  0.00000000E+00
  0.00000000E+00  0.00000000E+00  0.00000000E+00
  0.00000000E+00  0.00000000E+00  0.00000000E+00
  0.00000000E+00  0.00000000E+00  0.00000000E+00
  0.00000000E+00  0.00000000E+00  0.00000000E+00
  0.00000000E+00  0.00000000E+00  0.00000000E+00
  0.00000000E+00  0.00000000E+00  0.00000000E+00
  0.00000000E+00  0.00000000E+00  0.00000000E+00
  0.00000000E+00  0.00000000E+00  0.00000000E+00
  0.00000000E+00  0.00000000E+00  0.00000000E+00
  0.00000000E+00  0.00000000E+00  0.00000000E+00
  0.00000000E+00  0.00000000E+00  0.00000000E+00
  0.00000000E+00  0.00000000E+00  0.00000000E+00
  0.00000000E+00  0.00000000E+00  0.00000000E+00
  0.00000000E+00  0.00000000E+00  0.00000000E+00
  0.00000000E+00  0.00000000E+00  0.00000000E+00
  0.00000000E+00  0.00000000E+00  0.00000000E+00
  0.00000000E+00  0.00000000E+00  0.00000000E+00
  0.00000000E+00  0.00000000E+00  0.00000000E+00
  0.00000000E+00  0.00000000E+00  0.00000000E+00
  0.00000000E+00  0.00000000E+00  0.00000000E+00
  0.00000000E+00  0.00000000E+00  0.00000000E+00
  0.00000000E+00  0.00000000E+00  0.00000000E+00
  0.00000000E+00  0.00000000E+00  0.00000000E+00
  0.00000000E+00  0.00000000E+00  0.00000000E+00
  0.00000000E+00  0.00000000E+00  0.00000000E+00
  0.00000000E+00  0.00000000E+00  0.00000000E+00
  0.00000000E+00  0.00000000E+00  0.00000000E+00
