Sn+Ge
    1.000000000
   12.978400230    0.000000000    0.000000000
  -12.978400230   14.510293007    0.000000000
    0.000000000    0.000000000    6.210000038
Sn  Ge 
24     24
Direct
    0.979564309    0.030653533    0.000000013
    0.779564261    0.330653578    0.233660161
    0.579564154    0.630653620    0.467320323
    0.479564250    0.030653533    0.000000013
    0.279564202    0.330653578    0.233660161
    0.079564132    0.630653620    0.467320323
    0.254564315    0.680653512    0.116829842
    0.054564159    0.980653465    0.350490004
    0.854564130    0.280653596    0.584150076
    0.754564404    0.680653512    0.116829842
    0.554564238    0.980653465    0.350490004
    0.354564160    0.280653596    0.584150076
    0.229564279    0.530653477    0.000000000
    0.029564191    0.830653489    0.233660161
    0.829564035    0.130653620    0.467320323
    0.729564190    0.530653477    0.000000000
    0.529564142    0.830653489    0.233660161
    0.329564035    0.130653620    0.467320323
    0.004564330    0.180653512    0.116829857
    0.804564178    0.480653584    0.350490004
    0.604564250    0.780653656    0.584150076
    0.504564285    0.180653512    0.116829857
    0.304564178    0.480653584    0.350490004
    0.104564168    0.780653656    0.584150076
    0.973007262    0.903597474    0.584150136
    0.856340528    0.486930728    0.667320073
    0.739673793    0.070263982    0.750490069
    0.623006940    0.653597236    0.833660126
    0.506340265    0.236930609    0.916830063
    0.389673412    0.820263624    1.000000000
    0.473007262    0.153597444    0.584150136
    0.356340498    0.736930668    0.667320073
    0.239673749    0.320263982    0.750490069
    0.123006947    0.903597236    0.833660007
    0.006340192    0.486930490    0.916829944
    0.889673531    0.070263624    1.000000000
    0.473007262    0.403597444    0.584150195
    0.356340468    0.986930728    0.667320132
    0.239673704    0.570263982    0.750490069
    0.123006977    0.153597176    0.833660007
    0.006340250    0.736930490    0.916830063
    0.889673412    0.320263505    1.000000000
    0.973007202    0.653597474    0.584150195
    0.856340468    0.236930683    0.667320132
    0.739673734    0.820263922    0.750490069
    0.623006940    0.403597176    0.833660007
    0.506340206    0.986930490    0.916830063
    0.389673412    0.570263505    1.000000000
