Si+C
    1.000000000
   16.293001175    0.000000000    0.000000000
  -10.862000465   12.144085884    0.000000000
    0.000000000    0.000000000    7.994748592
Si  C  
36     84
Direct
    0.974358499    0.982905626    0.000000002
    0.674358428    0.782905579    0.151900828
    0.374358416    0.582905531    0.303801656
    0.307691783    0.982905626    0.000000002
    0.007691726    0.782905579    0.151900828
    0.707691669    0.582905531    0.303801656
    0.641025066    0.982905626    0.000000002
    0.341025025    0.782905579    0.151900828
    0.041024987    0.582905531    0.303801656
    0.157691970    0.632905602    0.075950265
    0.857691944    0.432905525    0.227851093
    0.557691932    0.232905507    0.379751921
    0.491025209    0.632905602    0.075950265
    0.191025153    0.432905525    0.227851093
    0.891025186    0.232905507    0.379751921
    0.824358463    0.632905602    0.075950265
    0.524358392    0.432905525    0.227851093
    0.224358499    0.232905507    0.379751921
    0.141025156    0.482905596    0.000000000
    0.841025114    0.282905489    0.151900828
    0.541025102    0.082905434    0.303801656
    0.474358439    0.482905596    0.000000000
    0.174358383    0.282905489    0.151900828
    0.874358356    0.082905434    0.303801656
    0.807691693    0.482905596    0.000000000
    0.507691681    0.282905489    0.151900828
    0.207691625    0.082905434    0.303801656
    0.991025209    0.132905662    0.075950272
    0.691025138    0.932905614    0.227851093
    0.391025186    0.732905567    0.379751921
    0.324358463    0.132905662    0.075950272
    0.024358414    0.932905614    0.227851093
    0.724358439    0.732905567    0.379751921
    0.657691658    0.132905662    0.075950272
    0.357691616    0.932905614    0.227851093
    0.057691652    0.732905567    0.379751921
    0.732822537    0.322014570    0.764696360
    0.961393952    0.379157066    0.565175235
    0.847108245    0.850585878    0.664935827
    0.589965343    0.036300182    0.764696360
    0.818536818    0.093442798    0.565175235
    0.704251051    0.564871550    0.664935827
    0.447108179    0.750585973    0.764696360
    0.675679624    0.807728589    0.565175235
    0.561393857    0.279157400    0.664935827
    0.304251105    0.464871645    0.764696360
    0.532822549    0.522014260    0.565175235
    0.418536812    0.993443072    0.664935827
    0.161393985    0.179157495    0.764696360
    0.389965415    0.236299992    0.565175235
    0.275679678    0.707728803    0.664935827
    0.018536806    0.893443167    0.764696360
    0.247108251    0.950585723    0.565175235
    0.132822514    0.422014475    0.664935827
    0.875679731    0.607728839    0.764696360
    0.104251146    0.664871454    0.565175235
    0.989965439    0.136300206    0.664935827
    0.782822609    0.772014558    0.814576626
    0.011394024    0.829157054    0.615055442
    0.897108376    0.300585985    0.714816034
    0.639965415    0.486300230    0.814576626
    0.868536770    0.543442965    0.615055442
    0.754251063    0.014871597    0.714816034
    0.497108340    0.200585604    0.814576626
    0.725679696    0.257728338    0.615055501
    0.611394048    0.729157031    0.714816034
    0.354251176    0.914871514    0.814576626
    0.582822561    0.972014129    0.615055501
    0.468536824    0.443442822    0.714816034
    0.211393967    0.629157245    0.814576626
    0.439965427    0.686299980    0.615055442
    0.325679660    0.157728672    0.714816034
    0.068536997    0.343443155    0.814576626
    0.297108382    0.400585890    0.615055442
    0.182822660    0.872014463    0.714816034
    0.925679684    0.057728529    0.814576626
    0.154251158    0.114871264    0.615055442
    0.039965391    0.586299896    0.714816034
    0.804251015    0.964871705    0.764696360
    0.032822609    0.022014380    0.565175235
    0.918536723    0.493443012    0.664935827
    0.661393821    0.679157436    0.764696360
    0.889965296    0.736300051    0.565175295
    0.775679529    0.207728744    0.664935827
    0.518536747    0.393443108    0.764696360
    0.747108221    0.450585604    0.565175235
    0.632822514    0.922014534    0.664935827
    0.375679612    0.107728720    0.764696360
    0.604251146    0.164871454    0.565175235
    0.489965349    0.636300147    0.664935827
    0.232822552    0.822014630    0.764696360
    0.461393982    0.879157186    0.565175235
    0.347108215    0.350585938    0.664935827
    0.089965343    0.536300182    0.764696360
    0.318536818    0.593442798    0.565175295
    0.204251140    0.064871550    0.664935827
    0.947108269    0.250585794    0.764696360
    0.175679684    0.307728529    0.565175295
    0.061394095    0.779157460    0.664935827
    0.854251146    0.414871454    0.814576626
    0.082822680    0.472014189    0.615055442
    0.968536854    0.943442762    0.714816034
    0.711394012    0.129157543    0.814576626
    0.939965308    0.186299920    0.615055442
    0.825679660    0.657728732    0.714816034
    0.568536878    0.843442738    0.814576626
    0.797108233    0.900585413    0.615055442
    0.682822526    0.372014046    0.714816034
    0.425679713    0.557728529    0.814576626
    0.654251158    0.614871204    0.615055442
    0.539965510    0.086299896    0.714816034
    0.282822579    0.272014380    0.814576626
    0.511394024    0.329157114    0.615055442
    0.397108316    0.800585687    0.714816034
    0.139965430    0.986300290    0.814576626
    0.368536860    0.043442965    0.615055442
    0.254251152    0.514871597    0.714816034
    0.997108400    0.700585783    0.814576626
    0.225679815    0.757728279    0.615055442
    0.111394167    0.229157209    0.714815974
