Si+C                                    
   1.00000000000000     
    16.2930011750000006    0.0000000000000000    0.0000000000000000
   -10.8620004649999995   12.1440858840000008    0.0000000000000000
     0.0000000000000000    0.0000000000000000    7.0064740179999996
   Si   C 
    36    84
Direct
  0.9743584989999974  0.9829056259999973  0.0000000020000002
  0.6743584279999979  0.7829055790000012  0.1733267010000006
  0.3743584159999997  0.5829055310000015  0.3466534020000012
  0.3076917830000028  0.9829056259999973  0.0000000020000002
  0.0076917259999973  0.7829055790000012  0.1733267010000006
  0.7076916689999990  0.5829055310000015  0.3466534020000012
  0.6410250659999974  0.9829056259999973  0.0000000020000002
  0.3410250250000004  0.7829055790000012  0.1733267010000006
  0.0410249870000001  0.5829055310000015  0.3466534020000012
  0.1576919700000019  0.6329056020000010  0.0866631720000015
  0.8576919440000026  0.4329055250000025  0.2599898870000033
  0.5576919319999973  0.2329055069999981  0.4333165290000025
  0.4910252090000000  0.6329056020000010  0.0866631720000015
  0.1910251529999982  0.4329055250000025  0.2599898870000033
  0.8910251860000002  0.2329055069999981  0.4333165290000025
  0.8243584630000029  0.6329056020000010  0.0866631720000015
  0.5243583920000034  0.4329055250000025  0.2599898870000033
  0.2243584989999974  0.2329055069999981  0.4333165290000025
  0.1410251559999978  0.4829055960000019  0.0000000000000000
  0.8410251139999971  0.2829054890000009  0.1733267010000006
  0.5410251019999990  0.0829054339999971  0.3466534020000012
  0.4743584389999995  0.4829055960000019  0.0000000000000000
  0.1743583829999977  0.2829054890000009  0.1733267010000006
  0.8743583560000019  0.0829054339999971  0.3466534020000012
  0.8076916930000024  0.4829055960000019  0.0000000000000000
  0.5076916809999972  0.2829054890000009  0.1733267010000006
  0.2076916250000025  0.0829054339999971  0.3466534020000012
  0.9910252090000000  0.1329056619999989  0.0866631789999985
  0.6910251380000005  0.9329056139999992  0.2599898870000033
  0.3910251860000002  0.7329055670000031  0.4333165290000025
  0.3243584630000029  0.1329056619999989  0.0866631789999985
  0.0243584139999982  0.9329056139999992  0.2599898870000033
  0.7243584389999995  0.7329055670000031  0.4333165290000025
  0.6576916579999974  0.1329056619999989  0.0866631789999985
  0.3576916159999968  0.9329056139999992  0.2599898870000033
  0.0576916520000026  0.7329055670000031  0.4333165290000025
  0.3087654110000031  0.7069571019999970  0.5743682980000031
  0.5516226290000006  0.6783857349999991  0.6882002950000015
  0.7944798469999981  0.6498141289999992  0.8020323510000011
  0.5944796799999992  0.8498142959999981  0.5743682980000031
  0.8373368979999967  0.8212428089999975  0.6882002950000015
  0.0801941160000013  0.7926713230000004  0.8020323510000011
  0.8801938889999974  0.9926713710000001  0.5743682980000031
  0.1230511669999999  0.9640998839999995  0.6882002950000015
  0.3659084439999987  0.9355284569999966  0.8020323510000011
  0.1659083369999976  0.1355285639999977  0.5743682980000031
  0.4087654949999973  0.1069570780000006  0.6882002950000015
  0.6516228320000010  0.0783855919999965  0.8020323510000011
  0.4516225460000030  0.2783856389999997  0.5743682980000031
  0.6944797640000004  0.2498142720000018  0.6882002950000015
  0.9373369810000014  0.2212427850000012  0.8020323510000011
  0.7373368740000004  0.4212429520000001  0.5743682980000031
  0.9801940919999979  0.3926713469999967  0.6882002950000015
  0.2230513100000024  0.3640999790000023  0.8020323510000011
  0.0230510230000007  0.5641000270000021  0.5743682980000031
  0.2659082409999982  0.5355284210000022  0.6882002950000015
  0.5087655190000007  0.5069570539999972  0.8020323510000011
  0.1444795130000003  0.7998142840000000  0.6312842370000027
  0.3873369100000019  0.7712427969999993  0.7451161740000032
  0.6301941279999994  0.7426713110000023  0.8589482309999994
  0.4301937820000035  0.9426714180000033  0.6312841769999977
  0.6730510590000023  0.9140999319999992  0.7451162930000024
  0.9159082769999998  0.8855284449999985  0.8589482309999994
  0.7159081699999987  0.0855286119999974  0.6312841769999977
  0.9587653880000033  0.0569571260000004  0.7451162930000024
  0.2016227250000000  0.0283856389999997  0.8589482309999994
  0.0016224379999983  0.2283856869999994  0.6312841769999977
  0.2444797750000021  0.1998141999999987  0.7451162930000024
  0.4873370529999974  0.1712428330000009  0.8589482309999994
  0.2873366480000001  0.3712428810000006  0.6312841769999977
  0.5301939849999968  0.3426713939999999  0.7451162930000024
  0.7730510829999986  0.3140999080000029  0.8589482309999994
  0.5730510949999967  0.5141000750000018  0.6312842370000027
  0.8159083720000027  0.4855284690000019  0.7451162930000024
  0.0587656499999980  0.4569571019999970  0.8589482309999994
  0.8587652439999971  0.6569571499999967  0.6312842370000027
  0.1016224620000017  0.6283856630000031  0.7451162930000024
  0.3444797399999970  0.5998141769999989  0.8589482309999994
  0.9516226650000021  0.7783857579999989  0.5743682980000031
  0.1944797040000026  0.7498142119999969  0.6882002950000015
  0.4373371009999971  0.7212427850000012  0.8020323510000011
  0.2373369929999996  0.9212428929999987  0.5743682980000031
  0.4801941509999992  0.8926713469999967  0.6882002950000015
  0.7230512499999975  0.8640998600000032  0.8020323510000011
  0.5230511430000035  0.0641000270000021  0.5743682980000031
  0.7659083599999974  0.0355285409999979  0.6882002950000015
  0.0087655780000020  0.0069570539999972  0.8020323510000011
  0.8087653520000018  0.2069571019999970  0.5743682980000031
  0.0516226290000006  0.1783857349999991  0.6882002950000015
  0.2944799070000030  0.1498142479999984  0.8020323510000011
  0.0944796799999992  0.3498142959999981  0.5743682980000031
  0.3373369569999980  0.3212428089999975  0.6882002950000015
  0.5801940560000034  0.2926713230000004  0.8020323510000011
  0.3801939490000024  0.4926714899999993  0.5743682980000031
  0.6230511669999999  0.4641001219999978  0.6882003549999993
  0.8659085039999965  0.4355285170000016  0.8020323510000011
  0.6659082170000019  0.6355285639999977  0.5743682980000031
  0.9087654349999994  0.6069571969999998  0.6882003549999993
  0.1516227720000032  0.5783857110000028  0.8020323510000011
  0.5016225580000011  0.7283857460000007  0.6312841769999977
  0.7444797750000021  0.6998141999999987  0.7451162930000024
  0.9873371119999987  0.6712427140000017  0.8589482309999994
  0.7873367070000015  0.8712428810000006  0.6312841769999977
  0.0301940439999981  0.8426713939999999  0.7451162930000024
  0.2730512620000027  0.8140999080000029  0.8589482309999994
  0.0730509759999975  0.0140999560000026  0.6312841769999977
  0.3159083720000027  0.9855285880000011  0.7451162930000024
  0.5587655900000001  0.9569571019999970  0.8589482309999994
  0.3587651850000029  0.1569571499999967  0.6312841769999977
  0.6016225219999995  0.1283856630000031  0.7451161740000032
  0.8444797399999970  0.0998141769999989  0.8589482309999994
  0.6444796319999995  0.2998142240000021  0.6312841769999977
  0.8873369690000033  0.2712427379999980  0.7451162930000024
  0.1301941870000007  0.2426712509999973  0.8589482309999994
  0.9301939610000005  0.4426714180000033  0.6312841769999977
  0.1730512379999993  0.4140999319999992  0.7451162930000024
  0.4159085149999981  0.3855285639999977  0.8589482309999994
  0.2159080509999995  0.5855286119999974  0.6312841769999977
  0.4587654469999976  0.5569571260000004  0.7451162930000024
  0.7016226650000021  0.5283856389999997  0.8589482309999994
 
  0.00000000E+00  0.00000000E+00  0.00000000E+00
  0.00000000E+00  0.00000000E+00  0.00000000E+00
  0.00000000E+00  0.00000000E+00  0.00000000E+00
  0.00000000E+00  0.00000000E+00  0.00000000E+00
  0.00000000E+00  0.00000000E+00  0.00000000E+00
  0.00000000E+00  0.00000000E+00  0.00000000E+00
  0.00000000E+00  0.00000000E+00  0.00000000E+00
  0.00000000E+00  0.00000000E+00  0.00000000E+00
  0.00000000E+00  0.00000000E+00  0.00000000E+00
  0.00000000E+00  0.00000000E+00  0.00000000E+00
  0.00000000E+00  0.00000000E+00  0.00000000E+00
  0.00000000E+00  0.00000000E+00  0.00000000E+00
  0.00000000E+00  0.00000000E+00  0.00000000E+00
  0.00000000E+00  0.00000000E+00  0.00000000E+00
  0.00000000E+00  0.00000000E+00  0.00000000E+00
  0.00000000E+00  0.00000000E+00  0.00000000E+00
  0.00000000E+00  0.00000000E+00  0.00000000E+00
  0.00000000E+00  0.00000000E+00  0.00000000E+00
  0.00000000E+00  0.00000000E+00  0.00000000E+00
  0.00000000E+00  0.00000000E+00  0.00000000E+00
  0.00000000E+00  0.00000000E+00  0.00000000E+00
  0.00000000E+00  0.00000000E+00  0.00000000E+00
  0.00000000E+00  0.00000000E+00  0.00000000E+00
  0.00000000E+00  0.00000000E+00  0.00000000E+00
  0.00000000E+00  0.00000000E+00  0.00000000E+00
  0.00000000E+00  0.00000000E+00  0.00000000E+00
  0.00000000E+00  0.00000000E+00  0.00000000E+00
  0.00000000E+00  0.00000000E+00  0.00000000E+00
  0.00000000E+00  0.00000000E+00  0.00000000E+00
  0.00000000E+00  0.00000000E+00  0.00000000E+00
  0.00000000E+00  0.00000000E+00  0.00000000E+00
  0.00000000E+00  0.00000000E+00  0.00000000E+00
  0.00000000E+00  0.00000000E+00  0.00000000E+00
  0.00000000E+00  0.00000000E+00  0.00000000E+00
  0.00000000E+00  0.00000000E+00  0.00000000E+00
  0.00000000E+00  0.00000000E+00  0.00000000E+00
  0.00000000E+00  0.00000000E+00  0.00000000E+00
  0.00000000E+00  0.00000000E+00  0.00000000E+00
  0.00000000E+00  0.00000000E+00  0.00000000E+00
  0.00000000E+00  0.00000000E+00  0.00000000E+00
  0.00000000E+00  0.00000000E+00  0.00000000E+00
  0.00000000E+00  0.00000000E+00  0.00000000E+00
  0.00000000E+00  0.00000000E+00  0.00000000E+00
  0.00000000E+00  0.00000000E+00  0.00000000E+00
  0.00000000E+00  0.00000000E+00  0.00000000E+00
  0.00000000E+00  0.00000000E+00  0.00000000E+00
  0.00000000E+00  0.00000000E+00  0.00000000E+00
  0.00000000E+00  0.00000000E+00  0.00000000E+00
  0.00000000E+00  0.00000000E+00  0.00000000E+00
  0.00000000E+00  0.00000000E+00  0.00000000E+00
  0.00000000E+00  0.00000000E+00  0.00000000E+00
  0.00000000E+00  0.00000000E+00  0.00000000E+00
  0.00000000E+00  0.00000000E+00  0.00000000E+00
  0.00000000E+00  0.00000000E+00  0.00000000E+00
  0.00000000E+00  0.00000000E+00  0.00000000E+00
  0.00000000E+00  0.00000000E+00  0.00000000E+00
  0.00000000E+00  0.00000000E+00  0.00000000E+00
  0.00000000E+00  0.00000000E+00  0.00000000E+00
  0.00000000E+00  0.00000000E+00  0.00000000E+00
  0.00000000E+00  0.00000000E+00  0.00000000E+00
  0.00000000E+00  0.00000000E+00  0.00000000E+00
  0.00000000E+00  0.00000000E+00  0.00000000E+00
  0.00000000E+00  0.00000000E+00  0.00000000E+00
  0.00000000E+00  0.00000000E+00  0.00000000E+00
  0.00000000E+00  0.00000000E+00  0.00000000E+00
  0.00000000E+00  0.00000000E+00  0.00000000E+00
  0.00000000E+00  0.00000000E+00  0.00000000E+00
  0.00000000E+00  0.00000000E+00  0.00000000E+00
  0.00000000E+00  0.00000000E+00  0.00000000E+00
  0.00000000E+00  0.00000000E+00  0.00000000E+00
  0.00000000E+00  0.00000000E+00  0.00000000E+00
  0.00000000E+00  0.00000000E+00  0.00000000E+00
  0.00000000E+00  0.00000000E+00  0.00000000E+00
  0.00000000E+00  0.00000000E+00  0.00000000E+00
  0.00000000E+00  0.00000000E+00  0.00000000E+00
  0.00000000E+00  0.00000000E+00  0.00000000E+00
  0.00000000E+00  0.00000000E+00  0.00000000E+00
  0.00000000E+00  0.00000000E+00  0.00000000E+00
  0.00000000E+00  0.00000000E+00  0.00000000E+00
  0.00000000E+00  0.00000000E+00  0.00000000E+00
  0.00000000E+00  0.00000000E+00  0.00000000E+00
  0.00000000E+00  0.00000000E+00  0.00000000E+00
  0.00000000E+00  0.00000000E+00  0.00000000E+00
  0.00000000E+00  0.00000000E+00  0.00000000E+00
  0.00000000E+00  0.00000000E+00  0.00000000E+00
  0.00000000E+00  0.00000000E+00  0.00000000E+00
  0.00000000E+00  0.00000000E+00  0.00000000E+00
  0.00000000E+00  0.00000000E+00  0.00000000E+00
  0.00000000E+00  0.00000000E+00  0.00000000E+00
  0.00000000E+00  0.00000000E+00  0.00000000E+00
  0.00000000E+00  0.00000000E+00  0.00000000E+00
  0.00000000E+00  0.00000000E+00  0.00000000E+00
  0.00000000E+00  0.00000000E+00  0.00000000E+00
  0.00000000E+00  0.00000000E+00  0.00000000E+00
  0.00000000E+00  0.00000000E+00  0.00000000E+00
  0.00000000E+00  0.00000000E+00  0.00000000E+00
  0.00000000E+00  0.00000000E+00  0.00000000E+00
  0.00000000E+00  0.00000000E+00  0.00000000E+00
  0.00000000E+00  0.00000000E+00  0.00000000E+00
  0.00000000E+00  0.00000000E+00  0.00000000E+00
  0.00000000E+00  0.00000000E+00  0.00000000E+00
  0.00000000E+00  0.00000000E+00  0.00000000E+00
  0.00000000E+00  0.00000000E+00  0.00000000E+00
  0.00000000E+00  0.00000000E+00  0.00000000E+00
  0.00000000E+00  0.00000000E+00  0.00000000E+00
  0.00000000E+00  0.00000000E+00  0.00000000E+00
  0.00000000E+00  0.00000000E+00  0.00000000E+00
  0.00000000E+00  0.00000000E+00  0.00000000E+00
  0.00000000E+00  0.00000000E+00  0.00000000E+00
  0.00000000E+00  0.00000000E+00  0.00000000E+00
  0.00000000E+00  0.00000000E+00  0.00000000E+00
  0.00000000E+00  0.00000000E+00  0.00000000E+00
  0.00000000E+00  0.00000000E+00  0.00000000E+00
  0.00000000E+00  0.00000000E+00  0.00000000E+00
  0.00000000E+00  0.00000000E+00  0.00000000E+00
  0.00000000E+00  0.00000000E+00  0.00000000E+00
  0.00000000E+00  0.00000000E+00  0.00000000E+00
  0.00000000E+00  0.00000000E+00  0.00000000E+00
  0.00000000E+00  0.00000000E+00  0.00000000E+00
  0.00000000E+00  0.00000000E+00  0.00000000E+00
