Si+C
    1.000000000
   16.293001175    0.000000000    0.000000000
  -10.862000465   12.144085884    0.000000000
    0.000000000    0.000000000    7.006474018
Si  C  
36     84
Direct
    0.974358499    0.982905626    0.000000002
    0.674358428    0.782905579    0.173326701
    0.374358416    0.582905531    0.346653402
    0.307691783    0.982905626    0.000000002
    0.007691726    0.782905579    0.173326701
    0.707691669    0.582905531    0.346653402
    0.641025066    0.982905626    0.000000002
    0.341025025    0.782905579    0.173326701
    0.041024987    0.582905531    0.346653402
    0.157691970    0.632905602    0.086663172
    0.857691944    0.432905525    0.259989887
    0.557691932    0.232905507    0.433316529
    0.491025209    0.632905602    0.086663172
    0.191025153    0.432905525    0.259989887
    0.891025186    0.232905507    0.433316529
    0.824358463    0.632905602    0.086663172
    0.524358392    0.432905525    0.259989887
    0.224358499    0.232905507    0.433316529
    0.141025156    0.482905596    0.000000000
    0.841025114    0.282905489    0.173326701
    0.541025102    0.082905434    0.346653402
    0.474358439    0.482905596    0.000000000
    0.174358383    0.282905489    0.173326701
    0.874358356    0.082905434    0.346653402
    0.807691693    0.482905596    0.000000000
    0.507691681    0.282905489    0.173326701
    0.207691625    0.082905434    0.346653402
    0.991025209    0.132905662    0.086663179
    0.691025138    0.932905614    0.259989887
    0.391025186    0.732905567    0.433316529
    0.324358463    0.132905662    0.086663179
    0.024358414    0.932905614    0.259989887
    0.724358439    0.732905567    0.433316529
    0.657691658    0.132905662    0.086663179
    0.357691616    0.932905614    0.259989887
    0.057691652    0.732905567    0.433316529
    0.308765411    0.706957102    0.574368298
    0.551622629    0.678385735    0.688200295
    0.794479847    0.649814129    0.802032351
    0.594479680    0.849814296    0.574368298
    0.837336898    0.821242809    0.688200295
    0.080194116    0.792671323    0.802032351
    0.880193889    0.992671371    0.574368298
    0.123051167    0.964099884    0.688200295
    0.365908444    0.935528457    0.802032351
    0.165908337    0.135528564    0.574368298
    0.408765495    0.106957078    0.688200295
    0.651622832    0.078385592    0.802032351
    0.451622546    0.278385639    0.574368298
    0.694479764    0.249814272    0.688200295
    0.937336981    0.221242785    0.802032351
    0.737336874    0.421242952    0.574368298
    0.980194092    0.392671347    0.688200295
    0.223051310    0.364099979    0.802032351
    0.023051023    0.564100027    0.574368298
    0.265908241    0.535528421    0.688200295
    0.508765519    0.506957054    0.802032351
    0.144479513    0.799814284    0.631284237
    0.387336910    0.771242797    0.745116174
    0.630194128    0.742671311    0.858948231
    0.430193782    0.942671418    0.631284177
    0.673051059    0.914099932    0.745116293
    0.915908277    0.885528445    0.858948231
    0.715908170    0.085528612    0.631284177
    0.958765388    0.056957126    0.745116293
    0.201622725    0.028385639    0.858948231
    0.001622438    0.228385687    0.631284177
    0.244479775    0.199814200    0.745116293
    0.487337053    0.171242833    0.858948231
    0.287336648    0.371242881    0.631284177
    0.530193985    0.342671394    0.745116293
    0.773051083    0.314099908    0.858948231
    0.573051095    0.514100075    0.631284237
    0.815908372    0.485528469    0.745116293
    0.058765650    0.456957102    0.858948231
    0.858765244    0.656957150    0.631284237
    0.101622462    0.628385663    0.745116293
    0.344479740    0.599814177    0.858948231
    0.951622665    0.778385758    0.574368298
    0.194479704    0.749814212    0.688200295
    0.437337101    0.721242785    0.802032351
    0.237336993    0.921242893    0.574368298
    0.480194151    0.892671347    0.688200295
    0.723051250    0.864099860    0.802032351
    0.523051143    0.064100027    0.574368298
    0.765908360    0.035528541    0.688200295
    0.008765578    0.006957054    0.802032351
    0.808765352    0.206957102    0.574368298
    0.051622629    0.178385735    0.688200295
    0.294479907    0.149814248    0.802032351
    0.094479680    0.349814296    0.574368298
    0.337336957    0.321242809    0.688200295
    0.580194056    0.292671323    0.802032351
    0.380193949    0.492671490    0.574368298
    0.623051167    0.464100122    0.688200355
    0.865908504    0.435528517    0.802032351
    0.665908217    0.635528564    0.574368298
    0.908765435    0.606957197    0.688200355
    0.151622772    0.578385711    0.802032351
    0.501622558    0.728385746    0.631284177
    0.744479775    0.699814200    0.745116293
    0.987337112    0.671242714    0.858948231
    0.787336707    0.871242881    0.631284177
    0.030194044    0.842671394    0.745116293
    0.273051262    0.814099908    0.858948231
    0.073050976    0.014099956    0.631284177
    0.315908372    0.985528588    0.745116293
    0.558765590    0.956957102    0.858948231
    0.358765185    0.156957150    0.631284177
    0.601622522    0.128385663    0.745116174
    0.844479740    0.099814177    0.858948231
    0.644479632    0.299814224    0.631284177
    0.887336969    0.271242738    0.745116293
    0.130194187    0.242671251    0.858948231
    0.930193961    0.442671418    0.631284177
    0.173051238    0.414099932    0.745116293
    0.415908515    0.385528564    0.858948231
    0.215908051    0.585528612    0.631284177
    0.458765447    0.556957126    0.745116293
    0.701622665    0.528385639    0.858948231
