Ge+Si
    1.000000000
   16.973400116    0.000000000    0.000000000
    0.000000000   16.973400116    0.000000000
    0.000000000    0.000000000   17.861000061
Ge  Si 
108     120
Direct
    0.994305491    0.666666567    0.000000000
    0.827638865    0.666666567    0.158384174
    0.660972118    0.666666567    0.316768378
    0.994305491    0.333333284    0.000000000
    0.827638865    0.333333284    0.158384174
    0.660972118    0.333333284    0.316768378
    0.994305491    0.000000000    0.000000000
    0.827638865    0.000000000    0.158384174
    0.660972118    0.000000000    0.316768378
    0.327638805    0.666666567    0.000000000
    0.160972148    0.666666567    0.158384174
    0.994305432    0.666666567    0.316768378
    0.327638805    0.333333284    0.000000000
    0.160972148    0.333333284    0.158384174
    0.994305432    0.333333284    0.316768378
    0.327638805    0.000000000    0.000000000
    0.160972148    0.000000000    0.158384174
    0.994305432    0.000000000    0.316768378
    0.660972118    0.666666567    0.000000000
    0.494305432    0.666666567    0.158384174
    0.327638745    0.666666567    0.316768378
    0.660972118    0.333333284    0.000000000
    0.494305432    0.333333284    0.158384174
    0.327638745    0.333333284    0.316768378
    0.660972118    0.000000000    0.000000000
    0.494305432    0.000000000    0.158384174
    0.327638745    0.000000000    0.316768378
    0.077638842    0.916666567    0.079192095
    0.910972118    0.916666567    0.237576291
    0.744305491    0.916666567    0.395960480
    0.077638842    0.583333313    0.079192095
    0.910972118    0.583333313    0.237576291
    0.744305491    0.583333313    0.395960480
    0.077638842    0.249999955    0.079192095
    0.910972118    0.249999955    0.237576291
    0.744305491    0.249999955    0.395960480
    0.410972089    0.916666567    0.079192095
    0.244305417    0.916666567    0.237576291
    0.077638723    0.916666567    0.395960480
    0.410972089    0.583333313    0.079192095
    0.244305417    0.583333313    0.237576291
    0.077638723    0.583333313    0.395960480
    0.410972089    0.249999955    0.079192095
    0.244305417    0.249999955    0.237576291
    0.077638723    0.249999955    0.395960480
    0.744305491    0.916666567    0.079192095
    0.577638745    0.916666567    0.237576291
    0.410972059    0.916666567    0.395960480
    0.744305491    0.583333313    0.079192095
    0.577638745    0.583333313    0.237576291
    0.410972059    0.583333313    0.395960480
    0.744305491    0.249999955    0.079192095
    0.577638745    0.249999955    0.237576291
    0.410972059    0.249999955    0.395960480
    0.160972163    0.833333194    0.000000000
    0.994305491    0.833333194    0.158384174
    0.827638805    0.833333194    0.316768378
    0.160972163    0.499999911    0.000000000
    0.994305491    0.499999911    0.158384174
    0.827638805    0.499999911    0.316768378
    0.160972163    0.166666642    0.000000000
    0.994305491    0.166666642    0.158384174
    0.827638805    0.166666642    0.316768378
    0.494305432    0.833333194    0.000000000
    0.327638745    0.833333194    0.158384174
    0.160972074    0.833333194    0.316768378
    0.494305432    0.499999911    0.000000000
    0.327638745    0.499999911    0.158384174
    0.160972074    0.499999911    0.316768378
    0.494305432    0.166666642    0.000000000
    0.327638745    0.166666642    0.158384174
    0.160972074    0.166666642    0.316768378
    0.827638805    0.833333194    0.000000000
    0.660972118    0.833333194    0.158384174
    0.494305432    0.833333194    0.316768378
    0.827638805    0.499999911    0.000000000
    0.660972118    0.499999911    0.158384174
    0.494305432    0.499999911    0.316768378
    0.827638805    0.166666642    0.000000000
    0.660972118    0.166666642    0.158384174
    0.494305432    0.166666642    0.316768378
    0.244305462    0.749999881    0.079192095
    0.077638783    0.749999881    0.237576291
    0.910972118    0.749999881    0.395960480
    0.244305462    0.416666627    0.079192095
    0.077638783    0.416666627    0.237576291
    0.910972118    0.416666627    0.395960480
    0.244305462    0.083333328    0.079192095
    0.077638783    0.083333328    0.237576291
    0.910972118    0.083333328    0.395960480
    0.577638865    0.749999881    0.079192095
    0.410972148    0.749999881    0.237576291
    0.244305447    0.749999881    0.395960480
    0.577638865    0.416666627    0.079192095
    0.410972148    0.416666627    0.237576291
    0.244305447    0.416666627    0.395960480
    0.577638865    0.083333328    0.079192095
    0.410972148    0.083333328    0.237576291
    0.244305447    0.083333328    0.395960480
    0.910972178    0.749999881    0.079192095
    0.744305491    0.749999881    0.237576291
    0.577638745    0.749999881    0.395960480
    0.910972178    0.416666627    0.079192095
    0.744305491    0.416666627    0.237576291
    0.577638745    0.416666627    0.395960480
    0.910972178    0.083333328    0.079192095
    0.744305491    0.083333328    0.237576291
    0.577638745    0.083333328    0.395960480
    0.741966486    0.247020006    0.507936299
    0.691966534    0.897019982    0.659971476
    0.641966343    0.547019839    0.812006712
    0.841966510    0.947020054    0.507936299
    0.791966498    0.597020030    0.659971476
    0.741966367    0.247019887    0.812006712
    0.941966534    0.647019982    0.507936299
    0.891966462    0.297019958    0.659971476
    0.841966391    0.947019815    0.812006712
    0.041966558    0.347020000    0.507936299
    0.991966426    0.997020006    0.659971476
    0.941966355    0.647019744    0.812006712
    0.141966581    0.047020078    0.507936299
    0.091966510    0.697019935    0.659971476
    0.041966438    0.347019792    0.812006712
    0.241966486    0.747020006    0.507936299
    0.191966414    0.397019953    0.659971476
    0.141966343    0.047019839    0.812006712
    0.341966510    0.447019994    0.507936299
    0.291966438    0.097019911    0.659971476
    0.241966367    0.747019768    0.812006712
    0.441966653    0.147020102    0.507936299
    0.391966581    0.797019958    0.659971476
    0.341966510    0.447019875    0.812006712
    0.541966558    0.847020030    0.507936299
    0.491966486    0.497019947    0.659971476
    0.441966414    0.147019863    0.812006712
    0.641966581    0.547020078    0.507936299
    0.591966629    0.197019935    0.659971476
    0.541966438    0.847019792    0.812006712
    0.741966486    0.497020006    0.583953917
    0.691966414    0.147019863    0.735989094
    0.641966343    0.797019839    0.888024211
    0.841966510    0.197019935    0.583953917
    0.791966438    0.847019911    0.735989094
    0.741966367    0.497019738    0.888024211
    0.941966534    0.897019982    0.583953917
    0.891966462    0.547019899    0.735989094
    0.841966391    0.197019815    0.888024211
    0.041966558    0.597019970    0.583953917
    0.991966486    0.247019887    0.735989094
    0.941966414    0.897019863    0.888024211
    0.141966581    0.297019988    0.583953917
    0.091966391    0.947019935    0.735989094
    0.041966438    0.597019792    0.888024211
    0.241966605    0.997020006    0.583953917
    0.191966534    0.647019923    0.735989094
    0.141966462    0.297019869    0.888024211
    0.341966510    0.697019935    0.583953917
    0.291966438    0.347019851    0.735989094
    0.241966367    0.997019768    0.888024211
    0.441966653    0.397020012    0.583953917
    0.391966581    0.047019958    0.735989094
    0.341966510    0.697019815    0.888024211
    0.541966677    0.097020030    0.583953917
    0.491966486    0.747019887    0.735989094
    0.441966534    0.397019833    0.888024211
    0.641966581    0.797019958    0.583953917
    0.591966510    0.447019875    0.735989094
    0.541966438    0.097019792    0.888024211
    0.741966486    0.747020006    0.507936299
    0.691966534    0.397019953    0.659971476
    0.641966343    0.047019839    0.812006712
    0.841966510    0.447019994    0.507936299
    0.791966438    0.097019911    0.659971476
    0.741966367    0.747019768    0.812006712
    0.941966534    0.147019982    0.507936299
    0.891966462    0.797019958    0.659971476
    0.841966391    0.447019786    0.812006712
    0.041966558    0.847020030    0.507936299
    0.991966486    0.497019947    0.659971476
    0.941966414    0.147019863    0.812006712
    0.141966581    0.547020018    0.507936299
    0.091966510    0.197019935    0.659971476
    0.041966438    0.847019792    0.812006712
    0.241966486    0.247020006    0.507936299
    0.191966534    0.897019863    0.659971476
    0.141966343    0.547019720    0.812006712
    0.341966510    0.947020054    0.507936299
    0.291966438    0.597019911    0.659971476
    0.241966367    0.247019768    0.812006712
    0.441966534    0.647019982    0.507936299
    0.391966462    0.297019899    0.659971476
    0.341966391    0.947019815    0.812006712
    0.541966558    0.347019970    0.507936299
    0.491966486    0.997019887    0.659971476
    0.441966414    0.647019744    0.812006712
    0.641966581    0.047020078    0.507936299
    0.591966629    0.697019935    0.659971476
    0.541966438    0.347019821    0.812006712
    0.741966486    0.997020125    0.583953917
    0.691966414    0.647019982    0.735989094
    0.641966343    0.297019899    0.888024211
    0.841966510    0.697020054    0.583953917
    0.791966438    0.347019911    0.735989094
    0.741966367    0.997019887    0.888024211
    0.941966534    0.397020012    0.583953917
    0.891966462    0.047019958    0.735989094
    0.841966391    0.697019815    0.888024211
    0.041966558    0.097020030    0.583953917
    0.991966486    0.747019887    0.735989094
    0.941966414    0.397019833    0.888024211
    0.141966581    0.797020078    0.583953917
    0.091966510    0.447019994    0.735989094
    0.041966438    0.097019911    0.888024211
    0.241966486    0.497020006    0.583953917
    0.191966534    0.147019863    0.735989094
    0.141966343    0.797019839    0.888024211
    0.341966629    0.197020054    0.583953917
    0.291966438    0.847019911    0.735989094
    0.241966486    0.497019857    0.888024211
    0.441966534    0.897020102    0.583953917
    0.391966581    0.547019958    0.735989094
    0.341966391    0.197019935    0.888024211
    0.541966438    0.597019970    0.583953917
    0.491966486    0.247019887    0.735989094
    0.441966295    0.897019863    0.888024211
    0.641966581    0.297019988    0.583953917
    0.591966391    0.947019935    0.735989094
    0.541966438    0.597019792    0.888024211
