Si+Sn
    1.000000000
   13.303179741    0.000000000    0.000000000
  -13.303178787    9.406767845    0.000000000
    0.000000000    0.000000000   21.072139740
Si  Sn 
72     48
Direct
    0.978517294    0.000000000    0.000000002
    0.728517234    0.999999940    0.091122635
    0.478517175    0.999999881    0.182245255
    0.228517234    0.999999821    0.273367822
    0.978517175    0.999999762    0.364490479
    0.728517175    0.999999702    0.455613106
    0.978517294    0.333333373    0.000000002
    0.728517234    0.333333284    0.091122635
    0.478517175    0.333333224    0.182245255
    0.228517234    0.333333164    0.273367822
    0.978517175    0.333333015    0.364490479
    0.728517175    0.333333045    0.455613106
    0.978517294    0.666666746    0.000000002
    0.728517234    0.666666687    0.091122635
    0.478517175    0.666666627    0.182245255
    0.228517234    0.666666627    0.273367822
    0.978517175    0.666666508    0.364490479
    0.728517175    0.666666448    0.455613106
    0.478517294    0.000000000    0.000000003
    0.228517249    0.999999940    0.091122635
    0.978517234    0.999999881    0.182245255
    0.728517294    0.999999821    0.273367822
    0.478517175    0.999999762    0.364490479
    0.228517115    0.999999642    0.455613106
    0.478517294    0.333333343    0.000000003
    0.228517249    0.333333284    0.091122635
    0.978517234    0.333333224    0.182245255
    0.728517294    0.333333164    0.273367822
    0.478517175    0.333333105    0.364490479
    0.228517115    0.333332956    0.455613106
    0.478517294    0.666666746    0.000000003
    0.228517249    0.666666627    0.091122635
    0.978517234    0.666666567    0.182245255
    0.728517294    0.666666567    0.273367822
    0.478517175    0.666666329    0.364490479
    0.228517115    0.666666329    0.455613106
    0.728517354    0.083333306    0.000000003
    0.478517294    0.083333269    0.091122620
    0.228517264    0.083333209    0.182245255
    0.978517294    0.083333127    0.273367822
    0.728517234    0.083333097    0.364490479
    0.478517234    0.083333038    0.455613077
    0.728517354    0.416666657    0.000000003
    0.478517294    0.416666627    0.091122620
    0.228517264    0.416666567    0.182245255
    0.978517294    0.416666508    0.273367822
    0.728517234    0.416666418    0.364490479
    0.478517234    0.416666359    0.455613077
    0.728517354    0.750000000    0.000000003
    0.478517294    0.750000000    0.091122620
    0.228517264    0.749999940    0.182245255
    0.978517294    0.749999881    0.273367822
    0.728517234    0.749999762    0.364490479
    0.478517234    0.749999702    0.455613077
    0.228517294    0.083333336    0.000000000
    0.978517234    0.083333276    0.091122635
    0.728517175    0.083333187    0.182245255
    0.478517294    0.083333157    0.273367822
    0.228517175    0.083333097    0.364490479
    0.978517056    0.083333015    0.455613106
    0.228517294    0.416666716    0.000000000
    0.978517234    0.416666627    0.091122635
    0.728517175    0.416666567    0.182245255
    0.478517294    0.416666538    0.273367822
    0.228517175    0.416666478    0.364490479
    0.978517056    0.416666389    0.455613106
    0.228517294    0.750000000    0.000000000
    0.978517234    0.749999940    0.091122635
    0.728517175    0.749999940    0.182245255
    0.478517294    0.749999821    0.273367822
    0.228517175    0.749999702    0.364490479
    0.978517056    0.749999762    0.455613106
    0.000000000    0.982020497    0.455613136
    0.000000000    0.732020497    0.564490438
    0.000000000    0.482020438    0.673367798
    0.000000000    0.232020438    0.782245100
    0.000000027    0.982020378    0.891122520
    0.999999940    0.732020378    1.000000000
    0.499999940    0.982020497    0.455613136
    0.500000000    0.732020497    0.564490438
    0.499999911    0.482020438    0.673367798
    0.499999911    0.232020438    0.782245100
    0.499999911    0.982020378    0.891122520
    0.500000060    0.732020378    1.000000000
    0.999999940    0.482020468    0.455613136
    0.000000000    0.232020468    0.564490438
    0.000000000    0.982020438    0.673367798
    0.000000000    0.732020378    0.782245100
    0.000000035    0.482020378    0.891122520
    0.999999940    0.232020319    1.000000000
    0.499999970    0.482020468    0.455613136
    0.500000000    0.232020468    0.564490438
    0.500000000    0.982020438    0.673367798
    0.499999881    0.732020378    0.782245100
    0.500000060    0.482020378    0.891122520
    0.499999940    0.232020319    1.000000000
    0.125000015    0.732020438    0.455613136
    0.125000000    0.482020438    0.564490438
    0.125000000    0.232020378    0.673367798
    0.125000030    0.982020319    0.782245100
    0.124999963    0.732020319    0.891122580
    0.125000075    0.482020319    1.000000000
    0.624999940    0.732020438    0.455613136
    0.624999940    0.482020438    0.564490438
    0.624999940    0.232020378    0.673367798
    0.624999881    0.982020319    0.782245100
    0.624999821    0.732020319    0.891122580
    0.624999940    0.482020319    1.000000000
    0.125000000    0.232020482    0.455613136
    0.124999993    0.982020497    0.564490438
    0.124999985    0.732020378    0.673367798
    0.125000030    0.482020319    0.782245100
    0.124999911    0.232020378    0.891122520
    0.124999948    0.982020378    1.000000000
    0.624999940    0.232020482    0.455613136
    0.624999940    0.982020497    0.564490438
    0.624999940    0.732020378    0.673367798
    0.624999821    0.482020319    0.782245100
    0.625000060    0.232020378    0.891122520
    0.624999940    0.982020378    1.000000000
