Sn+Si                                   
   1.00000000000000     
    19.4675998690000007    0.0000000000000000    0.0000000000000000
     0.0000000000000000   19.4675998690000007    0.0000000000000000
     0.0000000000000000    0.0000000000000000   19.3002529140000014
   Sn   Si
   108   156
Direct
  0.9950351119999965  0.6666666870000029  0.0000000000000000
  0.8283684250000007  0.6666666870000029  0.1681117859999972
  0.9245210890000024  0.8544431329999966  0.5342675449999987
  0.9950351119999965  0.3333333429999996  0.0000000000000000
  0.6745209099999983  0.1044431850000009  0.8860117790000004
  0.1552903059999977  0.7005968690000017  0.5342675449999987
  0.5975979569999978  0.4890585240000007  0.8860117790000004
  0.8283684250000007  0.0000000000000000  0.1681117859999972
  0.2706749740000021  0.1236737669999997  0.5342675449999987
  0.3283684550000032  0.6666666870000029  0.0000000000000000
  0.1617017390000015  0.6666666870000029  0.1681117859999972
  0.8668289180000031  0.1429045349999996  0.6046164039999979
  0.3283684550000032  0.3333333429999996  0.0000000000000000
  0.1617017390000015  0.3333333429999996  0.1681117859999972
  0.9950351119999965  0.3333333429999996  0.3362235430000027
  0.0975978000000026  0.9890585540000032  0.8860117790000004
  0.1617017390000015  0.0000000000000000  0.1681117859999972
  0.9950351119999965  0.0000000000000000  0.3362235430000027
  0.9437516329999980  0.7582892779999995  0.8860117790000004
  0.4950351119999965  0.6666666870000029  0.1681117859999972
  0.3283684550000032  0.6666666870000029  0.3362235430000027
  0.0591362709999999  0.1813662050000033  0.8860117790000004
  0.1360593440000031  0.7967509030000031  0.8860117790000004
  0.3283684550000032  0.3333333429999996  0.3362235430000027
  0.6617017980000028  0.0000000000000000  0.0000000000000000
  0.0206747060000012  0.3736738560000035  0.8860117790000004
  0.3283684550000032  0.0000000000000000  0.3362235430000027
  0.0783684330000014  0.9166667459999971  0.0840558929999986
  0.9117017980000028  0.9166667459999971  0.2521676120000009
  0.7450350519999986  0.9166667459999971  0.4202794429999983
  0.2514440420000028  0.2198278899999977  0.8860117790000004
  0.9117017980000028  0.5833334330000000  0.2521676120000009
  0.7450350519999986  0.5833334330000000  0.4202794429999983
  0.0783684330000014  0.2500000000000000  0.0840558929999986
  0.9117017980000028  0.2500000000000000  0.2521676120000009
  0.3475980460000017  0.7390584950000019  0.5342675449999987
  0.4117017689999969  0.9166667459999971  0.0840558929999986
  0.2450350969999988  0.9166667459999971  0.2521676120000009
  0.0783683809999971  0.9166667459999971  0.4202794429999983
  0.4117017689999969  0.5833334330000000  0.0840558929999986
  0.8860595820000015  0.0467507839999968  0.5342675449999987
  0.0783683809999971  0.5833334330000000  0.4202794429999983
  0.4117017689999969  0.2500000000000000  0.0840558929999986
  0.7706749439999996  0.6236737970000021  0.5342675449999987
  0.8475981349999984  0.2390583749999990  0.5342675449999987
  0.7450351720000015  0.9166667459999971  0.0840558929999986
  0.5783685450000036  0.9166667459999971  0.2521676120000009
  0.6937518720000000  0.0082892180000016  0.5342675449999987
  0.7450351720000015  0.5833334330000000  0.0840558929999986
  0.4245211479999966  0.3544430430000034  0.5342675449999987
  0.8091365690000032  0.4313661750000009  0.5342675449999987
  0.7450351720000015  0.2500000000000000  0.0840558929999986
  0.5783685450000036  0.2500000000000000  0.2521676120000009
  0.4117017980000028  0.2500000000000000  0.4202794429999983
  0.1617017689999969  0.8333333129999971  0.0000000000000000
  0.4629824760000005  0.1621354819999965  0.8156629200000012
  0.0014442209999999  0.4698275920000015  0.5342675449999987
  0.1617017689999969  0.5000000000000000  0.0000000000000000
  0.4822132589999981  0.0659816269999993  0.8860117790000004
  0.8283684250000007  0.5000000000000000  0.3362235430000027
  0.9822131990000003  0.5659815670000015  0.8860117790000004
  0.7899054290000009  0.5275200609999970  0.8860117790000004
  0.8283684250000007  0.1666666719999981  0.3362235430000027
  0.4950351119999965  0.8333333129999971  0.0000000000000000
  0.3283684250000007  0.8333333129999971  0.1681117859999972
  0.1617017539999992  0.8333333129999971  0.3362235430000027
  0.4950351119999965  0.5000000000000000  0.0000000000000000
  0.3283684250000007  0.5000000000000000  0.1681117859999972
  0.1617017539999992  0.5000000000000000  0.3362235430000027
  0.8283669950000032  0.3352123800000015  0.8860117790000004
  0.3283684250000007  0.1666666719999981  0.1681117859999972
  0.1617017539999992  0.1666666719999981  0.3362235430000027
  0.8283685450000036  0.8333333129999971  0.0000000000000000
  0.9052901270000007  0.9505969880000009  0.8860117790000004
  0.4950352010000003  0.8333333129999971  0.3362235430000027
  0.8283685450000036  0.5000000000000000  0.0000000000000000
  0.8668285609999984  0.1429046390000011  0.8860117790000004
  0.4950352010000003  0.5000000000000000  0.3362235430000027
  0.8283685450000036  0.1666666719999981  0.0000000000000000
  0.6617018580000007  0.1666666719999981  0.1681117859999972
  0.4950352010000003  0.1666666719999981  0.3362235430000027
  0.2450350969999988  0.7500000599999979  0.0840558929999986
  0.0783684330000014  0.7500000599999979  0.2521676120000009
  0.9117017390000015  0.7500000599999979  0.4202794429999983
  0.1168286429999981  0.8929047580000002  0.8156629200000012
  0.0783684330000014  0.4166667160000017  0.2521676120000009
  0.7322133779999973  0.8159815070000036  0.5342675449999987
  0.2450350969999988  0.0833333429999996  0.0840558929999986
  0.0783684330000014  0.0833333429999996  0.2521676120000009
  0.9117017390000015  0.0833333429999996  0.4202794429999983
  0.5783684849999986  0.7500000599999979  0.0840558929999986
  0.6168288590000017  0.3929045799999997  0.5342675449999987
  0.2450351270000013  0.7500000599999979  0.4202794429999983
  0.5783684849999986  0.4166667160000017  0.0840558929999986
  0.4117018580000007  0.4166667160000017  0.2521676120000009
  0.5783672929999994  0.5852123499999990  0.5342675449999987
  0.5783684849999986  0.0833333429999996  0.0840558929999986
  0.6552903059999977  0.2005968690000017  0.5342675449999987
  0.2450351270000013  0.0833333429999996  0.4202794429999983
  0.5206747060000012  0.8736739160000013  0.8860117790000004
  0.2322134079999998  0.3159814770000011  0.5342675449999987
  0.5783683659999994  0.7500000599999979  0.4202794429999983
  0.1745209400000007  0.6044431329999966  0.8860117790000004
  0.5399057269999972  0.7775198820000000  0.5342675449999987
  0.5783683659999994  0.4166667160000017  0.4202794429999983
  0.4052902159999974  0.4505969880000009  0.8860117790000004
  0.2129826250000022  0.4121353330000019  0.6046164039999979
  0.5783683659999994  0.0833333429999996  0.4202794429999983
  0.0783683809999971  0.2500000000000000  0.4202794429999983
  0.7322134380000023  0.3159815069999965  0.6749652029999993
  0.6168287400000025  0.3929046690000035  0.8156629200000012
  0.8283684250000007  0.8333333129999971  0.3362235430000027
  0.8860595820000015  0.5467506649999976  0.6749652029999993
  0.7706748840000017  0.6236738560000035  0.8156629200000012
  0.4629826839999964  0.1621353029999995  0.5342675449999987
  0.3475979859999967  0.2390584349999969  0.6749652029999993
  0.2322132890000006  0.3159815670000015  0.8156629200000012
  0.4117018580000007  0.7500000599999979  0.2521676120000009
  0.5014441009999970  0.4698277119999972  0.6749652029999993
  0.3860594329999998  0.5467508440000017  0.8156629200000012
  0.2450350969999988  0.2500000000000000  0.2521676120000009
  0.6552902459999999  0.7005969289999996  0.6749652029999993
  0.5399055480000001  0.7775200609999970  0.8156629200000012
  0.6617017390000015  0.6666666870000029  0.3362235430000027
  0.8091363910000027  0.9313662650000012  0.6749652029999993
  0.6937516930000029  0.0082893370000008  0.8156629200000012
  0.0783672330000016  0.0852122080000015  0.5342675449999987
  0.9629825350000019  0.1621353330000019  0.6749652029999993
  0.8475978370000021  0.2390584649999994  0.8156629200000012
  0.7450350519999986  0.7500000599999979  0.2521676120000009
  0.1168287100000001  0.3929046089999986  0.6749652029999993
  0.0014439819999978  0.4698277410000031  0.8156629200000012
  0.3860595820000015  0.5467507239999989  0.5342675449999987
  0.2706748550000029  0.6236738560000035  0.6749652029999993
  0.1552901570000031  0.7005969880000009  0.8156629200000012
  0.7450350519999986  0.4166667160000017  0.2521676120000009
  0.4245210589999999  0.8544430139999974  0.6749652029999993
  0.3091363309999977  0.9313661460000020  0.8156629200000012
  0.4117017980000028  0.9166667459999971  0.4202794429999983
  0.5783671740000003  0.0852123419999984  0.6749652029999993
  0.9950350519999986  0.8333333129999971  0.1681117859999972
  0.6617017390000015  0.3333333429999996  0.3362235430000027
  0.0399055480000001  0.7775200009999992  0.6749652029999993
  0.9245209099999983  0.8544431919999980  0.8156629200000012
  0.3091365100000019  0.9313660859999970  0.5342675449999987
  0.1937518120000021  0.0082890990000024  0.6749652029999993
  0.0783669950000032  0.0852123419999984  0.8156629200000012
  0.0591363910000027  0.1813660859999970  0.6046164039999979
  0.9437517519999972  0.2582892180000016  0.7453140619999985
  0.4950351119999965  0.1666666719999981  0.0000000000000000
  0.6745210890000024  0.1044430660000017  0.6046164039999979
  0.5591363910000027  0.1813662050000033  0.7453140619999985
  0.4437516630000005  0.2582893370000008  0.8860117790000004
  0.8283673520000008  0.3352122309999999  0.6046164039999979
  0.7129826549999976  0.4121353920000033  0.7453140619999985
  0.9950351119999965  0.0000000000000000  0.0000000000000000
  0.9822134380000023  0.5659814480000023  0.6046164039999979
  0.8668287400000025  0.6429046390000011  0.7453140619999985
  0.7514439819999978  0.7198277709999985  0.8860117790000004
  0.4437519009999988  0.2582891579999966  0.6046164039999979
  0.3283672029999991  0.3352122900000012  0.7453140619999985
  0.2129824760000005  0.4121354219999986  0.8860117790000004
  0.5975980159999992  0.4890584649999994  0.6046164039999979
  0.4822133179999994  0.5659815670000015  0.7453140619999985
  0.3668285910000009  0.6429047580000002  0.8860117790000004
  0.7514441610000020  0.7198276519999993  0.6046164039999979
  0.6360594630000023  0.7967507839999968  0.7453140619999985
  0.9117017390000015  0.7500000599999979  0.0840558929999986
  0.9052903059999977  0.9505969289999996  0.6046164039999979
  0.7899056079999980  0.0275200609999970  0.7453140619999985
  0.8283684250000007  0.3333333429999996  0.1681117859999972
  0.7450350519999986  0.0833333429999996  0.2521676120000009
  0.0975979339999995  0.4890584349999969  0.7453140619999985
  0.1617017689999969  0.1666666719999981  0.0000000000000000
  0.3668287690000014  0.6429046390000011  0.6046164039999979
  0.2514440719999982  0.7198277119999972  0.7453140619999985
  0.4950351119999965  0.3333333429999996  0.1681117859999972
  0.5206748840000017  0.8736737970000021  0.6046164039999979
  0.4052902159999974  0.9505969289999996  0.7453140619999985
  0.2899054880000023  0.0275200609999970  0.8860117790000004
  0.1360595379999978  0.7967507239999989  0.6046164039999979
  0.0206748250000004  0.8736739160000013  0.7453140619999985
  0.6617018580000007  0.8333333129999971  0.1681117859999972
  0.2899056970000018  0.0275199410000013  0.6046164039999979
  0.1745209689999996  0.1044430660000017  0.7453140619999985
  0.6617017980000028  0.3333333429999996  0.0000000000000000
  0.0399056669999993  0.2775199709999967  0.5342675449999987
  0.9245210289999974  0.3544431030000013  0.6749652029999993
  0.8091363309999977  0.4313662650000012  0.8156629200000012
  0.4117018580000007  0.0833333429999996  0.2521676120000009
  0.5399056079999980  0.2775200009999992  0.6749652029999993
  0.4245209099999983  0.3544431329999966  0.8156629200000012
  0.4117017980000028  0.5833334330000000  0.4202794429999983
  0.6937518120000021  0.5082892779999995  0.6749652029999993
  0.5783671140000024  0.5852124689999982  0.8156629200000012
  0.9629827139999989  0.6621354219999986  0.5342675449999987
  0.8475979569999978  0.7390585540000032  0.6749652029999993
  0.7322132589999981  0.8159816860000006  0.8156629200000012
  0.6617017390000015  0.0000000000000000  0.3362235430000027
  0.1552902760000023  0.2005968989999971  0.6749652029999993
  0.0399055480000001  0.2775200310000017  0.8156629200000012
  0.5783685450000036  0.5833334330000000  0.2521676120000009
  0.3091364499999969  0.4313661750000009  0.6749652029999993
  0.1937517229999983  0.5082892779999995  0.8156629200000012
  0.2450351270000013  0.4166667160000017  0.4202794429999983
  0.4629825649999972  0.6621354819999965  0.6749652029999993
  0.3475978669999975  0.7390586140000011  0.8156629200000012
  0.9117017390000015  0.4166667160000017  0.4202794429999983
  0.6168286799999976  0.8929046390000011  0.6749652029999993
  0.5014439819999978  0.9698277709999985  0.8156629200000012
  0.2450350969999988  0.5833334330000000  0.2521676120000009
  0.7706748840000017  0.1236739080000007  0.6749652029999993
  0.6552901860000020  0.2005970479999988  0.8156629200000012
  0.1937518720000000  0.5082892180000016  0.5342675449999987
  0.0783671140000024  0.5852123499999990  0.6749652029999993
  0.9629824760000005  0.6621354819999965  0.8156629200000012
  0.7450350519999986  0.2500000000000000  0.4202794429999983
  0.2322133480000019  0.8159816269999993  0.6749652029999993
  0.2450350969999988  0.4166667160000017  0.0840558929999986
  0.5014442209999999  0.9698277119999972  0.5342675449999987
  0.3860594929999976  0.0467507839999968  0.6749652029999993
  0.2706747949999979  0.1236739080000007  0.8156629200000012
  0.1168287690000014  0.8929045799999997  0.5342675449999987
  0.0014441009999970  0.9698277119999972  0.6749652029999993
  0.8860593440000031  0.0467507839999968  0.8156629200000012
  0.9950351119999965  0.6666666870000029  0.3362235430000027
  0.7514441610000020  0.2198276820000018  0.7453140619999985
  0.6360594630000023  0.2967508139999993  0.8860117790000004
  0.0206748250000004  0.3736737669999997  0.6046164039999979
  0.9052901860000020  0.4505969289999996  0.7453140619999985
  0.9950350519999986  0.1666666719999981  0.1681117859999972
  0.6360596419999993  0.2967506950000001  0.6046164039999979
  0.5206749439999996  0.3736738260000010  0.7453140619999985
  0.9117017390000015  0.0833333429999996  0.0840558929999986
  0.7899058460000035  0.5275199410000013  0.6046164039999979
  0.6745211479999966  0.6044430729999988  0.7453140619999985
  0.5591363910000027  0.6813662050000033  0.8860117790000004
  0.9437520500000005  0.7582892180000016  0.6046164039999979
  0.8283673520000008  0.8352123499999990  0.7453140619999985
  0.7129825949999997  0.9121354819999965  0.8860117790000004
  0.2514441909999974  0.2198275630000026  0.6046164039999979
  0.1360594780000000  0.2967506950000001  0.7453140619999985
  0.4950351119999965  0.0000000000000000  0.1681117859999972
  0.4052903649999990  0.4505968690000017  0.6046164039999979
  0.2899056669999993  0.5275200009999992  0.7453140619999985
  0.9117017390000015  0.4166667160000017  0.0840558929999986
  0.5591365100000019  0.6813660859999970  0.6046164039999979
  0.4437518120000021  0.7582892180000016  0.7453140619999985
  0.3283670539999974  0.8352123499999990  0.8860117790000004
  0.7129827139999989  0.9121354219999986  0.6046164039999979
  0.5975980159999992  0.9890585540000032  0.7453140619999985
  0.9950350519999986  0.5000000000000000  0.1681117859999972
  0.1745210589999999  0.6044430139999974  0.6046164039999979
  0.0591363910000027  0.6813661460000020  0.7453140619999985
  0.6617017980000028  0.6666666870000029  0.0000000000000000
  0.3283672330000016  0.8352122309999999  0.6046164039999979
  0.2129825350000019  0.9121353629999973  0.7453140619999985
  0.3283684550000032  0.0000000000000000  0.0000000000000000
  0.4822134670000011  0.0659815069999965  0.6046164039999979
  0.3668287690000014  0.1429047580000002  0.7453140619999985
  0.0783684330000014  0.5833334330000000  0.0840558929999986
  0.0975980010000015  0.9890583749999990  0.6046164039999979
  0.9822132589999981  0.0659815069999965  0.7453140619999985
  0.6617018580000007  0.5000000000000000  0.1681117859999972
 
  0.00000000E+00  0.00000000E+00  0.00000000E+00
  0.00000000E+00  0.00000000E+00  0.00000000E+00
  0.00000000E+00  0.00000000E+00  0.00000000E+00
  0.00000000E+00  0.00000000E+00  0.00000000E+00
  0.00000000E+00  0.00000000E+00  0.00000000E+00
  0.00000000E+00  0.00000000E+00  0.00000000E+00
  0.00000000E+00  0.00000000E+00  0.00000000E+00
  0.00000000E+00  0.00000000E+00  0.00000000E+00
  0.00000000E+00  0.00000000E+00  0.00000000E+00
  0.00000000E+00  0.00000000E+00  0.00000000E+00
  0.00000000E+00  0.00000000E+00  0.00000000E+00
  0.00000000E+00  0.00000000E+00  0.00000000E+00
  0.00000000E+00  0.00000000E+00  0.00000000E+00
  0.00000000E+00  0.00000000E+00  0.00000000E+00
  0.00000000E+00  0.00000000E+00  0.00000000E+00
  0.00000000E+00  0.00000000E+00  0.00000000E+00
  0.00000000E+00  0.00000000E+00  0.00000000E+00
  0.00000000E+00  0.00000000E+00  0.00000000E+00
  0.00000000E+00  0.00000000E+00  0.00000000E+00
  0.00000000E+00  0.00000000E+00  0.00000000E+00
  0.00000000E+00  0.00000000E+00  0.00000000E+00
  0.00000000E+00  0.00000000E+00  0.00000000E+00
  0.00000000E+00  0.00000000E+00  0.00000000E+00
  0.00000000E+00  0.00000000E+00  0.00000000E+00
  0.00000000E+00  0.00000000E+00  0.00000000E+00
  0.00000000E+00  0.00000000E+00  0.00000000E+00
  0.00000000E+00  0.00000000E+00  0.00000000E+00
  0.00000000E+00  0.00000000E+00  0.00000000E+00
  0.00000000E+00  0.00000000E+00  0.00000000E+00
  0.00000000E+00  0.00000000E+00  0.00000000E+00
  0.00000000E+00  0.00000000E+00  0.00000000E+00
  0.00000000E+00  0.00000000E+00  0.00000000E+00
  0.00000000E+00  0.00000000E+00  0.00000000E+00
  0.00000000E+00  0.00000000E+00  0.00000000E+00
  0.00000000E+00  0.00000000E+00  0.00000000E+00
  0.00000000E+00  0.00000000E+00  0.00000000E+00
  0.00000000E+00  0.00000000E+00  0.00000000E+00
  0.00000000E+00  0.00000000E+00  0.00000000E+00
  0.00000000E+00  0.00000000E+00  0.00000000E+00
  0.00000000E+00  0.00000000E+00  0.00000000E+00
  0.00000000E+00  0.00000000E+00  0.00000000E+00
  0.00000000E+00  0.00000000E+00  0.00000000E+00
  0.00000000E+00  0.00000000E+00  0.00000000E+00
  0.00000000E+00  0.00000000E+00  0.00000000E+00
  0.00000000E+00  0.00000000E+00  0.00000000E+00
  0.00000000E+00  0.00000000E+00  0.00000000E+00
  0.00000000E+00  0.00000000E+00  0.00000000E+00
  0.00000000E+00  0.00000000E+00  0.00000000E+00
  0.00000000E+00  0.00000000E+00  0.00000000E+00
  0.00000000E+00  0.00000000E+00  0.00000000E+00
  0.00000000E+00  0.00000000E+00  0.00000000E+00
  0.00000000E+00  0.00000000E+00  0.00000000E+00
  0.00000000E+00  0.00000000E+00  0.00000000E+00
  0.00000000E+00  0.00000000E+00  0.00000000E+00
  0.00000000E+00  0.00000000E+00  0.00000000E+00
  0.00000000E+00  0.00000000E+00  0.00000000E+00
  0.00000000E+00  0.00000000E+00  0.00000000E+00
  0.00000000E+00  0.00000000E+00  0.00000000E+00
  0.00000000E+00  0.00000000E+00  0.00000000E+00
  0.00000000E+00  0.00000000E+00  0.00000000E+00
  0.00000000E+00  0.00000000E+00  0.00000000E+00
  0.00000000E+00  0.00000000E+00  0.00000000E+00
  0.00000000E+00  0.00000000E+00  0.00000000E+00
  0.00000000E+00  0.00000000E+00  0.00000000E+00
  0.00000000E+00  0.00000000E+00  0.00000000E+00
  0.00000000E+00  0.00000000E+00  0.00000000E+00
  0.00000000E+00  0.00000000E+00  0.00000000E+00
  0.00000000E+00  0.00000000E+00  0.00000000E+00
  0.00000000E+00  0.00000000E+00  0.00000000E+00
  0.00000000E+00  0.00000000E+00  0.00000000E+00
  0.00000000E+00  0.00000000E+00  0.00000000E+00
  0.00000000E+00  0.00000000E+00  0.00000000E+00
  0.00000000E+00  0.00000000E+00  0.00000000E+00
  0.00000000E+00  0.00000000E+00  0.00000000E+00
  0.00000000E+00  0.00000000E+00  0.00000000E+00
  0.00000000E+00  0.00000000E+00  0.00000000E+00
  0.00000000E+00  0.00000000E+00  0.00000000E+00
  0.00000000E+00  0.00000000E+00  0.00000000E+00
  0.00000000E+00  0.00000000E+00  0.00000000E+00
  0.00000000E+00  0.00000000E+00  0.00000000E+00
  0.00000000E+00  0.00000000E+00  0.00000000E+00
  0.00000000E+00  0.00000000E+00  0.00000000E+00
  0.00000000E+00  0.00000000E+00  0.00000000E+00
  0.00000000E+00  0.00000000E+00  0.00000000E+00
  0.00000000E+00  0.00000000E+00  0.00000000E+00
  0.00000000E+00  0.00000000E+00  0.00000000E+00
  0.00000000E+00  0.00000000E+00  0.00000000E+00
  0.00000000E+00  0.00000000E+00  0.00000000E+00
  0.00000000E+00  0.00000000E+00  0.00000000E+00
  0.00000000E+00  0.00000000E+00  0.00000000E+00
  0.00000000E+00  0.00000000E+00  0.00000000E+00
  0.00000000E+00  0.00000000E+00  0.00000000E+00
  0.00000000E+00  0.00000000E+00  0.00000000E+00
  0.00000000E+00  0.00000000E+00  0.00000000E+00
  0.00000000E+00  0.00000000E+00  0.00000000E+00
  0.00000000E+00  0.00000000E+00  0.00000000E+00
  0.00000000E+00  0.00000000E+00  0.00000000E+00
  0.00000000E+00  0.00000000E+00  0.00000000E+00
  0.00000000E+00  0.00000000E+00  0.00000000E+00
  0.00000000E+00  0.00000000E+00  0.00000000E+00
  0.00000000E+00  0.00000000E+00  0.00000000E+00
  0.00000000E+00  0.00000000E+00  0.00000000E+00
  0.00000000E+00  0.00000000E+00  0.00000000E+00
  0.00000000E+00  0.00000000E+00  0.00000000E+00
  0.00000000E+00  0.00000000E+00  0.00000000E+00
  0.00000000E+00  0.00000000E+00  0.00000000E+00
  0.00000000E+00  0.00000000E+00  0.00000000E+00
  0.00000000E+00  0.00000000E+00  0.00000000E+00
  0.00000000E+00  0.00000000E+00  0.00000000E+00
  0.00000000E+00  0.00000000E+00  0.00000000E+00
  0.00000000E+00  0.00000000E+00  0.00000000E+00
  0.00000000E+00  0.00000000E+00  0.00000000E+00
  0.00000000E+00  0.00000000E+00  0.00000000E+00
  0.00000000E+00  0.00000000E+00  0.00000000E+00
  0.00000000E+00  0.00000000E+00  0.00000000E+00
  0.00000000E+00  0.00000000E+00  0.00000000E+00
  0.00000000E+00  0.00000000E+00  0.00000000E+00
  0.00000000E+00  0.00000000E+00  0.00000000E+00
  0.00000000E+00  0.00000000E+00  0.00000000E+00
  0.00000000E+00  0.00000000E+00  0.00000000E+00
  0.00000000E+00  0.00000000E+00  0.00000000E+00
  0.00000000E+00  0.00000000E+00  0.00000000E+00
  0.00000000E+00  0.00000000E+00  0.00000000E+00
  0.00000000E+00  0.00000000E+00  0.00000000E+00
  0.00000000E+00  0.00000000E+00  0.00000000E+00
  0.00000000E+00  0.00000000E+00  0.00000000E+00
  0.00000000E+00  0.00000000E+00  0.00000000E+00
  0.00000000E+00  0.00000000E+00  0.00000000E+00
  0.00000000E+00  0.00000000E+00  0.00000000E+00
  0.00000000E+00  0.00000000E+00  0.00000000E+00
  0.00000000E+00  0.00000000E+00  0.00000000E+00
  0.00000000E+00  0.00000000E+00  0.00000000E+00
  0.00000000E+00  0.00000000E+00  0.00000000E+00
  0.00000000E+00  0.00000000E+00  0.00000000E+00
  0.00000000E+00  0.00000000E+00  0.00000000E+00
  0.00000000E+00  0.00000000E+00  0.00000000E+00
  0.00000000E+00  0.00000000E+00  0.00000000E+00
  0.00000000E+00  0.00000000E+00  0.00000000E+00
  0.00000000E+00  0.00000000E+00  0.00000000E+00
  0.00000000E+00  0.00000000E+00  0.00000000E+00
  0.00000000E+00  0.00000000E+00  0.00000000E+00
  0.00000000E+00  0.00000000E+00  0.00000000E+00
  0.00000000E+00  0.00000000E+00  0.00000000E+00
  0.00000000E+00  0.00000000E+00  0.00000000E+00
  0.00000000E+00  0.00000000E+00  0.00000000E+00
  0.00000000E+00  0.00000000E+00  0.00000000E+00
  0.00000000E+00  0.00000000E+00  0.00000000E+00
  0.00000000E+00  0.00000000E+00  0.00000000E+00
  0.00000000E+00  0.00000000E+00  0.00000000E+00
  0.00000000E+00  0.00000000E+00  0.00000000E+00
  0.00000000E+00  0.00000000E+00  0.00000000E+00
  0.00000000E+00  0.00000000E+00  0.00000000E+00
  0.00000000E+00  0.00000000E+00  0.00000000E+00
  0.00000000E+00  0.00000000E+00  0.00000000E+00
  0.00000000E+00  0.00000000E+00  0.00000000E+00
  0.00000000E+00  0.00000000E+00  0.00000000E+00
  0.00000000E+00  0.00000000E+00  0.00000000E+00
  0.00000000E+00  0.00000000E+00  0.00000000E+00
  0.00000000E+00  0.00000000E+00  0.00000000E+00
  0.00000000E+00  0.00000000E+00  0.00000000E+00
  0.00000000E+00  0.00000000E+00  0.00000000E+00
  0.00000000E+00  0.00000000E+00  0.00000000E+00
  0.00000000E+00  0.00000000E+00  0.00000000E+00
  0.00000000E+00  0.00000000E+00  0.00000000E+00
  0.00000000E+00  0.00000000E+00  0.00000000E+00
  0.00000000E+00  0.00000000E+00  0.00000000E+00
  0.00000000E+00  0.00000000E+00  0.00000000E+00
  0.00000000E+00  0.00000000E+00  0.00000000E+00
  0.00000000E+00  0.00000000E+00  0.00000000E+00
  0.00000000E+00  0.00000000E+00  0.00000000E+00
  0.00000000E+00  0.00000000E+00  0.00000000E+00
  0.00000000E+00  0.00000000E+00  0.00000000E+00
  0.00000000E+00  0.00000000E+00  0.00000000E+00
  0.00000000E+00  0.00000000E+00  0.00000000E+00
  0.00000000E+00  0.00000000E+00  0.00000000E+00
  0.00000000E+00  0.00000000E+00  0.00000000E+00
  0.00000000E+00  0.00000000E+00  0.00000000E+00
  0.00000000E+00  0.00000000E+00  0.00000000E+00
  0.00000000E+00  0.00000000E+00  0.00000000E+00
  0.00000000E+00  0.00000000E+00  0.00000000E+00
  0.00000000E+00  0.00000000E+00  0.00000000E+00
  0.00000000E+00  0.00000000E+00  0.00000000E+00
  0.00000000E+00  0.00000000E+00  0.00000000E+00
  0.00000000E+00  0.00000000E+00  0.00000000E+00
  0.00000000E+00  0.00000000E+00  0.00000000E+00
  0.00000000E+00  0.00000000E+00  0.00000000E+00
  0.00000000E+00  0.00000000E+00  0.00000000E+00
  0.00000000E+00  0.00000000E+00  0.00000000E+00
  0.00000000E+00  0.00000000E+00  0.00000000E+00
  0.00000000E+00  0.00000000E+00  0.00000000E+00
  0.00000000E+00  0.00000000E+00  0.00000000E+00
  0.00000000E+00  0.00000000E+00  0.00000000E+00
  0.00000000E+00  0.00000000E+00  0.00000000E+00
  0.00000000E+00  0.00000000E+00  0.00000000E+00
  0.00000000E+00  0.00000000E+00  0.00000000E+00
  0.00000000E+00  0.00000000E+00  0.00000000E+00
  0.00000000E+00  0.00000000E+00  0.00000000E+00
  0.00000000E+00  0.00000000E+00  0.00000000E+00
  0.00000000E+00  0.00000000E+00  0.00000000E+00
  0.00000000E+00  0.00000000E+00  0.00000000E+00
  0.00000000E+00  0.00000000E+00  0.00000000E+00
  0.00000000E+00  0.00000000E+00  0.00000000E+00
  0.00000000E+00  0.00000000E+00  0.00000000E+00
  0.00000000E+00  0.00000000E+00  0.00000000E+00
  0.00000000E+00  0.00000000E+00  0.00000000E+00
  0.00000000E+00  0.00000000E+00  0.00000000E+00
  0.00000000E+00  0.00000000E+00  0.00000000E+00
  0.00000000E+00  0.00000000E+00  0.00000000E+00
  0.00000000E+00  0.00000000E+00  0.00000000E+00
  0.00000000E+00  0.00000000E+00  0.00000000E+00
  0.00000000E+00  0.00000000E+00  0.00000000E+00
  0.00000000E+00  0.00000000E+00  0.00000000E+00
  0.00000000E+00  0.00000000E+00  0.00000000E+00
  0.00000000E+00  0.00000000E+00  0.00000000E+00
  0.00000000E+00  0.00000000E+00  0.00000000E+00
  0.00000000E+00  0.00000000E+00  0.00000000E+00
  0.00000000E+00  0.00000000E+00  0.00000000E+00
  0.00000000E+00  0.00000000E+00  0.00000000E+00
  0.00000000E+00  0.00000000E+00  0.00000000E+00
  0.00000000E+00  0.00000000E+00  0.00000000E+00
  0.00000000E+00  0.00000000E+00  0.00000000E+00
  0.00000000E+00  0.00000000E+00  0.00000000E+00
  0.00000000E+00  0.00000000E+00  0.00000000E+00
  0.00000000E+00  0.00000000E+00  0.00000000E+00
  0.00000000E+00  0.00000000E+00  0.00000000E+00
  0.00000000E+00  0.00000000E+00  0.00000000E+00
  0.00000000E+00  0.00000000E+00  0.00000000E+00
  0.00000000E+00  0.00000000E+00  0.00000000E+00
  0.00000000E+00  0.00000000E+00  0.00000000E+00
  0.00000000E+00  0.00000000E+00  0.00000000E+00
  0.00000000E+00  0.00000000E+00  0.00000000E+00
  0.00000000E+00  0.00000000E+00  0.00000000E+00
  0.00000000E+00  0.00000000E+00  0.00000000E+00
  0.00000000E+00  0.00000000E+00  0.00000000E+00
  0.00000000E+00  0.00000000E+00  0.00000000E+00
  0.00000000E+00  0.00000000E+00  0.00000000E+00
  0.00000000E+00  0.00000000E+00  0.00000000E+00
  0.00000000E+00  0.00000000E+00  0.00000000E+00
  0.00000000E+00  0.00000000E+00  0.00000000E+00
  0.00000000E+00  0.00000000E+00  0.00000000E+00
  0.00000000E+00  0.00000000E+00  0.00000000E+00
  0.00000000E+00  0.00000000E+00  0.00000000E+00
  0.00000000E+00  0.00000000E+00  0.00000000E+00
  0.00000000E+00  0.00000000E+00  0.00000000E+00
  0.00000000E+00  0.00000000E+00  0.00000000E+00
  0.00000000E+00  0.00000000E+00  0.00000000E+00
  0.00000000E+00  0.00000000E+00  0.00000000E+00
  0.00000000E+00  0.00000000E+00  0.00000000E+00
  0.00000000E+00  0.00000000E+00  0.00000000E+00
  0.00000000E+00  0.00000000E+00  0.00000000E+00
  0.00000000E+00  0.00000000E+00  0.00000000E+00
  0.00000000E+00  0.00000000E+00  0.00000000E+00
  0.00000000E+00  0.00000000E+00  0.00000000E+00
  0.00000000E+00  0.00000000E+00  0.00000000E+00
  0.00000000E+00  0.00000000E+00  0.00000000E+00
  0.00000000E+00  0.00000000E+00  0.00000000E+00
  0.00000000E+00  0.00000000E+00  0.00000000E+00
  0.00000000E+00  0.00000000E+00  0.00000000E+00
  0.00000000E+00  0.00000000E+00  0.00000000E+00
  0.00000000E+00  0.00000000E+00  0.00000000E+00
  0.00000000E+00  0.00000000E+00  0.00000000E+00
  0.00000000E+00  0.00000000E+00  0.00000000E+00
  0.00000000E+00  0.00000000E+00  0.00000000E+00
  0.00000000E+00  0.00000000E+00  0.00000000E+00
