Si+C                                    
   1.00000000000000     
    16.2930011750000006    0.0000000000000000    0.0000000000000000
   -10.8620004649999995   12.1440858840000008    0.0000000000000000
     0.0000000000000000    0.0000000000000000    7.9947495460000004
   Si   C 
    36    84
Direct
  0.9829056259999973  0.6410251260000024  0.0000000020000002
  0.7829055790000012  0.3410250250000004  0.1519008280000023
  0.5829054120000023  0.0410249350000029  0.3038016559999974
  0.9829056259999973  0.3076917830000028  0.0000000020000002
  0.7829055790000012  0.0076917150000000  0.1519008280000023
  0.5829054120000023  0.7076916689999990  0.3038016559999974
  0.9829056259999973  0.9743584989999974  0.0000000020000002
  0.7829055790000012  0.6743583680000000  0.1519008280000023
  0.5829054120000023  0.3743582959999969  0.3038016559999974
  0.6329056619999989  0.6576917169999987  0.0759502570000024
  0.4329055850000003  0.3576916159999968  0.2278510929999982
  0.2329055220000029  0.0576915779999965  0.3797519210000004
  0.6329056619999989  0.3243584630000029  0.0759502570000024
  0.4329055850000003  0.0243583689999980  0.2278510929999982
  0.2329055220000029  0.7243583200000003  0.3797519210000004
  0.6329056619999989  0.9910252090000000  0.0759502570000024
  0.4329055850000003  0.6910251380000005  0.2278510929999982
  0.2329055220000029  0.3910250659999974  0.3797519210000004
  0.4829056259999973  0.8076917530000003  0.0000000000000000
  0.2829055489999988  0.5076916220000030  0.1519008280000023
  0.0829054419999977  0.2076916099999977  0.3038016559999974
  0.4829056259999973  0.4743584389999995  0.0000000000000000
  0.2829055489999988  0.1743583530000024  0.1519008280000023
  0.0829054419999977  0.8743582959999969  0.3038016559999974
  0.4829056259999973  0.1410251410000001  0.0000000000000000
  0.2829055489999988  0.8410250539999993  0.1519008280000023
  0.0829054419999977  0.5410249829999998  0.3038016559999974
  0.1329056769999966  0.8243585230000008  0.0759502720000000
  0.9329055549999978  0.5243583920000034  0.2278510929999982
  0.7329055069999981  0.2243583799999982  0.3797519210000004
  0.1329056769999966  0.4910252090000000  0.0759502720000000
  0.9329055549999978  0.1910251079999981  0.2278510929999982
  0.7329055069999981  0.8910251260000024  0.3797519210000004
  0.1329056769999966  0.1576919560000007  0.0759502720000000
  0.9329055549999978  0.8576918839999976  0.2278510929999982
  0.7329055069999981  0.5576919319999973  0.3797519210000004
  0.7655555010000015  0.1020188330000025  0.5651751759999968
  0.0084127189999990  0.0734474659999975  0.6649358270000008
  0.2512699370000036  0.0448758599999977  0.7646964790000013
  0.0512697699999975  0.2448760269999966  0.5651751759999968
  0.2941269869999985  0.2163045409999995  0.6649358270000008
  0.5369842050000031  0.1877330689999965  0.7646964790000013
  0.3369839189999979  0.3877331320000010  0.5651751759999968
  0.5798412560000017  0.3591616450000004  0.6649358270000008
  0.8226985339999970  0.3305901889999987  0.7646964790000013
  0.6226983070000003  0.5305902959999997  0.5651751759999968
  0.8655555839999991  0.5020188089999991  0.6649358270000008
  0.1084129810000007  0.4734473820000034  0.7646964790000013
  0.9084126349999977  0.6734474300000031  0.5651751759999968
  0.1512699130000001  0.6448760030000003  0.6649358270000008
  0.3941271309999976  0.6163045170000032  0.7646964790000013
  0.1941269639999987  0.8163046239999971  0.5651751759999968
  0.4369841809999997  0.7877331380000001  0.6649358270000008
  0.6798413989999972  0.7591616509999994  0.7646964790000013
  0.4798412319999983  0.9591617580000005  0.5651751759999968
  0.7226984500000029  0.9305902119999985  0.6649358270000008
  0.9655556080000025  0.9020187850000028  0.7646964790000013
  0.6012697219999978  0.1948760300000032  0.6150554419999992
  0.8441269989999967  0.1663045589999967  0.7148160930000031
  0.0869841579999999  0.1377330420000007  0.8145766259999974
  0.8869838709999982  0.3377331499999983  0.6150554419999992
  0.1298410890000028  0.3091616930000001  0.7148160930000031
  0.3726983070000003  0.2805901770000006  0.8145767449999965
  0.1726982590000006  0.4805903430000029  0.6150554419999992
  0.4155554769999981  0.4520188569999988  0.7148160930000031
  0.6584126950000027  0.4234473710000017  0.8145767449999965
  0.4584126470000029  0.6234474780000028  0.6150554419999992
  0.7012698650000004  0.5948759320000008  0.7148160930000031
  0.9441271419999993  0.5663045639999993  0.8145767449999965
  0.7441267370000020  0.7663046119999990  0.6150554419999992
  0.9869840739999987  0.7377331260000020  0.7148160930000031
  0.2298412319999983  0.7091616390000013  0.8145767449999965
  0.0298411850000022  0.9091617469999989  0.6150554419999992
  0.2726984020000032  0.8805902000000003  0.7148160930000031
  0.5155556200000007  0.8520187740000011  0.8145766259999974
  0.3155553340000026  0.0520188810000022  0.6150554419999992
  0.5584125520000001  0.0234473940000015  0.7148160930000031
  0.8012698289999989  0.9948759079999974  0.8145766259999974
  0.4084126950000027  0.1734474750000032  0.5651751759999968
  0.6512699130000001  0.1448759729999978  0.6649358270000008
  0.8941271899999990  0.1163045469999986  0.7646964790000013
  0.6941270829999979  0.3163046239999971  0.5651751759999968
  0.9369842409999976  0.2877331079999976  0.6649358270000008
  0.1798412799999980  0.2591616209999970  0.7646964790000013
  0.9798412319999983  0.4591617580000005  0.5651751759999968
  0.2226984500000029  0.4305902720000034  0.6649358270000008
  0.4655556680000004  0.4020187850000028  0.7646964790000013
  0.2655553820000023  0.6020188930000003  0.5651751759999968
  0.5084127189999990  0.5734474059999997  0.6649358270000008
  0.7512699959999978  0.5448759789999968  0.7646964790000013
  0.5512697699999975  0.7448760269999966  0.5651751759999968
  0.7941270470000035  0.7163046000000008  0.6649358270000008
  0.0369842050000031  0.6877330539999988  0.7646964790000013
  0.8369840379999971  0.8877332209999977  0.5651751759999968
  0.0798412560000017  0.8591617940000020  0.6649358270000008
  0.3226985929999984  0.8305903079999979  0.7646964790000013
  0.1226983070000003  0.0305902959999997  0.5651751759999968
  0.3655555249999978  0.0020189290000019  0.6649358270000008
  0.6084128620000016  0.9734474420000012  0.7646964790000013
  0.9584126470000029  0.1234474629999980  0.6150554419999992
  0.2012698650000004  0.0948759320000008  0.7148160930000031
  0.4441272019999971  0.0663044450000001  0.8145767449999965
  0.2441267969999998  0.2663046119999990  0.6150554419999992
  0.4869840149999973  0.2377331109999972  0.7148160930000031
  0.7298412319999983  0.2091616689999967  0.8145766259999974
  0.5298410649999994  0.4091617170000035  0.6150554419999992
  0.7726984620000010  0.3805902900000007  0.7148160930000031
  0.0155556200000007  0.3520188330000025  0.8145766259999974
  0.8155552739999976  0.5520188810000022  0.6150554419999992
  0.0584125520000001  0.5234473940000015  0.7148160930000031
  0.3012697699999975  0.4948759079999974  0.8145766259999974
  0.1012697219999978  0.6948759559999971  0.6150554419999992
  0.3441270590000016  0.6663044689999964  0.7148160930000031
  0.5869842769999991  0.6377330420000007  0.8145767449999965
  0.3869841100000002  0.8377331499999983  0.6150554419999992
  0.6298413279999977  0.8091616629999976  0.7148160930000031
  0.8726986049999965  0.7805902959999997  0.8145767449999965
  0.6726982590000006  0.9805902840000016  0.6150554419999992
  0.9155555370000030  0.9520188569999988  0.7148160930000031
  0.1584126950000027  0.9234473710000017  0.8145767449999965
 
  0.00000000E+00  0.00000000E+00  0.00000000E+00
  0.00000000E+00  0.00000000E+00  0.00000000E+00
  0.00000000E+00  0.00000000E+00  0.00000000E+00
  0.00000000E+00  0.00000000E+00  0.00000000E+00
  0.00000000E+00  0.00000000E+00  0.00000000E+00
  0.00000000E+00  0.00000000E+00  0.00000000E+00
  0.00000000E+00  0.00000000E+00  0.00000000E+00
  0.00000000E+00  0.00000000E+00  0.00000000E+00
  0.00000000E+00  0.00000000E+00  0.00000000E+00
  0.00000000E+00  0.00000000E+00  0.00000000E+00
  0.00000000E+00  0.00000000E+00  0.00000000E+00
  0.00000000E+00  0.00000000E+00  0.00000000E+00
  0.00000000E+00  0.00000000E+00  0.00000000E+00
  0.00000000E+00  0.00000000E+00  0.00000000E+00
  0.00000000E+00  0.00000000E+00  0.00000000E+00
  0.00000000E+00  0.00000000E+00  0.00000000E+00
  0.00000000E+00  0.00000000E+00  0.00000000E+00
  0.00000000E+00  0.00000000E+00  0.00000000E+00
  0.00000000E+00  0.00000000E+00  0.00000000E+00
  0.00000000E+00  0.00000000E+00  0.00000000E+00
  0.00000000E+00  0.00000000E+00  0.00000000E+00
  0.00000000E+00  0.00000000E+00  0.00000000E+00
  0.00000000E+00  0.00000000E+00  0.00000000E+00
  0.00000000E+00  0.00000000E+00  0.00000000E+00
  0.00000000E+00  0.00000000E+00  0.00000000E+00
  0.00000000E+00  0.00000000E+00  0.00000000E+00
  0.00000000E+00  0.00000000E+00  0.00000000E+00
  0.00000000E+00  0.00000000E+00  0.00000000E+00
  0.00000000E+00  0.00000000E+00  0.00000000E+00
  0.00000000E+00  0.00000000E+00  0.00000000E+00
  0.00000000E+00  0.00000000E+00  0.00000000E+00
  0.00000000E+00  0.00000000E+00  0.00000000E+00
  0.00000000E+00  0.00000000E+00  0.00000000E+00
  0.00000000E+00  0.00000000E+00  0.00000000E+00
  0.00000000E+00  0.00000000E+00  0.00000000E+00
  0.00000000E+00  0.00000000E+00  0.00000000E+00
  0.00000000E+00  0.00000000E+00  0.00000000E+00
  0.00000000E+00  0.00000000E+00  0.00000000E+00
  0.00000000E+00  0.00000000E+00  0.00000000E+00
  0.00000000E+00  0.00000000E+00  0.00000000E+00
  0.00000000E+00  0.00000000E+00  0.00000000E+00
  0.00000000E+00  0.00000000E+00  0.00000000E+00
  0.00000000E+00  0.00000000E+00  0.00000000E+00
  0.00000000E+00  0.00000000E+00  0.00000000E+00
  0.00000000E+00  0.00000000E+00  0.00000000E+00
  0.00000000E+00  0.00000000E+00  0.00000000E+00
  0.00000000E+00  0.00000000E+00  0.00000000E+00
  0.00000000E+00  0.00000000E+00  0.00000000E+00
  0.00000000E+00  0.00000000E+00  0.00000000E+00
  0.00000000E+00  0.00000000E+00  0.00000000E+00
  0.00000000E+00  0.00000000E+00  0.00000000E+00
  0.00000000E+00  0.00000000E+00  0.00000000E+00
  0.00000000E+00  0.00000000E+00  0.00000000E+00
  0.00000000E+00  0.00000000E+00  0.00000000E+00
  0.00000000E+00  0.00000000E+00  0.00000000E+00
  0.00000000E+00  0.00000000E+00  0.00000000E+00
  0.00000000E+00  0.00000000E+00  0.00000000E+00
  0.00000000E+00  0.00000000E+00  0.00000000E+00
  0.00000000E+00  0.00000000E+00  0.00000000E+00
  0.00000000E+00  0.00000000E+00  0.00000000E+00
  0.00000000E+00  0.00000000E+00  0.00000000E+00
  0.00000000E+00  0.00000000E+00  0.00000000E+00
  0.00000000E+00  0.00000000E+00  0.00000000E+00
  0.00000000E+00  0.00000000E+00  0.00000000E+00
  0.00000000E+00  0.00000000E+00  0.00000000E+00
  0.00000000E+00  0.00000000E+00  0.00000000E+00
  0.00000000E+00  0.00000000E+00  0.00000000E+00
  0.00000000E+00  0.00000000E+00  0.00000000E+00
  0.00000000E+00  0.00000000E+00  0.00000000E+00
  0.00000000E+00  0.00000000E+00  0.00000000E+00
  0.00000000E+00  0.00000000E+00  0.00000000E+00
  0.00000000E+00  0.00000000E+00  0.00000000E+00
  0.00000000E+00  0.00000000E+00  0.00000000E+00
  0.00000000E+00  0.00000000E+00  0.00000000E+00
  0.00000000E+00  0.00000000E+00  0.00000000E+00
  0.00000000E+00  0.00000000E+00  0.00000000E+00
  0.00000000E+00  0.00000000E+00  0.00000000E+00
  0.00000000E+00  0.00000000E+00  0.00000000E+00
  0.00000000E+00  0.00000000E+00  0.00000000E+00
  0.00000000E+00  0.00000000E+00  0.00000000E+00
  0.00000000E+00  0.00000000E+00  0.00000000E+00
  0.00000000E+00  0.00000000E+00  0.00000000E+00
  0.00000000E+00  0.00000000E+00  0.00000000E+00
  0.00000000E+00  0.00000000E+00  0.00000000E+00
  0.00000000E+00  0.00000000E+00  0.00000000E+00
  0.00000000E+00  0.00000000E+00  0.00000000E+00
  0.00000000E+00  0.00000000E+00  0.00000000E+00
  0.00000000E+00  0.00000000E+00  0.00000000E+00
  0.00000000E+00  0.00000000E+00  0.00000000E+00
  0.00000000E+00  0.00000000E+00  0.00000000E+00
  0.00000000E+00  0.00000000E+00  0.00000000E+00
  0.00000000E+00  0.00000000E+00  0.00000000E+00
  0.00000000E+00  0.00000000E+00  0.00000000E+00
  0.00000000E+00  0.00000000E+00  0.00000000E+00
  0.00000000E+00  0.00000000E+00  0.00000000E+00
  0.00000000E+00  0.00000000E+00  0.00000000E+00
  0.00000000E+00  0.00000000E+00  0.00000000E+00
  0.00000000E+00  0.00000000E+00  0.00000000E+00
  0.00000000E+00  0.00000000E+00  0.00000000E+00
  0.00000000E+00  0.00000000E+00  0.00000000E+00
  0.00000000E+00  0.00000000E+00  0.00000000E+00
  0.00000000E+00  0.00000000E+00  0.00000000E+00
  0.00000000E+00  0.00000000E+00  0.00000000E+00
  0.00000000E+00  0.00000000E+00  0.00000000E+00
  0.00000000E+00  0.00000000E+00  0.00000000E+00
  0.00000000E+00  0.00000000E+00  0.00000000E+00
  0.00000000E+00  0.00000000E+00  0.00000000E+00
  0.00000000E+00  0.00000000E+00  0.00000000E+00
  0.00000000E+00  0.00000000E+00  0.00000000E+00
  0.00000000E+00  0.00000000E+00  0.00000000E+00
  0.00000000E+00  0.00000000E+00  0.00000000E+00
  0.00000000E+00  0.00000000E+00  0.00000000E+00
  0.00000000E+00  0.00000000E+00  0.00000000E+00
  0.00000000E+00  0.00000000E+00  0.00000000E+00
  0.00000000E+00  0.00000000E+00  0.00000000E+00
  0.00000000E+00  0.00000000E+00  0.00000000E+00
  0.00000000E+00  0.00000000E+00  0.00000000E+00
  0.00000000E+00  0.00000000E+00  0.00000000E+00
  0.00000000E+00  0.00000000E+00  0.00000000E+00
  0.00000000E+00  0.00000000E+00  0.00000000E+00
