Si+Ge                                   
   1.00000000000000     
    16.2930011750000006    0.0000000000000000    0.0000000000000000
     0.0000000000000000   17.1743297579999989    0.0000000000000000
     0.0000000000000000    0.0000001850000000    7.6274881360000002
   Si   Ge
    72    48
Direct
  0.1303789019999968  0.8262046580000018  0.5629100199999968
  0.9637124540000030  0.0762039119999969  0.0000000779999993
  0.7970457079999989  0.4262040260000006  0.1125820649999980
  0.6303790810000010  0.7762041690000032  0.2251639959999991
  0.4637122749999989  0.1262044910000029  0.3377459940000023
  0.2970455290000018  0.4762046339999984  0.4503280220000008
  0.4637122749999989  0.8262046580000018  0.5629100199999968
  0.2970457970000027  0.0762039119999969  0.0000000779999993
  0.1303790810000010  0.4262040260000006  0.1125820649999980
  0.9637123939999981  0.7762041690000032  0.2251639959999991
  0.7970455880000031  0.1262044910000029  0.3377459940000023
  0.6303788419999989  0.4762046339999984  0.4503280220000008
  0.7970455880000031  0.8262046580000018  0.5629100199999968
  0.6303791400000023  0.0762039119999969  0.0000000779999993
  0.4637124240000006  0.4262040260000006  0.1125820649999980
  0.2970457670000002  0.7762041690000032  0.2251639959999991
  0.1303789760000029  0.1262044910000029  0.3377459940000023
  0.9637122150000010  0.4762046339999984  0.4503280220000008
  0.2137122150000010  0.5762047770000009  0.5629099009999976
  0.0470457670000002  0.8262040019999972  0.0000000000000000
  0.8803790810000010  0.1762042049999977  0.1125820350000026
  0.7137123349999968  0.5262044669999995  0.2251639220000001
  0.5470455880000031  0.8762046100000020  0.3377459650000034
  0.3803789620000018  0.2262046339999984  0.4503279030000016
  0.5470455880000031  0.5762047770000009  0.5629099009999976
  0.3803790810000010  0.8262040019999972  0.0000000000000000
  0.2137123790000004  0.1762042049999977  0.1125820350000026
  0.0470456930000012  0.5262044669999995  0.2251639220000001
  0.8803789620000018  0.8762046100000020  0.3377459650000034
  0.7137123349999968  0.2262046339999984  0.4503279030000016
  0.8803789019999968  0.5762047770000009  0.5629099009999976
  0.7137123939999981  0.8262040019999972  0.0000000000000000
  0.5470457079999989  0.1762042049999977  0.1125820350000026
  0.3803789910000006  0.5262044669999995  0.2251639220000001
  0.2137122299999987  0.8762046100000020  0.3377459650000034
  0.0470455809999990  0.2262046339999984  0.4503279030000016
  0.1303789019999968  0.3262047770000009  0.5629100199999968
  0.9637123939999981  0.5762040019999972  0.0000000309999990
  0.7970457079999989  0.9262041449999998  0.1125819980000031
  0.6303790210000031  0.2762042279999974  0.2251639220000001
  0.4637122749999989  0.6262044910000029  0.3377459940000023
  0.2970456480000010  0.9762046339999984  0.4503279030000016
  0.4637122749999989  0.3262047770000009  0.5629100199999968
  0.2970457670000002  0.5762040019999972  0.0000000309999990
  0.1303790509999985  0.9262041449999998  0.1125819980000031
  0.9637123939999981  0.2762042279999974  0.2251639220000001
  0.7970455880000031  0.6262044910000029  0.3377459940000023
  0.6303789620000018  0.9762046339999984  0.4503279030000016
  0.7970455880000031  0.3262047770000009  0.5629100199999968
  0.6303791400000023  0.5762040019999972  0.0000000309999990
  0.4637123939999981  0.9262041449999998  0.1125819980000031
  0.2970457380000013  0.2762042279999974  0.2251639220000001
  0.1303789760000029  0.6262044910000029  0.3377459940000023
  0.9637123349999968  0.9762046339999984  0.4503279030000016
  0.2137122150000010  0.0762047770000009  0.5629098420000034
  0.0470457670000002  0.3262039119999969  0.0000000779999993
  0.8803790810000010  0.6762040260000006  0.1125820059999967
  0.7137123939999981  0.0262042279999974  0.2251639520000026
  0.5470455880000031  0.3762044910000029  0.3377459650000034
  0.3803788419999989  0.7262047529999975  0.4503279030000016
  0.5470455880000031  0.0762047770000009  0.5629098420000034
  0.3803791110000034  0.3262039119999969  0.0000000779999993
  0.2137124090000029  0.6762040260000006  0.1125820059999967
  0.0470457260000003  0.0262042279999974  0.2251639520000026
  0.8803789620000018  0.3762044910000029  0.3377459650000034
  0.7137122150000010  0.7262047529999975  0.4503279030000016
  0.8803789620000018  0.0762047770000009  0.5629098420000034
  0.7137124540000030  0.3262039119999969  0.0000000779999993
  0.5470457670000002  0.6762040260000006  0.1125820059999967
  0.3803790810000010  0.0262042279999974  0.2251639520000026
  0.2137122899999966  0.3762044910000029  0.3377459650000034
  0.0470455399999992  0.7262047529999975  0.4503279030000016
  0.9132377509999969  0.9100242849999987  0.5629099610000026
  0.5382377509999969  0.5211353899999978  0.6503279209999988
  0.1632378099999983  0.1322464940000003  0.7377458810000022
  0.7882378099999983  0.7433574200000024  0.8251639599999976
  0.4132378099999983  0.3544685840000028  0.9125819209999975
  0.0382376909999991  0.9655795099999978  0.9999998810000008
  0.4132376909999991  0.9100242849999987  0.5629099610000026
  0.0382377170000012  0.5211353299999999  0.6503279209999988
  0.6632377509999969  0.1322464349999990  0.7377458810000022
  0.2882376909999991  0.7433574200000024  0.8251638409999984
  0.9132378099999983  0.3544684649999965  0.9125819209999975
  0.5382378099999983  0.9655797480000032  0.0000000000000000
  0.0382377279999986  0.6600242259999973  0.5629099610000026
  0.6632377509999969  0.2711352999999974  0.6503279209999988
  0.2882378099999983  0.8822463750000011  0.7377458810000022
  0.9132378099999983  0.4933574200000024  0.8251638409999984
  0.5382376909999991  0.1044684049999987  0.9125818010000017
  0.1632376909999991  0.7155796289999969  0.9999998810000008
  0.5382376909999991  0.6600242259999973  0.5629099610000026
  0.1632377059999968  0.2711352999999974  0.6503279209999988
  0.7882377509999969  0.8822463750000011  0.7377458810000022
  0.4132376909999991  0.4933574800000002  0.8251638409999984
  0.0382377509999969  0.1044684649999965  0.9125819209999975
  0.6632376909999991  0.7155796289999969  0.9999998810000008
  0.2882377509999969  0.6600242259999973  0.5629099610000026
  0.9132377509999969  0.2711352999999974  0.6503279209999988
  0.5382378099999983  0.8822463750000011  0.7377458810000022
  0.1632378099999983  0.4933574200000024  0.8251638409999984
  0.7882378099999983  0.1044684649999965  0.9125818010000017
  0.4132378099999983  0.7155795099999978  0.9999998810000008
  0.7882376909999991  0.6600241659999995  0.5629099610000026
  0.4132377210000016  0.2711352999999974  0.6503279209999988
  0.0382377840000032  0.8822463750000011  0.7377458810000022
  0.6632377509999969  0.4933574200000024  0.8251638409999984
  0.2882376909999991  0.1044684649999965  0.9125818010000017
  0.9132378099999983  0.7155796289999969  0.9999998810000008
  0.1632377210000016  0.9100242849999987  0.5629099610000026
  0.7882376909999991  0.5211353299999999  0.6503279209999988
  0.4132378099999983  0.1322464940000003  0.7377458810000022
  0.0382377509999969  0.7433574200000024  0.8251639599999976
  0.6632378099999983  0.3544685840000028  0.9125818010000017
  0.2882376909999991  0.9655795099999978  0.9999998810000008
  0.6632376909999991  0.9100242849999987  0.5629100800000018
  0.2882377509999969  0.5211353299999999  0.6503279209999988
  0.9132377509999969  0.1322464940000003  0.7377458810000022
  0.5382378099999983  0.7433574200000024  0.8251639599999976
  0.1632376909999991  0.3544684649999965  0.9125818010000017
  0.7882378099999983  0.9655797480000032  0.9999998810000008
 
  0.00000000E+00  0.00000000E+00  0.00000000E+00
  0.00000000E+00  0.00000000E+00  0.00000000E+00
  0.00000000E+00  0.00000000E+00  0.00000000E+00
  0.00000000E+00  0.00000000E+00  0.00000000E+00
  0.00000000E+00  0.00000000E+00  0.00000000E+00
  0.00000000E+00  0.00000000E+00  0.00000000E+00
  0.00000000E+00  0.00000000E+00  0.00000000E+00
  0.00000000E+00  0.00000000E+00  0.00000000E+00
  0.00000000E+00  0.00000000E+00  0.00000000E+00
  0.00000000E+00  0.00000000E+00  0.00000000E+00
  0.00000000E+00  0.00000000E+00  0.00000000E+00
  0.00000000E+00  0.00000000E+00  0.00000000E+00
  0.00000000E+00  0.00000000E+00  0.00000000E+00
  0.00000000E+00  0.00000000E+00  0.00000000E+00
  0.00000000E+00  0.00000000E+00  0.00000000E+00
  0.00000000E+00  0.00000000E+00  0.00000000E+00
  0.00000000E+00  0.00000000E+00  0.00000000E+00
  0.00000000E+00  0.00000000E+00  0.00000000E+00
  0.00000000E+00  0.00000000E+00  0.00000000E+00
  0.00000000E+00  0.00000000E+00  0.00000000E+00
  0.00000000E+00  0.00000000E+00  0.00000000E+00
  0.00000000E+00  0.00000000E+00  0.00000000E+00
  0.00000000E+00  0.00000000E+00  0.00000000E+00
  0.00000000E+00  0.00000000E+00  0.00000000E+00
  0.00000000E+00  0.00000000E+00  0.00000000E+00
  0.00000000E+00  0.00000000E+00  0.00000000E+00
  0.00000000E+00  0.00000000E+00  0.00000000E+00
  0.00000000E+00  0.00000000E+00  0.00000000E+00
  0.00000000E+00  0.00000000E+00  0.00000000E+00
  0.00000000E+00  0.00000000E+00  0.00000000E+00
  0.00000000E+00  0.00000000E+00  0.00000000E+00
  0.00000000E+00  0.00000000E+00  0.00000000E+00
  0.00000000E+00  0.00000000E+00  0.00000000E+00
  0.00000000E+00  0.00000000E+00  0.00000000E+00
  0.00000000E+00  0.00000000E+00  0.00000000E+00
  0.00000000E+00  0.00000000E+00  0.00000000E+00
  0.00000000E+00  0.00000000E+00  0.00000000E+00
  0.00000000E+00  0.00000000E+00  0.00000000E+00
  0.00000000E+00  0.00000000E+00  0.00000000E+00
  0.00000000E+00  0.00000000E+00  0.00000000E+00
  0.00000000E+00  0.00000000E+00  0.00000000E+00
  0.00000000E+00  0.00000000E+00  0.00000000E+00
  0.00000000E+00  0.00000000E+00  0.00000000E+00
  0.00000000E+00  0.00000000E+00  0.00000000E+00
  0.00000000E+00  0.00000000E+00  0.00000000E+00
  0.00000000E+00  0.00000000E+00  0.00000000E+00
  0.00000000E+00  0.00000000E+00  0.00000000E+00
  0.00000000E+00  0.00000000E+00  0.00000000E+00
  0.00000000E+00  0.00000000E+00  0.00000000E+00
  0.00000000E+00  0.00000000E+00  0.00000000E+00
  0.00000000E+00  0.00000000E+00  0.00000000E+00
  0.00000000E+00  0.00000000E+00  0.00000000E+00
  0.00000000E+00  0.00000000E+00  0.00000000E+00
  0.00000000E+00  0.00000000E+00  0.00000000E+00
  0.00000000E+00  0.00000000E+00  0.00000000E+00
  0.00000000E+00  0.00000000E+00  0.00000000E+00
  0.00000000E+00  0.00000000E+00  0.00000000E+00
  0.00000000E+00  0.00000000E+00  0.00000000E+00
  0.00000000E+00  0.00000000E+00  0.00000000E+00
  0.00000000E+00  0.00000000E+00  0.00000000E+00
  0.00000000E+00  0.00000000E+00  0.00000000E+00
  0.00000000E+00  0.00000000E+00  0.00000000E+00
  0.00000000E+00  0.00000000E+00  0.00000000E+00
  0.00000000E+00  0.00000000E+00  0.00000000E+00
  0.00000000E+00  0.00000000E+00  0.00000000E+00
  0.00000000E+00  0.00000000E+00  0.00000000E+00
  0.00000000E+00  0.00000000E+00  0.00000000E+00
  0.00000000E+00  0.00000000E+00  0.00000000E+00
  0.00000000E+00  0.00000000E+00  0.00000000E+00
  0.00000000E+00  0.00000000E+00  0.00000000E+00
  0.00000000E+00  0.00000000E+00  0.00000000E+00
  0.00000000E+00  0.00000000E+00  0.00000000E+00
  0.00000000E+00  0.00000000E+00  0.00000000E+00
  0.00000000E+00  0.00000000E+00  0.00000000E+00
  0.00000000E+00  0.00000000E+00  0.00000000E+00
  0.00000000E+00  0.00000000E+00  0.00000000E+00
  0.00000000E+00  0.00000000E+00  0.00000000E+00
  0.00000000E+00  0.00000000E+00  0.00000000E+00
  0.00000000E+00  0.00000000E+00  0.00000000E+00
  0.00000000E+00  0.00000000E+00  0.00000000E+00
  0.00000000E+00  0.00000000E+00  0.00000000E+00
  0.00000000E+00  0.00000000E+00  0.00000000E+00
  0.00000000E+00  0.00000000E+00  0.00000000E+00
  0.00000000E+00  0.00000000E+00  0.00000000E+00
  0.00000000E+00  0.00000000E+00  0.00000000E+00
  0.00000000E+00  0.00000000E+00  0.00000000E+00
  0.00000000E+00  0.00000000E+00  0.00000000E+00
  0.00000000E+00  0.00000000E+00  0.00000000E+00
  0.00000000E+00  0.00000000E+00  0.00000000E+00
  0.00000000E+00  0.00000000E+00  0.00000000E+00
  0.00000000E+00  0.00000000E+00  0.00000000E+00
  0.00000000E+00  0.00000000E+00  0.00000000E+00
  0.00000000E+00  0.00000000E+00  0.00000000E+00
  0.00000000E+00  0.00000000E+00  0.00000000E+00
  0.00000000E+00  0.00000000E+00  0.00000000E+00
  0.00000000E+00  0.00000000E+00  0.00000000E+00
  0.00000000E+00  0.00000000E+00  0.00000000E+00
  0.00000000E+00  0.00000000E+00  0.00000000E+00
  0.00000000E+00  0.00000000E+00  0.00000000E+00
  0.00000000E+00  0.00000000E+00  0.00000000E+00
  0.00000000E+00  0.00000000E+00  0.00000000E+00
  0.00000000E+00  0.00000000E+00  0.00000000E+00
  0.00000000E+00  0.00000000E+00  0.00000000E+00
  0.00000000E+00  0.00000000E+00  0.00000000E+00
  0.00000000E+00  0.00000000E+00  0.00000000E+00
  0.00000000E+00  0.00000000E+00  0.00000000E+00
  0.00000000E+00  0.00000000E+00  0.00000000E+00
  0.00000000E+00  0.00000000E+00  0.00000000E+00
  0.00000000E+00  0.00000000E+00  0.00000000E+00
  0.00000000E+00  0.00000000E+00  0.00000000E+00
  0.00000000E+00  0.00000000E+00  0.00000000E+00
  0.00000000E+00  0.00000000E+00  0.00000000E+00
  0.00000000E+00  0.00000000E+00  0.00000000E+00
  0.00000000E+00  0.00000000E+00  0.00000000E+00
  0.00000000E+00  0.00000000E+00  0.00000000E+00
  0.00000000E+00  0.00000000E+00  0.00000000E+00
  0.00000000E+00  0.00000000E+00  0.00000000E+00
  0.00000000E+00  0.00000000E+00  0.00000000E+00
  0.00000000E+00  0.00000000E+00  0.00000000E+00
  0.00000000E+00  0.00000000E+00  0.00000000E+00
