Sn+Ge
    1.000000000
   12.978400230    0.000000000    0.000000000
    0.000000000   12.978400230    0.000000000
    0.000000000    0.000000000   19.583751678
Sn  Ge 
48     60
Direct
    0.992552638    0.499999970    0.000000000
    0.742552638    0.499999970    0.165678188
    0.492552757    0.499999970    0.331356287
    0.992552638    0.000000000    0.000000000
    0.742552638    0.000000000    0.165678188
    0.492552757    0.000000000    0.331356287
    0.492552608    0.499999970    0.000000000
    0.242552638    0.499999970    0.165678188
    0.992552698    0.499999970    0.331356287
    0.492552608    0.000000000    0.000000000
    0.242552638    0.000000000    0.165678188
    0.992552698    0.000000000    0.331356287
    0.117552646    0.874999940    0.082839087
    0.867552757    0.874999940    0.248517260
    0.617552698    0.874999940    0.414195418
    0.117552646    0.374999970    0.082839087
    0.867552757    0.374999970    0.248517260
    0.617552698    0.374999970    0.414195418
    0.617552578    0.874999940    0.082839087
    0.367552698    0.874999940    0.248517260
    0.117552668    0.874999940    0.414195418
    0.617552578    0.374999970    0.082839087
    0.367552698    0.374999970    0.248517260
    0.117552668    0.374999970    0.414195418
    0.242552638    0.749999940    0.000000000
    0.992552638    0.749999940    0.165678188
    0.742552757    0.749999940    0.331356287
    0.242552638    0.249999985    0.000000000
    0.992552638    0.249999985    0.165678188
    0.742552757    0.249999985    0.331356287
    0.742552578    0.749999940    0.000000000
    0.492552608    0.749999940    0.165678188
    0.242552698    0.749999940    0.331356287
    0.742552578    0.249999985    0.000000000
    0.492552608    0.249999985    0.165678188
    0.242552698    0.249999985    0.331356287
    0.367552638    0.624999940    0.082839087
    0.117552713    0.624999940    0.248517260
    0.867552698    0.624999940    0.414195418
    0.367552638    0.124999993    0.082839087
    0.117552713    0.124999993    0.248517260
    0.867552698    0.124999993    0.414195418
    0.867552638    0.624999940    0.082839087
    0.617552757    0.624999940    0.248517260
    0.367552698    0.624999940    0.414195418
    0.867552638    0.124999993    0.082839087
    0.617552757    0.124999993    0.248517260
    0.367552698    0.124999993    0.414195418
    0.973011613    0.583261669    0.526533484
    0.773011565    0.683261633    0.670984805
    0.573011518    0.783261657    0.815436304
    0.173011541    0.983261645    0.526533484
    0.973011494    0.083261609    0.670984805
    0.773011446    0.183261633    0.815436304
    0.373011589    0.383261651    0.526533484
    0.173011541    0.483261675    0.670984805
    0.973011494    0.583261728    0.815436304
    0.573011577    0.783261657    0.526533484
    0.373011589    0.883261621    0.670984805
    0.173011541    0.983261645    0.815436304
    0.773011565    0.183261633    0.526533484
    0.573011518    0.283261538    0.670984805
    0.373011470    0.383261621    0.815436304
    0.323011518    0.533261657    0.598759174
    0.123011470    0.633261681    0.743210614
    0.923011363    0.733261704    0.887661994
    0.923011601    0.733261645    0.598759174
    0.723011494    0.833261728    0.743210614
    0.523011446    0.933261693    0.887661994
    0.123011589    0.133261681    0.598759174
    0.923011541    0.233261585    0.743210614
    0.723011494    0.333261728    0.887661994
    0.523011565    0.933261633    0.598759174
    0.323011518    0.033261776    0.743210614
    0.123011351    0.133261681    0.887661994
    0.723011553    0.333261728    0.598759174
    0.523011506    0.433261693    0.743210614
    0.323011398    0.533261716    0.887661994
    0.273011446    0.683261633    0.526533484
    0.073011398    0.783261597    0.670984805
    0.873011351    0.883261621    0.815436304
    0.673011541    0.483261645    0.526533484
    0.473011553    0.583261669    0.670984805
    0.273011446    0.683261693    0.815436304
    0.873011589    0.883261681    0.526533484
    0.673011541    0.983261704    0.670984805
    0.473011494    0.083261728    0.815436304
    0.073011518    0.283261657    0.526533484
    0.873011470    0.383261740    0.670984805
    0.673011422    0.483261764    0.815436304
    0.473011583    0.083261728    0.526533484
    0.273011565    0.183261633    0.670984805
    0.073011518    0.283261776    0.815436304
    0.023011565    0.433261693    0.598759174
    0.823011518    0.533261716    0.743210614
    0.623011470    0.633261740    0.887661994
    0.223011732    0.833261669    0.598759174
    0.023011684    0.933261693    0.743210614
    0.823011518    0.033261776    0.887661994
    0.623011589    0.633261681    0.598759174
    0.423011541    0.733261704    0.743210614
    0.223011494    0.833261728    0.887661994
    0.823011577    0.033261657    0.598759174
    0.623011529    0.133261681    0.743210614
    0.423011482    0.233261704    0.887661994
    0.423011571    0.233261585    0.598759174
    0.223011494    0.333261728    0.743210614
    0.023011446    0.433261693    0.887661994
