Si+Ge                                   
   1.00000000000000     
    17.1743316650000004    0.0000000000000000    0.0000000000000000
     0.0000000000000000   17.1743297579999989    0.0000000000000000
     0.0000000000000000    0.0000000000000000   11.2616434099999996
   Si   Ge
   120    72
Direct
  0.9964043499999988  0.9748306870000008  0.0000000000000000
  0.9464043380000007  0.6248306040000031  0.2411282209999968
  0.8964042659999976  0.2748304610000005  0.4822565019999985
  0.0964044030000011  0.6748307350000005  0.0000000000000000
  0.0464043360000019  0.3248306509999992  0.2411282209999968
  0.9964042309999996  0.9748305079999966  0.4822565019999985
  0.1964044119999997  0.3748306629999973  0.0000000000000000
  0.1464043410000002  0.0248305969999976  0.2411282209999968
  0.0964042620000001  0.6748304369999971  0.4822565019999985
  0.2964043919999995  0.0748306589999999  0.0000000000000000
  0.2464043049999987  0.7248306270000029  0.2411282209999968
  0.1964042339999992  0.3748304249999990  0.4822565019999985
  0.3964044450000017  0.7748306989999989  0.0000000000000000
  0.3464043740000022  0.4248305859999988  0.2411282209999968
  0.2964043019999991  0.0748304580000010  0.4822565019999985
  0.4964043800000013  0.4748306870000008  0.0000000000000000
  0.4464043079999982  0.1248306040000031  0.2411282209999968
  0.3964042369999987  0.7748304610000005  0.4822565019999985
  0.5964043740000022  0.1748306450000001  0.0000000000000000
  0.5464043019999991  0.8248305919999979  0.2411282209999968
  0.4964042599999985  0.4748304490000024  0.4822565019999985
  0.6964045169999977  0.8748307819999965  0.0000000000000000
  0.6464044450000017  0.5248306390000010  0.2411282209999968
  0.5964043740000022  0.1748305409999986  0.4822565019999985
  0.7964044209999983  0.5748307109999971  0.0000000000000000
  0.7464043499999988  0.2248306130000017  0.2411282209999968
  0.6964042780000028  0.8748304840000003  0.4822565019999985
  0.8964045049999996  0.2748306989999989  0.0000000000000000
  0.8464044330000036  0.9248306160000013  0.2411282209999968
  0.7964043619999970  0.5748304720000021  0.4822565019999985
  0.9964044090000002  0.2248306720000031  0.1205641479999997
  0.9464042780000028  0.8748305439999982  0.3616923689999965
  0.8964042659999976  0.5248304610000005  0.6028205750000026
  0.0964043660000016  0.9248306160000013  0.1205641479999997
  0.0464042870000014  0.5748305320000000  0.3616923689999965
  0.9964042309999996  0.2248303889999974  0.6028205750000026
  0.1964044119999997  0.6248306629999973  0.1205641479999997
  0.1464043410000002  0.2748305499999972  0.3616923689999965
  0.0964042620000001  0.9248304959999984  0.6028205750000026
  0.2964044209999983  0.3248306209999967  0.1205641479999997
  0.2464043350000011  0.9748305079999966  0.3616923689999965
  0.1964042629999980  0.6248304840000003  0.6028205750000026
  0.3964044149999992  0.0248306390000010  0.1205641479999997
  0.3464043139999973  0.6748305560000034  0.3616923689999965
  0.2964042429999978  0.3248304720000021  0.6028205750000026
  0.4964044990000005  0.7248306870000008  0.1205641479999997
  0.4464044269999974  0.3748305740000006  0.3616923689999965
  0.3964043559999979  0.0248305240000022  0.6028205750000026
  0.5964043740000022  0.4248305859999988  0.1205641479999997
  0.5464043019999991  0.0748304950000005  0.3616923689999965
  0.4964042599999985  0.7248304490000024  0.6028205750000026
  0.6964045169999977  0.1248306629999973  0.1205641479999997
  0.6464043860000004  0.7748305799999997  0.3616923689999965
  0.5964043740000022  0.4248304959999984  0.6028205750000026
  0.7964044810000033  0.8248307109999971  0.1205641479999997
  0.7464044090000002  0.4748305680000016  0.3616923689999965
  0.6964043380000007  0.1248304840000003  0.6028205750000026
  0.8964044450000017  0.5248306390000010  0.1205641479999997
  0.8464043740000022  0.1748305409999986  0.3616923689999965
  0.7964043019999991  0.8248304720000021  0.6028205750000026
  0.9964044090000002  0.4748306870000008  0.0000000000000000
  0.9464043380000007  0.1248306040000031  0.2411282209999968
  0.8964042659999976  0.7748304610000005  0.4822565019999985
  0.0964043809999993  0.1748306599999978  0.0000000000000000
  0.0464043129999965  0.8248305919999979  0.2411282209999968
  0.9964042309999996  0.4748304490000024  0.4822565019999985
  0.1964044119999997  0.8748306629999973  0.0000000000000000
  0.1464043260000025  0.5248305799999997  0.2411282209999968
  0.0964042620000001  0.1748304369999971  0.4822565019999985
  0.2964044209999983  0.5748306509999992  0.0000000000000000
  0.2464043200000035  0.2248305979999969  0.2411282209999968
  0.1964042480000003  0.8748304840000003  0.4822565019999985
  0.3964044450000017  0.2748306690000035  0.0000000000000000
  0.3464043740000022  0.9248306160000013  0.2411282209999968
  0.2964043019999991  0.5748304720000021  0.4822565019999985
  0.4964044090000002  0.9748306270000029  0.0000000000000000
  0.4464043380000007  0.6248305439999982  0.2411282209999968
  0.3964042369999987  0.2748304010000027  0.4822565019999985
  0.5964043740000022  0.6748306750000026  0.0000000000000000
  0.5464043019999991  0.3248305919999979  0.2411282209999968
  0.4964042309999996  0.9748304490000024  0.4822565019999985
  0.6964043970000020  0.3748306330000020  0.0000000000000000
  0.6464043260000025  0.0248305610000017  0.2411282209999968
  0.5964042539999994  0.6748304369999971  0.4822565019999985
  0.7964044209999983  0.0748306360000015  0.0000000000000000
  0.7464043499999988  0.7248305079999966  0.2411282209999968
  0.6964042780000028  0.3748304249999990  0.4822565019999985
  0.8964045049999996  0.7748306989999989  0.0000000000000000
  0.8464044330000036  0.4248306160000013  0.2411282209999968
  0.7964043619999970  0.0748304800000028  0.4822565019999985
  0.9964043499999988  0.7248307469999986  0.1205641479999997
  0.9464042780000028  0.3748306040000031  0.3616923689999965
  0.8964042659999976  0.0248305389999999  0.6028205750000026
  0.0964043889999999  0.4248306750000026  0.1205641479999997
  0.0464043059999995  0.0748305689999995  0.3616923689999965
  0.9964042309999996  0.7248305079999966  0.6028205750000026
  0.1964044119999997  0.1248306560000003  0.1205641479999997
  0.1464043410000002  0.7748305799999997  0.3616923689999965
  0.0964042689999971  0.4248304959999984  0.6028205750000026
  0.2964043919999995  0.8248307109999971  0.1205641479999997
  0.2464043200000035  0.4748305680000016  0.3616923689999965
  0.1964042480000003  0.1248304840000003  0.6028205750000026
  0.3964044149999992  0.5248307589999968  0.1205641479999997
  0.3464043439999998  0.1748306450000001  0.3616923689999965
  0.2964042719999966  0.8248305919999979  0.6028205750000026
  0.4964044090000002  0.2248306420000006  0.1205641479999997
  0.4464043380000007  0.8748305439999982  0.3616923689999965
  0.3964042369999987  0.5248304610000005  0.6028205750000026
  0.5964044330000036  0.9248306750000026  0.1205641479999997
  0.5464043619999970  0.5748305919999979  0.3616923689999965
  0.4964042900000010  0.2248305079999966  0.6028205750000026
  0.6964044569999999  0.6248307230000023  0.1205641479999997
  0.6464043860000004  0.2748305799999997  0.3616923689999965
  0.5964043139999973  0.9248305560000034  0.6028205750000026
  0.7964043619999970  0.3248306209999967  0.1205641479999997
  0.7464042900000010  0.9748305079999966  0.3616923689999965
  0.6964042190000015  0.6248304840000003  0.6028205750000026
  0.8964043860000004  0.0248306260000035  0.1205641479999997
  0.8464043139999973  0.6748305560000034  0.3616923689999965
  0.7964042429999978  0.3248304130000008  0.6028205750000026
  0.8262043000000006  0.7970457079999989  0.9999998210000030
  0.0762038900000022  0.6303791400000023  0.6028205750000026
  0.4262039660000028  0.4637124240000006  0.6822565200000028
  0.7762040499999969  0.2970457079999989  0.7616923450000002
  0.1262042520000008  0.1303790059999983  0.8411281699999975
  0.4762045149999992  0.9637122749999989  0.9205641149999977
  0.8262043000000006  0.4637123349999968  0.9999998210000030
  0.0762038900000022  0.2970457670000002  0.6028205750000026
  0.4262039660000028  0.1303790810000010  0.6822565200000028
  0.7762040499999969  0.9637123939999981  0.7616923450000002
  0.1262042520000008  0.7970457079999989  0.8411281699999975
  0.4762045149999992  0.6303789620000018  0.9205641149999977
  0.8262043000000006  0.1303790210000031  0.9999998210000030
  0.0762038900000022  0.9637124540000030  0.6028205750000026
  0.4262039660000028  0.7970457670000002  0.6822565200000028
  0.7762040499999969  0.6303790810000010  0.7616923450000002
  0.1262042520000008  0.4637123349999968  0.8411281699999975
  0.4762045149999992  0.2970455880000031  0.9205641149999977
  0.5762045379999989  0.0470455959999967  0.0000001189999992
  0.8262038829999980  0.8803790210000031  0.6028205750000026
  0.1762040850000020  0.7137123939999981  0.6822564009999965
  0.5262042279999974  0.5470457079999989  0.7616923450000002
  0.8762042520000008  0.3803789910000006  0.8411281699999975
  0.2262041569999980  0.2137122899999966  0.9205641149999977
  0.5762045379999989  0.7137123349999968  0.0000001189999992
  0.8262038829999980  0.5470457670000002  0.6028205750000026
  0.1762040850000020  0.3803790810000010  0.6822564009999965
  0.5262042279999974  0.2137124090000029  0.7616923450000002
  0.8762042520000008  0.0470456819999967  0.8411281699999975
  0.2262041569999980  0.8803790210000031  0.9205641149999977
  0.5762045379999989  0.3803789620000018  0.0000001189999992
  0.8262038829999980  0.2137124090000029  0.6028205750000026
  0.1762040850000020  0.0470457110000027  0.6822564009999965
  0.5262042279999974  0.8803790810000010  0.7616923450000002
  0.8762042520000008  0.7137123349999968  0.8411281699999975
  0.2262041569999980  0.5470455880000031  0.9205641149999977
  0.3262043000000006  0.7970455880000031  0.9999998210000030
  0.5762038829999980  0.6303790810000010  0.6028205750000026
  0.9262040850000020  0.4637123939999981  0.6822565200000028
  0.2762039899999991  0.2970457079999989  0.7616922859999988
  0.6262042520000008  0.1303790059999983  0.8411281699999975
  0.9762042759999972  0.9637122749999989  0.9205641149999977
  0.3262043000000006  0.4637122749999989  0.9999998210000030
  0.5762038829999980  0.2970457670000002  0.6028205750000026
  0.9262040850000020  0.1303790509999985  0.6822565200000028
  0.2762039899999991  0.9637123939999981  0.7616922859999988
  0.6262042520000008  0.7970457079999989  0.8411281699999975
  0.9762042759999972  0.6303789620000018  0.9205641149999977
  0.3262043000000006  0.1303789620000018  0.9999998210000030
  0.5762038829999980  0.9637124540000030  0.6028205750000026
  0.9262040850000020  0.7970457079999989  0.6822565200000028
  0.2762039899999991  0.6303790810000010  0.7616922859999988
  0.6262042520000008  0.4637123349999968  0.8411281699999975
  0.9762042759999972  0.2970456480000010  0.9205641149999977
  0.0762045379999989  0.0470456520000013  0.0000001189999992
  0.3262038829999980  0.8803790810000010  0.6028205750000026
  0.6762039660000028  0.7137123939999981  0.6822564009999965
  0.0262041089999983  0.5470457079999989  0.7616923450000002
  0.3762042520000008  0.3803789910000006  0.8411281699999975
  0.7262045149999992  0.2137122450000035  0.9205639959999985
  0.0762045379999989  0.7137123349999968  0.0000001189999992
  0.3262038829999980  0.5470458269999980  0.6028205750000026
  0.6762039660000028  0.3803791110000034  0.6822564009999965
  0.0262041089999983  0.2137124090000029  0.7616923450000002
  0.3762042520000008  0.0470456890000008  0.8411281699999975
  0.7262045149999992  0.8803789620000018  0.9205639959999985
  0.0762045379999989  0.3803790210000031  0.0000001189999992
  0.3262038829999980  0.2137124240000006  0.6028205750000026
  0.6762039660000028  0.0470457449999984  0.6822564009999965
  0.0262041089999983  0.8803790810000010  0.7616923450000002
  0.3762042520000008  0.7137123349999968  0.8411281699999975
  0.7262045149999992  0.5470455880000031  0.9205639959999985
 
  0.00000000E+00  0.00000000E+00  0.00000000E+00
  0.00000000E+00  0.00000000E+00  0.00000000E+00
  0.00000000E+00  0.00000000E+00  0.00000000E+00
  0.00000000E+00  0.00000000E+00  0.00000000E+00
  0.00000000E+00  0.00000000E+00  0.00000000E+00
  0.00000000E+00  0.00000000E+00  0.00000000E+00
  0.00000000E+00  0.00000000E+00  0.00000000E+00
  0.00000000E+00  0.00000000E+00  0.00000000E+00
  0.00000000E+00  0.00000000E+00  0.00000000E+00
  0.00000000E+00  0.00000000E+00  0.00000000E+00
  0.00000000E+00  0.00000000E+00  0.00000000E+00
  0.00000000E+00  0.00000000E+00  0.00000000E+00
  0.00000000E+00  0.00000000E+00  0.00000000E+00
  0.00000000E+00  0.00000000E+00  0.00000000E+00
  0.00000000E+00  0.00000000E+00  0.00000000E+00
  0.00000000E+00  0.00000000E+00  0.00000000E+00
  0.00000000E+00  0.00000000E+00  0.00000000E+00
  0.00000000E+00  0.00000000E+00  0.00000000E+00
  0.00000000E+00  0.00000000E+00  0.00000000E+00
  0.00000000E+00  0.00000000E+00  0.00000000E+00
  0.00000000E+00  0.00000000E+00  0.00000000E+00
  0.00000000E+00  0.00000000E+00  0.00000000E+00
  0.00000000E+00  0.00000000E+00  0.00000000E+00
  0.00000000E+00  0.00000000E+00  0.00000000E+00
  0.00000000E+00  0.00000000E+00  0.00000000E+00
  0.00000000E+00  0.00000000E+00  0.00000000E+00
  0.00000000E+00  0.00000000E+00  0.00000000E+00
  0.00000000E+00  0.00000000E+00  0.00000000E+00
  0.00000000E+00  0.00000000E+00  0.00000000E+00
  0.00000000E+00  0.00000000E+00  0.00000000E+00
  0.00000000E+00  0.00000000E+00  0.00000000E+00
  0.00000000E+00  0.00000000E+00  0.00000000E+00
  0.00000000E+00  0.00000000E+00  0.00000000E+00
  0.00000000E+00  0.00000000E+00  0.00000000E+00
  0.00000000E+00  0.00000000E+00  0.00000000E+00
  0.00000000E+00  0.00000000E+00  0.00000000E+00
  0.00000000E+00  0.00000000E+00  0.00000000E+00
  0.00000000E+00  0.00000000E+00  0.00000000E+00
  0.00000000E+00  0.00000000E+00  0.00000000E+00
  0.00000000E+00  0.00000000E+00  0.00000000E+00
  0.00000000E+00  0.00000000E+00  0.00000000E+00
  0.00000000E+00  0.00000000E+00  0.00000000E+00
  0.00000000E+00  0.00000000E+00  0.00000000E+00
  0.00000000E+00  0.00000000E+00  0.00000000E+00
  0.00000000E+00  0.00000000E+00  0.00000000E+00
  0.00000000E+00  0.00000000E+00  0.00000000E+00
  0.00000000E+00  0.00000000E+00  0.00000000E+00
  0.00000000E+00  0.00000000E+00  0.00000000E+00
  0.00000000E+00  0.00000000E+00  0.00000000E+00
  0.00000000E+00  0.00000000E+00  0.00000000E+00
  0.00000000E+00  0.00000000E+00  0.00000000E+00
  0.00000000E+00  0.00000000E+00  0.00000000E+00
  0.00000000E+00  0.00000000E+00  0.00000000E+00
  0.00000000E+00  0.00000000E+00  0.00000000E+00
  0.00000000E+00  0.00000000E+00  0.00000000E+00
  0.00000000E+00  0.00000000E+00  0.00000000E+00
  0.00000000E+00  0.00000000E+00  0.00000000E+00
  0.00000000E+00  0.00000000E+00  0.00000000E+00
  0.00000000E+00  0.00000000E+00  0.00000000E+00
  0.00000000E+00  0.00000000E+00  0.00000000E+00
  0.00000000E+00  0.00000000E+00  0.00000000E+00
  0.00000000E+00  0.00000000E+00  0.00000000E+00
  0.00000000E+00  0.00000000E+00  0.00000000E+00
  0.00000000E+00  0.00000000E+00  0.00000000E+00
  0.00000000E+00  0.00000000E+00  0.00000000E+00
  0.00000000E+00  0.00000000E+00  0.00000000E+00
  0.00000000E+00  0.00000000E+00  0.00000000E+00
  0.00000000E+00  0.00000000E+00  0.00000000E+00
  0.00000000E+00  0.00000000E+00  0.00000000E+00
  0.00000000E+00  0.00000000E+00  0.00000000E+00
  0.00000000E+00  0.00000000E+00  0.00000000E+00
  0.00000000E+00  0.00000000E+00  0.00000000E+00
  0.00000000E+00  0.00000000E+00  0.00000000E+00
  0.00000000E+00  0.00000000E+00  0.00000000E+00
  0.00000000E+00  0.00000000E+00  0.00000000E+00
  0.00000000E+00  0.00000000E+00  0.00000000E+00
  0.00000000E+00  0.00000000E+00  0.00000000E+00
  0.00000000E+00  0.00000000E+00  0.00000000E+00
  0.00000000E+00  0.00000000E+00  0.00000000E+00
  0.00000000E+00  0.00000000E+00  0.00000000E+00
  0.00000000E+00  0.00000000E+00  0.00000000E+00
  0.00000000E+00  0.00000000E+00  0.00000000E+00
  0.00000000E+00  0.00000000E+00  0.00000000E+00
  0.00000000E+00  0.00000000E+00  0.00000000E+00
  0.00000000E+00  0.00000000E+00  0.00000000E+00
  0.00000000E+00  0.00000000E+00  0.00000000E+00
  0.00000000E+00  0.00000000E+00  0.00000000E+00
  0.00000000E+00  0.00000000E+00  0.00000000E+00
  0.00000000E+00  0.00000000E+00  0.00000000E+00
  0.00000000E+00  0.00000000E+00  0.00000000E+00
  0.00000000E+00  0.00000000E+00  0.00000000E+00
  0.00000000E+00  0.00000000E+00  0.00000000E+00
  0.00000000E+00  0.00000000E+00  0.00000000E+00
  0.00000000E+00  0.00000000E+00  0.00000000E+00
  0.00000000E+00  0.00000000E+00  0.00000000E+00
  0.00000000E+00  0.00000000E+00  0.00000000E+00
  0.00000000E+00  0.00000000E+00  0.00000000E+00
  0.00000000E+00  0.00000000E+00  0.00000000E+00
  0.00000000E+00  0.00000000E+00  0.00000000E+00
  0.00000000E+00  0.00000000E+00  0.00000000E+00
  0.00000000E+00  0.00000000E+00  0.00000000E+00
  0.00000000E+00  0.00000000E+00  0.00000000E+00
  0.00000000E+00  0.00000000E+00  0.00000000E+00
  0.00000000E+00  0.00000000E+00  0.00000000E+00
  0.00000000E+00  0.00000000E+00  0.00000000E+00
  0.00000000E+00  0.00000000E+00  0.00000000E+00
  0.00000000E+00  0.00000000E+00  0.00000000E+00
  0.00000000E+00  0.00000000E+00  0.00000000E+00
  0.00000000E+00  0.00000000E+00  0.00000000E+00
  0.00000000E+00  0.00000000E+00  0.00000000E+00
  0.00000000E+00  0.00000000E+00  0.00000000E+00
  0.00000000E+00  0.00000000E+00  0.00000000E+00
  0.00000000E+00  0.00000000E+00  0.00000000E+00
  0.00000000E+00  0.00000000E+00  0.00000000E+00
  0.00000000E+00  0.00000000E+00  0.00000000E+00
  0.00000000E+00  0.00000000E+00  0.00000000E+00
  0.00000000E+00  0.00000000E+00  0.00000000E+00
  0.00000000E+00  0.00000000E+00  0.00000000E+00
  0.00000000E+00  0.00000000E+00  0.00000000E+00
  0.00000000E+00  0.00000000E+00  0.00000000E+00
  0.00000000E+00  0.00000000E+00  0.00000000E+00
  0.00000000E+00  0.00000000E+00  0.00000000E+00
  0.00000000E+00  0.00000000E+00  0.00000000E+00
  0.00000000E+00  0.00000000E+00  0.00000000E+00
  0.00000000E+00  0.00000000E+00  0.00000000E+00
  0.00000000E+00  0.00000000E+00  0.00000000E+00
  0.00000000E+00  0.00000000E+00  0.00000000E+00
  0.00000000E+00  0.00000000E+00  0.00000000E+00
  0.00000000E+00  0.00000000E+00  0.00000000E+00
  0.00000000E+00  0.00000000E+00  0.00000000E+00
  0.00000000E+00  0.00000000E+00  0.00000000E+00
  0.00000000E+00  0.00000000E+00  0.00000000E+00
  0.00000000E+00  0.00000000E+00  0.00000000E+00
  0.00000000E+00  0.00000000E+00  0.00000000E+00
  0.00000000E+00  0.00000000E+00  0.00000000E+00
  0.00000000E+00  0.00000000E+00  0.00000000E+00
  0.00000000E+00  0.00000000E+00  0.00000000E+00
  0.00000000E+00  0.00000000E+00  0.00000000E+00
  0.00000000E+00  0.00000000E+00  0.00000000E+00
  0.00000000E+00  0.00000000E+00  0.00000000E+00
  0.00000000E+00  0.00000000E+00  0.00000000E+00
  0.00000000E+00  0.00000000E+00  0.00000000E+00
  0.00000000E+00  0.00000000E+00  0.00000000E+00
  0.00000000E+00  0.00000000E+00  0.00000000E+00
  0.00000000E+00  0.00000000E+00  0.00000000E+00
  0.00000000E+00  0.00000000E+00  0.00000000E+00
  0.00000000E+00  0.00000000E+00  0.00000000E+00
  0.00000000E+00  0.00000000E+00  0.00000000E+00
  0.00000000E+00  0.00000000E+00  0.00000000E+00
  0.00000000E+00  0.00000000E+00  0.00000000E+00
  0.00000000E+00  0.00000000E+00  0.00000000E+00
  0.00000000E+00  0.00000000E+00  0.00000000E+00
  0.00000000E+00  0.00000000E+00  0.00000000E+00
  0.00000000E+00  0.00000000E+00  0.00000000E+00
  0.00000000E+00  0.00000000E+00  0.00000000E+00
  0.00000000E+00  0.00000000E+00  0.00000000E+00
  0.00000000E+00  0.00000000E+00  0.00000000E+00
  0.00000000E+00  0.00000000E+00  0.00000000E+00
  0.00000000E+00  0.00000000E+00  0.00000000E+00
  0.00000000E+00  0.00000000E+00  0.00000000E+00
  0.00000000E+00  0.00000000E+00  0.00000000E+00
  0.00000000E+00  0.00000000E+00  0.00000000E+00
  0.00000000E+00  0.00000000E+00  0.00000000E+00
  0.00000000E+00  0.00000000E+00  0.00000000E+00
  0.00000000E+00  0.00000000E+00  0.00000000E+00
  0.00000000E+00  0.00000000E+00  0.00000000E+00
  0.00000000E+00  0.00000000E+00  0.00000000E+00
  0.00000000E+00  0.00000000E+00  0.00000000E+00
  0.00000000E+00  0.00000000E+00  0.00000000E+00
  0.00000000E+00  0.00000000E+00  0.00000000E+00
  0.00000000E+00  0.00000000E+00  0.00000000E+00
  0.00000000E+00  0.00000000E+00  0.00000000E+00
  0.00000000E+00  0.00000000E+00  0.00000000E+00
  0.00000000E+00  0.00000000E+00  0.00000000E+00
  0.00000000E+00  0.00000000E+00  0.00000000E+00
  0.00000000E+00  0.00000000E+00  0.00000000E+00
  0.00000000E+00  0.00000000E+00  0.00000000E+00
  0.00000000E+00  0.00000000E+00  0.00000000E+00
  0.00000000E+00  0.00000000E+00  0.00000000E+00
  0.00000000E+00  0.00000000E+00  0.00000000E+00
  0.00000000E+00  0.00000000E+00  0.00000000E+00
  0.00000000E+00  0.00000000E+00  0.00000000E+00
  0.00000000E+00  0.00000000E+00  0.00000000E+00
  0.00000000E+00  0.00000000E+00  0.00000000E+00
  0.00000000E+00  0.00000000E+00  0.00000000E+00
  0.00000000E+00  0.00000000E+00  0.00000000E+00
  0.00000000E+00  0.00000000E+00  0.00000000E+00
  0.00000000E+00  0.00000000E+00  0.00000000E+00
  0.00000000E+00  0.00000000E+00  0.00000000E+00
  0.00000000E+00  0.00000000E+00  0.00000000E+00
  0.00000000E+00  0.00000000E+00  0.00000000E+00
  0.00000000E+00  0.00000000E+00  0.00000000E+00
