Sn+Si
    1.000000000
    9.177114487    0.000000000    0.000000000
    0.000000000   15.895230293    0.000000000
    0.000000000    0.000000000   13.972716331
Sn  Si 
48     48
Direct
    0.000000000    0.987590849    0.000000015
    0.000000000    0.654257417    0.268132687
    0.000000000    0.320923984    0.536265373
    0.499999970    0.487590820    0.000000000
    0.499999970    0.154257417    0.268132687
    0.499999970    0.820924044    0.536265373
    0.499999970    0.154257461    0.067033194
    0.499999970    0.820924044    0.335165888
    0.499999970    0.487590671    0.603298604
    0.000000000    0.654257417    0.067033194
    0.000000000    0.320924044    0.335165888
    0.000000000    0.987590611    0.603298604
    0.749999940    0.237590820    0.000000014
    0.749999940    0.904257417    0.268132687
    0.749999940    0.570924044    0.536265373
    0.249999985    0.737590790    0.000000025
    0.250000000    0.404257387    0.268132687
    0.249999970    0.070923999    0.536265373
    0.249999970    0.404257476    0.067033112
    0.249999985    0.070924081    0.335165799
    0.249999970    0.737590671    0.603298485
    0.749999940    0.904257476    0.067033127
    0.749999940    0.570924103    0.335165799
    0.749999940    0.237590671    0.603298485
    0.249999985    0.237590820    0.000000014
    0.249999985    0.904257417    0.268132687
    0.249999985    0.570924044    0.536265373
    0.749999940    0.737590790    0.000000025
    0.749999940    0.404257387    0.268132687
    0.749999940    0.070923999    0.536265373
    0.749999940    0.404257476    0.067033142
    0.750000000    0.070924081    0.335165858
    0.750000000    0.737590671    0.603298604
    0.249999985    0.904257476    0.067033134
    0.249999985    0.570924103    0.335165799
    0.249999985    0.237590671    0.603298485
    0.499999970    0.987590849    0.000000011
    0.499999970    0.654257417    0.268132687
    0.499999970    0.320923984    0.536265373
    0.000000000    0.487590820    0.000000000
    0.000000000    0.154257417    0.268132687
    0.000000000    0.820924044    0.536265373
    0.000000000    0.154257521    0.067033201
    0.000000000    0.820924103    0.335165888
    0.000000000    0.487590730    0.603298604
    0.499999940    0.654257596    0.067033157
    0.499999970    0.320924193    0.335165858
    0.499999970    0.987590790    0.603298604
    0.059277073    0.477771103    0.603298604
    0.392610490    0.352771103    0.682638824
    0.725943863    0.227771088    0.761979103
    0.059277296    0.102771088    0.841319382
    0.392610550    0.977771103    0.920659602
    0.725944161    0.852771044    0.999999940
    0.059277076    0.977771103    0.603298604
    0.392610490    0.852771103    0.682638824
    0.725943863    0.727771103    0.761979103
    0.059277177    0.602771044    0.841319382
    0.392610550    0.477771103    0.920659602
    0.725944161    0.352770984    0.999999940
    0.809277058    0.727771103    0.603298664
    0.142610550    0.602771103    0.682638943
    0.475943923    0.477771074    0.761979163
    0.809277296    0.352771074    0.841319442
    0.142610788    0.227771074    0.920659602
    0.475944281    0.102770992    0.999999821
    0.809277117    0.227771118    0.603298604
    0.142610550    0.102771096    0.682638824
    0.475943923    0.977771103    0.761979103
    0.809277296    0.852771103    0.841319382
    0.142610788    0.727771163    0.920659602
    0.475944281    0.602771044    0.999999821
    0.059277046    0.727771163    0.603298664
    0.392610461    0.602771163    0.682638824
    0.725943863    0.477771133    0.761979103
    0.059277177    0.352771133    0.841319382
    0.392610550    0.227771133    0.920659602
    0.725944161    0.102771059    0.999999940
    0.059277073    0.227771103    0.603298604
    0.392610490    0.102771088    0.682638824
    0.725943863    0.977771103    0.761979103
    0.059277177    0.852771103    0.841319382
    0.392610550    0.727771044    0.920659602
    0.725944161    0.602770984    0.999999821
    0.809277117    0.477771133    0.603298604
    0.142610550    0.352771103    0.682638824
    0.475943923    0.227771118    0.761979163
    0.809277415    0.102771103    0.841319442
    0.142610788    0.977771103    0.920659602
    0.475944281    0.852771044    0.999999821
    0.809277058    0.977771103    0.603298604
    0.142610550    0.852771103    0.682638824
    0.475943923    0.727771103    0.761979163
    0.809277296    0.602771103    0.841319442
    0.142610788    0.477771044    0.920659602
    0.475944281    0.352770984    0.999999821
