Ge+Ge                                   
   1.00000000000000     
    12.6512260439999995    0.0000000000000000    0.0000000000000000
     2.5302453040000001   12.3956203459999994    0.0000000000000000
     0.0000000000000000    0.0000000000000000   11.5489444730000006
   Ge
    96
Direct
  0.7842565770000007  0.4897986650000021  0.5000000599999979
  0.9925903680000019  0.9481325149999975  0.0000000269999987
  0.4897986650000021  0.7842565770000007  0.0000002379999984
  0.9092568160000027  0.3647989030000005  0.2000000629999974
  0.2425903529999971  0.6981326339999967  0.0000000000000000
  0.4092566070000032  0.1147988439999992  0.5000000599999979
  0.2842566070000032  0.9897987840000013  0.5000000599999979
  0.8259236809999990  0.0314657759999974  0.1000000390000011
  0.7425904270000032  0.1981325149999975  0.0000000260000022
  0.0342565589999992  0.2397987840000013  0.5000000599999979
  0.1981325149999975  0.7425904270000032  0.5000000599999979
  0.8231326339999967  0.3675903979999973  0.5000000599999979
  0.7842568760000006  0.7397989030000005  0.2000000629999974
  0.7425901289999999  0.4481323360000005  0.3000000119999982
  0.2397987250000000  0.0342565890000017  0.0000002379999984
  0.2842568760000006  0.2397990079999985  0.2000000920000033
  0.2425901740000000  0.9481323959999983  0.3000000119999982
  0.0731325149999975  0.1175903600000012  0.5000000599999979
  0.7009233830000028  0.1564655299999984  0.3999999759999966
  0.5342569350000019  0.9897990230000033  0.2000000920000033
  0.4925903680000019  0.4481325149999975  0.0000000329999992
  0.1592566369999986  0.3647987840000013  0.5000000599999979
  0.3675903979999973  0.8231326339999967  0.0000000140000012
  0.6592565770000007  0.8647986650000021  0.5000000599999979
  0.4092568760000006  0.8647989629999984  0.2000000629999974
  0.8675900699999985  0.0731322170000013  0.3000000420000006
  0.2009235920000023  0.4064657990000029  0.1000000310000004
  0.1592568459999981  0.1147989560000013  0.2000000629999974
  0.1175900850000033  0.8231323959999983  0.3000000119999982
  0.0759233389999991  0.5314655299999984  0.3999999759999966
  0.8675900699999985  0.0731322170000013  0.3000000420000006
  0.4509236219999977  0.1564657690000004  0.1000000390000011
  0.7009236219999977  0.9064657090000026  0.1000000459999981
  0.6592568760000006  0.6147989030000005  0.2000000629999974
  0.6175902490000027  0.3231323360000005  0.3000000420000006
  0.5759234430000006  0.0314654709999971  0.3999999759999966
  0.9092565770000007  0.6147987840000013  0.5000000599999979
  0.1175903600000012  0.0731325149999975  0.0000000260000022
  0.0759235989999993  0.7814657690000004  0.1000000390000011
  0.8647986650000021  0.6592566369999986  0.0000001189999992
  0.9925900699999985  0.1981322170000013  0.3000000420000006
  0.9509233830000028  0.9064655299999984  0.4000000360000016
  0.8259233240000015  0.7814655299999984  0.3999999759999966
  0.6175904870000011  0.5731325750000025  0.0000000140000012
  0.5759236219999977  0.2814658280000017  0.1000000310000004
  0.8675904870000011  0.3231325750000025  0.0000000140000012
  0.4925901889999977  0.6981322769999991  0.3000000720000031
  0.4509234430000006  0.4064655299999984  0.4000000659999969
  0.9509235619999998  0.6564657690000004  0.1000000390000011
  0.9481325149999975  0.9925903680000019  0.5000000599999979
  0.6564656500000012  0.9509235619999998  0.6000000829999976
  0.3647989629999984  0.9092568160000027  0.7000001070000010
  0.0731322170000013  0.8675900699999985  0.8000001309999973
  0.7814655299999984  0.8259233240000015  0.9000001550000007
  0.9897986650000021  0.2842566070000032  0.0000002379999984
  0.4481325149999975  0.4925903680000019  0.5000000599999979
  0.1564657240000003  0.4509235920000023  0.6000000829999976
  0.8647990230000033  0.4092569049999994  0.7000001070000010
  0.5731322769999991  0.3675901289999999  0.8000001309999973
  0.2814654709999971  0.3259233830000028  0.9000001550000007
  0.3647987840000013  0.1592566520000034  0.0000002379999984
  0.3259233830000028  0.2814655299999984  0.4000000360000016
  0.5314658280000017  0.3259236219999977  0.6000000829999976
  0.2397990669999999  0.2842569049999994  0.7000001070000010
  0.9481323959999983  0.2425901740000000  0.8000001309999973
  0.6564656500000012  0.2009233980000005  0.9000001550000007
  0.0342568459999981  0.4897989629999984  0.2000000629999974
  0.3231325750000025  0.8675904870000011  0.5000000599999979
  0.0314657759999974  0.8259236809999990  0.6000000829999976
  0.7397990230000033  0.7842568760000006  0.7000001070000010
  0.4481323360000005  0.7425901889999977  0.8000001309999973
  0.1564655299999984  0.7009233830000028  0.9000001550000007
  0.3259236219999977  0.5314658280000017  0.1000000390000011
  0.6981325750000025  0.2425903680000019  0.5000000599999979
  0.4064657990000029  0.2009235920000023  0.6000000829999976
  0.1147990300000004  0.1592568459999981  0.7000001070000010
  0.8231323360000005  0.1175901000000010  0.8000000720000031
  0.5314655299999984  0.0759233530000003  0.9000000360000016
  0.7397986650000021  0.5342566970000036  0.0000002379999984
  0.3675901289999999  0.5731322769999991  0.3000000420000006
  0.9064657090000026  0.7009236809999990  0.6000000829999976
  0.6147989629999984  0.6592568760000006  0.7000001070000010
  0.3231322769999991  0.6175902490000027  0.8000001309999973
  0.0314654709999971  0.5759234430000006  0.9000001550000007
  0.6147986650000021  0.9092565770000007  0.0000002379999984
  0.2009233830000028  0.6564656500000012  0.4000000360000016
  0.7814657090000026  0.0759236070000000  0.6000000829999976
  0.4897990230000033  0.0342568720000003  0.7000001070000010
  0.1981322170000013  0.9925901289999999  0.8000000720000031
  0.9064655299999984  0.9509233830000028  0.9000001550000007
  0.1147987840000013  0.4092566970000036  0.0000002379999984
  0.5731325750000025  0.6175904870000011  0.5000000599999979
  0.2814657690000004  0.5759236219999977  0.6000000829999976
  0.9897990819999976  0.5342569350000019  0.7000001070000010
  0.6981322769999991  0.4925901889999977  0.8000001309999973
  0.4064655299999984  0.4509234430000006  0.9000001550000007
 
  0.00000000E+00  0.00000000E+00  0.00000000E+00
  0.00000000E+00  0.00000000E+00  0.00000000E+00
  0.00000000E+00  0.00000000E+00  0.00000000E+00
  0.00000000E+00  0.00000000E+00  0.00000000E+00
  0.00000000E+00  0.00000000E+00  0.00000000E+00
  0.00000000E+00  0.00000000E+00  0.00000000E+00
  0.00000000E+00  0.00000000E+00  0.00000000E+00
  0.00000000E+00  0.00000000E+00  0.00000000E+00
  0.00000000E+00  0.00000000E+00  0.00000000E+00
  0.00000000E+00  0.00000000E+00  0.00000000E+00
  0.00000000E+00  0.00000000E+00  0.00000000E+00
  0.00000000E+00  0.00000000E+00  0.00000000E+00
  0.00000000E+00  0.00000000E+00  0.00000000E+00
  0.00000000E+00  0.00000000E+00  0.00000000E+00
  0.00000000E+00  0.00000000E+00  0.00000000E+00
  0.00000000E+00  0.00000000E+00  0.00000000E+00
  0.00000000E+00  0.00000000E+00  0.00000000E+00
  0.00000000E+00  0.00000000E+00  0.00000000E+00
  0.00000000E+00  0.00000000E+00  0.00000000E+00
  0.00000000E+00  0.00000000E+00  0.00000000E+00
  0.00000000E+00  0.00000000E+00  0.00000000E+00
  0.00000000E+00  0.00000000E+00  0.00000000E+00
  0.00000000E+00  0.00000000E+00  0.00000000E+00
  0.00000000E+00  0.00000000E+00  0.00000000E+00
  0.00000000E+00  0.00000000E+00  0.00000000E+00
  0.00000000E+00  0.00000000E+00  0.00000000E+00
  0.00000000E+00  0.00000000E+00  0.00000000E+00
  0.00000000E+00  0.00000000E+00  0.00000000E+00
  0.00000000E+00  0.00000000E+00  0.00000000E+00
  0.00000000E+00  0.00000000E+00  0.00000000E+00
  0.00000000E+00  0.00000000E+00  0.00000000E+00
  0.00000000E+00  0.00000000E+00  0.00000000E+00
  0.00000000E+00  0.00000000E+00  0.00000000E+00
  0.00000000E+00  0.00000000E+00  0.00000000E+00
  0.00000000E+00  0.00000000E+00  0.00000000E+00
  0.00000000E+00  0.00000000E+00  0.00000000E+00
  0.00000000E+00  0.00000000E+00  0.00000000E+00
  0.00000000E+00  0.00000000E+00  0.00000000E+00
  0.00000000E+00  0.00000000E+00  0.00000000E+00
  0.00000000E+00  0.00000000E+00  0.00000000E+00
  0.00000000E+00  0.00000000E+00  0.00000000E+00
  0.00000000E+00  0.00000000E+00  0.00000000E+00
  0.00000000E+00  0.00000000E+00  0.00000000E+00
  0.00000000E+00  0.00000000E+00  0.00000000E+00
  0.00000000E+00  0.00000000E+00  0.00000000E+00
  0.00000000E+00  0.00000000E+00  0.00000000E+00
  0.00000000E+00  0.00000000E+00  0.00000000E+00
  0.00000000E+00  0.00000000E+00  0.00000000E+00
  0.00000000E+00  0.00000000E+00  0.00000000E+00
  0.00000000E+00  0.00000000E+00  0.00000000E+00
  0.00000000E+00  0.00000000E+00  0.00000000E+00
  0.00000000E+00  0.00000000E+00  0.00000000E+00
  0.00000000E+00  0.00000000E+00  0.00000000E+00
  0.00000000E+00  0.00000000E+00  0.00000000E+00
  0.00000000E+00  0.00000000E+00  0.00000000E+00
  0.00000000E+00  0.00000000E+00  0.00000000E+00
  0.00000000E+00  0.00000000E+00  0.00000000E+00
  0.00000000E+00  0.00000000E+00  0.00000000E+00
  0.00000000E+00  0.00000000E+00  0.00000000E+00
  0.00000000E+00  0.00000000E+00  0.00000000E+00
  0.00000000E+00  0.00000000E+00  0.00000000E+00
  0.00000000E+00  0.00000000E+00  0.00000000E+00
  0.00000000E+00  0.00000000E+00  0.00000000E+00
  0.00000000E+00  0.00000000E+00  0.00000000E+00
  0.00000000E+00  0.00000000E+00  0.00000000E+00
  0.00000000E+00  0.00000000E+00  0.00000000E+00
  0.00000000E+00  0.00000000E+00  0.00000000E+00
  0.00000000E+00  0.00000000E+00  0.00000000E+00
  0.00000000E+00  0.00000000E+00  0.00000000E+00
  0.00000000E+00  0.00000000E+00  0.00000000E+00
  0.00000000E+00  0.00000000E+00  0.00000000E+00
  0.00000000E+00  0.00000000E+00  0.00000000E+00
  0.00000000E+00  0.00000000E+00  0.00000000E+00
  0.00000000E+00  0.00000000E+00  0.00000000E+00
  0.00000000E+00  0.00000000E+00  0.00000000E+00
  0.00000000E+00  0.00000000E+00  0.00000000E+00
  0.00000000E+00  0.00000000E+00  0.00000000E+00
  0.00000000E+00  0.00000000E+00  0.00000000E+00
  0.00000000E+00  0.00000000E+00  0.00000000E+00
  0.00000000E+00  0.00000000E+00  0.00000000E+00
  0.00000000E+00  0.00000000E+00  0.00000000E+00
  0.00000000E+00  0.00000000E+00  0.00000000E+00
  0.00000000E+00  0.00000000E+00  0.00000000E+00
  0.00000000E+00  0.00000000E+00  0.00000000E+00
  0.00000000E+00  0.00000000E+00  0.00000000E+00
  0.00000000E+00  0.00000000E+00  0.00000000E+00
  0.00000000E+00  0.00000000E+00  0.00000000E+00
  0.00000000E+00  0.00000000E+00  0.00000000E+00
  0.00000000E+00  0.00000000E+00  0.00000000E+00
  0.00000000E+00  0.00000000E+00  0.00000000E+00
  0.00000000E+00  0.00000000E+00  0.00000000E+00
  0.00000000E+00  0.00000000E+00  0.00000000E+00
  0.00000000E+00  0.00000000E+00  0.00000000E+00
  0.00000000E+00  0.00000000E+00  0.00000000E+00
  0.00000000E+00  0.00000000E+00  0.00000000E+00
  0.00000000E+00  0.00000000E+00  0.00000000E+00
