Ge+Sn
    1.000000000
   11.315600395    0.000000000    0.000000000
    0.000000000   16.002676010    0.000000000
    0.000000000    0.000000000   25.800939560
Ge  Sn 
96     72
Direct
    0.970662773    0.455994159    0.000000018
    0.720662713    0.080994137    0.077529535
    0.470662773    0.705994129    0.155059069
    0.220662892    0.330994248    0.232588530
    0.970662713    0.955994129    0.310118079
    0.720662713    0.580994129    0.387647629
    0.470662773    0.455994159    0.000000018
    0.220662758    0.080994137    0.077529535
    0.970662773    0.705994129    0.155059069
    0.720662832    0.330994248    0.232588530
    0.470662832    0.955994129    0.310118079
    0.220662773    0.580994129    0.387647629
    0.970662773    0.955994129    0.000000016
    0.720662713    0.580994129    0.077529542
    0.470662773    0.205994129    0.155059054
    0.220662892    0.830994368    0.232588530
    0.970662713    0.455994129    0.310118109
    0.720662713    0.080994129    0.387647599
    0.470662773    0.955994129    0.000000016
    0.220662758    0.580994129    0.077529542
    0.970662773    0.205994129    0.155059054
    0.720662832    0.830994368    0.232588530
    0.470662832    0.455994129    0.310118109
    0.220662773    0.080994129    0.387647599
    0.970662773    0.705994129    0.000000021
    0.720662713    0.330994129    0.077529535
    0.470662773    0.955994129    0.155059054
    0.220662892    0.580994248    0.232588559
    0.970662713    0.205994189    0.310118109
    0.720662713    0.830994129    0.387647629
    0.470662773    0.705994129    0.000000021
    0.220662758    0.330994129    0.077529535
    0.970662773    0.955994129    0.155059054
    0.720662832    0.580994248    0.232588559
    0.470662832    0.205994189    0.310118109
    0.220662773    0.830994129    0.387647629
    0.970662773    0.205994144    0.000000017
    0.720662713    0.830994129    0.077529535
    0.470662773    0.455994129    0.155059054
    0.220662892    0.080994248    0.232588559
    0.970662713    0.705994248    0.310118079
    0.720662713    0.330994129    0.387647599
    0.470662773    0.205994144    0.000000017
    0.220662758    0.830994129    0.077529535
    0.970662773    0.455994129    0.155059054
    0.720662832    0.080994248    0.232588559
    0.470662832    0.705994248    0.310118079
    0.220662773    0.330994129    0.387647599
    0.345662743    0.580994189    0.000000026
    0.095662758    0.205994159    0.077529535
    0.845662773    0.830994129    0.155059054
    0.595662832    0.455994248    0.232588530
    0.345662773    0.080994189    0.310118109
    0.095662713    0.705994129    0.387647629
    0.845662832    0.580994189    0.000000026
    0.595662773    0.205994159    0.077529535
    0.345662802    0.830994129    0.155059054
    0.095662884    0.455994248    0.232588530
    0.845662832    0.080994189    0.310118109
    0.595662773    0.705994129    0.387647629
    0.345662743    0.080994137    0.000000013
    0.095662758    0.705994129    0.077529535
    0.845662773    0.330994129    0.155059054
    0.595662832    0.955994248    0.232588559
    0.345662773    0.580994248    0.310118079
    0.095662713    0.205994010    0.387647599
    0.845662832    0.080994137    0.000000013
    0.595662773    0.705994129    0.077529535
    0.345662802    0.330994129    0.155059054
    0.095662884    0.955994248    0.232588559
    0.845662832    0.580994248    0.310118079
    0.595662773    0.205994010    0.387647599
    0.345662743    0.830994189    0.000000000
    0.095662758    0.455994189    0.077529535
    0.845662773    0.080994174    0.155059054
    0.595662832    0.705994308    0.232588530
    0.345662773    0.330994248    0.310118079
    0.095662713    0.955994129    0.387647569
    0.845662832    0.830994189    0.000000000
    0.595662773    0.455994189    0.077529535
    0.345662802    0.080994174    0.155059054
    0.095662884    0.705994308    0.232588530
    0.845662832    0.330994248    0.310118079
    0.595662773    0.955994129    0.387647569
    0.345662743    0.330994129    0.000000018
    0.095662758    0.955994129    0.077529542
    0.845662773    0.580994129    0.155059054
    0.595662832    0.205994248    0.232588559
    0.345662773    0.830994129    0.310118079
    0.095662713    0.455994129    0.387647599
    0.845662832    0.330994129    0.000000018
    0.595662773    0.955994129    0.077529542
    0.345662802    0.580994129    0.155059054
    0.095662884    0.205994248    0.232588559
    0.845662832    0.830994129    0.310118079
    0.595662773    0.455994129    0.387647599
    0.223214284    0.975731134    0.471518010
    0.223214269    0.725731134    0.560440361
    0.223214149    0.475730896    0.649362683
    0.223214149    0.225730777    0.738284945
    0.223214030    0.975730658    0.827207208
    0.223214030    0.725730658    0.916129589
    0.889881015    0.309064507    0.471518010
    0.889880955    0.059064507    0.560440361
    0.889880896    0.809064388    0.649362683
    0.889880896    0.559064150    0.738284945
    0.889880836    0.309064150    0.827207267
    0.889880776    0.059063911    0.916129589
    0.556547701    0.642397881    0.471518010
    0.556547642    0.392397881    0.560440361
    0.556547582    0.142397642    0.649362683
    0.556547523    0.892397642    0.738284945
    0.556547463    0.642397523    0.827207267
    0.556547463    0.392397404    0.916129589
    0.556547642    0.142397881    0.471518010
    0.556547582    0.892397881    0.560440361
    0.556547523    0.642397642    0.649362683
    0.556547523    0.392397404    0.738284945
    0.556547523    0.142397404    0.827207208
    0.556547463    0.892397404    0.916129589
    0.223214284    0.475731134    0.471518010
    0.223214269    0.225731134    0.560440361
    0.223214149    0.975731015    0.649362683
    0.223214149    0.725730896    0.738284945
    0.223214030    0.475730896    0.827207208
    0.223214030    0.225730658    0.916129589
    0.889881074    0.809064627    0.471518010
    0.889881015    0.559064507    0.560440421
    0.889880896    0.309064388    0.649362683
    0.889880896    0.059064269    0.738284945
    0.889880776    0.809064150    0.827207267
    0.889880776    0.559064031    0.916129589
    0.806547642    0.142397881    0.471518040
    0.806547642    0.892397881    0.560440361
    0.806547582    0.642397642    0.649362683
    0.806547463    0.392397523    0.738284945
    0.806547523    0.142397404    0.827207208
    0.806547403    0.892397404    0.916129589
    0.473214269    0.475731134    0.471518040
    0.473214209    0.225731134    0.560440361
    0.473214209    0.975731015    0.649362683
    0.473214090    0.725730896    0.738284945
    0.473214030    0.475730896    0.827207267
    0.473214000    0.225730658    0.916129589
    0.139881015    0.809064627    0.471518010
    0.139880896    0.559064507    0.560440361
    0.139880776    0.309064388    0.649362683
    0.139880776    0.059064269    0.738284945
    0.139880776    0.809064150    0.827207208
    0.139880776    0.559063911    0.916129589
    0.473214328    0.975731134    0.471518010
    0.473214269    0.725731134    0.560440421
    0.473214269    0.475730896    0.649362683
    0.473214149    0.225730896    0.738284945
    0.473214090    0.975730896    0.827207267
    0.473213971    0.725730658    0.916129589
    0.139881134    0.309064507    0.471518040
    0.139881015    0.059064507    0.560440421
    0.139880896    0.809064388    0.649362683
    0.139880896    0.559064150    0.738284945
    0.139880896    0.309064150    0.827207208
    0.139880776    0.059064150    0.916129589
    0.806547701    0.642397881    0.471518040
    0.806547582    0.392397881    0.560440421
    0.806547523    0.142397642    0.649362683
    0.806547523    0.892397642    0.738284945
    0.806547463    0.642397523    0.827207208
    0.806547463    0.392397404    0.916129589
