Si+C                                    
   1.00000000000000     
    13.3031797409999992    0.0000000000000000    0.0000000000000000
    -6.6515893940000002   14.8734064099999994    0.0000000000000000
     0.0000000000000000    0.0000000000000000    8.3900594710000007
   Si   C 
    36    84
Direct
  0.9971509579999989  0.9800565840000033  0.0000000000000000
  0.9638175369999971  0.7467231749999996  0.1447438300000030
  0.9304841160000024  0.5133898260000009  0.2894876599999989
  0.3304842109999981  0.3133898680000016  0.0000000000000000
  0.2971507910000000  0.0800564740000027  0.1447438300000030
  0.2638173699999982  0.8467230799999967  0.2894876599999989
  0.6638174650000011  0.6467231510000033  0.0000000000000000
  0.6304840450000029  0.4133897130000008  0.1447438300000030
  0.5971506240000011  0.1800563339999997  0.2894876599999989
  0.3138175309999980  0.9467233419999985  0.0723717589999993
  0.2804841100000033  0.7133899929999998  0.2171155810000016
  0.2471506890000015  0.4800565840000033  0.3618593509999997
  0.6471508150000034  0.2800565659999990  0.0723717589999993
  0.6138173940000016  0.0467231940000019  0.2171155509999991
  0.5804839729999998  0.8133897780000012  0.3618593810000021
  0.9804844259999967  0.6133898499999972  0.0723717879999981
  0.9471510050000020  0.3800564710000032  0.2171155509999991
  0.9138175849999968  0.1467230920000020  0.3618593509999997
  0.1638175699999991  0.6467230920000020  0.0000000020000002
  0.1304841640000021  0.4133897130000008  0.1447438300000030
  0.0971507499999973  0.1800563190000020  0.2894876599999989
  0.4971508980000010  0.9800566429999975  0.0000000049999969
  0.4638174179999979  0.7467231749999996  0.1447437699999981
  0.4304840559999974  0.5133898260000009  0.2894876000000011
  0.8304841519999968  0.3133898680000016  0.0000000049999969
  0.7971507310000021  0.0800565259999999  0.1447437699999981
  0.7638173100000003  0.8467230799999967  0.2894876000000011
  0.1471509040000001  0.2800565659999990  0.0723717730000004
  0.1138174829999983  0.0467231650000031  0.2171155810000016
  0.0804840699999971  0.8133897780000012  0.3618593810000021
  0.4804842169999972  0.6133899089999986  0.0723717730000004
  0.4471508259999979  0.3800565299999974  0.2171155509999991
  0.4138174059999997  0.1467231660000010  0.3618593810000021
  0.8138175010000026  0.9467232820000007  0.0723717589999993
  0.7804841399999987  0.7133898740000006  0.2171155509999991
  0.7471507189999969  0.4800564649999970  0.3618593810000021
  0.6035895349999976  0.9577501420000019  0.7522248630000021
  0.4035894270000000  0.5577502249999995  0.5621044040000029
  0.5035895110000013  0.2577501829999989  0.6571646929999986
  0.8893038630000021  0.1006072759999981  0.7522248630000021
  0.6893036370000019  0.7006073590000028  0.5621044040000029
  0.7893037799999973  0.4006073179999987  0.6571646929999986
  0.1750180720000003  0.2434643510000001  0.7522248630000021
  0.9750179649999993  0.8434644339999977  0.5621044040000029
  0.0750180479999969  0.5434644219999996  0.6571646929999986
  0.4607324300000002  0.3863216040000026  0.7522248630000021
  0.2607322630000013  0.9863216879999968  0.5621044040000029
  0.3607323470000026  0.6863216759999986  0.6571646929999986
  0.7464467289999988  0.5291787390000025  0.7522248630000021
  0.5464465619999999  0.1291788520000026  0.5621044040000029
  0.6464465860000033  0.8291788100000019  0.6571646929999986
  0.0321609969999983  0.6720358729999987  0.7522248630000021
  0.8321607709999981  0.2720359859999988  0.5621044040000029
  0.9321608540000028  0.9720359439999982  0.6571646929999986
  0.3178751470000023  0.8148929480000007  0.7522248630000021
  0.1178750990000026  0.4148931209999986  0.5621044040000029
  0.2178751229999989  0.1148930789999980  0.6571646929999986
  0.5821610090000036  0.2720359560000034  0.7997548580000000
  0.3821608419999976  0.8720360989999989  0.6096344589999987
  0.4821609259999988  0.5720360879999973  0.7046946290000022
  0.7250180839999985  0.8434644940000027  0.7997548580000000
  0.5250179769999974  0.4434645770000003  0.6096344589999987
  0.6250180010000008  0.1434645349999997  0.7046946290000022
  0.0107324120000030  0.9863218070000030  0.7997548580000000
  0.8107321259999978  0.5863218900000007  0.6096344589999987
  0.9107322099999990  0.2863218190000012  0.7046946880000036
  0.2964466809999990  0.1291789109999968  0.7997547980000022
  0.0964465140000001  0.7291789650000027  0.6096344589999987
  0.1964466570000027  0.4291789230000020  0.7046946880000036
  0.8678752779999996  0.4148930309999983  0.7997548580000000
  0.6678751709999986  0.0148931740000009  0.6096344589999987
  0.7678751950000020  0.7148930430000036  0.7046946290000022
  0.1535894869999979  0.5577503439999987  0.7997548580000000
  0.9535893199999990  0.1577504429999976  0.6096344589999987
  0.0535893440000024  0.8577503559999968  0.7046946290000022
  0.4393036370000019  0.7006073590000028  0.7997548580000000
  0.2393035890000021  0.3006075019999983  0.6096344589999987
  0.3393036129999984  0.0006074909999967  0.7046946290000022
  0.6750181909999995  0.2434643360000024  0.7522248630000021
  0.4750179349999968  0.8434644940000027  0.5621044040000029
  0.5750180479999969  0.5434644219999996  0.6571646929999986
  0.5321609969999983  0.6720358729999987  0.7522248630000021
  0.3321608299999994  0.2720359560000034  0.5621044040000029
  0.4321609140000007  0.9720358849999968  0.6571646929999986
  0.8178752059999965  0.8148929480000007  0.7522248630000021
  0.6178750990000026  0.4148930910000033  0.5621044040000029
  0.7178751229999989  0.1148930490000026  0.6571646929999986
  0.1035895349999976  0.9577500819999969  0.7522248630000021
  0.9035893080000008  0.5577501650000016  0.5621044040000029
  0.0035895110000013  0.2577501540000000  0.6571646929999986
  0.3893038029999971  0.1006072160000002  0.7522248630000021
  0.1893036370000019  0.7006073590000028  0.5621044040000029
  0.2893036600000016  0.4006072580000009  0.6571646929999986
  0.9607323410000035  0.3863216040000026  0.7522248630000021
  0.7607321739999975  0.9863216879999968  0.5621044040000029
  0.8607323170000001  0.6863216160000007  0.6571646929999986
  0.2464466090000030  0.5291786789999975  0.7522248630000021
  0.0464464430000007  0.1291788220000001  0.5621044040000029
  0.1464465860000033  0.8291787510000006  0.6571646929999986
  0.5107324120000030  0.9863218070000030  0.7997548580000000
  0.3107322159999981  0.5863218900000007  0.6096344589999987
  0.4107322690000004  0.2863218190000012  0.7046946880000036
  0.7964466809999990  0.1291788970000027  0.7997548580000000
  0.5964465140000001  0.7291789650000027  0.6096344589999987
  0.6964466570000027  0.4291789230000020  0.7046946880000036
  0.0821609500000022  0.2720360160000013  0.7997548580000000
  0.8821607830000033  0.8720360989999989  0.6096344589999987
  0.9821608660000010  0.5720359680000016  0.7046946880000036
  0.6535895470000028  0.5577504039999965  0.7997548580000000
  0.4535894099999993  0.1577504870000013  0.6096344589999987
  0.5535894630000016  0.8577504160000018  0.7046946290000022
  0.9393038150000024  0.7006074789999985  0.7997547980000022
  0.7393036480000035  0.3006075620000033  0.6096344589999987
  0.8393036719999998  0.0006074909999967  0.7046946880000036
  0.2250180240000006  0.8434644339999977  0.7997547980000022
  0.0250177380000025  0.4434645179999990  0.6096344589999987
  0.1250178809999980  0.1434645060000008  0.7046946290000022
  0.3678752180000018  0.4148930309999983  0.7997549179999979
  0.1678750510000029  0.0148931740000009  0.6096344589999987
  0.2678750749999992  0.7148930430000036  0.7046946880000036
 
  0.00000000E+00  0.00000000E+00  0.00000000E+00
  0.00000000E+00  0.00000000E+00  0.00000000E+00
  0.00000000E+00  0.00000000E+00  0.00000000E+00
  0.00000000E+00  0.00000000E+00  0.00000000E+00
  0.00000000E+00  0.00000000E+00  0.00000000E+00
  0.00000000E+00  0.00000000E+00  0.00000000E+00
  0.00000000E+00  0.00000000E+00  0.00000000E+00
  0.00000000E+00  0.00000000E+00  0.00000000E+00
  0.00000000E+00  0.00000000E+00  0.00000000E+00
  0.00000000E+00  0.00000000E+00  0.00000000E+00
  0.00000000E+00  0.00000000E+00  0.00000000E+00
  0.00000000E+00  0.00000000E+00  0.00000000E+00
  0.00000000E+00  0.00000000E+00  0.00000000E+00
  0.00000000E+00  0.00000000E+00  0.00000000E+00
  0.00000000E+00  0.00000000E+00  0.00000000E+00
  0.00000000E+00  0.00000000E+00  0.00000000E+00
  0.00000000E+00  0.00000000E+00  0.00000000E+00
  0.00000000E+00  0.00000000E+00  0.00000000E+00
  0.00000000E+00  0.00000000E+00  0.00000000E+00
  0.00000000E+00  0.00000000E+00  0.00000000E+00
  0.00000000E+00  0.00000000E+00  0.00000000E+00
  0.00000000E+00  0.00000000E+00  0.00000000E+00
  0.00000000E+00  0.00000000E+00  0.00000000E+00
  0.00000000E+00  0.00000000E+00  0.00000000E+00
  0.00000000E+00  0.00000000E+00  0.00000000E+00
  0.00000000E+00  0.00000000E+00  0.00000000E+00
  0.00000000E+00  0.00000000E+00  0.00000000E+00
  0.00000000E+00  0.00000000E+00  0.00000000E+00
  0.00000000E+00  0.00000000E+00  0.00000000E+00
  0.00000000E+00  0.00000000E+00  0.00000000E+00
  0.00000000E+00  0.00000000E+00  0.00000000E+00
  0.00000000E+00  0.00000000E+00  0.00000000E+00
  0.00000000E+00  0.00000000E+00  0.00000000E+00
  0.00000000E+00  0.00000000E+00  0.00000000E+00
  0.00000000E+00  0.00000000E+00  0.00000000E+00
  0.00000000E+00  0.00000000E+00  0.00000000E+00
  0.00000000E+00  0.00000000E+00  0.00000000E+00
  0.00000000E+00  0.00000000E+00  0.00000000E+00
  0.00000000E+00  0.00000000E+00  0.00000000E+00
  0.00000000E+00  0.00000000E+00  0.00000000E+00
  0.00000000E+00  0.00000000E+00  0.00000000E+00
  0.00000000E+00  0.00000000E+00  0.00000000E+00
  0.00000000E+00  0.00000000E+00  0.00000000E+00
  0.00000000E+00  0.00000000E+00  0.00000000E+00
  0.00000000E+00  0.00000000E+00  0.00000000E+00
  0.00000000E+00  0.00000000E+00  0.00000000E+00
  0.00000000E+00  0.00000000E+00  0.00000000E+00
  0.00000000E+00  0.00000000E+00  0.00000000E+00
  0.00000000E+00  0.00000000E+00  0.00000000E+00
  0.00000000E+00  0.00000000E+00  0.00000000E+00
  0.00000000E+00  0.00000000E+00  0.00000000E+00
  0.00000000E+00  0.00000000E+00  0.00000000E+00
  0.00000000E+00  0.00000000E+00  0.00000000E+00
  0.00000000E+00  0.00000000E+00  0.00000000E+00
  0.00000000E+00  0.00000000E+00  0.00000000E+00
  0.00000000E+00  0.00000000E+00  0.00000000E+00
  0.00000000E+00  0.00000000E+00  0.00000000E+00
  0.00000000E+00  0.00000000E+00  0.00000000E+00
  0.00000000E+00  0.00000000E+00  0.00000000E+00
  0.00000000E+00  0.00000000E+00  0.00000000E+00
  0.00000000E+00  0.00000000E+00  0.00000000E+00
  0.00000000E+00  0.00000000E+00  0.00000000E+00
  0.00000000E+00  0.00000000E+00  0.00000000E+00
  0.00000000E+00  0.00000000E+00  0.00000000E+00
  0.00000000E+00  0.00000000E+00  0.00000000E+00
  0.00000000E+00  0.00000000E+00  0.00000000E+00
  0.00000000E+00  0.00000000E+00  0.00000000E+00
  0.00000000E+00  0.00000000E+00  0.00000000E+00
  0.00000000E+00  0.00000000E+00  0.00000000E+00
  0.00000000E+00  0.00000000E+00  0.00000000E+00
  0.00000000E+00  0.00000000E+00  0.00000000E+00
  0.00000000E+00  0.00000000E+00  0.00000000E+00
  0.00000000E+00  0.00000000E+00  0.00000000E+00
  0.00000000E+00  0.00000000E+00  0.00000000E+00
  0.00000000E+00  0.00000000E+00  0.00000000E+00
  0.00000000E+00  0.00000000E+00  0.00000000E+00
  0.00000000E+00  0.00000000E+00  0.00000000E+00
  0.00000000E+00  0.00000000E+00  0.00000000E+00
  0.00000000E+00  0.00000000E+00  0.00000000E+00
  0.00000000E+00  0.00000000E+00  0.00000000E+00
  0.00000000E+00  0.00000000E+00  0.00000000E+00
  0.00000000E+00  0.00000000E+00  0.00000000E+00
  0.00000000E+00  0.00000000E+00  0.00000000E+00
  0.00000000E+00  0.00000000E+00  0.00000000E+00
  0.00000000E+00  0.00000000E+00  0.00000000E+00
  0.00000000E+00  0.00000000E+00  0.00000000E+00
  0.00000000E+00  0.00000000E+00  0.00000000E+00
  0.00000000E+00  0.00000000E+00  0.00000000E+00
  0.00000000E+00  0.00000000E+00  0.00000000E+00
  0.00000000E+00  0.00000000E+00  0.00000000E+00
  0.00000000E+00  0.00000000E+00  0.00000000E+00
  0.00000000E+00  0.00000000E+00  0.00000000E+00
  0.00000000E+00  0.00000000E+00  0.00000000E+00
  0.00000000E+00  0.00000000E+00  0.00000000E+00
  0.00000000E+00  0.00000000E+00  0.00000000E+00
  0.00000000E+00  0.00000000E+00  0.00000000E+00
  0.00000000E+00  0.00000000E+00  0.00000000E+00
  0.00000000E+00  0.00000000E+00  0.00000000E+00
  0.00000000E+00  0.00000000E+00  0.00000000E+00
  0.00000000E+00  0.00000000E+00  0.00000000E+00
  0.00000000E+00  0.00000000E+00  0.00000000E+00
  0.00000000E+00  0.00000000E+00  0.00000000E+00
  0.00000000E+00  0.00000000E+00  0.00000000E+00
  0.00000000E+00  0.00000000E+00  0.00000000E+00
  0.00000000E+00  0.00000000E+00  0.00000000E+00
  0.00000000E+00  0.00000000E+00  0.00000000E+00
  0.00000000E+00  0.00000000E+00  0.00000000E+00
  0.00000000E+00  0.00000000E+00  0.00000000E+00
  0.00000000E+00  0.00000000E+00  0.00000000E+00
  0.00000000E+00  0.00000000E+00  0.00000000E+00
  0.00000000E+00  0.00000000E+00  0.00000000E+00
  0.00000000E+00  0.00000000E+00  0.00000000E+00
  0.00000000E+00  0.00000000E+00  0.00000000E+00
  0.00000000E+00  0.00000000E+00  0.00000000E+00
  0.00000000E+00  0.00000000E+00  0.00000000E+00
  0.00000000E+00  0.00000000E+00  0.00000000E+00
  0.00000000E+00  0.00000000E+00  0.00000000E+00
  0.00000000E+00  0.00000000E+00  0.00000000E+00
  0.00000000E+00  0.00000000E+00  0.00000000E+00
  0.00000000E+00  0.00000000E+00  0.00000000E+00
