Si+C                                    
   1.00000000000000     
    13.3031797409999992    0.0000000000000000    0.0000000000000000
    -6.6515893940000002   14.8734064099999994    0.0000000000000000
     0.0000000000000000    0.0000000000000000    7.0064744950000000
   Si   C 
    36    84
Direct
  0.9971509579999989  0.9800565840000033  0.0000000000000000
  0.9638175369999971  0.7467231749999996  0.1733267310000031
  0.9304841160000024  0.5133898260000009  0.3466534610000025
  0.3304842109999981  0.3133898680000016  0.0000000000000000
  0.2971507910000000  0.0800564740000027  0.1733267310000031
  0.2638173699999982  0.8467230799999967  0.3466534610000025
  0.6638174650000011  0.6467231510000033  0.0000000000000000
  0.6304840450000029  0.4133897130000008  0.1733267310000031
  0.5971506240000011  0.1800563339999997  0.3466534610000025
  0.3138175309999980  0.9467233419999985  0.0866631789999985
  0.2804841100000033  0.7133899929999998  0.2599899169999986
  0.2471506890000015  0.4800565840000033  0.4333165290000025
  0.6471508150000034  0.2800565659999990  0.0866631789999985
  0.6138173940000016  0.0467231940000019  0.2599898870000033
  0.5804839729999998  0.8133897780000012  0.4333165879999967
  0.9804844259999967  0.6133898499999972  0.0866632090000010
  0.9471510050000020  0.3800564710000032  0.2599898870000033
  0.9138175849999968  0.1467230920000020  0.4333165290000025
  0.1638175699999991  0.6467230920000020  0.0000000020000002
  0.1304841640000021  0.4133897130000008  0.1733267310000031
  0.0971507499999973  0.1800563190000020  0.3466534610000025
  0.4971508980000010  0.9800566429999975  0.0000000060000005
  0.4638174179999979  0.7467231749999996  0.1733266410000027
  0.4304840559999974  0.5133898260000009  0.3466534020000012
  0.8304841519999968  0.3133898680000016  0.0000000060000005
  0.7971507310000021  0.0800565259999999  0.1733266410000027
  0.7638173100000003  0.8467230799999967  0.3466534020000012
  0.1471509040000001  0.2800565659999990  0.0866631940000033
  0.1138174829999983  0.0467231650000031  0.2599899169999986
  0.0804840699999971  0.8133897780000012  0.4333165879999967
  0.4804842169999972  0.6133899089999986  0.0866631940000033
  0.4471508259999979  0.3800565299999974  0.2599898870000033
  0.4138174059999997  0.1467231660000010  0.4333165879999967
  0.8138175010000026  0.9467232820000007  0.0866631789999985
  0.7804841399999987  0.7133898740000006  0.2599898870000033
  0.7471507189999969  0.4800564649999970  0.4333165879999967
  0.3914683460000035  0.0503427980000026  0.8020322919999998
  0.1914682089999999  0.6503428219999989  0.5743682980000031
  0.2914682629999987  0.3503427799999983  0.6882002950000015
  0.6771826740000009  0.1931998729999975  0.8020322919999998
  0.4771824480000006  0.7931999560000023  0.5743682980000031
  0.5771825910000032  0.4931999149999982  0.6882002950000015
  0.9628968829999991  0.3360569479999995  0.8020322919999998
  0.7628967759999981  0.9360570309999972  0.5743682980000031
  0.8628968599999993  0.6360570189999990  0.6882002950000015
  0.2486112120000001  0.4789142010000020  0.8020322919999998
  0.0486110599999989  0.0789142850000033  0.5743682980000031
  0.1486111279999989  0.7789142729999980  0.6882002950000015
  0.5343254799999997  0.6217713360000019  0.8020322919999998
  0.3343253139999973  0.2217714490000020  0.5743682980000031
  0.4343253970000021  0.9217714070000014  0.6882002950000015
  0.8200398090000007  0.7646284699999981  0.8020322919999998
  0.6200395819999969  0.3646285829999982  0.5743682980000031
  0.7200396659999981  0.0646286010000026  0.6882002950000015
  0.1057539359999993  0.9074855450000001  0.8020322919999998
  0.9057538510000001  0.5074857469999969  0.5743682980000031
  0.0057538750000035  0.2074856759999975  0.6882002950000015
  0.3700397910000035  0.3646285530000029  0.8589481710000015
  0.1700396540000000  0.9646286959999983  0.6312841769999977
  0.2700397369999976  0.6646286849999967  0.7451161150000019
  0.5128968949999972  0.9360570910000021  0.8589481710000015
  0.3128967290000020  0.5360571739999997  0.6312841769999977
  0.4128967819999971  0.2360571319999991  0.7451161150000019
  0.7986111640000004  0.0789144040000025  0.8589481710000015
  0.5986109380000002  0.6789144870000001  0.6312841769999977
  0.6986110209999978  0.3789144160000006  0.7451162340000010
  0.0843254700000031  0.2217715080000033  0.8589480520000023
  0.8843253249999989  0.8217715620000021  0.6312841769999977
  0.9843254090000002  0.5217715499999969  0.7451162340000010
  0.6557540889999984  0.5074856279999977  0.8589481710000015
  0.4557539219999995  0.1074857710000003  0.6312841769999977
  0.5557540060000008  0.8074856400000030  0.7451161150000019
  0.9414682979999967  0.6503429409999981  0.8589481710000015
  0.7414681320000014  0.2503430249999994  0.6312841769999977
  0.8414681550000012  0.9503429530000034  0.7451161150000019
  0.2271824179999982  0.7931999560000023  0.8589481710000015
  0.0271823409999996  0.3932000989999977  0.6312841769999977
  0.1271823940000019  0.0932000880000032  0.7451161150000019
  0.4628969429999970  0.3360569179999970  0.8020322919999998
  0.2628967169999967  0.9360570910000021  0.5743682980000031
  0.3628968299999968  0.6360570189999990  0.6882002950000015
  0.3200397490000029  0.7646284699999981  0.8020322919999998
  0.1200396269999970  0.3646285530000029  0.5743682980000031
  0.2200396960000006  0.0646284820000034  0.6882002950000015
  0.6057540179999990  0.9074855450000001  0.8020322919999998
  0.4057538510000001  0.5074856880000027  0.5743682980000031
  0.5057539339999977  0.2074856460000021  0.6882002950000015
  0.8914682870000021  0.0503426790000034  0.8020322919999998
  0.6914681200000032  0.6503427620000011  0.5743682980000031
  0.7914683220000001  0.3503427509999995  0.6882002950000015
  0.1771825849999971  0.1931998129999997  0.8020322919999998
  0.9771825079999985  0.7931999560000023  0.5743682980000031
  0.0771824489999986  0.4931998550000003  0.6882002950000015
  0.7486111520000023  0.4789142010000020  0.8020322919999998
  0.5486109850000034  0.0789142850000033  0.5743682980000031
  0.6486111279999989  0.7789142130000002  0.6882002950000015
  0.0343253610000005  0.6217712759999969  0.8020322919999998
  0.8343252539999995  0.2217714189999995  0.5743682980000031
  0.9343253970000021  0.9217713480000000  0.6882002950000015
  0.2986111640000004  0.0789144040000025  0.8589481710000015
  0.0986109970000015  0.6789144870000001  0.6312841769999977
  0.1986110810000028  0.3789144160000006  0.7451162340000010
  0.5843254919999978  0.2217714789999974  0.8589481710000015
  0.3843252960000001  0.8217715620000021  0.6312841769999977
  0.4843254090000002  0.5217715499999969  0.7451162340000010
  0.8700397610000010  0.3646286130000007  0.8589481710000015
  0.6700395940000021  0.9646286959999983  0.6312841769999977
  0.7700396780000034  0.6646285650000010  0.7451162340000010
  0.4414683279999991  0.6503430010000031  0.8589481710000015
  0.2414681910000027  0.2503430840000007  0.6312841769999977
  0.3414682149999990  0.9503430130000012  0.7451161150000019
  0.7271826269999977  0.7932000759999980  0.8589480520000023
  0.5271824599999988  0.3932001590000027  0.6312841769999977
  0.6271824840000022  0.0932000880000032  0.7451162340000010
  0.0128967759999981  0.9360570309999972  0.8589480520000023
  0.8128965499999978  0.5360571149999984  0.6312841769999977
  0.9128967520000018  0.2360571030000003  0.7451161150000019
  0.1557540000000017  0.5074856279999977  0.8589481710000015
  0.9557538030000003  0.1074857710000003  0.6312841769999977
  0.0557538640000033  0.8074856400000030  0.7451162340000010
 
  0.00000000E+00  0.00000000E+00  0.00000000E+00
  0.00000000E+00  0.00000000E+00  0.00000000E+00
  0.00000000E+00  0.00000000E+00  0.00000000E+00
  0.00000000E+00  0.00000000E+00  0.00000000E+00
  0.00000000E+00  0.00000000E+00  0.00000000E+00
  0.00000000E+00  0.00000000E+00  0.00000000E+00
  0.00000000E+00  0.00000000E+00  0.00000000E+00
  0.00000000E+00  0.00000000E+00  0.00000000E+00
  0.00000000E+00  0.00000000E+00  0.00000000E+00
  0.00000000E+00  0.00000000E+00  0.00000000E+00
  0.00000000E+00  0.00000000E+00  0.00000000E+00
  0.00000000E+00  0.00000000E+00  0.00000000E+00
  0.00000000E+00  0.00000000E+00  0.00000000E+00
  0.00000000E+00  0.00000000E+00  0.00000000E+00
  0.00000000E+00  0.00000000E+00  0.00000000E+00
  0.00000000E+00  0.00000000E+00  0.00000000E+00
  0.00000000E+00  0.00000000E+00  0.00000000E+00
  0.00000000E+00  0.00000000E+00  0.00000000E+00
  0.00000000E+00  0.00000000E+00  0.00000000E+00
  0.00000000E+00  0.00000000E+00  0.00000000E+00
  0.00000000E+00  0.00000000E+00  0.00000000E+00
  0.00000000E+00  0.00000000E+00  0.00000000E+00
  0.00000000E+00  0.00000000E+00  0.00000000E+00
  0.00000000E+00  0.00000000E+00  0.00000000E+00
  0.00000000E+00  0.00000000E+00  0.00000000E+00
  0.00000000E+00  0.00000000E+00  0.00000000E+00
  0.00000000E+00  0.00000000E+00  0.00000000E+00
  0.00000000E+00  0.00000000E+00  0.00000000E+00
  0.00000000E+00  0.00000000E+00  0.00000000E+00
  0.00000000E+00  0.00000000E+00  0.00000000E+00
  0.00000000E+00  0.00000000E+00  0.00000000E+00
  0.00000000E+00  0.00000000E+00  0.00000000E+00
  0.00000000E+00  0.00000000E+00  0.00000000E+00
  0.00000000E+00  0.00000000E+00  0.00000000E+00
  0.00000000E+00  0.00000000E+00  0.00000000E+00
  0.00000000E+00  0.00000000E+00  0.00000000E+00
  0.00000000E+00  0.00000000E+00  0.00000000E+00
  0.00000000E+00  0.00000000E+00  0.00000000E+00
  0.00000000E+00  0.00000000E+00  0.00000000E+00
  0.00000000E+00  0.00000000E+00  0.00000000E+00
  0.00000000E+00  0.00000000E+00  0.00000000E+00
  0.00000000E+00  0.00000000E+00  0.00000000E+00
  0.00000000E+00  0.00000000E+00  0.00000000E+00
  0.00000000E+00  0.00000000E+00  0.00000000E+00
  0.00000000E+00  0.00000000E+00  0.00000000E+00
  0.00000000E+00  0.00000000E+00  0.00000000E+00
  0.00000000E+00  0.00000000E+00  0.00000000E+00
  0.00000000E+00  0.00000000E+00  0.00000000E+00
  0.00000000E+00  0.00000000E+00  0.00000000E+00
  0.00000000E+00  0.00000000E+00  0.00000000E+00
  0.00000000E+00  0.00000000E+00  0.00000000E+00
  0.00000000E+00  0.00000000E+00  0.00000000E+00
  0.00000000E+00  0.00000000E+00  0.00000000E+00
  0.00000000E+00  0.00000000E+00  0.00000000E+00
  0.00000000E+00  0.00000000E+00  0.00000000E+00
  0.00000000E+00  0.00000000E+00  0.00000000E+00
  0.00000000E+00  0.00000000E+00  0.00000000E+00
  0.00000000E+00  0.00000000E+00  0.00000000E+00
  0.00000000E+00  0.00000000E+00  0.00000000E+00
  0.00000000E+00  0.00000000E+00  0.00000000E+00
  0.00000000E+00  0.00000000E+00  0.00000000E+00
  0.00000000E+00  0.00000000E+00  0.00000000E+00
  0.00000000E+00  0.00000000E+00  0.00000000E+00
  0.00000000E+00  0.00000000E+00  0.00000000E+00
  0.00000000E+00  0.00000000E+00  0.00000000E+00
  0.00000000E+00  0.00000000E+00  0.00000000E+00
  0.00000000E+00  0.00000000E+00  0.00000000E+00
  0.00000000E+00  0.00000000E+00  0.00000000E+00
  0.00000000E+00  0.00000000E+00  0.00000000E+00
  0.00000000E+00  0.00000000E+00  0.00000000E+00
  0.00000000E+00  0.00000000E+00  0.00000000E+00
  0.00000000E+00  0.00000000E+00  0.00000000E+00
  0.00000000E+00  0.00000000E+00  0.00000000E+00
  0.00000000E+00  0.00000000E+00  0.00000000E+00
  0.00000000E+00  0.00000000E+00  0.00000000E+00
  0.00000000E+00  0.00000000E+00  0.00000000E+00
  0.00000000E+00  0.00000000E+00  0.00000000E+00
  0.00000000E+00  0.00000000E+00  0.00000000E+00
  0.00000000E+00  0.00000000E+00  0.00000000E+00
  0.00000000E+00  0.00000000E+00  0.00000000E+00
  0.00000000E+00  0.00000000E+00  0.00000000E+00
  0.00000000E+00  0.00000000E+00  0.00000000E+00
  0.00000000E+00  0.00000000E+00  0.00000000E+00
  0.00000000E+00  0.00000000E+00  0.00000000E+00
  0.00000000E+00  0.00000000E+00  0.00000000E+00
  0.00000000E+00  0.00000000E+00  0.00000000E+00
  0.00000000E+00  0.00000000E+00  0.00000000E+00
  0.00000000E+00  0.00000000E+00  0.00000000E+00
  0.00000000E+00  0.00000000E+00  0.00000000E+00
  0.00000000E+00  0.00000000E+00  0.00000000E+00
  0.00000000E+00  0.00000000E+00  0.00000000E+00
  0.00000000E+00  0.00000000E+00  0.00000000E+00
  0.00000000E+00  0.00000000E+00  0.00000000E+00
  0.00000000E+00  0.00000000E+00  0.00000000E+00
  0.00000000E+00  0.00000000E+00  0.00000000E+00
  0.00000000E+00  0.00000000E+00  0.00000000E+00
  0.00000000E+00  0.00000000E+00  0.00000000E+00
  0.00000000E+00  0.00000000E+00  0.00000000E+00
  0.00000000E+00  0.00000000E+00  0.00000000E+00
  0.00000000E+00  0.00000000E+00  0.00000000E+00
  0.00000000E+00  0.00000000E+00  0.00000000E+00
  0.00000000E+00  0.00000000E+00  0.00000000E+00
  0.00000000E+00  0.00000000E+00  0.00000000E+00
  0.00000000E+00  0.00000000E+00  0.00000000E+00
  0.00000000E+00  0.00000000E+00  0.00000000E+00
  0.00000000E+00  0.00000000E+00  0.00000000E+00
  0.00000000E+00  0.00000000E+00  0.00000000E+00
  0.00000000E+00  0.00000000E+00  0.00000000E+00
  0.00000000E+00  0.00000000E+00  0.00000000E+00
  0.00000000E+00  0.00000000E+00  0.00000000E+00
  0.00000000E+00  0.00000000E+00  0.00000000E+00
  0.00000000E+00  0.00000000E+00  0.00000000E+00
  0.00000000E+00  0.00000000E+00  0.00000000E+00
  0.00000000E+00  0.00000000E+00  0.00000000E+00
  0.00000000E+00  0.00000000E+00  0.00000000E+00
  0.00000000E+00  0.00000000E+00  0.00000000E+00
  0.00000000E+00  0.00000000E+00  0.00000000E+00
  0.00000000E+00  0.00000000E+00  0.00000000E+00
  0.00000000E+00  0.00000000E+00  0.00000000E+00
  0.00000000E+00  0.00000000E+00  0.00000000E+00
