Ge+Sn
    1.000000000
   16.002676010    0.000000000    0.000000000
  -16.002676010   11.315601349    0.000000000
    0.000000000    0.000000000   25.997659683
Ge  Sn 
96     72
Direct
    0.969067693    0.479378492    0.000000007
    0.594067693    0.229378477    0.076942876
    0.219067633    0.979378402    0.153885782
    0.844067693    0.729378462    0.230828643
    0.469067812    0.479378521    0.307771504
    0.094067693    0.229378462    0.384714365
    0.969067693    0.979378462    0.000000011
    0.594067693    0.729378462    0.076942883
    0.219067633    0.479378402    0.153885767
    0.844067693    0.229378462    0.230828643
    0.469067812    0.979378581    0.307771474
    0.094067693    0.729378462    0.384714365
    0.469067723    0.479378492    0.000000011
    0.094067708    0.229378477    0.076942883
    0.719067633    0.979378402    0.153885767
    0.344067752    0.729378462    0.230828643
    0.969067812    0.479378521    0.307771474
    0.594067693    0.229378462    0.384714365
    0.469067693    0.979378462    0.000000001
    0.094067700    0.729378462    0.076942876
    0.719067633    0.479378402    0.153885767
    0.344067693    0.229378462    0.230828643
    0.969067812    0.979378581    0.307771504
    0.594067693    0.729378462    0.384714335
    0.219067708    0.479378492    0.000000012
    0.844067693    0.229378477    0.076942891
    0.469067633    0.979378402    0.153885767
    0.094067693    0.729378462    0.230828643
    0.719067812    0.479378521    0.307771504
    0.344067693    0.229378462    0.384714335
    0.219067678    0.979378462    0.000000009
    0.844067693    0.729378462    0.076942883
    0.469067633    0.479378402    0.153885767
    0.094067693    0.229378462    0.230828643
    0.719067812    0.979378581    0.307771504
    0.344067693    0.729378462    0.384714365
    0.719067693    0.479378492    0.000000009
    0.344067723    0.229378477    0.076942883
    0.969067633    0.979378402    0.153885767
    0.594067693    0.729378462    0.230828643
    0.219067752    0.479378521    0.307771504
    0.844067693    0.229378462    0.384714335
    0.719067633    0.979378462    0.000000013
    0.344067693    0.729378462    0.076942898
    0.969067633    0.479378402    0.153885767
    0.594067693    0.229378462    0.230828643
    0.219067872    0.979378581    0.307771534
    0.844067693    0.729378462    0.384714365
    0.219067737    0.854378521    0.000000001
    0.844067693    0.604378462    0.076942883
    0.469067693    0.354378462    0.153885767
    0.094067752    0.104378499    0.230828643
    0.719067812    0.854378521    0.307771474
    0.344067693    0.604378521    0.384714365
    0.219067678    0.354378462    0.000000012
    0.844067693    0.104378462    0.076942876
    0.469067633    0.854378402    0.153885767
    0.094067633    0.604378462    0.230828643
    0.719067693    0.354378462    0.307771504
    0.344067574    0.104378402    0.384714335
    0.719067752    0.854378521    0.000000011
    0.344067663    0.604378462    0.076942883
    0.969067633    0.354378462    0.153885752
    0.594067693    0.104378499    0.230828643
    0.219067812    0.854378521    0.307771504
    0.844067693    0.604378521    0.384714335
    0.719067693    0.354378462    0.000000009
    0.344067693    0.104378462    0.076942883
    0.969067633    0.854378402    0.153885782
    0.594067693    0.604378462    0.230828643
    0.219067752    0.354378462    0.307771504
    0.844067574    0.104378402    0.384714365
    0.969067693    0.854378521    0.000000016
    0.594067633    0.604378462    0.076942898
    0.219067633    0.354378462    0.153885767
    0.844067574    0.104378499    0.230828673
    0.469067812    0.854378521    0.307771534
    0.094067693    0.604378521    0.384714365
    0.969067693    0.354378462    0.000000000
    0.594067693    0.104378462    0.076942883
    0.219067633    0.854378402    0.153885767
    0.844067693    0.604378462    0.230828643
    0.469067693    0.354378462    0.307771474
    0.094067693    0.104378402    0.384714335
    0.469067752    0.854378521    0.000000000
    0.094067685    0.604378462    0.076942883
    0.719067693    0.354378462    0.153885767
    0.344067752    0.104378499    0.230828643
    0.969067812    0.854378521    0.307771474
    0.594067812    0.604378521    0.384714335
    0.469067693    0.354378462    0.000000010
    0.094067693    0.104378462    0.076942883
    0.719067633    0.854378402    0.153885752
    0.344067693    0.604378462    0.230828643
    0.969067693    0.354378462    0.307771504
    0.594067693    0.104378402    0.384714335
    0.717869520    0.943589807    0.471733570
    0.467869520    0.943589807    0.559982955
    0.217869520    0.943589568    0.648232520
    0.967869401    0.943589687    0.736481905
    0.717869282    0.943589449    0.824731290
    0.467869282    0.943589449    0.912980795
    0.717869520    0.610256433    0.471733570
    0.467869520    0.610256433    0.559982955
    0.217869520    0.610256314    0.648232520
    0.967869401    0.610256195    0.736481905
    0.717869282    0.610256076    0.824731290
    0.467869282    0.610256076    0.912980795
    0.717869520    0.276923090    0.471733570
    0.467869520    0.276923060    0.559982955
    0.217869520    0.276922941    0.648232520
    0.967869401    0.276922941    0.736481905
    0.717869282    0.276922822    0.824731290
    0.467869282    0.276922703    0.912980795
    0.217869520    0.943589807    0.471733570
    0.967869580    0.943589807    0.559982955
    0.717869520    0.943589687    0.648232520
    0.467869520    0.943589568    0.736481905
    0.217869401    0.943589449    0.824731290
    0.967869341    0.943589449    0.912980795
    0.217869520    0.610256433    0.471733570
    0.967869580    0.610256374    0.559982955
    0.717869520    0.610256314    0.648232520
    0.467869520    0.610256255    0.736481905
    0.217869401    0.610256195    0.824731290
    0.967869341    0.610256076    0.912980795
    0.217869520    0.276923060    0.471733570
    0.967869580    0.276923060    0.559982955
    0.717869520    0.276922941    0.648232520
    0.467869520    0.276922941    0.736481905
    0.217869401    0.276922822    0.824731290
    0.967869341    0.276922703    0.912980795
    0.467869520    0.193589807    0.471733570
    0.217869520    0.193589807    0.559983015
    0.967869461    0.193589687    0.648232520
    0.717869401    0.193589687    0.736481905
    0.467869282    0.193589449    0.824731350
    0.217869282    0.193589568    0.912980795
    0.467869520    0.860256433    0.471733570
    0.217869520    0.860256433    0.559983015
    0.967869461    0.860256314    0.648232520
    0.717869401    0.860256314    0.736481905
    0.467869282    0.860256195    0.824731350
    0.217869282    0.860256195    0.912980795
    0.467869520    0.526923060    0.471733570
    0.217869520    0.526923001    0.559983015
    0.967869461    0.526922941    0.648232520
    0.717869401    0.526922882    0.736481905
    0.467869282    0.526922822    0.824731350
    0.217869282    0.526922762    0.912980795
    0.967869580    0.193589807    0.471733570
    0.717869520    0.193589807    0.559983015
    0.467869520    0.193589687    0.648232520
    0.217869282    0.193589687    0.736481905
    0.967869401    0.193589568    0.824731290
    0.717869282    0.193589568    0.912980795
    0.967869580    0.860256433    0.471733570
    0.717869520    0.860256433    0.559983015
    0.467869520    0.860256314    0.648232520
    0.217869282    0.860256195    0.736481905
    0.967869401    0.860256195    0.824731290
    0.717869282    0.860256195    0.912980795
    0.967869580    0.526923120    0.471733570
    0.717869520    0.526923060    0.559983015
    0.467869520    0.526922941    0.648232520
    0.217869282    0.526922822    0.736481905
    0.967869401    0.526922882    0.824731290
    0.717869282    0.526922822    0.912980795
