Si+C
    1.000000000
   16.293001175    0.000000000    0.000000000
  -10.862000465   12.144085884    0.000000000
    0.000000000    0.000000000    7.401784897
Si  C  
36     84
Direct
    0.982905626    0.641025126    0.000000002
    0.782905579    0.341025025    0.164069757
    0.582905412    0.041024935    0.328139514
    0.982905626    0.307691783    0.000000002
    0.782905579    0.007691715    0.164069757
    0.582905412    0.707691669    0.328139514
    0.982905626    0.974358499    0.000000002
    0.782905579    0.674358368    0.164069757
    0.582905412    0.374358296    0.328139514
    0.632905662    0.657691717    0.082034707
    0.432905585    0.357691616    0.246104479
    0.232905522    0.057691578    0.410174221
    0.632905662    0.324358463    0.082034707
    0.432905585    0.024358369    0.246104479
    0.232905522    0.724358320    0.410174221
    0.632905662    0.991025209    0.082034707
    0.432905585    0.691025138    0.246104479
    0.232905522    0.391025066    0.410174221
    0.482905626    0.807691753    0.000000000
    0.282905549    0.507691622    0.164069757
    0.082905442    0.207691610    0.328139514
    0.482905626    0.474358439    0.000000000
    0.282905549    0.174358353    0.164069757
    0.082905442    0.874358296    0.328139514
    0.482905626    0.141025141    0.000000000
    0.282905549    0.841025054    0.164069757
    0.082905442    0.541024983    0.328139514
    0.132905677    0.824358523    0.082034722
    0.932905555    0.524358392    0.246104479
    0.732905507    0.224358380    0.410174221
    0.132905677    0.491025209    0.082034722
    0.932905555    0.191025108    0.246104479
    0.732905507    0.891025126    0.410174221
    0.132905677    0.157691956    0.082034722
    0.932905555    0.857691884    0.246104479
    0.732905507    0.557691932    0.410174221
    0.889012337    0.027944803    0.570396423
    0.131869555    0.999373317    0.678148985
    0.374726772    0.970801830    0.785901487
    0.174726605    0.170801952    0.570396423
    0.417583823    0.142230466    0.678148985
    0.660441041    0.113658994    0.785901487
    0.460440874    0.313659072    0.570396423
    0.703298092    0.285087585    0.678148985
    0.946155369    0.256516129    0.785901487
    0.746155262    0.456516266    0.570396423
    0.989012420    0.427944779    0.678148985
    0.231869698    0.399373323    0.785901487
    0.031869411    0.599373341    0.570396423
    0.274726629    0.570801914    0.678148985
    0.517583847    0.542230427    0.785901487
    0.317583799    0.742230535    0.570396423
    0.560441017    0.713659048    0.678148985
    0.803298235    0.685087562    0.785901487
    0.603297949    0.885087669    0.570396423
    0.846155167    0.856516123    0.678148985
    0.089012384    0.827944696    0.785901487
    0.724726439    0.120801955    0.624272645
    0.967583835    0.092230484    0.732025087
    0.210441113    0.063658968    0.839777648
    0.010440707    0.263659090    0.624272585
    0.253298044    0.235087618    0.732025087
    0.496155262    0.206516102    0.839777708
    0.296155095    0.406516284    0.624272585
    0.539012313    0.377944797    0.732025087
    0.781869650    0.349373311    0.839777708
    0.581869364    0.549373388    0.624272585
    0.824726701    0.520801902    0.732025087
    0.067584038    0.492230505    0.839777708
    0.867583573    0.692230523    0.624272585
    0.110440969    0.663659036    0.732025087
    0.353297949    0.635087550    0.839777708
    0.153298020    0.835087657    0.624272645
    0.396155357    0.806516111    0.732025087
    0.639012575    0.777944684    0.839777648
    0.439012170    0.977944732    0.624272645
    0.681869388    0.949373305    0.732025087
    0.924726665    0.920801818    0.839777648
    0.531869650    0.099373400    0.570396423
    0.774726629    0.070801899    0.678148985
    0.017584085    0.042230472    0.785901487
    0.817583919    0.242230549    0.570396423
    0.060441017    0.213659033    0.678148985
    0.303298235    0.185087547    0.785901487
    0.103298068    0.385087699    0.570396423
    0.346155286    0.356516212    0.678148985
    0.589012504    0.327944726    0.785901487
    0.389012337    0.527944803    0.570396423
    0.631869555    0.499373347    0.678148985
    0.874726832    0.470801890    0.785901487
    0.674726605    0.670801938    0.570396423
    0.917583883    0.642230511    0.678148985
    0.160440922    0.613658965    0.785901487
    0.960440874    0.813659132    0.570396423
    0.203298092    0.785087705    0.678148985
    0.446155429    0.756516218    0.785901487
    0.246155143    0.956516266    0.570396423
    0.489012361    0.927944839    0.678148985
    0.731869698    0.899373353    0.785901487
    0.081869483    0.049373396    0.624272585
    0.324726701    0.020801902    0.732025087
    0.567584038    0.992230415    0.839777708
    0.367583632    0.192230538    0.624272585
    0.610440969    0.163659036    0.732025087
    0.853298187    0.135087594    0.839777648
    0.653297901    0.335087657    0.624272585
    0.896155298    0.306516230    0.732025146
    0.139012575    0.277944773    0.839777648
    0.939012110    0.477944821    0.624272585
    0.181869507    0.449373364    0.732025087
    0.424726725    0.420801848    0.839777648
    0.224726558    0.620801866    0.624272585
    0.467583895    0.592230380    0.732025087
    0.710441113    0.563658953    0.839777708
    0.510440826    0.763659060    0.624272585
    0.753298163    0.735087574    0.732025087
    0.996155441    0.706516206    0.839777708
    0.796154976    0.906516194    0.624272585
    0.039012432    0.877944767    0.732025087
    0.281869650    0.849373281    0.839777708
