C+Si
    1.000000000
   16.345130920    0.000000000    0.000000000
  -10.896755219   12.182942390    0.000000000
    0.000000000    0.000000000    8.390058517
C   Si 
84     36
Direct
    0.932124734    0.728499413    0.190120414
    0.132124841    0.528499424    0.000000052
    0.032124788    0.128499418    0.095060237
    0.217839032    0.871356606    0.190120414
    0.417839170    0.671356618    0.000000052
    0.317839086    0.271356583    0.095060237
    0.503553271    0.014213708    0.190120414
    0.703553379    0.814213693    0.000000052
    0.603553355    0.414213717    0.095060237
    0.789267600    0.157070875    0.190120444
    0.989267707    0.957070947    0.000000030
    0.889267683    0.557070911    0.095060237
    0.074981861    0.299928010    0.190120444
    0.274982005    0.099928088    0.000000029
    0.174981922    0.699928045    0.095060237
    0.360696107    0.442785144    0.190120444
    0.560696304    0.242785230    0.000000028
    0.460696161    0.842785180    0.095060207
    0.646410465    0.585642338    0.190120444
    0.846410632    0.385642380    0.000000028
    0.746410549    0.985642374    0.095060222
    0.810696185    0.992785454    0.237650424
    0.010696329    0.792785466    0.047530033
    0.910696268    0.392785370    0.142590255
    0.096410438    0.135642469    0.237650469
    0.296410590    0.935642540    0.047530036
    0.196410522    0.535642505    0.142590255
    0.953553319    0.564213872    0.237650424
    0.153553441    0.364213914    0.047530029
    0.053553376    0.964213848    0.142590255
    0.239267647    0.707070947    0.237650424
    0.439267784    0.507071018    0.047530033
    0.339267671    0.107070953    0.142590255
    0.524981856    0.849928260    0.237650454
    0.724981964    0.649928331    0.047530029
    0.624981940    0.249928296    0.142590255
    0.382124871    0.278499603    0.237650454
    0.582124949    0.078499563    0.047530048
    0.482124895    0.678499579    0.142590269
    0.667839110    0.421356916    0.237650424
    0.867839217    0.221356913    0.047530044
    0.767839253    0.821356893    0.142590225
    0.860696137    0.942785084    0.190120429
    0.060696274    0.742785156    0.000000000
    0.960696220    0.342785150    0.095060214
    0.146410406    0.085642211    0.190120429
    0.346410543    0.885642290    0.000000000
    0.246410474    0.485642284    0.095060214
    0.003553307    0.514213741    0.190120414
    0.203553438    0.314213783    0.000000023
    0.103553377    0.914213717    0.095060237
    0.289267570    0.657070875    0.190120414
    0.489267707    0.457070917    0.000000023
    0.389267623    0.057070859    0.095060237
    0.574981868    0.799928069    0.190120399
    0.774981976    0.599928081    0.000000022
    0.674981892    0.199928030    0.095060237
    0.432124794    0.228499472    0.190120414
    0.632124960    0.028499557    0.000000035
    0.532124817    0.628499508    0.095060237
    0.717839122    0.371356666    0.190120414
    0.917839289    0.171356723    0.000000022
    0.817839146    0.771356642    0.095060267
    0.882124782    0.778499484    0.237650454
    0.082124889    0.578499496    0.047530077
    0.982124805    0.178499445    0.142590240
    0.167839050    0.921356797    0.237650454
    0.367839187    0.721356809    0.047530059
    0.267839104    0.321356773    0.142590240
    0.453553379    0.064213991    0.237650424
    0.653553486    0.864214003    0.047530033
    0.553553462    0.464213967    0.142590284
    0.024981899    0.349928319    0.237650424
    0.224982023    0.149928346    0.047530036
    0.124981947    0.749928236    0.142590240
    0.310696125    0.492785335    0.237650424
    0.510696232    0.292785406    0.047530036
    0.410696179    0.892785311    0.142590255
    0.596410513    0.635642409    0.237650469
    0.796410620    0.435642451    0.047530036
    0.696410596    0.035642430    0.142590255
    0.739267707    0.207071006    0.237650424
    0.939267874    0.007071043    0.047530036
    0.839267790    0.607070982    0.142590269
    0.177588165    0.762583017    0.437895536
    0.377588272    0.729249537    0.582639277
    0.577588379    0.695916116    0.727383077
    0.177588165    0.429249674    0.437895536
    0.377588272    0.395916253    0.582639277
    0.577588379    0.362582803    0.727383077
    0.177588165    0.095916390    0.437895536
    0.377588272    0.062582970    0.582639277
    0.577588379    0.029249430    0.727383077
    0.527588129    0.912582994    0.510267258
    0.727588177    0.879249632    0.655011058
    0.927588344    0.845916212    0.799754858
    0.527588129    0.579249620    0.510267258
    0.727588177    0.545916200    0.655011058
    0.927588344    0.512582779    0.799754858
    0.527588129    0.245916337    0.510267258
    0.727588177    0.212582916    0.655011058
    0.927588344    0.179249495    0.799754858
    0.677588224    0.929249644    0.437895536
    0.877588272    0.895916164    0.582639277
    0.077588320    0.862582803    0.727383077
    0.677588224    0.595916331    0.437895536
    0.877588272    0.562582850    0.582639277
    0.077588320    0.529249430    0.727383077
    0.677588224    0.262583017    0.437895536
    0.877588272    0.229249567    0.582639277
    0.077588320    0.195916116    0.727383077
    0.027588129    0.079249859    0.510267258
    0.227588266    0.045916319    0.655011117
    0.427588195    0.012582898    0.799754798
    0.027588129    0.745916307    0.510267258
    0.227588266    0.712582886    0.655011117
    0.427588195    0.679249406    0.799754798
    0.027588129    0.412583023    0.510267258
    0.227588266    0.379249603    0.655011117
    0.427588195    0.345916152    0.799754798
