Ge+Ge                                   
   1.00000000000000     
    12.6512260439999995    0.0000000000000000    0.0000000000000000
     2.5302453040000001   12.3956203459999994    0.0000000000000000
     0.0000000000000000    0.0000000000000000   13.7351627349999994
   Ge
    96
Direct
  0.3925769330000008  0.2941776509999983  0.5000000599999979
  0.9925903680000019  0.9481325149999975  0.0000000229999984
  0.9509235619999998  0.6564657690000004  0.0840830879999999
  0.9092568160000027  0.3647989030000005  0.1681661610000020
  0.3092434409999996  0.7108442190000019  0.6681661610000020
  0.8259233240000015  0.7814655299999984  0.3363321719999988
  0.0592434409999996  0.9608441589999970  0.6681661610000020
  0.4925903680000019  0.4481325149999975  0.0000000280000023
  0.4509236219999977  0.1564657690000004  0.0840830879999999
  0.4092568760000006  0.8647989629999984  0.1681661610000020
  0.3675901289999999  0.5731322769999991  0.2522491810000034
  0.3259233830000028  0.2814655299999984  0.3363322319999966
  0.1592566369999986  0.3647987840000013  0.4204153120000029
  0.3675903979999973  0.8231326339999967  0.0000000120000010
  0.3259236219999977  0.5314658280000017  0.0840830879999999
  0.2842568760000006  0.2397990079999985  0.1681661900000009
  0.2425901740000000  0.9481323959999983  0.2522491810000034
  0.2009233830000028  0.6564656500000012  0.3363322319999966
  0.2675770520000000  0.6691777110000032  0.5000000599999979
  0.8675904870000011  0.3231325750000025  0.0000000120000010
  0.8259236809999990  0.0314657759999974  0.0840830879999999
  0.7842568760000006  0.7397989030000005  0.1681661610000020
  0.1842434409999996  0.0858441589999970  0.6681661610000020
  0.7009233830000028  0.1564655299999984  0.3363321719999988
  0.0342565589999992  0.2397987840000013  0.4204152820000004
  0.2425903529999971  0.6981326339999967  0.0000000000000000
  0.2009235920000023  0.4064657990000029  0.0840830799999992
  0.1592568459999981  0.1147989560000013  0.1681661610000020
  0.1175900850000033  0.8231323959999983  0.2522491510000009
  0.7675770520000000  0.1691777710000011  0.5000000599999979
  0.3925769330000008  0.2941776509999983  0.5000000599999979
  0.7425904270000032  0.1981325149999975  0.0000000209999982
  0.7009236219999977  0.9064657090000026  0.0840830949999969
  0.6592568760000006  0.6147989030000005  0.1681661610000020
  0.6175902490000027  0.3231323360000005  0.2522491810000034
  0.5759234430000006  0.0314654709999971  0.3363321719999988
  0.1009100679999975  0.2525109050000012  0.5840830799999992
  0.1175903600000012  0.0731325149999975  0.0000000209999982
  0.0759235989999993  0.7814657690000004  0.0840830879999999
  0.0342568459999981  0.4897989629999984  0.1681661610000020
  0.7675770520000000  0.1691777710000011  0.5000000599999979
  0.0592434409999996  0.9608441589999970  0.6681661610000020
  0.6425769330000008  0.0441777710000011  0.5000000599999979
  0.6175904870000011  0.5731325750000025  0.0000000120000010
  0.5759236219999977  0.2814658280000017  0.0840830799999992
  0.5342569350000019  0.9897990230000033  0.1681661900000009
  0.4925901889999977  0.6981322769999991  0.2522492410000012
  0.4509234430000006  0.4064655299999984  0.3363322619999991
  0.9342430829999984  0.0858439209999986  0.9204153419999983
  0.7842565770000007  0.4897986650000021  0.4204152820000004
  0.9925900699999985  0.1981322170000013  0.2522491810000034
  0.8092434409999996  0.2108441589999970  0.6681661610000020
  0.5175766939999988  0.1691774129999999  0.7522492410000012
  0.2259099480000017  0.1275106670000028  0.8363323210000004
  0.4342430829999984  0.5858439209999986  0.9204153419999983
  0.8925769330000008  0.7941776509999983  0.5000000599999979
  0.6009101869999967  0.7525109050000012  0.5840830799999992
  0.8675900699999985  0.0731322170000013  0.2522491810000034
  0.0175766939999988  0.6691774129999999  0.7522492410000012
  0.7259099480000017  0.6275106670000028  0.8363323210000004
  0.8092432019999976  0.4608439799999999  0.9204153419999983
  0.6592565770000007  0.8647986650000021  0.4204152820000004
  0.2842566070000032  0.9897987840000013  0.4204153120000029
  0.6842435000000009  0.5858442190000019  0.6681661610000020
  0.3925768140000017  0.5441774729999977  0.7522492410000012
  0.1009100679999975  0.5025107259999970  0.8363323210000004
  0.3092430829999984  0.9608439209999986  0.9204152820000004
  0.9925900699999985  0.1981322170000013  0.2522491810000034
  0.4759102169999991  0.1275110240000004  0.5840830799999992
  0.7425901289999999  0.4481323360000005  0.2522491810000034
  0.8925768140000017  0.0441775319999991  0.7522492410000012
  0.6009099480000017  0.0025106670000028  0.8363323210000004
  0.6842432019999976  0.3358438910000032  0.9204153419999983
  0.9509233830000028  0.9064655299999984  0.3363322319999966
  0.8509102459999980  0.5025109050000012  0.5840830799999992
  0.5592435000000009  0.4608441589999970  0.6681661610000020
  0.2675768140000017  0.4191774129999999  0.7522491810000034
  0.9759099480000017  0.3775106670000028  0.8363322619999991
  0.1842430829999984  0.8358440399999978  0.9204153419999983
  0.4092566070000032  0.1147988439999992  0.4204153120000029
  0.3509101869999967  0.0025110240000004  0.5840830799999992
  0.2842566070000032  0.9897987840000013  0.4204153120000029
  0.7675766939999988  0.9191775319999991  0.7522492410000012
  0.4759099190000029  0.8775107860000020  0.8363323210000004
  0.0592430829999984  0.2108439209999986  0.9204153419999983
  0.6592565770000007  0.8647986650000021  0.4204152820000004
  0.2259101869999967  0.3775109050000012  0.5840830799999992
  0.9342434409999996  0.3358441889999995  0.6681661610000020
  0.6425766939999988  0.2941774129999999  0.7522491810000034
  0.3509099480000017  0.2525106670000028  0.8363323210000004
  0.5592432019999976  0.7108440399999978  0.9204153419999983
  0.0175770520000000  0.9191777710000011  0.5000000599999979
  0.7259101869999967  0.8775109050000012  0.5840830799999992
  0.4342435599999988  0.8358442780000033  0.6681661610000020
  0.1425766939999988  0.7941775319999991  0.7522492410000012
  0.8509099480000017  0.7525107860000020  0.8363323210000004
 
  0.00000000E+00  0.00000000E+00  0.00000000E+00
  0.00000000E+00  0.00000000E+00  0.00000000E+00
  0.00000000E+00  0.00000000E+00  0.00000000E+00
  0.00000000E+00  0.00000000E+00  0.00000000E+00
  0.00000000E+00  0.00000000E+00  0.00000000E+00
  0.00000000E+00  0.00000000E+00  0.00000000E+00
  0.00000000E+00  0.00000000E+00  0.00000000E+00
  0.00000000E+00  0.00000000E+00  0.00000000E+00
  0.00000000E+00  0.00000000E+00  0.00000000E+00
  0.00000000E+00  0.00000000E+00  0.00000000E+00
  0.00000000E+00  0.00000000E+00  0.00000000E+00
  0.00000000E+00  0.00000000E+00  0.00000000E+00
  0.00000000E+00  0.00000000E+00  0.00000000E+00
  0.00000000E+00  0.00000000E+00  0.00000000E+00
  0.00000000E+00  0.00000000E+00  0.00000000E+00
  0.00000000E+00  0.00000000E+00  0.00000000E+00
  0.00000000E+00  0.00000000E+00  0.00000000E+00
  0.00000000E+00  0.00000000E+00  0.00000000E+00
  0.00000000E+00  0.00000000E+00  0.00000000E+00
  0.00000000E+00  0.00000000E+00  0.00000000E+00
  0.00000000E+00  0.00000000E+00  0.00000000E+00
  0.00000000E+00  0.00000000E+00  0.00000000E+00
  0.00000000E+00  0.00000000E+00  0.00000000E+00
  0.00000000E+00  0.00000000E+00  0.00000000E+00
  0.00000000E+00  0.00000000E+00  0.00000000E+00
  0.00000000E+00  0.00000000E+00  0.00000000E+00
  0.00000000E+00  0.00000000E+00  0.00000000E+00
  0.00000000E+00  0.00000000E+00  0.00000000E+00
  0.00000000E+00  0.00000000E+00  0.00000000E+00
  0.00000000E+00  0.00000000E+00  0.00000000E+00
  0.00000000E+00  0.00000000E+00  0.00000000E+00
  0.00000000E+00  0.00000000E+00  0.00000000E+00
  0.00000000E+00  0.00000000E+00  0.00000000E+00
  0.00000000E+00  0.00000000E+00  0.00000000E+00
  0.00000000E+00  0.00000000E+00  0.00000000E+00
  0.00000000E+00  0.00000000E+00  0.00000000E+00
  0.00000000E+00  0.00000000E+00  0.00000000E+00
  0.00000000E+00  0.00000000E+00  0.00000000E+00
  0.00000000E+00  0.00000000E+00  0.00000000E+00
  0.00000000E+00  0.00000000E+00  0.00000000E+00
  0.00000000E+00  0.00000000E+00  0.00000000E+00
  0.00000000E+00  0.00000000E+00  0.00000000E+00
  0.00000000E+00  0.00000000E+00  0.00000000E+00
  0.00000000E+00  0.00000000E+00  0.00000000E+00
  0.00000000E+00  0.00000000E+00  0.00000000E+00
  0.00000000E+00  0.00000000E+00  0.00000000E+00
  0.00000000E+00  0.00000000E+00  0.00000000E+00
  0.00000000E+00  0.00000000E+00  0.00000000E+00
  0.00000000E+00  0.00000000E+00  0.00000000E+00
  0.00000000E+00  0.00000000E+00  0.00000000E+00
  0.00000000E+00  0.00000000E+00  0.00000000E+00
  0.00000000E+00  0.00000000E+00  0.00000000E+00
  0.00000000E+00  0.00000000E+00  0.00000000E+00
  0.00000000E+00  0.00000000E+00  0.00000000E+00
  0.00000000E+00  0.00000000E+00  0.00000000E+00
  0.00000000E+00  0.00000000E+00  0.00000000E+00
  0.00000000E+00  0.00000000E+00  0.00000000E+00
  0.00000000E+00  0.00000000E+00  0.00000000E+00
  0.00000000E+00  0.00000000E+00  0.00000000E+00
  0.00000000E+00  0.00000000E+00  0.00000000E+00
  0.00000000E+00  0.00000000E+00  0.00000000E+00
  0.00000000E+00  0.00000000E+00  0.00000000E+00
  0.00000000E+00  0.00000000E+00  0.00000000E+00
  0.00000000E+00  0.00000000E+00  0.00000000E+00
  0.00000000E+00  0.00000000E+00  0.00000000E+00
  0.00000000E+00  0.00000000E+00  0.00000000E+00
  0.00000000E+00  0.00000000E+00  0.00000000E+00
  0.00000000E+00  0.00000000E+00  0.00000000E+00
  0.00000000E+00  0.00000000E+00  0.00000000E+00
  0.00000000E+00  0.00000000E+00  0.00000000E+00
  0.00000000E+00  0.00000000E+00  0.00000000E+00
  0.00000000E+00  0.00000000E+00  0.00000000E+00
  0.00000000E+00  0.00000000E+00  0.00000000E+00
  0.00000000E+00  0.00000000E+00  0.00000000E+00
  0.00000000E+00  0.00000000E+00  0.00000000E+00
  0.00000000E+00  0.00000000E+00  0.00000000E+00
  0.00000000E+00  0.00000000E+00  0.00000000E+00
  0.00000000E+00  0.00000000E+00  0.00000000E+00
  0.00000000E+00  0.00000000E+00  0.00000000E+00
  0.00000000E+00  0.00000000E+00  0.00000000E+00
  0.00000000E+00  0.00000000E+00  0.00000000E+00
  0.00000000E+00  0.00000000E+00  0.00000000E+00
  0.00000000E+00  0.00000000E+00  0.00000000E+00
  0.00000000E+00  0.00000000E+00  0.00000000E+00
  0.00000000E+00  0.00000000E+00  0.00000000E+00
  0.00000000E+00  0.00000000E+00  0.00000000E+00
  0.00000000E+00  0.00000000E+00  0.00000000E+00
  0.00000000E+00  0.00000000E+00  0.00000000E+00
  0.00000000E+00  0.00000000E+00  0.00000000E+00
  0.00000000E+00  0.00000000E+00  0.00000000E+00
  0.00000000E+00  0.00000000E+00  0.00000000E+00
  0.00000000E+00  0.00000000E+00  0.00000000E+00
  0.00000000E+00  0.00000000E+00  0.00000000E+00
  0.00000000E+00  0.00000000E+00  0.00000000E+00
  0.00000000E+00  0.00000000E+00  0.00000000E+00
  0.00000000E+00  0.00000000E+00  0.00000000E+00
