fcc Si+fcc Ge
    1.000000000
    5.480000000    0.000000000    0.000000000
    0.000000000    5.480000000    0.000000000
    0.000000000    0.000000000   29.850000000
Si    Ge   
22     22
Direct
    0.000000000    0.000000000    0.000000000
    0.500000000    0.000000000    0.091792295
    0.000000000    0.000000000    0.183584590
    0.500000000    0.000000000    0.275376884
    0.000000000    0.000000000    0.367169179
    0.500000000    0.000000000    0.458961474
    0.500000000    0.500000000    0.000000000
    0.000000000    0.500000000    0.091792295
    0.500000000    0.500000000    0.183584590
    0.000000000    0.500000000    0.275376884
    0.500000000    0.500000000    0.367169179
    0.000000000    0.500000000    0.458961474
    0.250000000    0.250000000    0.045896147
    0.750000000    0.250000000    0.137688442
    0.250000000    0.250000000    0.229480737
    0.750000000    0.250000000    0.321273032
    0.250000000    0.250000000    0.413065327
    0.750000000    0.750000000    0.045896147
    0.250000000    0.750000000    0.137688442
    0.750000000    0.750000000    0.229480737
    0.250000000    0.750000000    0.321273032
    0.750000000    0.750000000    0.413065327
    0.657407407    0.148148148    0.539865997
    0.157407407    0.148148148    0.634673367
    0.657407407    0.148148148    0.729480737
    0.157407407    0.148148148    0.824288107
    0.657407407    0.148148148    0.919095477
    0.157407407    0.648148148    0.539865997
    0.657407407    0.648148148    0.634673367
    0.157407407    0.648148148    0.729480737
    0.657407407    0.648148148    0.824288107
    0.157407407    0.648148148    0.919095477
    0.407407407    0.398148148    0.492462312
    0.907407407    0.398148148    0.587269682
    0.407407407    0.398148148    0.682077052
    0.907407407    0.398148148    0.776884422
    0.407407407    0.398148148    0.871691792
    0.907407407    0.398148148    0.966499162
    0.907407407    0.898148148    0.492462312
    0.407407407    0.898148148    0.587269682
    0.907407407    0.898148148    0.682077052
    0.407407407    0.898148148    0.776884422
    0.907407407    0.898148148    0.871691792
    0.407407407    0.898148148    0.966499162
