Si+C                                    
   1.00000000000000     
    13.3031797409999992    0.0000000000000000    0.0000000000000000
     6.6515893940000002   14.8734064099999994    0.0000000000000000
     0.0000000000000000    0.0000000000000000    7.9947524070000000
   Si   C 
    36    84
Direct
  0.2832494969999999  0.6416247490000018  0.0000000470000003
  0.8165827990000025  0.4082912800000003  0.1519008280000023
  0.3499159810000023  0.1749577670000022  0.3038016559999974
  0.6165827510000028  0.3082913759999997  0.0000000570000012
  0.1499160529999983  0.0749579299999965  0.1519008280000023
  0.6832492349999981  0.8416244390000003  0.3038016260000020
  0.9499161239999978  0.9749580619999989  0.0000000400000033
  0.4832494850000018  0.7416245940000010  0.1519008280000023
  0.0165826679999981  0.5082911249999995  0.3038016260000020
  0.7999162670000004  0.7749580139999992  0.0759502869999977
  0.3332495089999981  0.5416245460000013  0.2278510929999982
  0.8665827510000028  0.3082910780000034  0.3797519510000029
  0.1332496850000027  0.4416247609999999  0.0759503020000025
  0.6665829419999980  0.2082912770000007  0.2278510929999982
  0.1999162440000006  0.9749577640000027  0.3797519510000029
  0.4665828939999983  0.1082915369999995  0.0759503020000025
  0.9999161360000031  0.8749580380000026  0.2278510929999982
  0.5332493780000007  0.6416245699999976  0.3797519510000029
  0.7832495569999978  0.6416247490000018  0.0000000000000000
  0.3165828289999979  0.4082912800000003  0.1519008129999975
  0.8499160410000002  0.1749577819999999  0.3038016559999974
  0.1165827960000030  0.3082914049999985  0.0000000570000012
  0.6499160529999983  0.0749579519999983  0.1519008579999976
  0.1832492950000031  0.8416244980000016  0.3038016559999974
  0.4499161239999978  0.9749580619999989  0.0000000570000012
  0.9832494260000004  0.7416245940000010  0.1519008579999976
  0.5165826679999981  0.5082911249999995  0.3038016559999974
  0.2999161779999966  0.7749581340000020  0.0759503020000025
  0.8332494499999967  0.5416246650000005  0.2278511519999995
  0.3665826920000015  0.3082911970000026  0.3797519210000004
  0.6332494019999970  0.4416247309999974  0.0759503170000002
  0.1665826440000018  0.2082912620000030  0.2278511519999995
  0.6999159459999973  0.9749578240000005  0.3797518909999980
  0.9665827159999978  0.1082915510000007  0.0759503020000025
  0.4999159569999989  0.8749580380000026  0.2278511519999995
  0.0332492590000015  0.6416246289999989  0.3797519510000029
  0.2567331790000011  0.9011855720000028  0.7646964790000013
  0.5995902419999979  0.9297572369999969  0.5651752950000031
  0.9281617400000002  0.9154714350000006  0.6649358869999986
  0.5424473289999980  0.7583284970000008  0.7646964790000013
  0.8853045700000024  0.7869001030000007  0.5651752950000031
  0.2138760090000034  0.7726143000000008  0.6649358869999986
  0.8281615969999976  0.6154713629999975  0.7646964790000013
  0.1710187199999993  0.6440429689999974  0.5651752950000031
  0.4995901879999991  0.6297571659999974  0.6649358869999986
  0.1138759850000000  0.4726141690000034  0.7646964790000013
  0.4567331080000017  0.5011857750000033  0.5651752349999981
  0.7853045459999990  0.4869000320000012  0.6649358869999986
  0.3995902839999985  0.3297570350000001  0.7646964790000013
  0.7424473760000012  0.3583286400000034  0.5651752349999981
  0.0710188150000022  0.3440428970000013  0.6649358869999986
  0.6853045229999992  0.1868999300000027  0.7646964790000013
  0.0281616449999973  0.2154715360000026  0.5651752349999981
  0.3567331140000007  0.2011857629999980  0.6649358869999986
  0.9710189099999980  0.0440428260000019  0.7646965380000026
  0.3138759730000018  0.0726143119999989  0.5651752349999981
  0.6424474720000006  0.0583286290000018  0.6649358869999986
  0.7067329879999988  0.0011855360000013  0.8145766849999987
  0.0495901110000005  0.0297571420000011  0.6150555010000005
  0.3781615790000004  0.0154713390000012  0.7148161530000010
  0.9924472570000020  0.8583284620000029  0.8145766849999987
  0.3353044090000026  0.8869000669999991  0.6150555010000005
  0.6638758180000011  0.8726142049999979  0.7148161530000010
  0.2781615259999981  0.7154713270000030  0.8145768050000015
  0.6210187080000011  0.7440429330000029  0.6150554419999992
  0.9495902060000034  0.7297571300000030  0.7148160930000031
  0.5638759140000005  0.5726142529999976  0.8145766849999987
  0.9067330359999985  0.6011857989999996  0.6150554419999992
  0.2353044749999995  0.5869000550000010  0.7148161530000010
  0.8495903020000029  0.4297571179999977  0.8145768050000015
  0.1924474240000009  0.4583287239999976  0.6150554419999992
  0.5210187440000027  0.4440429209999976  0.7148160930000031
  0.1353044510000032  0.2868999239999965  0.8145768050000015
  0.4781616329999991  0.3154715300000035  0.6150555010000005
  0.8067331310000014  0.3011857270000036  0.7148161530000010
  0.4210188690000010  0.1440427900000003  0.8145766849999987
  0.7638759609999966  0.1726143960000002  0.6150555010000005
  0.0924473999999975  0.1583286079999979  0.7148160930000031
  0.7567330600000020  0.9011856320000007  0.7646964790000013
  0.0995901820000000  0.9297571179999977  0.5651752349999981
  0.4281615319999972  0.9154714350000006  0.6649359459999999
  0.0424475670000035  0.7583284970000008  0.7646965380000026
  0.3853045700000024  0.7869001030000007  0.5651752349999981
  0.7138760090000034  0.7726143000000008  0.6649358869999986
  0.3281618649999984  0.6154713629999975  0.7646965380000026
  0.6710188389999985  0.6440429689999974  0.5651752349999981
  0.9995902779999994  0.6297571659999974  0.6649358869999986
  0.6138759850000000  0.4726142290000013  0.7646965380000026
  0.9567331080000017  0.5011858339999975  0.5651752349999981
  0.2853044570000023  0.4869000320000012  0.6649358869999986
  0.8995901349999968  0.3297571539999993  0.7646965380000026
  0.2424473760000012  0.3583287000000013  0.5651752349999981
  0.5710188150000022  0.3440428970000013  0.6649358869999986
  0.1853046419999984  0.1868999599999981  0.7646965380000026
  0.5281616449999973  0.2154715060000001  0.5651752950000031
  0.8567332029999974  0.2011857179999978  0.6649358869999986
  0.4710188210000013  0.0440428260000019  0.7646965380000026
  0.8138759140000005  0.0726144309999981  0.5651752950000031
  0.1424473519999978  0.0583286290000018  0.6649358869999986
  0.2067331080000017  0.0011856559999970  0.8145766849999987
  0.5495902299999997  0.0297572610000003  0.6150555010000005
  0.8781615500000015  0.0154713390000012  0.7148160930000031
  0.4924474059999966  0.8583285209999971  0.8145766849999987
  0.8353044990000029  0.8869001269999970  0.6150555010000005
  0.1638759370000002  0.8726142639999992  0.7148160930000031
  0.7781616449999973  0.7154713270000030  0.8145766849999987
  0.1210188869999982  0.7440429330000029  0.6150555010000005
  0.4495903549999980  0.7297570710000016  0.7148160930000031
  0.0638757939999977  0.5726142529999976  0.8145766259999974
  0.4067330660000010  0.6011857390000017  0.6150554419999992
  0.7353044749999995  0.5868999959999996  0.7148160930000031
  0.3495903310000017  0.4297570590000035  0.8145766849999987
  0.6924474839999988  0.4583286639999997  0.6150554419999992
  0.0210188630000019  0.4440428609999998  0.7148160930000031
  0.6353043319999969  0.2868998940000012  0.8145766849999987
  0.9781615730000013  0.3154715000000010  0.6150554419999992
  0.3067329229999984  0.3011857270000036  0.7148160930000031
  0.9210187199999993  0.1440428789999970  0.8145766849999987
  0.2638759609999966  0.1726143659999977  0.6150555010000005
  0.5924472809999983  0.1583285930000002  0.7148161530000010
 
  0.00000000E+00  0.00000000E+00  0.00000000E+00
  0.00000000E+00  0.00000000E+00  0.00000000E+00
  0.00000000E+00  0.00000000E+00  0.00000000E+00
  0.00000000E+00  0.00000000E+00  0.00000000E+00
  0.00000000E+00  0.00000000E+00  0.00000000E+00
  0.00000000E+00  0.00000000E+00  0.00000000E+00
  0.00000000E+00  0.00000000E+00  0.00000000E+00
  0.00000000E+00  0.00000000E+00  0.00000000E+00
  0.00000000E+00  0.00000000E+00  0.00000000E+00
  0.00000000E+00  0.00000000E+00  0.00000000E+00
  0.00000000E+00  0.00000000E+00  0.00000000E+00
  0.00000000E+00  0.00000000E+00  0.00000000E+00
  0.00000000E+00  0.00000000E+00  0.00000000E+00
  0.00000000E+00  0.00000000E+00  0.00000000E+00
  0.00000000E+00  0.00000000E+00  0.00000000E+00
  0.00000000E+00  0.00000000E+00  0.00000000E+00
  0.00000000E+00  0.00000000E+00  0.00000000E+00
  0.00000000E+00  0.00000000E+00  0.00000000E+00
  0.00000000E+00  0.00000000E+00  0.00000000E+00
  0.00000000E+00  0.00000000E+00  0.00000000E+00
  0.00000000E+00  0.00000000E+00  0.00000000E+00
  0.00000000E+00  0.00000000E+00  0.00000000E+00
  0.00000000E+00  0.00000000E+00  0.00000000E+00
  0.00000000E+00  0.00000000E+00  0.00000000E+00
  0.00000000E+00  0.00000000E+00  0.00000000E+00
  0.00000000E+00  0.00000000E+00  0.00000000E+00
  0.00000000E+00  0.00000000E+00  0.00000000E+00
  0.00000000E+00  0.00000000E+00  0.00000000E+00
  0.00000000E+00  0.00000000E+00  0.00000000E+00
  0.00000000E+00  0.00000000E+00  0.00000000E+00
  0.00000000E+00  0.00000000E+00  0.00000000E+00
  0.00000000E+00  0.00000000E+00  0.00000000E+00
  0.00000000E+00  0.00000000E+00  0.00000000E+00
  0.00000000E+00  0.00000000E+00  0.00000000E+00
  0.00000000E+00  0.00000000E+00  0.00000000E+00
  0.00000000E+00  0.00000000E+00  0.00000000E+00
  0.00000000E+00  0.00000000E+00  0.00000000E+00
  0.00000000E+00  0.00000000E+00  0.00000000E+00
  0.00000000E+00  0.00000000E+00  0.00000000E+00
  0.00000000E+00  0.00000000E+00  0.00000000E+00
  0.00000000E+00  0.00000000E+00  0.00000000E+00
  0.00000000E+00  0.00000000E+00  0.00000000E+00
  0.00000000E+00  0.00000000E+00  0.00000000E+00
  0.00000000E+00  0.00000000E+00  0.00000000E+00
  0.00000000E+00  0.00000000E+00  0.00000000E+00
  0.00000000E+00  0.00000000E+00  0.00000000E+00
  0.00000000E+00  0.00000000E+00  0.00000000E+00
  0.00000000E+00  0.00000000E+00  0.00000000E+00
  0.00000000E+00  0.00000000E+00  0.00000000E+00
  0.00000000E+00  0.00000000E+00  0.00000000E+00
  0.00000000E+00  0.00000000E+00  0.00000000E+00
  0.00000000E+00  0.00000000E+00  0.00000000E+00
  0.00000000E+00  0.00000000E+00  0.00000000E+00
  0.00000000E+00  0.00000000E+00  0.00000000E+00
  0.00000000E+00  0.00000000E+00  0.00000000E+00
  0.00000000E+00  0.00000000E+00  0.00000000E+00
  0.00000000E+00  0.00000000E+00  0.00000000E+00
  0.00000000E+00  0.00000000E+00  0.00000000E+00
  0.00000000E+00  0.00000000E+00  0.00000000E+00
  0.00000000E+00  0.00000000E+00  0.00000000E+00
  0.00000000E+00  0.00000000E+00  0.00000000E+00
  0.00000000E+00  0.00000000E+00  0.00000000E+00
  0.00000000E+00  0.00000000E+00  0.00000000E+00
  0.00000000E+00  0.00000000E+00  0.00000000E+00
  0.00000000E+00  0.00000000E+00  0.00000000E+00
  0.00000000E+00  0.00000000E+00  0.00000000E+00
  0.00000000E+00  0.00000000E+00  0.00000000E+00
  0.00000000E+00  0.00000000E+00  0.00000000E+00
  0.00000000E+00  0.00000000E+00  0.00000000E+00
  0.00000000E+00  0.00000000E+00  0.00000000E+00
  0.00000000E+00  0.00000000E+00  0.00000000E+00
  0.00000000E+00  0.00000000E+00  0.00000000E+00
  0.00000000E+00  0.00000000E+00  0.00000000E+00
  0.00000000E+00  0.00000000E+00  0.00000000E+00
  0.00000000E+00  0.00000000E+00  0.00000000E+00
  0.00000000E+00  0.00000000E+00  0.00000000E+00
  0.00000000E+00  0.00000000E+00  0.00000000E+00
  0.00000000E+00  0.00000000E+00  0.00000000E+00
  0.00000000E+00  0.00000000E+00  0.00000000E+00
  0.00000000E+00  0.00000000E+00  0.00000000E+00
  0.00000000E+00  0.00000000E+00  0.00000000E+00
  0.00000000E+00  0.00000000E+00  0.00000000E+00
  0.00000000E+00  0.00000000E+00  0.00000000E+00
  0.00000000E+00  0.00000000E+00  0.00000000E+00
  0.00000000E+00  0.00000000E+00  0.00000000E+00
  0.00000000E+00  0.00000000E+00  0.00000000E+00
  0.00000000E+00  0.00000000E+00  0.00000000E+00
  0.00000000E+00  0.00000000E+00  0.00000000E+00
  0.00000000E+00  0.00000000E+00  0.00000000E+00
  0.00000000E+00  0.00000000E+00  0.00000000E+00
  0.00000000E+00  0.00000000E+00  0.00000000E+00
  0.00000000E+00  0.00000000E+00  0.00000000E+00
  0.00000000E+00  0.00000000E+00  0.00000000E+00
  0.00000000E+00  0.00000000E+00  0.00000000E+00
  0.00000000E+00  0.00000000E+00  0.00000000E+00
  0.00000000E+00  0.00000000E+00  0.00000000E+00
  0.00000000E+00  0.00000000E+00  0.00000000E+00
  0.00000000E+00  0.00000000E+00  0.00000000E+00
  0.00000000E+00  0.00000000E+00  0.00000000E+00
  0.00000000E+00  0.00000000E+00  0.00000000E+00
  0.00000000E+00  0.00000000E+00  0.00000000E+00
  0.00000000E+00  0.00000000E+00  0.00000000E+00
  0.00000000E+00  0.00000000E+00  0.00000000E+00
  0.00000000E+00  0.00000000E+00  0.00000000E+00
  0.00000000E+00  0.00000000E+00  0.00000000E+00
  0.00000000E+00  0.00000000E+00  0.00000000E+00
  0.00000000E+00  0.00000000E+00  0.00000000E+00
  0.00000000E+00  0.00000000E+00  0.00000000E+00
  0.00000000E+00  0.00000000E+00  0.00000000E+00
  0.00000000E+00  0.00000000E+00  0.00000000E+00
  0.00000000E+00  0.00000000E+00  0.00000000E+00
  0.00000000E+00  0.00000000E+00  0.00000000E+00
  0.00000000E+00  0.00000000E+00  0.00000000E+00
  0.00000000E+00  0.00000000E+00  0.00000000E+00
  0.00000000E+00  0.00000000E+00  0.00000000E+00
  0.00000000E+00  0.00000000E+00  0.00000000E+00
  0.00000000E+00  0.00000000E+00  0.00000000E+00
  0.00000000E+00  0.00000000E+00  0.00000000E+00
  0.00000000E+00  0.00000000E+00  0.00000000E+00
  0.00000000E+00  0.00000000E+00  0.00000000E+00
