Si+C
    1.000000000
   13.303179741    0.000000000    0.000000000
    6.651589394   11.520891190    0.000000000
    0.000000000    0.000000000   21.679416656
Si  C  
72     308
Direct
    0.000000000    0.318506181    0.289268821
    0.000000000    0.985172927    0.000000014
    0.000000000    0.651839554    0.144634426
    0.333333343    0.651839614    0.289268792
    0.333333343    0.318506300    0.000000009
    0.333333343    0.985172868    0.144634411
    0.666666687    0.985172927    0.289268792
    0.666666687    0.651839614    0.000000006
    0.666666687    0.318506241    0.144634411
    0.333333343    0.318506062    0.325427473
    0.333333343    0.985172868    0.036158625
    0.333333343    0.651839495    0.180793017
    1.000000000    0.985172808    0.325427473
    1.000000000    0.651839614    0.036158621
    1.000000000    0.318506271    0.180793017
    0.666666746    0.651839375    0.325427473
    0.666666746    0.318506211    0.036158632
    0.666666746    0.985172868    0.180793017
    0.500000000    0.318506241    0.289268792
    0.500000000    0.985172927    0.000000010
    0.500000000    0.651839554    0.144634411
    0.166666672    0.985172927    0.289268792
    0.166666672    0.651839674    0.000000001
    0.166666672    0.318506241    0.144634411
    0.833333373    0.651839614    0.289268792
    0.833333373    0.318506300    0.000000001
    0.833333373    0.985172927    0.144634411
    0.166666657    0.651839554    0.325427383
    0.166666657    0.318506300    0.036158580
    0.166666657    0.985172868    0.180792972
    0.833333433    0.318506181    0.325427413
    0.833333433    0.985172927    0.036158595
    0.833333433    0.651839495    0.180792987
    0.500000060    0.985172868    0.325427413
    0.500000060    0.651839614    0.036158599
    0.500000060    0.318506211    0.180793017
    0.166666672    0.485172927    0.289268792
    0.166666672    0.151839614    0.000000010
    0.166666672    0.818506241    0.144634411
    0.500000000    0.818506241    0.289268821
    0.500000000    0.485172987    0.000000016
    0.500000000    0.151839584    0.144634426
    0.833333373    0.151839629    0.289268792
    0.833333373    0.818506360    0.000000000
    0.833333373    0.485173017    0.144634381
    0.500000000    0.485172868    0.325427413
    0.500000000    0.151839614    0.036158595
    0.500000000    0.818506241    0.180792987
    0.166666672    0.151839569    0.325427383
    0.166666672    0.818506360    0.036158573
    0.166666672    0.485172927    0.180792972
    0.833333373    0.818506181    0.325427383
    0.833333373    0.485172927    0.036158573
    0.833333373    0.151839525    0.180792972
    0.000000000    0.818506241    0.289268792
    0.000000000    0.485172957    0.000000009
    0.000000000    0.151839554    0.144634411
    0.666666687    0.485172868    0.289268792
    0.666666687    0.151839599    0.000000009
    0.666666687    0.818506181    0.144634411
    0.333333313    0.151839495    0.289268792
    0.333333313    0.818506241    0.000000002
    0.333333313    0.485172868    0.144634381
    0.000000000    0.485172808    0.325427473
    0.000000000    0.151839659    0.036158618
    0.000000000    0.818506300    0.180793017
    0.333333343    0.818506122    0.325427473
    0.333333343    0.485172957    0.036158621
    0.333333343    0.151839599    0.180793017
    0.666666687    0.151839525    0.325427443
    0.666666687    0.818506300    0.036158618
    0.666666687    0.485172957    0.180792987
    0.666363478    0.484545678    0.876437724
    0.999697089    0.817879021    0.496484071
    0.666363835    0.484545738    0.591472447
    0.333030224    0.151212245    0.686460912
    0.999696970    0.817878902    0.781449258
    0.952077866    0.627402723    0.876437724
    0.285411417    0.960736096    0.496484071
    0.952078104    0.627402842    0.591472447
    0.618744552    0.294069380    0.686460912
    0.285411179    0.960735977    0.781449258
    0.809220672    0.055974126    0.876437783
    0.142554283    0.389307559    0.496484041
    0.809220910    0.055974245    0.591472447
    0.475887358    0.722640753    0.686460912
    0.142554045    0.389307410    0.781449258
    0.237792015    0.770259798    0.876437783
    0.571125686    0.103593268    0.496484071
    0.237792373    0.770259917    0.591472447
    0.904458880    0.436926514    0.686460912
    0.571125448    0.103593133    0.781449258
    0.094934821    0.198831230    0.876437724
    0.428268611    0.532164752    0.496484011
    0.094935179    0.198831409    0.591472447
    0.761601806    0.865498006    0.686460853
    0.428268254    0.532164574    0.781449258
    0.523506343    0.913116872    0.876437724
    0.856840014    0.246450454    0.496484011
    0.523506641    0.913117051    0.591472447
    0.190173268    0.579783738    0.686460793
    0.856839716    0.246450335    0.781449258
    0.380649209    0.341688424    0.876437724
    0.713982821    0.675021768    0.496484071
    0.380649507    0.341688514    0.591472447
    0.047315955    0.008355021    0.686460912
    0.713982582    0.675021648    0.781449258
    0.761601686    0.865498006    0.900184751
    0.428268611    0.532164693    0.425242722
    0.094935179    0.198831379    0.520231128
    0.761601746    0.865497947    0.615219593
    0.428268313    0.532164454    0.710207999
    0.094934940    0.198831171    0.805196404
    0.190173149    0.579783738    0.900184751
    0.856840014    0.246450454    0.425242722
    0.523506641    0.913117111    0.520231128
    0.190173149    0.579783738    0.615219533
    0.856839657    0.246450216    0.710207999
    0.523506343    0.913116872    0.805196404
    0.047315955    0.008355141    0.900184751
    0.713982821    0.675021827    0.425242722
    0.380649507    0.341688514    0.520231128
    0.047316074    0.008355141    0.615219533
    0.713982522    0.675021589    0.710207999
    0.380649149    0.341688305    0.805196404
    0.475887299    0.722640812    0.900184751
    0.142554283    0.389307588    0.425242722
    0.809220910    0.055974245    0.520231128
    0.475887477    0.722640812    0.615219533
    0.142553926    0.389307350    0.710207999
    0.809220552    0.055974126    0.805196404
    0.904458761    0.436926693    0.900184751
    0.571125746    0.103593297    0.425242722
    0.237792373    0.770259917    0.520231128
    0.904458880    0.436926574    0.615219593
    0.571125388    0.103593074    0.710207999
    0.237792015    0.770259678    0.805196404
    0.333030283    0.151212245    0.900184751
    0.999697208    0.817878962    0.425242752
    0.666363835    0.484545648    0.520231128
    0.333030403    0.151212230    0.615219593
    0.999696851    0.817878723    0.710207999
    0.666363537    0.484545439    0.805196404
    0.618744373    0.294069439    0.900184751
    0.285411507    0.960736096    0.425242692
    0.952078104    0.627402782    0.520231068
    0.618744791    0.294069499    0.615219533
    0.285411179    0.960735977    0.710207939
    0.952077746    0.627402604    0.805196404
    0.880649209    0.841688454    0.876437724
    0.213982821    0.175021827    0.496484041
    0.880649447    0.841688514    0.591472447
    0.547315955    0.508355021    0.686460912
    0.213982582    0.175021738    0.781449258
    0.309220672    0.555974066    0.876437724
    0.642554283    0.889307559    0.496484011
    0.309220910    0.555974245    0.591472447
    0.975887418    0.222640783    0.686460912
    0.642554045    0.889307439    0.781449258
    0.737792134    0.270259768    0.876437724
    0.071125746    0.603593230    0.496484011
    0.737792313    0.270259917    0.591472447
    0.404458940    0.936926544    0.686460853
    0.071125388    0.603593051    0.781449258
    0.166363478    0.984545529    0.876437724
    0.499697149    0.317879021    0.496484041
    0.166363716    0.984545648    0.591472447
    0.833030343    0.651212275    0.686460853
    0.499696791    0.317878813    0.781449258
    0.594934881    0.698831141    0.876437724
    0.928268611    0.032164812    0.496484011
    0.594935179    0.698831379    0.591472447
    0.261601806    0.365498096    0.686460793
    0.928268313    0.032164693    0.781449199
    0.023506403    0.413116962    0.876437724
    0.356839985    0.746450365    0.496484041
    0.023506641    0.413117141    0.591472447
    0.690173090    0.079783678    0.686460912
    0.356839776    0.746450245    0.781449258
    0.452077866    0.127402693    0.876437783
    0.785411417    0.460736126    0.496484071
    0.452078104    0.127402827    0.591472447
    0.118744612    0.794069350    0.686460912
    0.785411179    0.460736006    0.781449258
    0.833030105    0.651212156    0.900184751
    0.499697179    0.317878991    0.425242692
    0.166363716    0.984545648    0.520231068
    0.833030462    0.651212335    0.615219533
    0.499696851    0.317878813    0.710207939
    0.166363478    0.984545529    0.805196404
    0.690173030    0.079783678    0.900184751
    0.356840074    0.746450365    0.425242692
    0.023506641    0.413117081    0.520231068
    0.690173328    0.079783797    0.615219533
    0.356839716    0.746450245    0.710207939
    0.023506403    0.413116902    0.805196404
    0.118744493    0.794069231    0.900184751
    0.785411477    0.460736156    0.425242692
    0.452078044    0.127402782    0.520231068
    0.118744731    0.794069469    0.615219533
    0.785411119    0.460735947    0.710207939
    0.452077746    0.127402633    0.805196404
    0.547315836    0.508354962    0.900184751
    0.213982821    0.175021857    0.425242692
    0.880649447    0.841688454    0.520231068
    0.547316194    0.508355200    0.615219533
    0.213982582    0.175021678    0.710207939
    0.880649209    0.841688335    0.805196404
    0.975887299    0.222640783    0.900184751
    0.642554343    0.889307559    0.425242692
    0.309220910    0.555974185    0.520231068
    0.975887597    0.222640902    0.615219533
    0.642553985    0.889307380    0.710207939
    0.309220612    0.555974066    0.805196345
    0.404458761    0.936926425    0.900184751
    0.071125746    0.603593230    0.425242722
    0.737792373    0.270259887    0.520231128
    0.404459059    0.936926603    0.615219533
    0.071125507    0.603593051    0.710207939
    0.737792134    0.270259768    0.805196404
    0.261601567    0.365497857    0.900184751
    0.928268611    0.032164693    0.425242722
    0.594935179    0.698831260    0.520231128
    0.261601925    0.365498006    0.615219533
    0.928268313    0.032164454    0.710207999
    0.594934881    0.698831081    0.805196404
    0.809220672    0.555974066    0.876437783
    0.142554283    0.889307559    0.496484071
    0.809220910    0.555974245    0.591472447
    0.475887358    0.222640783    0.686460912
    0.142554045    0.889307439    0.781449258
    0.666363597    0.984545529    0.876437783
    0.999697149    0.317878991    0.496484071
    0.666363776    0.984545648    0.591472447
    0.333030224    0.651212156    0.686460912
    0.999696851    0.317878872    0.781449258
    0.094934940    0.698831260    0.876437783
    0.428268552    0.032164693    0.496484041
    0.094935179    0.698831379    0.591472447
    0.761601686    0.365497917    0.686460912
    0.428268313    0.032164574    0.781449258
    0.952077746    0.127402693    0.876437783
    0.285411447    0.460736245    0.496484011
    0.952077985    0.127402857    0.591472447
    0.618744671    0.794069469    0.686460793
    0.285411119    0.460736126    0.781449258
    0.380649149    0.841688335    0.876437724
    0.713982940    0.175021917    0.496484011
    0.380649507    0.841688514    0.591472447
    0.047316074    0.508355200    0.686460853
    0.713982642    0.175021797    0.781449258
    0.237792015    0.270259887    0.876437724
    0.571125686    0.603593230    0.496484071
    0.237792373    0.270259976    0.591472447
    0.904458821    0.936926484    0.686460912
    0.571125448    0.603593171    0.781449258
    0.523506403    0.413116962    0.876437783
    0.856839955    0.746450365    0.496484071
    0.523506641    0.413117111    0.591472447
    0.190173149    0.079783678    0.686460912
    0.856839776    0.746450245    0.781449258
    0.047315717    0.508354962    0.900184751
    0.713982821    0.175021857    0.425242722
    0.380649447    0.841688454    0.520231128
    0.047316074    0.508355200    0.615219533
    0.713982522    0.175021678    0.710207939
    0.380649149    0.841688216    0.805196404
    0.904458761    0.936926425    0.900184751
    0.571125746    0.603593230    0.425242692
    0.237792373    0.270259887    0.520231068
    0.904459059    0.936926603    0.615219533
    0.571125448    0.603593051    0.710207939
    0.237792134    0.270259708    0.805196404
    0.333030164    0.651212156    0.900184751
    0.999697208    0.317878991    0.425242722
    0.666363835    0.984545588    0.520231128
    0.333030462    0.651212335    0.615219533
    0.999696851    0.317878813    0.710207939
    0.666363478    0.984545410    0.805196404
    0.761601567    0.365497917    0.900184751
    0.428268611    0.032164812    0.425242722
    0.094935179    0.698831379    0.520231128
    0.761601865    0.365498096    0.615219533
    0.428268254    0.032164574    0.710207999
    0.094934940    0.698831260    0.805196404
    0.190173030    0.079783678    0.900184751
    0.856840014    0.746450424    0.425242662
    0.523506641    0.413117051    0.520231068
    0.190173268    0.079783797    0.615219533
    0.856839657    0.746450245    0.710207880
    0.523506284    0.413116962    0.805196345
    0.618744493    0.794069231    0.900184751
    0.285411566    0.460736156    0.425242692
    0.952078164    0.127402768    0.520231068
    0.618744850    0.794069469    0.615219533
    0.285411239    0.460735947    0.710207939
    0.952077866    0.127402633    0.805196404
    0.475887299    0.222640723    0.900184751
    0.142554283    0.889307559    0.425242722
    0.809220910    0.555974185    0.520231128
    0.475887597    0.222640902    0.615219533
    0.142554045    0.889307320    0.710207999
    0.809220672    0.555974007    0.805196404
    0.737792253    0.770259917    0.876437724
    0.071125746    0.103593275    0.496484041
    0.737792373    0.770259917    0.591472447
    0.404458761    0.436926514    0.686460912
    0.071125507    0.103593193    0.781449258
    0.166363478    0.484545559    0.876437724
    0.499697089    0.817879021    0.496484041
    0.166363716    0.484545678    0.591472447
    0.833030224    0.151212245    0.686460912
    0.499696851    0.817878902    0.781449258
    0.023506284    0.913116992    0.876437724
    0.356840014    0.246450484    0.496484011
    0.023506641    0.913117111    0.591472447
    0.690173209    0.579783738    0.686460853
    0.356839657    0.246450335    0.781449258
    0.452077687    0.627402723    0.876437724
    0.785411358    0.960736156    0.496484011
    0.452077985    0.627402723    0.591472447
    0.118744612    0.294069499    0.686460853
    0.785411119    0.960735977    0.781449258
    0.880649209    0.341688305    0.876437724
    0.213982821    0.675021708    0.496484041
    0.880649507    0.341688514    0.591472447
    0.547315955    0.008355021    0.686460912
    0.213982582    0.675021708    0.781449258
    0.309220612    0.055974245    0.876437724
    0.642554283    0.389307559    0.496484041
    0.309220940    0.055974245    0.591472447
    0.975887418    0.722640693    0.686460912
    0.642554045    0.389307469    0.781449258
    0.594935000    0.198831230    0.876437724
    0.928268552    0.532164633    0.496484071
    0.594935179    0.198831350    0.591472447
    0.261601686    0.865497887    0.686460912
    0.928268313    0.532164514    0.781449258
    0.690173268    0.579783738    0.900184751
    0.356840074    0.246450514    0.425242722
    0.023506641    0.913117170    0.520231128
    0.690173268    0.579783738    0.615219593
    0.356839716    0.246450335    0.710207939
    0.023506284    0.913116872    0.805196404
    0.975887418    0.722640812    0.900184751
    0.642554402    0.389307648    0.425242722
    0.309220970    0.055974364    0.520231128
    0.975887537    0.722640872    0.615219593
    0.642553985    0.389307410    0.710207999
    0.309220672    0.055974126    0.805196404
    0.833030343    0.151212364    0.900184751
    0.499697238    0.817879021    0.425242692
    0.166363835    0.484545708    0.520231068
    0.833030403    0.151212305    0.615219533
    0.499696851    0.817878783    0.710207999
    0.166363478    0.484545439    0.805196404
    0.261601686    0.865498006    0.900184751
    0.928268611    0.532164752    0.425242722
    0.594935179    0.198831439    0.520231068
    0.261601686    0.865498006    0.615219533
    0.928268254    0.532164514    0.710207999
    0.594934881    0.198831171    0.805196404
    0.118744493    0.294069439    0.900184751
    0.785411417    0.960736096    0.425242692
    0.452078044    0.627402782    0.520231068
    0.118744612    0.294069380    0.615219533
    0.785411060    0.960735917    0.710207999
    0.452077746    0.627402604    0.805196404
    0.547315836    0.008355141    0.900184751
    0.213982821    0.675021768    0.425242722
    0.880649507    0.341688484    0.520231128
    0.547316015    0.008355141    0.615219593
    0.213982463    0.675021589    0.710207999
    0.880649090    0.341688305    0.805196404
    0.404458821    0.436926693    0.900184751
    0.071125746    0.103593417    0.425242752
    0.737792373    0.770260036    0.520231128
    0.404458940    0.436926693    0.615219593
    0.071125388    0.103593133    0.710207999
    0.737792015    0.770259798    0.805196404
