Sn+Si
    1.000000000
   12.978400230    0.000000000    0.000000000
    6.489200115   14.510293007    0.000000000
    0.000000000    0.000000000    6.663593769
Sn  Si 
24     36
Direct
    0.987179220    0.025641514    0.000000000
    0.837179184    0.325641572    0.217754781
    0.687179148    0.625641644    0.435509592
    0.487179250    0.025641514    0.000000000
    0.337179154    0.325641572    0.217754781
    0.187179133    0.625641644    0.435509592
    0.287179202    0.675641477    0.108877152
    0.137179181    0.975641489    0.326631993
    0.987179101    0.275641561    0.544386685
    0.787179351    0.675641477    0.108877152
    0.637179315    0.975641489    0.326631993
    0.487179250    0.275641561    0.544386685
    0.987179279    0.525641501    0.000000031
    0.837179184    0.825641513    0.217754826
    0.687179089    0.125641704    0.435509592
    0.487179250    0.525641501    0.000000031
    0.337179244    0.825641513    0.217754826
    0.187179118    0.125641704    0.435509592
    0.287179232    0.175641507    0.108877167
    0.137179166    0.475641549    0.326631993
    0.987179160    0.775641620    0.544386744
    0.787179291    0.175641507    0.108877167
    0.637179255    0.475641549    0.326631993
    0.487179160    0.775641620    0.544386744
    0.982905626    0.991452813    0.544386744
    0.782905579    0.891452789    0.726632178
    0.582905412    0.791452706    0.908877432
    0.982905626    0.324786127    0.544386744
    0.782905579    0.224786088    0.726632178
    0.582905412    0.124786049    0.908877432
    0.982905626    0.658119500    0.544386744
    0.782905579    0.558119416    0.726632178
    0.582905412    0.458119333    0.908877432
    0.632905662    0.191452861    0.635509193
    0.432905585    0.091452815    0.817754567
    0.232905522    0.991452754    0.999999940
    0.632905662    0.524786115    0.635509193
    0.432905585    0.424786031    0.817754567
    0.232905522    0.324786037    0.999999940
    0.632905662    0.858119428    0.635509193
    0.432905585    0.758119285    0.817754567
    0.232905522    0.658119380    0.999999940
    0.482905626    0.991452813    0.544386744
    0.282905549    0.891452789    0.726632178
    0.082905442    0.791452765    0.908877432
    0.482905626    0.324786067    0.544386744
    0.282905549    0.224786013    0.726632178
    0.082905442    0.124786004    0.908877432
    0.482905626    0.658119500    0.544386744
    0.282905549    0.558119476    0.726632178
    0.082905442    0.458119333    0.908877432
    0.132905677    0.191452831    0.635509193
    0.932905555    0.091452777    0.817754567
    0.732905507    0.991452754    0.999999940
    0.132905677    0.524786115    0.635509193
    0.932905555    0.424786091    0.817754567
    0.732905507    0.324786037    0.999999940
    0.132905677    0.858119428    0.635509193
    0.932905555    0.758119345    0.817754567
    0.732905507    0.658119380    0.999999940
