Si Ge
 1.0000000000000000
     7.8403999897964392    0.0000000000000000    0.0000000000000000
     0.0000000000000000    3.9201999948982196    0.0000000000000000
     0.0000000000000000    0.0000000000000000   25.6363399594131707
 Si  Ge 
  10  10
Cartesian
 -0.0240216504236582  0.9605273448997551  0.0060921300441296
 -0.0240216504236564  2.9206273423488653  1.3635921300441296
  1.9360783470254517  2.9206273423488649  2.7210921300441293
  1.9360783470254519  0.9605273448997557  4.0785921300441297
  3.8961783444745612  0.9605273448997556  5.4360921300441296
  3.8961783444745617  2.9206273423488658  6.7935921300441295
  5.8562783419236704  2.9206273423488658  8.1510921300441286
  5.8562783419236712  0.9605273448997560  9.5085921300441303
  7.8163783393727808  0.9605273448997560 10.8660921300441284
 -0.0240216504236582  2.9206273423488658 12.2235921300441284
  0.9784971426198903  0.9781174922344670 12.5391864944450635
  0.9784971426198903  2.9382174896835767 13.9536864944450620
  2.9385971400690001  2.9382174896835767 15.3681864944450624
  2.9385971400690019  0.9781174922344679 16.7826864944450627
  4.8986971375181092  0.9781174922344670 18.1971864944450630
  4.8986971375181092  2.9382174896835767 19.6116864944450633
  6.8587971349672197  2.9382174896835767 21.0261864944450636
  6.8587971349672197  0.9781174922344679 22.4406864944450639
  0.9784971426198903  0.9781174922344670 23.8551864944450642
  0.9784971426198903  2.9382174896835775 25.2696864944450645
