Sn
 1.0000000000000000
     9.1771146489514894    0.0000000000000000    0.0000000000000000
    -9.1771146489514877   11.2396241004759592    0.0000000000000000
     0.0000000000000000   -0.0000000000000000   62.5182408550638655
 Sn 
  72
Direct
  0.0000000000000000  0.0000000000000000  0.3199066340712630
  0.2499999999999999  0.7499999999999998  0.3199066340712630
  0.9166666666666665  0.6666666666666664  0.3410940888864085
  0.1666666666666665  0.4166666666666665  0.3410940888864085
  0.4166666666666663  0.6666666666666664  0.3410940888864085
  0.6666666666666665  0.4166666666666666  0.3410940888864085
  0.4999999999999998  0.9999999999999999  0.3199066340712630
  0.7499999999999999  0.7499999999999998  0.3199066340712630
  0.8333333333333334  0.3333333333333332  0.3622815437015541
  0.0833333333333328  0.0833333333333328  0.3622815437015541
  0.7500000000000000  0.9999999999999996  0.3834689985166996
  0.0000000000000001  0.7499999999999998  0.3834689985166996
  0.2499999999999999  0.9999999999999996  0.3834689985166996
  0.4999999999999999  0.7499999999999998  0.3834689985166996
  0.3333333333333330  0.3333333333333329  0.3622815437015541
  0.5833333333333328  0.0833333333333328  0.3622815437015541
  0.6666666666666666  0.6666666666666664  0.4046564533318452
  0.9166666666666663  0.4166666666666661  0.4046564533318452
  0.5833333333333326  0.3333333333333328  0.4258439081469906
  0.8333333333333326  0.0833333333333328  0.4258439081469906
  0.0833333333333330  0.3333333333333328  0.4258439081469906
  0.3333333333333330  0.0833333333333328  0.4258439081469906
  0.1666666666666662  0.6666666666666662  0.4046564533318452
  0.4166666666666661  0.4166666666666659  0.4046564533318452
  0.4999999999999995  0.9999999999999994  0.4470313629621362
  0.7499999999999996  0.7499999999999991  0.4470313629621362
  0.4166666666666666  0.6666666666666659  0.4682188177772817
  0.6666666666666662  0.4166666666666659  0.4682188177772817
  0.9166666666666661  0.6666666666666659  0.4682188177772817
  0.1666666666666661  0.4166666666666659  0.4682188177772817
  0.9999999999999996  0.9999999999999994  0.4470313629621362
  0.2499999999999991  0.7499999999999987  0.4470313629621362
  0.3333333333333331  0.3333333333333326  0.4894062725924274
  0.5833333333333326  0.0833333333333321  0.4894062725924274
  0.2499999999999993  0.9999999999999990  0.5105937274075728
  0.4999999999999991  0.7499999999999991  0.5105937274075728
  0.7499999999999992  0.9999999999999990  0.5105937274075728
  0.9999999999999990  0.7499999999999994  0.5105937274075728
  0.8333333333333326  0.3333333333333324  0.4894062725924274
  0.0833333333333321  0.0833333333333321  0.4894062725924274
  0.1666666666666660  0.6666666666666656  0.5317811822227183
  0.4166666666666661  0.4166666666666652  0.5317811822227183
  0.0833333333333321  0.3333333333333317  0.5529686370378639
  0.3333333333333321  0.0833333333333321  0.5529686370378638
  0.5833333333333321  0.3333333333333317  0.5529686370378639
  0.8333333333333321  0.0833333333333321  0.5529686370378638
  0.6666666666666662  0.6666666666666653  0.5317811822227183
  0.9166666666666661  0.4166666666666652  0.5317811822227183
  0.9999999999999992  0.9999999999999990  0.5741560918530095
  0.2499999999999999  0.7499999999999987  0.5741560918530095
  0.9166666666666653  0.6666666666666653  0.5953435466681549
  0.1666666666666652  0.4166666666666652  0.5953435466681550
  0.4166666666666653  0.6666666666666653  0.5953435466681549
  0.6666666666666662  0.4166666666666657  0.5953435466681549
  0.4999999999999993  0.9999999999999988  0.5741560918530095
  0.7499999999999991  0.7499999999999983  0.5741560918530095
  0.8333333333333339  0.3333333333333321  0.6165310014833004
  0.0833333333333339  0.0833333333333321  0.6165310014833004
  0.7500000000000002  0.9999999999999988  0.6377184562984460
  0.0000000000000000  0.7499999999999987  0.6377184562984460
  0.2500000000000002  0.9999999999999988  0.6377184562984460
  0.5000000000000000  0.7499999999999991  0.6377184562984460
  0.3333333333333330  0.3333333333333317  0.6165310014833004
  0.5833333333333330  0.0833333333333317  0.6165310014833004
  0.6666666666666662  0.6666666666666653  0.6589059111135916
  0.9166666666666669  0.4166666666666657  0.6589059111135916
  0.5833333333333321  0.3333333333333313  0.6800933659287370
  0.8333333333333313  0.0833333333333317  0.6800933659287370
  0.0833333333333321  0.3333333333333317  0.6800933659287370
  0.3333333333333321  0.0833333333333317  0.6800933659287370
  0.1666666666666652  0.6666666666666647  0.6589059111135916
  0.4166666666666670  0.4166666666666657  0.6589059111135916
