fcc Si+fcc Ge                           
   1.00000000000000     
     5.4800000000000004    0.0000000000000000    0.0000000000000000
     0.0000000000000000    5.4800000000000004    0.0000000000000000
     0.0000000000000000    0.0000000000000000   29.4499999999999993
   Si   Ge
    22    22
Direct
  0.0000000000000000  0.0000000000000000  0.0000000000000000
  0.5000000000000000  0.0000000000000000  0.0930390489999979
  0.0000000000000000  0.0000000000000000  0.1860780980000030
  0.5000000000000000  0.0000000000000000  0.2791171479999974
  0.0000000000000000  0.0000000000000000  0.3721561970000025
  0.5000000000000000  0.0000000000000000  0.4651952460000004
  0.5000000000000000  0.5000000000000000  0.0000000000000000
  0.0000000000000000  0.5000000000000000  0.0930390489999979
  0.5000000000000000  0.5000000000000000  0.1860780980000030
  0.0000000000000000  0.5000000000000000  0.2791171479999974
  0.5000000000000000  0.5000000000000000  0.3721561970000025
  0.0000000000000000  0.5000000000000000  0.4651952460000004
  0.2500000000000000  0.2500000000000000  0.0465195250000008
  0.7500000000000000  0.2500000000000000  0.1395585739999987
  0.2500000000000000  0.2500000000000000  0.2325976229999966
  0.7500000000000000  0.2500000000000000  0.3256366720000017
  0.2500000000000000  0.2500000000000000  0.4186757220000032
  0.7500000000000000  0.7500000000000000  0.0465195250000008
  0.2500000000000000  0.7500000000000000  0.1395585739999987
  0.7500000000000000  0.7500000000000000  0.2325976229999966
  0.2500000000000000  0.7500000000000000  0.3256366720000017
  0.7500000000000000  0.7500000000000000  0.4186757220000032
  0.6759259259999979  0.1666666670000012  0.5404074699999981
  0.1759259259999979  0.1666666670000012  0.6365025469999992
  0.6759259259999979  0.1666666670000012  0.7325976229999966
  0.1759259259999979  0.1666666670000012  0.8286926990000012
  0.6759259259999979  0.1666666670000012  0.9247877760000023
  0.1759259259999979  0.6666666670000012  0.5404074699999981
  0.6759259259999979  0.6666666670000012  0.6365025469999992
  0.1759259259999979  0.6666666670000012  0.7325976229999966
  0.6759259259999979  0.6666666670000012  0.8286926990000012
  0.1759259259999979  0.6666666670000012  0.9247877760000023
  0.4259259259999979  0.4166666670000012  0.4923599319999994
  0.9259259259999979  0.4166666670000012  0.5884550079999968
  0.4259259259999979  0.4166666670000012  0.6845500849999979
  0.9259259259999979  0.4166666670000012  0.7806451610000025
  0.4259259259999979  0.4166666670000012  0.8767402379999965
  0.9259259259999979  0.4166666670000012  0.9728353140000010
  0.9259259259999979  0.9166666670000012  0.4923599319999994
  0.4259259259999979  0.9166666670000012  0.5884550079999968
  0.9259259259999979  0.9166666670000012  0.6845500849999979
  0.4259259259999979  0.9166666670000012  0.7806451610000025
  0.9259259259999979  0.9166666670000012  0.8767402379999965
  0.4259259259999979  0.9166666670000012  0.9728353140000010
 
  0.00000000E+00  0.00000000E+00  0.00000000E+00
  0.00000000E+00  0.00000000E+00  0.00000000E+00
  0.00000000E+00  0.00000000E+00  0.00000000E+00
  0.00000000E+00  0.00000000E+00  0.00000000E+00
  0.00000000E+00  0.00000000E+00  0.00000000E+00
  0.00000000E+00  0.00000000E+00  0.00000000E+00
  0.00000000E+00  0.00000000E+00  0.00000000E+00
  0.00000000E+00  0.00000000E+00  0.00000000E+00
  0.00000000E+00  0.00000000E+00  0.00000000E+00
  0.00000000E+00  0.00000000E+00  0.00000000E+00
  0.00000000E+00  0.00000000E+00  0.00000000E+00
  0.00000000E+00  0.00000000E+00  0.00000000E+00
  0.00000000E+00  0.00000000E+00  0.00000000E+00
  0.00000000E+00  0.00000000E+00  0.00000000E+00
  0.00000000E+00  0.00000000E+00  0.00000000E+00
  0.00000000E+00  0.00000000E+00  0.00000000E+00
  0.00000000E+00  0.00000000E+00  0.00000000E+00
  0.00000000E+00  0.00000000E+00  0.00000000E+00
  0.00000000E+00  0.00000000E+00  0.00000000E+00
  0.00000000E+00  0.00000000E+00  0.00000000E+00
  0.00000000E+00  0.00000000E+00  0.00000000E+00
  0.00000000E+00  0.00000000E+00  0.00000000E+00
  0.00000000E+00  0.00000000E+00  0.00000000E+00
  0.00000000E+00  0.00000000E+00  0.00000000E+00
  0.00000000E+00  0.00000000E+00  0.00000000E+00
  0.00000000E+00  0.00000000E+00  0.00000000E+00
  0.00000000E+00  0.00000000E+00  0.00000000E+00
  0.00000000E+00  0.00000000E+00  0.00000000E+00
  0.00000000E+00  0.00000000E+00  0.00000000E+00
  0.00000000E+00  0.00000000E+00  0.00000000E+00
  0.00000000E+00  0.00000000E+00  0.00000000E+00
  0.00000000E+00  0.00000000E+00  0.00000000E+00
  0.00000000E+00  0.00000000E+00  0.00000000E+00
  0.00000000E+00  0.00000000E+00  0.00000000E+00
  0.00000000E+00  0.00000000E+00  0.00000000E+00
  0.00000000E+00  0.00000000E+00  0.00000000E+00
  0.00000000E+00  0.00000000E+00  0.00000000E+00
  0.00000000E+00  0.00000000E+00  0.00000000E+00
  0.00000000E+00  0.00000000E+00  0.00000000E+00
  0.00000000E+00  0.00000000E+00  0.00000000E+00
  0.00000000E+00  0.00000000E+00  0.00000000E+00
  0.00000000E+00  0.00000000E+00  0.00000000E+00
  0.00000000E+00  0.00000000E+00  0.00000000E+00
  0.00000000E+00  0.00000000E+00  0.00000000E+00
