fcc Si+fcc Ge
    1.000000000
    5.480000000    0.000000000    0.000000000
    0.000000000    5.480000000    0.000000000
    0.000000000    0.000000000   29.450000000
Si    Ge   
22     22
Direct
    0.000000000    0.000000000    0.000000000
    0.500000000    0.000000000    0.093039049
    0.000000000    0.000000000    0.186078098
    0.500000000    0.000000000    0.279117148
    0.000000000    0.000000000    0.372156197
    0.500000000    0.000000000    0.465195246
    0.500000000    0.500000000    0.000000000
    0.000000000    0.500000000    0.093039049
    0.500000000    0.500000000    0.186078098
    0.000000000    0.500000000    0.279117148
    0.500000000    0.500000000    0.372156197
    0.000000000    0.500000000    0.465195246
    0.250000000    0.250000000    0.046519525
    0.750000000    0.250000000    0.139558574
    0.250000000    0.250000000    0.232597623
    0.750000000    0.250000000    0.325636672
    0.250000000    0.250000000    0.418675722
    0.750000000    0.750000000    0.046519525
    0.250000000    0.750000000    0.139558574
    0.750000000    0.750000000    0.232597623
    0.250000000    0.750000000    0.325636672
    0.750000000    0.750000000    0.418675722
    0.675925926    0.166666667    0.540407470
    0.175925926    0.166666667    0.636502547
    0.675925926    0.166666667    0.732597623
    0.175925926    0.166666667    0.828692699
    0.675925926    0.166666667    0.924787776
    0.175925926    0.666666667    0.540407470
    0.675925926    0.666666667    0.636502547
    0.175925926    0.666666667    0.732597623
    0.675925926    0.666666667    0.828692699
    0.175925926    0.666666667    0.924787776
    0.425925926    0.416666667    0.492359932
    0.925925926    0.416666667    0.588455008
    0.425925926    0.416666667    0.684550085
    0.925925926    0.416666667    0.780645161
    0.425925926    0.416666667    0.876740238
    0.925925926    0.416666667    0.972835314
    0.925925926    0.916666667    0.492359932
    0.425925926    0.916666667    0.588455008
    0.925925926    0.916666667    0.684550085
    0.425925926    0.916666667    0.780645161
    0.925925926    0.916666667    0.876740238
    0.425925926    0.916666667    0.972835314
