Ge+Si
    1.000000000
   16.973400116    0.000000000    0.000000000
    0.000000000   16.973400116    0.000000000
    0.000000000    0.000000000   17.861000061
Ge  Si 
108     120
Direct
    0.994305491    0.666666567    0.000000000
    0.827638865    0.666666567    0.158384174
    0.660972118    0.666666567    0.316768378
    0.994305491    0.333333284    0.000000000
    0.827638865    0.333333284    0.158384174
    0.660972118    0.333333284    0.316768378
    0.994305491    0.000000000    0.000000000
    0.827638865    0.000000000    0.158384174
    0.660972118    0.000000000    0.316768378
    0.327638805    0.666666567    0.000000000
    0.160972148    0.666666567    0.158384174
    0.994305432    0.666666567    0.316768378
    0.327638805    0.333333284    0.000000000
    0.160972148    0.333333284    0.158384174
    0.994305432    0.333333284    0.316768378
    0.327638805    0.000000000    0.000000000
    0.160972148    0.000000000    0.158384174
    0.994305432    0.000000000    0.316768378
    0.660972118    0.666666567    0.000000000
    0.494305432    0.666666567    0.158384174
    0.327638745    0.666666567    0.316768378
    0.660972118    0.333333284    0.000000000
    0.494305432    0.333333284    0.158384174
    0.327638745    0.333333284    0.316768378
    0.660972118    0.000000000    0.000000000
    0.494305432    0.000000000    0.158384174
    0.327638745    0.000000000    0.316768378
    0.077638842    0.916666567    0.079192095
    0.910972118    0.916666567    0.237576291
    0.744305491    0.916666567    0.395960480
    0.077638842    0.583333313    0.079192095
    0.910972118    0.583333313    0.237576291
    0.744305491    0.583333313    0.395960480
    0.077638842    0.249999955    0.079192095
    0.910972118    0.249999955    0.237576291
    0.744305491    0.249999955    0.395960480
    0.410972089    0.916666567    0.079192095
    0.244305417    0.916666567    0.237576291
    0.077638723    0.916666567    0.395960480
    0.410972089    0.583333313    0.079192095
    0.244305417    0.583333313    0.237576291
    0.077638723    0.583333313    0.395960480
    0.410972089    0.249999955    0.079192095
    0.244305417    0.249999955    0.237576291
    0.077638723    0.249999955    0.395960480
    0.744305491    0.916666567    0.079192095
    0.577638745    0.916666567    0.237576291
    0.410972059    0.916666567    0.395960480
    0.744305491    0.583333313    0.079192095
    0.577638745    0.583333313    0.237576291
    0.410972059    0.583333313    0.395960480
    0.744305491    0.249999955    0.079192095
    0.577638745    0.249999955    0.237576291
    0.410972059    0.249999955    0.395960480
    0.160972163    0.833333194    0.000000000
    0.994305491    0.833333194    0.158384174
    0.827638805    0.833333194    0.316768378
    0.160972163    0.499999911    0.000000000
    0.994305491    0.499999911    0.158384174
    0.827638805    0.499999911    0.316768378
    0.160972163    0.166666642    0.000000000
    0.994305491    0.166666642    0.158384174
    0.827638805    0.166666642    0.316768378
    0.494305432    0.833333194    0.000000000
    0.327638745    0.833333194    0.158384174
    0.160972074    0.833333194    0.316768378
    0.494305432    0.499999911    0.000000000
    0.327638745    0.499999911    0.158384174
    0.160972074    0.499999911    0.316768378
    0.494305432    0.166666642    0.000000000
    0.327638745    0.166666642    0.158384174
    0.160972074    0.166666642    0.316768378
    0.827638805    0.833333194    0.000000000
    0.660972118    0.833333194    0.158384174
    0.494305432    0.833333194    0.316768378
    0.827638805    0.499999911    0.000000000
    0.660972118    0.499999911    0.158384174
    0.494305432    0.499999911    0.316768378
    0.827638805    0.166666642    0.000000000
    0.660972118    0.166666642    0.158384174
    0.494305432    0.166666642    0.316768378
    0.244305462    0.749999881    0.079192095
    0.077638783    0.749999881    0.237576291
    0.910972118    0.749999881    0.395960480
    0.244305462    0.416666627    0.079192095
    0.077638783    0.416666627    0.237576291
    0.910972118    0.416666627    0.395960480
    0.244305462    0.083333328    0.079192095
    0.077638783    0.083333328    0.237576291
    0.910972118    0.083333328    0.395960480
    0.577638865    0.749999881    0.079192095
    0.410972148    0.749999881    0.237576291
    0.244305447    0.749999881    0.395960480
    0.577638865    0.416666627    0.079192095
    0.410972148    0.416666627    0.237576291
    0.244305447    0.416666627    0.395960480
    0.577638865    0.083333328    0.079192095
    0.410972148    0.083333328    0.237576291
    0.244305447    0.083333328    0.395960480
    0.910972178    0.749999881    0.079192095
    0.744305491    0.749999881    0.237576291
    0.577638745    0.749999881    0.395960480
    0.910972178    0.416666627    0.079192095
    0.744305491    0.416666627    0.237576291
    0.577638745    0.416666627    0.395960480
    0.910972178    0.083333328    0.079192095
    0.744305491    0.083333328    0.237576291
    0.577638745    0.083333328    0.395960480
    0.605903625    0.356217593    0.507936299
    0.455903530    0.406217635    0.659971476
    0.305903435    0.456217706    0.812006652
    0.705903530    0.656217635    0.507936299
    0.555903435    0.706217766    0.659971476
    0.405903459    0.756217778    0.812006652
    0.805903554    0.956217587    0.507936299
    0.655903459    0.006217599    0.659971476
    0.505903482    0.056217670    0.812006652
    0.305903554    0.456217587    0.507936299
    0.155903459    0.506217659    0.659971476
    0.005903363    0.556217670    0.812006652
    0.405903578    0.756217599    0.507936299
    0.255903482    0.806217670    0.659971476
    0.105903387    0.856217742    0.812006652
    0.505903482    0.056217670    0.507936299
    0.355903387    0.106217623    0.659971476
    0.205903411    0.156217813    0.812006652
    0.905903578    0.256217539    0.507936299
    0.755903482    0.306217611    0.659971476
    0.605903387    0.356217682    0.812006652
    0.005903482    0.556217551    0.507936299
    0.855903506    0.606217623    0.659971476
    0.705903411    0.656217694    0.812006652
    0.105903506    0.856217623    0.507936299
    0.955903471    0.906217694    0.659971476
    0.805903435    0.956217766    0.812006652
    0.205903530    0.156217575    0.507936299
    0.055903435    0.206217527    0.659971476
    0.905903339    0.256217778    0.812006652
    0.855903506    0.356217563    0.583953917
    0.705903411    0.406217635    0.735989094
    0.555903316    0.456217706    0.888024211
    0.555903673    0.456217587    0.583953917
    0.405903578    0.506217659    0.735989094
    0.255903482    0.556217730    0.888024211
    0.655903578    0.756217659    0.583953917
    0.505903482    0.806217730    0.735989094
    0.355903387    0.856217742    0.888024211
    0.755903482    0.056217670    0.583953917
    0.605903506    0.106217742    0.735989094
    0.455903411    0.156217813    0.888024211
    0.155903578    0.256217539    0.583953917
    0.005903482    0.306217730    0.735989094
    0.855903387    0.356217802    0.888024211
    0.255903482    0.556217551    0.583953917
    0.105903506    0.606217682    0.735989094
    0.955903351    0.656217694    0.888024211
    0.355903506    0.856217563    0.583953917
    0.205903530    0.906217635    0.735989094
    0.055903435    0.956217766    0.888024211
    0.455903530    0.156217575    0.583953917
    0.305903435    0.206217766    0.735989094
    0.155903339    0.256217778    0.888024211
    0.955903530    0.656217575    0.583953917
    0.805903435    0.706217647    0.735989094
    0.655903339    0.756217718    0.888024211
    0.055903554    0.956217647    0.583953917
    0.905903459    0.006217718    0.735989094
    0.755903363    0.056217670    0.888024211
    0.805903554    0.456217587    0.507936299
    0.655903578    0.506217659    0.659971476
    0.505903482    0.556217790    0.812006652
    0.405903578    0.256217569    0.507936299
    0.255903482    0.306217611    0.659971476
    0.105903387    0.356217712    0.812006652
    0.505903482    0.556217551    0.507936299
    0.355903506    0.606217623    0.659971476
    0.205903411    0.656217754    0.812006652
    0.605903625    0.856217623    0.507936299
    0.455903530    0.906217694    0.659971476
    0.305903435    0.956217766    0.812006652
    0.705903530    0.156217813    0.507936299
    0.555903435    0.206217766    0.659971476
    0.405903459    0.256217778    0.812006652
    0.105903506    0.356217563    0.507936299
    0.955903471    0.406217635    0.659971476
    0.805903435    0.456217706    0.812006652
    0.205903530    0.656217635    0.507936299
    0.055903435    0.706217706    0.659971476
    0.905903339    0.756217778    0.812006652
    0.305903554    0.956217587    0.507936299
    0.155903459    0.006217718    0.659971476
    0.005903363    0.056217670    0.812006652
    0.905903578    0.756217539    0.507936299
    0.755903482    0.806217670    0.659971476
    0.605903387    0.856217742    0.812006652
    0.005903482    0.056217670    0.507936299
    0.855903506    0.106217623    0.659971476
    0.705903411    0.156217813    0.812006652
    0.655903578    0.256217539    0.583953917
    0.505903482    0.306217730    0.735989094
    0.355903387    0.356217682    0.888024211
    0.755903602    0.556217551    0.583953917
    0.605903506    0.606217682    0.735989094
    0.455903411    0.656217694    0.888024211
    0.855903625    0.856217563    0.583953917
    0.705903530    0.906217635    0.735989094
    0.555903435    0.956217706    0.888024211
    0.355903625    0.356217563    0.583953917
    0.205903530    0.406217635    0.735989094
    0.055903435    0.456217706    0.888024211
    0.455903649    0.656217635    0.583953917
    0.305903554    0.706217647    0.735989094
    0.155903459    0.756217718    0.888024211
    0.555903554    0.956217587    0.583953917
    0.405903459    0.006217718    0.735989094
    0.255903482    0.056217790    0.888024211
    0.055903554    0.456217587    0.583953917
    0.905903578    0.506217659    0.735989094
    0.755903363    0.556217730    0.888024211
    0.155903578    0.756217599    0.583953917
    0.005903482    0.806217670    0.735989094
    0.855903387    0.856217682    0.888024211
    0.255903482    0.056217551    0.583953917
    0.105903387    0.106217623    0.735989094
    0.955903351    0.156217813    0.888024211
    0.955903530    0.156217575    0.583953917
    0.805903435    0.206217766    0.735989094
    0.655903339    0.256217778    0.888024211
