Sn+Ge
    1.000000000
   14.510292053    0.000000000    0.000000000
    0.000000000   19.467601776    0.000000000
    0.000000000    0.000000000   17.404436111
Sn  Ge 
36     144
Direct
    0.982905626    0.652421296    0.000000007
    0.782905579    0.485754609    0.083371289
    0.582905412    0.319087893    0.166742548
    0.982905626    0.319088012    0.000000007
    0.782905579    0.152421325    0.083371289
    0.582905412    0.985754609    0.166742548
    0.982905626    0.985754728    0.000000007
    0.782905579    0.819088042    0.083371289
    0.582905412    0.652421296    0.166742548
    0.632905602    0.902421415    0.041685570
    0.432905525    0.735754728    0.125056848
    0.232905433    0.569088042    0.208428085
    0.632905602    0.569087982    0.041685570
    0.432905525    0.402421296    0.125056848
    0.232905433    0.235754609    0.208428085
    0.632905602    0.235754758    0.041685570
    0.432905525    0.069088064    0.125056848
    0.232905433    0.902421355    0.208428085
    0.482905596    0.819087923    0.000000000
    0.282905459    0.652421236    0.083371274
    0.082905352    0.485754579    0.166742578
    0.482905596    0.485754669    0.000000000
    0.282905459    0.319087982    0.083371274
    0.082905352    0.152421281    0.166742578
    0.482905596    0.152421355    0.000000000
    0.282905459    0.985754669    0.083371274
    0.082905352    0.819087982    0.166742578
    0.132905647    0.735754669    0.041685563
    0.932905555    0.569087982    0.125056818
    0.732905507    0.402421296    0.208428085
    0.132905647    0.402421385    0.041685563
    0.932905555    0.235754713    0.125056818
    0.732905507    0.069088012    0.208428085
    0.132905647    0.069088012    0.041685563
    0.932905555    0.902421355    0.125056818
    0.732905507    0.735754609    0.208428085
    0.819656253    0.634020567    0.316882908
    0.569656134    0.634020567    0.431815356
    0.319656014    0.634020507    0.546747804
    0.069656014    0.634020448    0.661680281
    0.819656014    0.634020329    0.776612699
    0.569655776    0.634020329    0.891545236
    0.152989626    0.800687313    0.316882879
    0.902989447    0.800687253    0.431815356
    0.652989388    0.800687194    0.546747804
    0.402989388    0.800687134    0.661680222
    0.152989268    0.800687075    0.776612639
    0.902989149    0.800687015    0.891545236
    0.486322880    0.967353940    0.316882879
    0.236322761    0.967353880    0.431815356
    0.986322641    0.967353821    0.546747804
    0.736322641    0.967353821    0.661680222
    0.486322522    0.967353702    0.776612639
    0.236322403    0.967353642    0.891545236
    0.819656253    0.134020612    0.316882908
    0.569656134    0.134020567    0.431815326
    0.319656134    0.134020448    0.546747804
    0.069656134    0.134020448    0.661680222
    0.819656014    0.134020329    0.776612639
    0.569655895    0.134020329    0.891545236
    0.152989626    0.300687253    0.316882908
    0.902989507    0.300687224    0.431815326
    0.652989388    0.300687134    0.546747744
    0.402989388    0.300687075    0.661680222
    0.152989268    0.300687045    0.776612699
    0.902989149    0.300686955    0.891545236
    0.486322880    0.467353940    0.316882908
    0.236322761    0.467353880    0.431815356
    0.986322701    0.467353821    0.546747744
    0.736322641    0.467353761    0.661680222
    0.486322641    0.467353702    0.776612699
    0.236322522    0.467353642    0.891545236
    0.986322880    0.967354000    0.316882879
    0.736322761    0.967353940    0.431815326
    0.486322641    0.967353880    0.546747804
    0.236322641    0.967353821    0.661680281
    0.986322641    0.967353761    0.776612759
    0.736322522    0.967353642    0.891545177
    0.986322880    0.467353940    0.316882908
    0.736322880    0.467353880    0.431815356
    0.486322641    0.467353821    0.546747804
    0.236322641    0.467353761    0.661680281
    0.986322641    0.467353702    0.776612639
    0.736322522    0.467353642    0.891545177
    0.319656253    0.634020627    0.316882908
    0.069656134    0.634020567    0.431815356
    0.819656014    0.634020507    0.546747804
    0.569656014    0.634020388    0.661680281
    0.319655895    0.634020388    0.776612639
    0.069655895    0.634020269    0.891545177
    0.652989388    0.800687313    0.316882908
    0.402989388    0.800687253    0.431815356
    0.152989388    0.800687134    0.546747744
    0.902989268    0.800687134    0.661680281
    0.652989149    0.800687075    0.776612699
    0.402989149    0.800686955    0.891545177
    0.319656253    0.134020612    0.316882908
    0.069656134    0.134020567    0.431815356
    0.819656014    0.134020448    0.546747744
    0.569656014    0.134020448    0.661680281
    0.319655895    0.134020329    0.776612699
    0.069655895    0.134020329    0.891545236
    0.652989626    0.300687283    0.316882908
    0.402989507    0.300687194    0.431815356
    0.152989388    0.300687194    0.546747744
    0.902989388    0.300687134    0.661680281
    0.652989388    0.300687045    0.776612639
    0.402989268    0.300687015    0.891545236
    0.986322939    0.842354000    0.316882879
    0.736322761    0.842353940    0.431815356
    0.486322641    0.842353880    0.546747804
    0.236322641    0.842353821    0.661680281
    0.986322641    0.842353761    0.776612639
    0.736322522    0.842353702    0.891545177
    0.319656253    0.009020686    0.316882879
    0.069656134    0.009020567    0.431815356
    0.819656014    0.009020567    0.546747804
    0.569656014    0.009020448    0.661680281
    0.319656014    0.009020329    0.776612639
    0.069655895    0.009020329    0.891545177
    0.986322880    0.342353940    0.316882908
    0.736322880    0.342353880    0.431815326
    0.486322641    0.342353821    0.546747744
    0.236322641    0.342353761    0.661680281
    0.986322641    0.342353702    0.776612699
    0.736322522    0.342353642    0.891545177
    0.319656253    0.509020627    0.316882908
    0.069656134    0.509020567    0.431815356
    0.819656134    0.509020507    0.546747804
    0.569656014    0.509020448    0.661680281
    0.319656014    0.509020388    0.776612699
    0.069655895    0.509020329    0.891545177
    0.652989626    0.675687313    0.316882908
    0.402989626    0.675687253    0.431815356
    0.152989388    0.675687194    0.546747804
    0.902989388    0.675687134    0.661680281
    0.652989388    0.675687075    0.776612699
    0.402989268    0.675687015    0.891545177
    0.652989626    0.175687268    0.316882879
    0.402989507    0.175687194    0.431815356
    0.152989388    0.175687134    0.546747804
    0.902989388    0.175687104    0.661680281
    0.652989388    0.175687030    0.776612699
    0.402989268    0.175686955    0.891545236
    0.819656372    0.009020686    0.316882879
    0.569656134    0.009020567    0.431815326
    0.319656134    0.009020448    0.546747804
    0.069656014    0.009020448    0.661680281
    0.819656014    0.009020329    0.776612759
    0.569655895    0.009020329    0.891545177
    0.819656253    0.509020567    0.316882879
    0.569656134    0.509020507    0.431815356
    0.319656134    0.509020448    0.546747804
    0.069656014    0.509020388    0.661680222
    0.819656014    0.509020329    0.776612639
    0.569655895    0.509020269    0.891545177
    0.152989626    0.675687313    0.316882879
    0.902989507    0.675687253    0.431815356
    0.652989388    0.675687194    0.546747804
    0.402989388    0.675687134    0.661680281
    0.152989388    0.675687075    0.776612699
    0.902989209    0.675687015    0.891545236
    0.486322880    0.842353940    0.316882879
    0.236322761    0.842353880    0.431815356
    0.986322701    0.842353821    0.546747804
    0.736322641    0.842353761    0.661680222
    0.486322641    0.842353702    0.776612639
    0.236322522    0.842353642    0.891545177
    0.152989507    0.175687253    0.316882908
    0.902989507    0.175687209    0.431815326
    0.652989388    0.175687149    0.546747744
    0.402989388    0.175687090    0.661680281
    0.152989388    0.175687045    0.776612699
    0.902989209    0.175686985    0.891545177
    0.486322999    0.342353970    0.316882908
    0.236322880    0.342353880    0.431815326
    0.986322761    0.342353821    0.546747744
    0.736322641    0.342353761    0.661680281
    0.486322641    0.342353702    0.776612699
    0.236322522    0.342353642    0.891545177
