Ge+Si                                   
   1.00000000000000     
    16.0026760099999983    0.0000000000000000    0.0000000000000000
     0.0000000000000000   16.9734001160000005    0.0000000000000000
     0.0000000000000000    0.0000000000000000   18.0725250240000008
   Ge   Si
   144    72
Direct
  0.9896892309999998  0.9862523079999974  0.0000000209999982
  0.8646892309999998  0.8195856210000017  0.1106837319999983
  0.7396892309999998  0.6529189350000024  0.2213674930000025
  0.6146892309999998  0.4862522479999996  0.3320511880000012
  0.4896892909999977  0.3195855620000003  0.4427348669999986
  0.3646892309999998  0.1529188749999975  0.5534186360000035
  0.9896892309999998  0.3195856509999970  0.0000000209999982
  0.8646892309999998  0.1529189500000001  0.1106837319999983
  0.7396892309999998  0.9862522479999996  0.2213674930000025
  0.6146892309999998  0.8195855620000003  0.3320511880000012
  0.4896892909999977  0.6529189350000024  0.4427348669999986
  0.3646892309999998  0.4862521889999982  0.5534186360000035
  0.9896892309999998  0.6529189939999966  0.0000000209999982
  0.8646892309999998  0.4862523079999974  0.1106837319999983
  0.7396892309999998  0.3195855920000028  0.2213674930000025
  0.6146892309999998  0.1529189350000024  0.3320511880000012
  0.4896892909999977  0.9862522479999996  0.4427348669999986
  0.3646892309999998  0.8195855620000003  0.5534186360000035
  0.4896892309999998  0.9862523079999974  0.0000000189999980
  0.3646892309999998  0.8195856210000017  0.1106837470000031
  0.2396892160000021  0.6529189350000024  0.2213674930000025
  0.1146892309999998  0.4862522479999996  0.3320512179999966
  0.9896892309999998  0.3195855620000003  0.4427348970000011
  0.8646892309999998  0.1529188749999975  0.5534185770000022
  0.4896892309999998  0.3195856509999970  0.0000000189999980
  0.3646892309999998  0.1529189500000001  0.1106837470000031
  0.2396892160000021  0.9862522479999996  0.2213674930000025
  0.1146892309999998  0.8195855620000003  0.3320512179999966
  0.9896892309999998  0.6529189350000024  0.4427348970000011
  0.8646892309999998  0.4862521889999982  0.5534185770000022
  0.4896892309999998  0.6529189939999966  0.0000000189999980
  0.3646892309999998  0.4862523079999974  0.1106837470000031
  0.2396892160000021  0.3195855920000028  0.2213674930000025
  0.1146892309999998  0.1529189350000024  0.3320512179999966
  0.9896892309999998  0.9862522479999996  0.4427348970000011
  0.8646892309999998  0.8195855620000003  0.5534185770000022
  0.2396892309999998  0.9862523079999974  0.0000000260000022
  0.1146892309999998  0.8195856210000017  0.1106837470000031
  0.9896892309999998  0.6529189350000024  0.2213674930000025
  0.8646892309999998  0.4862522479999996  0.3320512179999966
  0.7396892309999998  0.3195855620000003  0.4427348970000011
  0.6146892309999998  0.1529188749999975  0.5534186360000035
  0.2396892309999998  0.3195856509999970  0.0000000260000022
  0.1146892309999998  0.1529189500000001  0.1106837470000031
  0.9896892309999998  0.9862522479999996  0.2213674930000025
  0.8646892309999998  0.8195855620000003  0.3320512179999966
  0.7396892309999998  0.6529189350000024  0.4427348970000011
  0.6146892309999998  0.4862521889999982  0.5534186360000035
  0.2396892309999998  0.6529189939999966  0.0000000260000022
  0.1146892309999998  0.4862523079999974  0.1106837470000031
  0.9896892309999998  0.3195855920000028  0.2213674930000025
  0.8646892309999998  0.1529189350000024  0.3320512179999966
  0.7396892309999998  0.9862522479999996  0.4427348970000011
  0.6146892309999998  0.8195855620000003  0.5534186360000035
  0.7396892309999998  0.9862523079999974  0.0000000120000010
  0.6146892309999998  0.8195856210000017  0.1106837470000031
  0.4896892009999974  0.6529189350000024  0.2213674630000000
  0.3646892309999998  0.4862522479999996  0.3320512179999966
  0.2396892459999975  0.3195855620000003  0.4427348970000011
  0.1146892309999998  0.1529188749999975  0.5534185770000022
  0.7396892309999998  0.3195856509999970  0.0000000120000010
  0.6146892309999998  0.1529189500000001  0.1106837470000031
  0.4896892009999974  0.9862522479999996  0.2213674630000000
  0.3646892309999998  0.8195855620000003  0.3320512179999966
  0.2396892459999975  0.6529189350000024  0.4427348970000011
  0.1146892309999998  0.4862521889999982  0.5534185770000022
  0.7396892309999998  0.6529189939999966  0.0000000120000010
  0.6146892309999998  0.4862523079999974  0.1106837470000031
  0.4896892009999974  0.3195855920000028  0.2213674630000000
  0.3646892309999998  0.1529189350000024  0.3320512179999966
  0.2396892459999975  0.9862522479999996  0.4427348970000011
  0.1146892309999998  0.8195855620000003  0.5534185770000022
  0.3646892309999998  0.2362523079999974  0.0000000120000010
  0.2396892309999998  0.0695856210000017  0.1106837319999983
  0.1146892089999980  0.9029188749999975  0.2213674630000000
  0.9896892309999998  0.7362521889999982  0.3320512179999966
  0.8646892309999998  0.5695855620000003  0.4427348970000011
  0.7396892309999998  0.4029188749999975  0.5534186360000035
  0.3646892309999998  0.5695856809999995  0.0000000120000010
  0.2396892309999998  0.4029189939999966  0.1106837319999983
  0.1146892089999980  0.2362522929999997  0.2213674630000000
  0.9896892309999998  0.0695856139999975  0.3320512179999966
  0.8646892309999998  0.9029189350000024  0.4427348970000011
  0.7396892309999998  0.7362521889999982  0.5534186360000035
  0.3646892309999998  0.9029189939999966  0.0000000120000010
  0.2396892309999998  0.7362523079999974  0.1106837319999983
  0.1146892089999980  0.5695855620000003  0.2213674630000000
  0.9896892309999998  0.4029189049999999  0.3320512179999966
  0.8646892309999998  0.2362522629999972  0.4427348970000011
  0.7396892309999998  0.0695855470000026  0.5534186360000035
  0.8646892909999977  0.2362523079999974  0.0000000000000000
  0.7396892909999977  0.0695856210000017  0.1106837319999983
  0.6146892909999977  0.9029188749999975  0.2213674630000000
  0.4896892909999977  0.7362521889999982  0.3320511880000012
  0.3646892909999977  0.5695855620000003  0.4427348669999986
  0.2396892909999977  0.4029188749999975  0.5534185770000022
  0.8646892909999977  0.5695856809999995  0.0000000000000000
  0.7396892909999977  0.4029189939999966  0.1106837319999983
  0.6146892909999977  0.2362522929999997  0.2213674630000000
  0.4896892909999977  0.0695856139999975  0.3320511880000012
  0.3646892909999977  0.9029189350000024  0.4427348669999986
  0.2396892909999977  0.7362521889999982  0.5534185770000022
  0.8646892909999977  0.9029189939999966  0.0000000000000000
  0.7396892909999977  0.7362523079999974  0.1106837319999983
  0.6146892909999977  0.5695855620000003  0.2213674630000000
  0.4896892909999977  0.4029189049999999  0.3320511880000012
  0.3646892909999977  0.2362522629999972  0.4427348669999986
  0.2396892909999977  0.0695855470000026  0.5534185770000022
  0.1146892229999992  0.2362523079999974  0.0000000240000020
  0.9896892309999998  0.0695856210000017  0.1106837470000031
  0.8646892309999998  0.9029188749999975  0.2213674630000000
  0.7396892309999998  0.7362521889999982  0.3320512179999966
  0.6146892309999998  0.5695855620000003  0.4427348970000011
  0.4896892309999998  0.4029188749999975  0.5534185770000022
  0.1146892229999992  0.5695856809999995  0.0000000240000020
  0.9896892309999998  0.4029189939999966  0.1106837470000031
  0.8646892309999998  0.2362522929999997  0.2213674630000000
  0.7396892309999998  0.0695856139999975  0.3320512179999966
  0.6146892309999998  0.9029189350000024  0.4427348970000011
  0.4896892309999998  0.7362521889999982  0.5534185770000022
  0.1146892229999992  0.9029189939999966  0.0000000240000020
  0.9896892309999998  0.7362523079999974  0.1106837470000031
  0.8646892309999998  0.5695855620000003  0.2213674630000000
  0.7396892309999998  0.4029189049999999  0.3320512179999966
  0.6146892309999998  0.2362522629999972  0.4427348970000011
  0.4896892309999998  0.0695855470000026  0.5534185770000022
  0.6146892309999998  0.2362523079999974  0.0000000060000005
  0.4896892309999998  0.0695856210000017  0.1106837470000031
  0.3646892309999998  0.9029188749999975  0.2213674630000000
  0.2396892309999998  0.7362521889999982  0.3320512179999966
  0.1146892530000017  0.5695855620000003  0.4427348669999986
  0.9896892309999998  0.4029188749999975  0.5534185770000022
  0.6146892309999998  0.5695856809999995  0.0000000060000005
  0.4896892309999998  0.4029189939999966  0.1106837470000031
  0.3646892309999998  0.2362522929999997  0.2213674630000000
  0.2396892309999998  0.0695856139999975  0.3320512179999966
  0.1146892530000017  0.9029189350000024  0.4427348669999986
  0.9896892309999998  0.7362521889999982  0.5534185770000022
  0.6146892309999998  0.9029189939999966  0.0000000060000005
  0.4896892309999998  0.7362523079999974  0.1106837470000031
  0.3646892309999998  0.5695855620000003  0.2213674630000000
  0.2396892309999998  0.4029189049999999  0.3320512179999966
  0.1146892530000017  0.2362522629999972  0.4427348669999986
  0.9896892309999998  0.0695855470000026  0.5534185770000022
  0.4762908519999982  0.4060863260000005  0.8954971430000001
  0.3096244339999998  0.6560856099999981  0.6579217310000018
  0.1429576869999991  0.0060856340000015  0.7054367659999983
  0.9762910600000012  0.3560857769999970  0.7529518600000031
  0.8096241949999978  0.7060861590000016  0.8004670139999988
  0.6429574490000007  0.0560863019999971  0.8479821090000002
  0.8096241949999978  0.4060863260000005  0.8954971430000001
  0.6429577469999970  0.6560856099999981  0.6579217310000018
  0.4762910310000024  0.0060856340000015  0.7054367659999983
  0.3096243139999970  0.3560857769999970  0.7529518600000031
  0.1429575679999999  0.7060861590000016  0.8004670139999988
  0.9762908220000028  0.0560863019999971  0.8479821090000002
  0.1429575679999999  0.4060863260000005  0.8954971430000001
  0.9762910600000012  0.6560856099999981  0.6579217310000018
  0.8096243740000020  0.0060856340000015  0.7054367659999983
  0.6429576869999991  0.3560857769999970  0.7529518600000031
  0.4762909410000020  0.7060861590000016  0.8004670139999988
  0.3096241949999978  0.0560863019999971  0.8479821090000002
  0.5596241949999978  0.1560864449999997  0.8954971430000001
  0.3929577170000016  0.4060857300000009  0.6579216720000005
  0.2262910600000012  0.7560858730000035  0.7054367659999983
  0.0596243139999970  0.1060861349999982  0.7529518010000018
  0.8929575679999999  0.4560862780000008  0.8004669549999974
  0.7262909410000020  0.8060863019999971  0.8479820490000023
  0.8929575679999999  0.1560864449999997  0.8954971430000001
  0.7262910600000012  0.4060857300000009  0.6579216720000005
  0.5596243139999970  0.7560858730000035  0.7054367659999983
  0.3929576279999978  0.1060861349999982  0.7529518010000018
  0.2262909410000020  0.4560862780000008  0.8004669549999974
  0.0596243139999970  0.8060863019999971  0.8479820490000023
  0.2262908220000028  0.1560864449999997  0.8954971430000001
  0.0596243139999970  0.4060857300000009  0.6579216720000005
  0.8929576869999991  0.7560858730000035  0.7054367659999983
  0.7262909410000020  0.1060861349999982  0.7529518010000018
  0.5596241949999978  0.4560862780000008  0.8004669549999974
  0.3929575379999974  0.8060863019999971  0.8479820490000023
  0.4762908519999982  0.9060864449999997  0.8954971430000001
  0.3096243139999970  0.1560857300000009  0.6579216720000005
  0.1429576869999991  0.5060858730000035  0.7054367659999983
  0.9762909410000020  0.8560858960000033  0.7529518010000018
  0.8096241949999978  0.2060861590000016  0.8004670139999988
  0.6429575679999999  0.5560863019999971  0.8479820490000023
  0.8096241949999978  0.9060864449999997  0.8954971430000001
  0.6429576869999991  0.1560857300000009  0.6579216720000005
  0.4762910009999999  0.5060858730000035  0.7054367659999983
  0.3096243139999970  0.8560858960000033  0.7529518010000018
  0.1429575679999999  0.2060861590000016  0.8004670139999988
  0.9762909410000020  0.5560863019999971  0.8479820490000023
  0.1429575679999999  0.9060864449999997  0.8954971430000001
  0.9762910600000012  0.1560857300000009  0.6579216720000005
  0.8096243139999970  0.5060858730000035  0.7054367659999983
  0.6429576869999991  0.8560858960000033  0.7529518010000018
  0.4762909410000020  0.2060861590000016  0.8004670139999988
  0.3096243139999970  0.5560863019999971  0.8479820490000023
  0.5596241949999978  0.6560864449999997  0.8954971430000001
  0.3929577170000016  0.9060856099999981  0.6579217310000018
  0.2262910600000012  0.2560856340000015  0.7054367659999983
  0.0596243139999970  0.6060858960000033  0.7529518010000018
  0.8929575679999999  0.9560861590000016  0.8004669549999974
  0.7262908220000028  0.3060864210000034  0.8479820490000023
  0.8929575679999999  0.6560864449999997  0.8954971430000001
  0.7262910600000012  0.9060856099999981  0.6579217310000018
  0.5596243740000020  0.2560856340000015  0.7054367659999983
  0.3929576869999991  0.6060858960000033  0.7529518010000018
  0.2262909410000020  0.9560861590000016  0.8004669549999974
  0.0596241949999978  0.3060864210000034  0.8479820490000023
  0.2262909410000020  0.6560864449999997  0.8954971430000001
  0.0596244339999998  0.9060856099999981  0.6579217310000018
  0.8929576869999991  0.2560856340000015  0.7054367659999983
  0.7262910600000012  0.6060858960000033  0.7529518010000018
  0.5596242550000028  0.9560861590000016  0.8004669549999974
  0.3929574790000032  0.3060864210000034  0.8479820490000023
 
  0.00000000E+00  0.00000000E+00  0.00000000E+00
  0.00000000E+00  0.00000000E+00  0.00000000E+00
  0.00000000E+00  0.00000000E+00  0.00000000E+00
  0.00000000E+00  0.00000000E+00  0.00000000E+00
  0.00000000E+00  0.00000000E+00  0.00000000E+00
  0.00000000E+00  0.00000000E+00  0.00000000E+00
  0.00000000E+00  0.00000000E+00  0.00000000E+00
  0.00000000E+00  0.00000000E+00  0.00000000E+00
  0.00000000E+00  0.00000000E+00  0.00000000E+00
  0.00000000E+00  0.00000000E+00  0.00000000E+00
  0.00000000E+00  0.00000000E+00  0.00000000E+00
  0.00000000E+00  0.00000000E+00  0.00000000E+00
  0.00000000E+00  0.00000000E+00  0.00000000E+00
  0.00000000E+00  0.00000000E+00  0.00000000E+00
  0.00000000E+00  0.00000000E+00  0.00000000E+00
  0.00000000E+00  0.00000000E+00  0.00000000E+00
  0.00000000E+00  0.00000000E+00  0.00000000E+00
  0.00000000E+00  0.00000000E+00  0.00000000E+00
  0.00000000E+00  0.00000000E+00  0.00000000E+00
  0.00000000E+00  0.00000000E+00  0.00000000E+00
  0.00000000E+00  0.00000000E+00  0.00000000E+00
  0.00000000E+00  0.00000000E+00  0.00000000E+00
  0.00000000E+00  0.00000000E+00  0.00000000E+00
  0.00000000E+00  0.00000000E+00  0.00000000E+00
  0.00000000E+00  0.00000000E+00  0.00000000E+00
  0.00000000E+00  0.00000000E+00  0.00000000E+00
  0.00000000E+00  0.00000000E+00  0.00000000E+00
  0.00000000E+00  0.00000000E+00  0.00000000E+00
  0.00000000E+00  0.00000000E+00  0.00000000E+00
  0.00000000E+00  0.00000000E+00  0.00000000E+00
  0.00000000E+00  0.00000000E+00  0.00000000E+00
  0.00000000E+00  0.00000000E+00  0.00000000E+00
  0.00000000E+00  0.00000000E+00  0.00000000E+00
  0.00000000E+00  0.00000000E+00  0.00000000E+00
  0.00000000E+00  0.00000000E+00  0.00000000E+00
  0.00000000E+00  0.00000000E+00  0.00000000E+00
  0.00000000E+00  0.00000000E+00  0.00000000E+00
  0.00000000E+00  0.00000000E+00  0.00000000E+00
  0.00000000E+00  0.00000000E+00  0.00000000E+00
  0.00000000E+00  0.00000000E+00  0.00000000E+00
  0.00000000E+00  0.00000000E+00  0.00000000E+00
  0.00000000E+00  0.00000000E+00  0.00000000E+00
  0.00000000E+00  0.00000000E+00  0.00000000E+00
  0.00000000E+00  0.00000000E+00  0.00000000E+00
  0.00000000E+00  0.00000000E+00  0.00000000E+00
  0.00000000E+00  0.00000000E+00  0.00000000E+00
  0.00000000E+00  0.00000000E+00  0.00000000E+00
  0.00000000E+00  0.00000000E+00  0.00000000E+00
  0.00000000E+00  0.00000000E+00  0.00000000E+00
  0.00000000E+00  0.00000000E+00  0.00000000E+00
  0.00000000E+00  0.00000000E+00  0.00000000E+00
  0.00000000E+00  0.00000000E+00  0.00000000E+00
  0.00000000E+00  0.00000000E+00  0.00000000E+00
  0.00000000E+00  0.00000000E+00  0.00000000E+00
  0.00000000E+00  0.00000000E+00  0.00000000E+00
  0.00000000E+00  0.00000000E+00  0.00000000E+00
  0.00000000E+00  0.00000000E+00  0.00000000E+00
  0.00000000E+00  0.00000000E+00  0.00000000E+00
  0.00000000E+00  0.00000000E+00  0.00000000E+00
  0.00000000E+00  0.00000000E+00  0.00000000E+00
  0.00000000E+00  0.00000000E+00  0.00000000E+00
  0.00000000E+00  0.00000000E+00  0.00000000E+00
  0.00000000E+00  0.00000000E+00  0.00000000E+00
  0.00000000E+00  0.00000000E+00  0.00000000E+00
  0.00000000E+00  0.00000000E+00  0.00000000E+00
  0.00000000E+00  0.00000000E+00  0.00000000E+00
  0.00000000E+00  0.00000000E+00  0.00000000E+00
  0.00000000E+00  0.00000000E+00  0.00000000E+00
  0.00000000E+00  0.00000000E+00  0.00000000E+00
  0.00000000E+00  0.00000000E+00  0.00000000E+00
  0.00000000E+00  0.00000000E+00  0.00000000E+00
  0.00000000E+00  0.00000000E+00  0.00000000E+00
  0.00000000E+00  0.00000000E+00  0.00000000E+00
  0.00000000E+00  0.00000000E+00  0.00000000E+00
  0.00000000E+00  0.00000000E+00  0.00000000E+00
  0.00000000E+00  0.00000000E+00  0.00000000E+00
  0.00000000E+00  0.00000000E+00  0.00000000E+00
  0.00000000E+00  0.00000000E+00  0.00000000E+00
  0.00000000E+00  0.00000000E+00  0.00000000E+00
  0.00000000E+00  0.00000000E+00  0.00000000E+00
  0.00000000E+00  0.00000000E+00  0.00000000E+00
  0.00000000E+00  0.00000000E+00  0.00000000E+00
  0.00000000E+00  0.00000000E+00  0.00000000E+00
  0.00000000E+00  0.00000000E+00  0.00000000E+00
  0.00000000E+00  0.00000000E+00  0.00000000E+00
  0.00000000E+00  0.00000000E+00  0.00000000E+00
  0.00000000E+00  0.00000000E+00  0.00000000E+00
  0.00000000E+00  0.00000000E+00  0.00000000E+00
  0.00000000E+00  0.00000000E+00  0.00000000E+00
  0.00000000E+00  0.00000000E+00  0.00000000E+00
  0.00000000E+00  0.00000000E+00  0.00000000E+00
  0.00000000E+00  0.00000000E+00  0.00000000E+00
  0.00000000E+00  0.00000000E+00  0.00000000E+00
  0.00000000E+00  0.00000000E+00  0.00000000E+00
  0.00000000E+00  0.00000000E+00  0.00000000E+00
  0.00000000E+00  0.00000000E+00  0.00000000E+00
  0.00000000E+00  0.00000000E+00  0.00000000E+00
  0.00000000E+00  0.00000000E+00  0.00000000E+00
  0.00000000E+00  0.00000000E+00  0.00000000E+00
  0.00000000E+00  0.00000000E+00  0.00000000E+00
  0.00000000E+00  0.00000000E+00  0.00000000E+00
  0.00000000E+00  0.00000000E+00  0.00000000E+00
  0.00000000E+00  0.00000000E+00  0.00000000E+00
  0.00000000E+00  0.00000000E+00  0.00000000E+00
  0.00000000E+00  0.00000000E+00  0.00000000E+00
  0.00000000E+00  0.00000000E+00  0.00000000E+00
  0.00000000E+00  0.00000000E+00  0.00000000E+00
  0.00000000E+00  0.00000000E+00  0.00000000E+00
  0.00000000E+00  0.00000000E+00  0.00000000E+00
  0.00000000E+00  0.00000000E+00  0.00000000E+00
  0.00000000E+00  0.00000000E+00  0.00000000E+00
  0.00000000E+00  0.00000000E+00  0.00000000E+00
  0.00000000E+00  0.00000000E+00  0.00000000E+00
  0.00000000E+00  0.00000000E+00  0.00000000E+00
  0.00000000E+00  0.00000000E+00  0.00000000E+00
  0.00000000E+00  0.00000000E+00  0.00000000E+00
  0.00000000E+00  0.00000000E+00  0.00000000E+00
  0.00000000E+00  0.00000000E+00  0.00000000E+00
  0.00000000E+00  0.00000000E+00  0.00000000E+00
  0.00000000E+00  0.00000000E+00  0.00000000E+00
  0.00000000E+00  0.00000000E+00  0.00000000E+00
  0.00000000E+00  0.00000000E+00  0.00000000E+00
  0.00000000E+00  0.00000000E+00  0.00000000E+00
  0.00000000E+00  0.00000000E+00  0.00000000E+00
  0.00000000E+00  0.00000000E+00  0.00000000E+00
  0.00000000E+00  0.00000000E+00  0.00000000E+00
  0.00000000E+00  0.00000000E+00  0.00000000E+00
  0.00000000E+00  0.00000000E+00  0.00000000E+00
  0.00000000E+00  0.00000000E+00  0.00000000E+00
  0.00000000E+00  0.00000000E+00  0.00000000E+00
  0.00000000E+00  0.00000000E+00  0.00000000E+00
  0.00000000E+00  0.00000000E+00  0.00000000E+00
  0.00000000E+00  0.00000000E+00  0.00000000E+00
  0.00000000E+00  0.00000000E+00  0.00000000E+00
  0.00000000E+00  0.00000000E+00  0.00000000E+00
  0.00000000E+00  0.00000000E+00  0.00000000E+00
  0.00000000E+00  0.00000000E+00  0.00000000E+00
  0.00000000E+00  0.00000000E+00  0.00000000E+00
  0.00000000E+00  0.00000000E+00  0.00000000E+00
  0.00000000E+00  0.00000000E+00  0.00000000E+00
  0.00000000E+00  0.00000000E+00  0.00000000E+00
  0.00000000E+00  0.00000000E+00  0.00000000E+00
  0.00000000E+00  0.00000000E+00  0.00000000E+00
  0.00000000E+00  0.00000000E+00  0.00000000E+00
  0.00000000E+00  0.00000000E+00  0.00000000E+00
  0.00000000E+00  0.00000000E+00  0.00000000E+00
  0.00000000E+00  0.00000000E+00  0.00000000E+00
  0.00000000E+00  0.00000000E+00  0.00000000E+00
  0.00000000E+00  0.00000000E+00  0.00000000E+00
  0.00000000E+00  0.00000000E+00  0.00000000E+00
  0.00000000E+00  0.00000000E+00  0.00000000E+00
  0.00000000E+00  0.00000000E+00  0.00000000E+00
  0.00000000E+00  0.00000000E+00  0.00000000E+00
  0.00000000E+00  0.00000000E+00  0.00000000E+00
  0.00000000E+00  0.00000000E+00  0.00000000E+00
  0.00000000E+00  0.00000000E+00  0.00000000E+00
  0.00000000E+00  0.00000000E+00  0.00000000E+00
  0.00000000E+00  0.00000000E+00  0.00000000E+00
  0.00000000E+00  0.00000000E+00  0.00000000E+00
  0.00000000E+00  0.00000000E+00  0.00000000E+00
  0.00000000E+00  0.00000000E+00  0.00000000E+00
  0.00000000E+00  0.00000000E+00  0.00000000E+00
  0.00000000E+00  0.00000000E+00  0.00000000E+00
  0.00000000E+00  0.00000000E+00  0.00000000E+00
  0.00000000E+00  0.00000000E+00  0.00000000E+00
  0.00000000E+00  0.00000000E+00  0.00000000E+00
  0.00000000E+00  0.00000000E+00  0.00000000E+00
  0.00000000E+00  0.00000000E+00  0.00000000E+00
  0.00000000E+00  0.00000000E+00  0.00000000E+00
  0.00000000E+00  0.00000000E+00  0.00000000E+00
  0.00000000E+00  0.00000000E+00  0.00000000E+00
  0.00000000E+00  0.00000000E+00  0.00000000E+00
  0.00000000E+00  0.00000000E+00  0.00000000E+00
  0.00000000E+00  0.00000000E+00  0.00000000E+00
  0.00000000E+00  0.00000000E+00  0.00000000E+00
  0.00000000E+00  0.00000000E+00  0.00000000E+00
  0.00000000E+00  0.00000000E+00  0.00000000E+00
  0.00000000E+00  0.00000000E+00  0.00000000E+00
  0.00000000E+00  0.00000000E+00  0.00000000E+00
  0.00000000E+00  0.00000000E+00  0.00000000E+00
  0.00000000E+00  0.00000000E+00  0.00000000E+00
  0.00000000E+00  0.00000000E+00  0.00000000E+00
  0.00000000E+00  0.00000000E+00  0.00000000E+00
  0.00000000E+00  0.00000000E+00  0.00000000E+00
  0.00000000E+00  0.00000000E+00  0.00000000E+00
  0.00000000E+00  0.00000000E+00  0.00000000E+00
  0.00000000E+00  0.00000000E+00  0.00000000E+00
  0.00000000E+00  0.00000000E+00  0.00000000E+00
  0.00000000E+00  0.00000000E+00  0.00000000E+00
  0.00000000E+00  0.00000000E+00  0.00000000E+00
  0.00000000E+00  0.00000000E+00  0.00000000E+00
  0.00000000E+00  0.00000000E+00  0.00000000E+00
  0.00000000E+00  0.00000000E+00  0.00000000E+00
  0.00000000E+00  0.00000000E+00  0.00000000E+00
  0.00000000E+00  0.00000000E+00  0.00000000E+00
  0.00000000E+00  0.00000000E+00  0.00000000E+00
  0.00000000E+00  0.00000000E+00  0.00000000E+00
  0.00000000E+00  0.00000000E+00  0.00000000E+00
  0.00000000E+00  0.00000000E+00  0.00000000E+00
  0.00000000E+00  0.00000000E+00  0.00000000E+00
  0.00000000E+00  0.00000000E+00  0.00000000E+00
  0.00000000E+00  0.00000000E+00  0.00000000E+00
  0.00000000E+00  0.00000000E+00  0.00000000E+00
  0.00000000E+00  0.00000000E+00  0.00000000E+00
  0.00000000E+00  0.00000000E+00  0.00000000E+00
  0.00000000E+00  0.00000000E+00  0.00000000E+00
  0.00000000E+00  0.00000000E+00  0.00000000E+00
  0.00000000E+00  0.00000000E+00  0.00000000E+00
  0.00000000E+00  0.00000000E+00  0.00000000E+00
  0.00000000E+00  0.00000000E+00  0.00000000E+00
  0.00000000E+00  0.00000000E+00  0.00000000E+00
  0.00000000E+00  0.00000000E+00  0.00000000E+00
  0.00000000E+00  0.00000000E+00  0.00000000E+00
  0.00000000E+00  0.00000000E+00  0.00000000E+00
  0.00000000E+00  0.00000000E+00  0.00000000E+00
  0.00000000E+00  0.00000000E+00  0.00000000E+00
