Sn+Sn
    1.000000000
   19.467599869    0.000000000    0.000000000
    6.489200115   18.354230881    0.000000000
    0.000000000    0.000000000   22.942794800
Sn 
288
Direct
    0.537403584    0.836632133    0.100000009
    0.120736800    0.086632162    0.100000009
    0.745737016    0.711632192    0.000000031
    0.037403319    0.336632192    0.299999982
    0.741010249    0.074343577    0.500000000
    0.954069793    0.586632133    0.499999940
    0.495736986    0.461632222    0.000000002
    0.454070240    0.086632162    0.100000009
    0.412403435    0.711632133    0.200000003
    0.370736748    0.336632192    0.299999982
    0.329070002    0.961632013    0.400000036
    0.662403345    0.961632013    0.400000036
    0.829070330    0.461632222    0.000000002
    0.491010129    0.907676220    1.000000000
    0.366010129    0.699342966    1.000000000
    0.704070091    0.336632192    0.299999982
    0.287403226    0.586632133    0.499999940
    0.620736599    0.586632133    0.499999940
    0.995736897    0.961632192    0.000000002
    0.454070240    0.336632192    0.000000013
    0.912403405    0.211632133    0.200000018
    0.491010249    0.824343622    0.500000000
    0.829069972    0.461632013    0.400000036
    0.787403107    0.086632013    0.500000000
    0.329070270    0.961632192    0.000000002
    0.287403494    0.586632133    0.100000009
    0.245736763    0.211632133    0.200000018
    0.870736480    0.836632013    0.500000000
    0.616010249    0.366010308    0.500000000
    0.120736487    0.086632013    0.500000000
    0.662403643    0.961632192    0.000000002
    0.620736837    0.586632133    0.100000009
    0.579070091    0.211632133    0.200000018
    0.537403405    0.836632133    0.299999982
    0.495736629    0.461632013    0.400000036
    0.454069853    0.086632013    0.500000000
    0.079070248    0.711632192    0.000000031
    0.491010129    0.241009653    1.000000000
    0.995736778    0.961632133    0.200000003
    0.954070032    0.586632133    0.299999982
    0.616010249    0.032676876    0.500000000
    0.204070017    0.836632133    0.299999982
    0.412403673    0.711632192    0.000000031
    0.370736897    0.336632162    0.100000009
    0.741010129    0.157676324    1.000000000
    0.745736599    0.961632013    0.499999940
    0.245736659    0.211632073    0.400000006
    0.204069912    0.836632013    0.500000000
    0.079070061    0.711632133    0.200000003
    0.704070151    0.336632162    0.100000009
    0.579070330    0.211632192    0.000000000
    0.616010249    0.699343562    0.500000000
    0.579069912    0.211632073    0.400000006
    0.537403226    0.836632013    0.500000000
    0.245736927    0.211632192    0.000000000
    0.204070166    0.836632133    0.100000009
    0.620736957    0.836632252    0.000000036
    0.120736673    0.086632133    0.299999982
    0.579069912    0.461632013    0.500000000
    0.037403155    0.336632133    0.499999940
    0.662403464    0.961632133    0.200000003
    0.162403554    0.461632222    0.000000002
    0.491010129    0.574342966    1.000000000
    0.866010308    0.282676965    0.500000000
    0.412403345    0.711632013    0.400000036
    0.370736569    0.336632133    0.499999940
    0.912403643    0.211632192    0.000000000
    0.616010129    0.949343026    1.000000000
    0.829070091    0.461632133    0.200000018
    0.704069912    0.336632133    0.499999940
    0.745736599    0.711632013    0.400000036
    0.787403345    0.086632133    0.299999982
    0.037403602    0.586632192    0.000000009
    0.995736837    0.211632147    0.100000009
    0.954070091    0.836632133    0.200000003
    0.912403345    0.461632133    0.299999982
    0.366010249    0.782676995    0.500000000
    0.829069853    0.711632013    0.500000000
    0.370736957    0.586632192    0.000000009
    0.329070181    0.211632147    0.100000009
    0.991010129    0.074342884    1.000000000
    0.245736688    0.461632133    0.299999982
    0.204069942    0.086631954    0.400000036
    0.162403181    0.711632013    0.500000000
    0.704070330    0.586632192    0.000000009
    0.662403524    0.211632147    0.100000009
    0.620736778    0.836632133    0.200000003
    0.579070032    0.461632133    0.299999982
    0.537403345    0.086631954    0.400000036
    0.495736569    0.711632013    0.500000000
    0.204070270    0.086632192    0.000000003
    0.162403524    0.711632133    0.100000009
    0.120736770    0.336632133    0.200000018
    0.079070024    0.961632133    0.299999923
    0.037403289    0.586632013    0.400000036
    0.329070002    0.211632133    0.299999982
    0.537403584    0.086632192    0.000000003
    0.495736837    0.711632133    0.100000009
    0.454070121    0.336632133    0.200000018
    0.116010241    0.199343547    0.500000000
    0.741010249    0.741010249    0.500000000
    0.329069853    0.211632013    0.500000000
    0.204070076    0.086632155    0.200000003
    0.829070210    0.711632133    0.100000009
    0.787403464    0.336632133    0.200000018
    0.745736659    0.961632133    0.299999923
    0.704069972    0.586632013    0.400000036
    0.662403226    0.211632013    0.500000000
    0.287403613    0.836632252    0.000000036
    0.616010129    0.616009593    1.000000000
    0.870736957    0.086632192    0.000000003
    0.741010249    0.407676876    0.500000000
    0.120736584    0.336632073    0.400000006
    0.079069845    0.961632013    0.499999940
    0.162403420    0.461632133    0.200000018
    0.579070210    0.461632162    0.100000009
    0.366010129    0.366009593    1.000000000
    0.495736748    0.711632133    0.299999982
    0.454069972    0.336632073    0.400000006
    0.412403226    0.961632013    0.499999940
    0.954070270    0.836632252    0.000000036
    0.912403584    0.461632162    0.100000009
    0.870736837    0.086632155    0.200000003
    0.991010249    0.991010249    0.500000000
    0.787403345    0.336632073    0.400000006
    0.287403405    0.586632133    0.299999982
    0.120736897    0.336632192    0.000000013
    0.079070158    0.961632133    0.100000009
    0.616010129    0.282676280    1.000000000
    0.995736659    0.211632133    0.299999982
    0.954069912    0.836632013    0.399999946
    0.912403166    0.461632013    0.500000000
    0.954070151    0.586632133    0.100000009
    0.412403464    0.961632133    0.100000009
    0.370736688    0.586632133    0.200000003
    0.995736480    0.211632013    0.500000000
    0.287403196    0.836632013    0.399999946
    0.245736465    0.461632013    0.500000000
    0.787403703    0.336632192    0.000000013
    0.241010174    0.657676220    1.000000000
    0.866010129    0.866009712    1.000000000
    0.491010249    0.491010368    0.500000000
    0.620736659    0.836632013    0.399999946
    0.079069912    0.711632013    0.400000036
    0.829070151    0.711632133    0.299999982
    0.866010189    0.866010129    0.600000024
    0.741010189    0.741009951    0.700000048
    0.616010189    0.616009831    0.799999952
    0.491010129    0.491009712    0.899999976
    0.537403464    0.086632155    0.200000003
    0.991010249    0.324343592    0.500000000
    0.866010189    0.199343473    0.600000024
    0.741010189    0.074343339    0.700000048
    0.616010189    0.949343204    0.799999952
    0.491010129    0.824343085    0.899999976
    0.745736897    0.711632133    0.200000003
    0.991010249    0.657676935    0.500000000
    0.866010189    0.532676816    0.600000024
    0.741010189    0.407676697    0.700000048
    0.616010189    0.282676548    0.799999952
    0.491010129    0.157676399    0.899999976
    0.366010129    0.032676294    1.000000000
    0.491010249    0.157676876    0.500000000
    0.366010219    0.032676764    0.600000024
    0.241010219    0.907676637    0.700000048
    0.116010167    0.782676458    0.799999952
    0.991010129    0.657676339    0.899999976
    0.866010129    0.532676280    1.000000000
    0.662403405    0.211632133    0.299999982
    0.366010219    0.366010189    0.600000024
    0.241010219    0.241010040    0.700000048
    0.116010167    0.116009913    0.799999952
    0.991010129    0.991009772    0.899999976
    0.704070151    0.586632133    0.200000003
    0.870736718    0.836632133    0.299999982
    0.366010219    0.699343503    0.600000024
    0.241010219    0.574343324    0.700000048
    0.116010167    0.449343175    0.799999952
    0.991010129    0.324343055    0.899999976
    0.866010129    0.199342936    1.000000000
    0.241010249    0.241010264    0.500000000
    0.116010226    0.116010129    0.600000024
    0.991010189    0.991010010    0.700000048
    0.866010189    0.866009831    0.799999952
    0.741010129    0.741009712    0.899999976
    0.245736837    0.461632162    0.100000009
    0.241010249    0.574343681    0.500000000
    0.116010226    0.449343532    0.600000024
    0.991010189    0.324343383    0.700000048
    0.866010189    0.199343234    0.799999952
    0.741010129    0.074343123    0.899999976
    0.870736837    0.836632133    0.100000009
    0.241010249    0.907676935    0.500000000
    0.116010226    0.782676756    0.600000024
    0.991010189    0.657676637    0.700000048
    0.866010189    0.532676518    0.799999952
    0.741010129    0.407676429    0.899999976
    0.037403408    0.586632133    0.200000003
    0.995736599    0.961632013    0.400000036
    0.616010249    0.949343443    0.600000024
    0.491010219    0.824343324    0.700000048
    0.366010159    0.699343204    0.799999952
    0.241010144    0.574343085    0.899999976
    0.116010129    0.449342906    1.000000000
    0.162403345    0.711632133    0.299999982
    0.616010249    0.282676727    0.600000024
    0.491010219    0.157676622    0.700000048
    0.366010159    0.032676473    0.799999952
    0.241010144    0.907676339    0.899999976
    0.116010129    0.782676220    1.000000000
    0.370736599    0.586632013    0.400000036
    0.616010249    0.616010129    0.600000024
    0.491010219    0.491010010    0.700000048
    0.366010159    0.366009861    0.799999952
    0.241010144    0.241009742    0.899999976
    0.116010129    0.116009608    1.000000000
    0.366010249    0.116010241    0.500000000
    0.241010219    0.991010129    0.600000024
    0.116010211    0.866009951    0.700000048
    0.991010129    0.741009831    0.799999952
    0.866010129    0.616009712    0.899999976
    0.741010129    0.491009593    1.000000000
    0.366010249    0.449343652    0.500000000
    0.241010219    0.324343443    0.600000024
    0.116010211    0.199343339    0.700000048
    0.991010129    0.074343182    0.799999952
    0.866010129    0.949343085    0.899999976
    0.741010129    0.824342906    1.000000000
    0.870736599    0.086631954    0.400000036
    0.241010219    0.657676816    0.600000024
    0.116010211    0.532676697    0.700000048
    0.991010129    0.407676578    0.799999952
    0.866010129    0.282676458    0.899999976
    0.329070121    0.961632133    0.200000003
    0.454070091    0.086632133    0.299999982
    0.741010249    0.157676771    0.599999905
    0.616010249    0.032676667    0.700000048
    0.491010189    0.907676518    0.799999952
    0.366010189    0.782676399    0.899999976
    0.745736837    0.961632133    0.100000009
    0.866010308    0.616010368    0.500000000
    0.741010249    0.491010159    0.599999905
    0.616010249    0.366010010    0.700000048
    0.491010189    0.241009891    0.799999952
    0.366010189    0.116009764    0.899999976
    0.241010174    0.991009653    1.000000000
    0.866010308    0.949343622    0.500000000
    0.741010249    0.824343622    0.599999905
    0.616010249    0.699343443    0.700000048
    0.491010189    0.574343264    0.799999952
    0.366010189    0.449343115    0.899999976
    0.241010174    0.324343026    1.000000000
    0.412403345    0.961632133    0.299999923
    0.991010249    0.074343421    0.600000024
    0.866010189    0.949343324    0.700000048
    0.741010129    0.824343145    0.799999952
    0.616010129    0.699343026    0.899999976
    0.495736808    0.461632133    0.200000018
    0.116010241    0.532676935    0.500000000
    0.991010249    0.407676727    0.600000024
    0.866010189    0.282676637    0.700000048
    0.741010129    0.157676473    0.799999952
    0.616010129    0.032676354    0.899999976
    0.787403643    0.086632162    0.100000009
    0.116010241    0.866010368    0.500000000
    0.991010249    0.741010189    0.600000024
    0.866010189    0.616010070    0.700000048
    0.741010129    0.491009891    0.799999952
    0.616010129    0.366009802    0.899999976
    0.037403498    0.336632162    0.100000009
    0.912403226    0.211632073    0.400000006
    0.491010219    0.907676756    0.600000024
    0.366010219    0.782676637    0.700000048
    0.241010159    0.657676458    0.799999952
    0.116010137    0.532676339    0.899999976
    0.991010129    0.407676280    1.000000000
    0.162403256    0.461632013    0.400000036
    0.491010219    0.241010129    0.600000024
    0.366010219    0.116010010    0.700000048
    0.241010159    0.991009831    0.799999952
    0.116010137    0.866009712    0.899999976
    0.991010129    0.741009593    1.000000000
    0.620736718    0.586632133    0.299999982
    0.491010219    0.574343324    0.600000024
    0.366010219    0.449343294    0.700000048
    0.241010159    0.324343145    0.799999952
    0.116010137    0.199343026    0.899999976
    0.287403435    0.836632133    0.200000003
