Sn+Si
    1.000000000
   19.467599869    0.000000000    0.000000000
    0.000000000   19.467599869    0.000000000
    0.000000000    0.000000000   19.300252914
Sn  Si 
108     156
Direct
    0.084909558    0.947499752    0.886011779
    0.828368425    0.666666687    0.168111786
    0.661701739    0.666666687    0.336223543
    0.995035112    0.333333343    0.000000000
    0.828368425    0.333333343    0.168111786
    0.104140520    0.543653727    0.534267545
    0.738755703    0.216730610    0.886011779
    0.828368425    0.000000000    0.168111786
    0.354140520    0.293653756    0.604616404
    0.328368455    0.666666687    0.000000000
    0.161701739    0.666666687    0.168111786
    0.995035112    0.666666687    0.336223543
    0.392601967    0.485961378    0.886011779
    0.700294137    0.024422884    0.886011779
    0.995035112    0.333333343    0.336223543
    0.328368455    0.000000000    0.000000000
    0.277217388    0.909038246    0.886011779
    0.995035112    0.000000000    0.336223543
    0.661701798    0.666666687    0.000000000
    0.495035112    0.666666687    0.168111786
    0.328368455    0.666666687    0.336223543
    0.969524980    0.370576769    0.886011779
    0.546447992    0.255192131    0.886011779
    0.328368455    0.333333343    0.336223543
    0.661701798    0.000000000    0.000000000
    0.495035112    0.000000000    0.168111786
    0.328368455    0.000000000    0.336223543
    0.078368433    0.916666746    0.084055893
    0.911701798    0.916666746    0.252167612
    0.834909678    0.197499931    0.534267545
    0.546448112    0.755192161    0.745314062
    0.450294256    0.274422944    0.534267545
    0.745035052    0.583333433    0.420279443
    0.046448112    0.755192220    0.886011779
    0.027217388    0.159038350    0.534267545
    0.488755941    0.466730744    0.534267545
    0.411701769    0.916666746    0.084055893
    0.245035097    0.916666746    0.252167612
    0.078368381    0.916666746    0.420279443
    0.777217329    0.409038305    0.886011779
    0.296448112    0.505192220    0.534267545
    0.142601967    0.735961437    0.534267545
    0.411701769    0.250000000    0.084055893
    0.245035097    0.250000000    0.252167612
    0.078368381    0.250000000    0.420279443
    0.745035172    0.916666746    0.084055893
    0.578368545    0.916666746    0.252167612
    0.411701798    0.916666746    0.420279443
    0.469524860    0.870576739    0.886011779
    0.578368545    0.583333433    0.252167612
    0.719525039    0.620576799    0.534267545
    0.745035172    0.250000000    0.084055893
    0.578368545    0.250000000    0.252167612
    0.411701798    0.250000000    0.420279443
    0.854140401    0.793653667    0.886011779
    0.995035052    0.833333313    0.168111786
    0.296448112    0.005192161    0.674965203
    0.161701769    0.500000000    0.000000000
    0.161832690    0.332115173    0.886011779
    0.796448171    0.005192161    0.534267545
    0.584909558    0.447499841    0.886011779
    0.661832690    0.832115233    0.886011779
    0.828368425    0.166666672    0.336223543
    0.495035112    0.833333313    0.000000000
    0.328368425    0.833333313    0.168111786
    0.527217388    0.659038365    0.534267545
    0.495035112    0.500000000    0.000000000
    0.623371124    0.639807522    0.886011779
    0.161701754    0.500000000    0.336223543
    0.495035112    0.166666672    0.000000000
    0.200294256    0.524422884    0.886011779
    0.161701754    0.166666672    0.336223543
    0.828368545    0.833333313    0.000000000
    0.661701858    0.833333313    0.168111786
    0.219525099    0.120576859    0.534267545
    0.828368545    0.500000000    0.000000000
    0.661701858    0.500000000    0.168111786
    0.495035201    0.500000000    0.336223543
    0.828368545    0.166666672    0.000000000
    0.661701858    0.166666672    0.168111786
    0.495035201    0.166666672    0.336223543
    0.245035097    0.750000060    0.084055893
    0.373371363    0.889807582    0.534267545
    0.911701739    0.750000060    0.420279443
    0.245035097    0.416666716    0.084055893
    0.950294316    0.774423003    0.534267545
    0.334909678    0.697499871    0.534267545
    0.245035097    0.083333343    0.084055893
    0.078368433    0.083333343    0.252167612
    0.604140401    0.043653727    0.534267545
    0.578368485    0.750000060    0.084055893
    0.411701858    0.750000060    0.252167612
    0.245035127    0.750000060    0.420279443
    0.578368485    0.416666716    0.084055893
    0.411701858    0.416666716    0.252167612
    0.245035127    0.416666716    0.420279443
    0.578368485    0.083333343    0.084055893
    0.411701858    0.083333343    0.252167612
    0.245035127    0.083333343    0.420279443
    0.604140282    0.043653727    0.815662920
    0.911832809    0.582115293    0.534267545
    0.578368366    0.750000060    0.420279443
    0.911701739    0.416666716    0.084055893
    0.411832809    0.082115322    0.534267545
    0.578368366    0.416666716    0.420279443
    0.354140282    0.293653667    0.886011779
    0.745035052    0.083333343    0.252167612
    0.578368366    0.083333343    0.420279443
    0.911701739    0.083333343    0.420279443
    0.488755703    0.966730595    0.674965203
    0.373371124    0.889807463    0.815662920
    0.681063533    0.428269207    0.534267545
    0.565678835    0.351346046    0.674965203
    0.450294256    0.274422914    0.815662920
    0.745035052    0.916666746    0.420279443
    0.719525039    0.120576799    0.674965203
    0.911701739    0.750000060    0.084055893
    0.757986605    0.812884569    0.534267545
    0.642601907    0.735961437    0.674965203
    0.527217269    0.659038305    0.815662920
    0.745035052    0.750000060    0.252167612
    0.796448112    0.505192161    0.674965203
    0.681063473    0.428269058    0.815662920
    0.065678954    0.351346105    0.534267545
    0.950294256    0.274422944    0.674965203
    0.834909618    0.197499827    0.815662920
    0.495035201    0.833333313    0.336223543
    0.104140401    0.043653727    0.674965203
    0.988755763    0.966730535    0.815662920
    0.988755941    0.966730773    0.534267545
    0.873371243    0.889807642    0.674965203
    0.757986546    0.812884450    0.815662920
    0.078368381    0.583333433    0.420279443
    0.027217388    0.659038305    0.674965203
    0.911832690    0.582115173    0.815662920
    0.245035097    0.583333433    0.252167612
    0.181063414    0.428269118    0.674965203
    0.065678835    0.351345986    0.815662920
    0.911701798    0.583333433    0.252167612
    0.334909678    0.197499797    0.674965203
    0.219524980    0.120576665    0.815662920
    0.078368433    0.750000060    0.252167612
    0.257986665    0.812884450    0.674965203
    0.142601967    0.735961318    0.815662920
    0.161701754    0.833333313    0.336223543
    0.411832809    0.582115233    0.674965203
    0.296448112    0.505192101    0.815662920
    0.623371243    0.639807582    0.604616404
    0.507986546    0.562884450    0.745314062
    0.328368455    0.333333343    0.000000000
    0.777217388    0.409038424    0.604616404
    0.661832690    0.332115293    0.745314062
    0.495035112    0.333333343    0.168111786
    0.931063533    0.178269163    0.604616404
    0.815678835    0.101346016    0.745314062
    0.161701739    0.333333343    0.168111786
    0.700294256    0.024423003    0.604616404
    0.584909678    0.947499871    0.745314062
    0.745035172    0.583333433    0.084055893
    0.854140460    0.793653786    0.604616404
    0.738755822    0.716730654    0.745314062
    0.328368425    0.500000000    0.168111786
    0.007986665    0.562884569    0.604616404
    0.892601967    0.485961437    0.745314062
    0.411701769    0.583333433    0.084055893
    0.161832809    0.332115293    0.604616404
    0.046448112    0.255192131    0.745314062
    0.931063414    0.178269014    0.886011779
    0.315678954    0.101346053    0.604616404
    0.200294256    0.024422884    0.745314062
    0.995035112    0.666666687    0.000000000
    0.084909797    0.947499931    0.604616404
    0.969525099    0.870576799    0.745314062
    0.161701769    0.833333313    0.000000000
    0.238755941    0.716730714    0.604616404
    0.123371243    0.639807522    0.745314062
    0.007986546    0.562884390    0.886011779
    0.392602086    0.485961467    0.604616404
    0.277217388    0.409038305    0.745314062
    0.995035052    0.500000000    0.168111786
    0.546448231    0.255192250    0.604616404
    0.431063533    0.178269103    0.745314062
    0.315678835    0.101345956    0.886011779
    0.469525337    0.870576859    0.604616404
    0.354140520    0.793653727    0.745314062
    0.238755822    0.716730535    0.886011779
    0.642601967    0.235961497    0.534267545
    0.527217388    0.159038350    0.674965203
    0.411832571    0.082115218    0.815662920
    0.411701798    0.583333433    0.420279443
    0.604140401    0.543653727    0.674965203
    0.488755703    0.466730595    0.815662920
    0.873371243    0.389807671    0.534267545
    0.757986605    0.312884539    0.674965203
    0.642601907    0.235961407    0.815662920
    0.911701798    0.250000000    0.252167612
    0.911832690    0.082115225    0.674965203
    0.796448052    0.005192041    0.815662920
    0.828368425    0.500000000    0.336223543
    0.681063473    0.928269029    0.674965203
    0.565678835    0.851345956    0.815662920
    0.078368433    0.416666716    0.252167612
    0.834909618    0.697499871    0.674965203
    0.719524980    0.620576739    0.815662920
    0.661701739    0.333333343    0.336223543
    0.988755822    0.466730624    0.674965203
    0.873371124    0.389807492    0.815662920
    0.257986665    0.312884539    0.534267545
    0.142601967    0.235961407    0.674965203
    0.027217388    0.159038275    0.815662920
    0.745035052    0.416666716    0.252167612
    0.828368425    0.833333313    0.336223543
    0.181063414    0.928269029    0.815662920
    0.181063533    0.928269088    0.534267545
    0.065678835    0.851346016    0.674965203
    0.950294197    0.774422824    0.815662920
    0.911701739    0.416666716    0.420279443
    0.219525099    0.620576739    0.674965203
    0.104140282    0.543653607    0.815662920
    0.745035052    0.250000000    0.420279443
    0.373371243    0.389807612    0.674965203
    0.257986546    0.312884480    0.815662920
    0.565679073    0.851346016    0.534267545
    0.450294256    0.774422884    0.674965203
    0.334909678    0.697499752    0.815662920
    0.738755822    0.216730714    0.604616404
    0.623371184    0.139807582    0.745314062
    0.507986546    0.062884443    0.886011779
    0.661832750    0.832115352    0.604616404
    0.078368433    0.583333433    0.084055893
    0.431063414    0.678269029    0.886011779
    0.815678954    0.601346135    0.604616404
    0.700294256    0.524423003    0.745314062
    0.161701769    0.166666672    0.000000000
    0.969525099    0.370576888    0.604616404
    0.854140401    0.293653756    0.745314062
    0.995035112    0.000000000    0.000000000
    0.123371243    0.139807597    0.604616404
    0.007986546    0.062884480    0.745314062
    0.892601907    0.985961258    0.886011779
    0.892602086    0.985961556    0.604616404
    0.777217388    0.909038365    0.745314062
    0.995035052    0.166666672    0.168111786
    0.046448231    0.755192339    0.604616404
    0.931063473    0.678269148    0.745314062
    0.815678835    0.601346016    0.886011779
    0.200294375    0.524423003    0.604616404
    0.084909678    0.447499901    0.745314062
    0.661701798    0.333333343    0.000000000
    0.661701739    0.000000000    0.336223543
    0.238755822    0.216730624    0.745314062
    0.123371124    0.139807478    0.886011779
    0.507986665    0.062884539    0.604616404
    0.392601967    0.985961378    0.745314062
    0.161701739    0.000000000    0.168111786
    0.277217507    0.909038484    0.604616404
    0.161832809    0.832115352    0.745314062
    0.078368433    0.250000000    0.084055893
    0.431063652    0.678269148    0.604616404
    0.315678954    0.601346016    0.745314062
    0.328368425    0.166666672    0.168111786
    0.584909678    0.447499990    0.604616404
    0.469524980    0.370576829    0.745314062
    0.911701739    0.083333343    0.084055893
