Ge+Ge                                   
   1.00000000000000     
     5.6578001980000003    0.0000000000000000    0.0000000000000000
    -5.6578001980000003   11.3156003950000006    0.0000000000000000
     0.0000000000000000    0.0000000000000000   14.1445007319999991
   Ge
    48
Direct
  0.0170834529999979  0.0000000000000000  0.0000000000000000
  0.5170834059999976  0.0000000000000000  0.1999999729999971
  0.0170834059999976  0.0000000000000000  0.4000000059999991
  0.5170834059999976  0.4999999699999975  0.0000000000000000
  0.0170834059999976  0.4999999699999975  0.1999999729999971
  0.5170832869999984  0.4999999699999975  0.4000000059999991
  0.8920834059999976  0.1249999930000030  0.0999999869999968
  0.3920834059999976  0.1249999930000030  0.2999999820000028
  0.8920834059999976  0.1249999930000030  0.5000000599999979
  0.3920834059999976  0.6249999400000021  0.0999999869999968
  0.8920833470000034  0.6249999400000021  0.2999999820000028
  0.3920834059999976  0.6249999400000021  0.5000000599999979
  0.7670834059999976  0.2499999850000023  0.0000000000000000
  0.2670834059999976  0.2499999850000023  0.1999999729999971
  0.7670834059999976  0.2499999850000023  0.4000000059999991
  0.2670834660000025  0.7500000000000000  0.0000000000000000
  0.7670834059999976  0.7500000000000000  0.1999999729999971
  0.2670834059999976  0.7500000000000000  0.4000000059999991
  0.6420834660000025  0.3750000000000000  0.0999999869999968
  0.1420834059999976  0.3750000000000000  0.2999999820000028
  0.6420834059999976  0.3750000000000000  0.5000000599999979
  0.1420834059999976  0.8749999400000021  0.0999999869999968
  0.6420832869999984  0.8749999400000021  0.2999999820000028
  0.1420834059999976  0.8749999400000021  0.5000000599999979
  0.5170834059999976  0.4999999699999975  0.5000000599999979
  0.0170834059999976  0.4999999699999975  0.6999999880000018
  0.5170832869999984  0.4999999699999975  0.8999999759999966
  0.0170834529999979  0.0000000000000000  0.5000000599999979
  0.5170834059999976  0.0000000000000000  0.6999999880000018
  0.0170834059999976  0.0000000000000000  0.8999999759999966
  0.1420834059999976  0.8749999400000021  0.6000000240000034
  0.6420832869999984  0.8749999400000021  0.8000000119999982
  0.1420834059999976  0.8749999400000021  0.0000000000000000
  0.6420834660000025  0.3750000000000000  0.6000000240000034
  0.1420834059999976  0.3750000000000000  0.8000000119999982
  0.6420834059999976  0.3750000000000000  0.0000000000000000
  0.2670834660000025  0.7500000000000000  0.5000000599999979
  0.7670834059999976  0.7500000000000000  0.6999999880000018
  0.2670834059999976  0.7500000000000000  0.8999999759999966
  0.7670834059999976  0.2499999850000023  0.5000000599999979
  0.2670834059999976  0.2499999850000023  0.6999999880000018
  0.7670834059999976  0.2499999850000023  0.8999999759999966
  0.3920834059999976  0.6249999400000021  0.6000000240000034
  0.8920833470000034  0.6249999400000021  0.8000000119999982
  0.3920834059999976  0.6249999400000021  0.0000000000000000
  0.8920834059999976  0.1249999930000030  0.6000000240000034
  0.3920834059999976  0.1249999930000030  0.8000000119999982
  0.8920834059999976  0.1249999930000030  0.0000000000000000
 
  0.00000000E+00  0.00000000E+00  0.00000000E+00
  0.00000000E+00  0.00000000E+00  0.00000000E+00
  0.00000000E+00  0.00000000E+00  0.00000000E+00
  0.00000000E+00  0.00000000E+00  0.00000000E+00
  0.00000000E+00  0.00000000E+00  0.00000000E+00
  0.00000000E+00  0.00000000E+00  0.00000000E+00
  0.00000000E+00  0.00000000E+00  0.00000000E+00
  0.00000000E+00  0.00000000E+00  0.00000000E+00
  0.00000000E+00  0.00000000E+00  0.00000000E+00
  0.00000000E+00  0.00000000E+00  0.00000000E+00
  0.00000000E+00  0.00000000E+00  0.00000000E+00
  0.00000000E+00  0.00000000E+00  0.00000000E+00
  0.00000000E+00  0.00000000E+00  0.00000000E+00
  0.00000000E+00  0.00000000E+00  0.00000000E+00
  0.00000000E+00  0.00000000E+00  0.00000000E+00
  0.00000000E+00  0.00000000E+00  0.00000000E+00
  0.00000000E+00  0.00000000E+00  0.00000000E+00
  0.00000000E+00  0.00000000E+00  0.00000000E+00
  0.00000000E+00  0.00000000E+00  0.00000000E+00
  0.00000000E+00  0.00000000E+00  0.00000000E+00
  0.00000000E+00  0.00000000E+00  0.00000000E+00
  0.00000000E+00  0.00000000E+00  0.00000000E+00
  0.00000000E+00  0.00000000E+00  0.00000000E+00
  0.00000000E+00  0.00000000E+00  0.00000000E+00
  0.00000000E+00  0.00000000E+00  0.00000000E+00
  0.00000000E+00  0.00000000E+00  0.00000000E+00
  0.00000000E+00  0.00000000E+00  0.00000000E+00
  0.00000000E+00  0.00000000E+00  0.00000000E+00
  0.00000000E+00  0.00000000E+00  0.00000000E+00
  0.00000000E+00  0.00000000E+00  0.00000000E+00
  0.00000000E+00  0.00000000E+00  0.00000000E+00
  0.00000000E+00  0.00000000E+00  0.00000000E+00
  0.00000000E+00  0.00000000E+00  0.00000000E+00
  0.00000000E+00  0.00000000E+00  0.00000000E+00
  0.00000000E+00  0.00000000E+00  0.00000000E+00
  0.00000000E+00  0.00000000E+00  0.00000000E+00
  0.00000000E+00  0.00000000E+00  0.00000000E+00
  0.00000000E+00  0.00000000E+00  0.00000000E+00
  0.00000000E+00  0.00000000E+00  0.00000000E+00
  0.00000000E+00  0.00000000E+00  0.00000000E+00
  0.00000000E+00  0.00000000E+00  0.00000000E+00
  0.00000000E+00  0.00000000E+00  0.00000000E+00
  0.00000000E+00  0.00000000E+00  0.00000000E+00
  0.00000000E+00  0.00000000E+00  0.00000000E+00
  0.00000000E+00  0.00000000E+00  0.00000000E+00
  0.00000000E+00  0.00000000E+00  0.00000000E+00
  0.00000000E+00  0.00000000E+00  0.00000000E+00
  0.00000000E+00  0.00000000E+00  0.00000000E+00
