Automatic KPOINTS generated
0
Gamma
6 3 2
0 0 0
