Ge
 1.0000000000000000
     5.6577999999999999    0.0000000000000000    0.0000000000000000
     0.0000000000000000    5.6577999999999999    0.0000000000000000
     0.0000000000000000    0.0000000000000000   61.2167499999999976
 Ge 
  32
Direct
  0.0000000000000000  0.0000000000000000  0.3267079679989546
  0.2500000000000000  0.2500000000000000  0.3498135722657606
  0.0000000000000000  0.5000000000000000  0.3729191765325667
  0.2500000000000000  0.7499999999999999  0.3960247807993728
  0.5000000000000000  0.0000000000000000  0.3729191765325667
  0.7499999999999999  0.2500000000000000  0.3960247807993728
  0.5000000000000000  0.5000000000000000  0.3267079679989546
  0.7499999999999999  0.7499999999999999  0.3498135722657606
  0.0000000000000000  0.0000000000000000  0.4191303850661788
  0.2500000000000000  0.2500000000000000  0.4422359893329849
  0.0000000000000000  0.5000000000000000  0.4653415935997909
  0.2500000000000000  0.7499999999999999  0.4884471978665971
  0.5000000000000000  0.0000000000000000  0.4653415935997909
  0.7499999999999999  0.2500000000000000  0.4884471978665971
  0.5000000000000000  0.5000000000000000  0.4191303850661788
  0.7499999999999999  0.7499999999999999  0.4422359893329849
  0.0000000000000000  0.0000000000000000  0.5115528021334030
  0.2500000000000000  0.2500000000000000  0.5346584064002091
  0.0000000000000000  0.5000000000000000  0.5577640106670152
  0.2500000000000000  0.7499999999999999  0.5808696149338212
  0.5000000000000000  0.0000000000000000  0.5577640106670152
  0.7499999999999999  0.2500000000000000  0.5808696149338212
  0.5000000000000000  0.5000000000000000  0.5115528021334030
  0.7499999999999999  0.7499999999999999  0.5346584064002091
  0.0000000000000000  0.0000000000000000  0.6039752192006274
  0.2500000000000000  0.2500000000000000  0.6270808234674334
  0.0000000000000000  0.5000000000000000  0.6501864277342395
  0.2500000000000000  0.7499999999999999  0.6732920320010455
  0.5000000000000000  0.0000000000000000  0.6501864277342395
  0.7499999999999999  0.2500000000000000  0.6732920320010455
  0.5000000000000000  0.5000000000000000  0.6039752192006274
  0.7499999999999999  0.7499999999999999  0.6270808234674334
