fcc Si+fcc Ge                           
   1.00000000000000     
     7.7498903219999997    0.0000000000000000    0.0000000000000000
    -3.8749451609999999   11.6248354830000000    0.0000000000000000
     0.0000000000000000    0.0000000000000000   18.6333333329999995
   Si   Ge
    12    66
Direct
  0.0000000000000000  0.0000000000000000  0.0000000000000000
  0.3888888890000004  0.2777777780000008  0.0490161000000029
  0.7777777780000008  0.5555555560000016  0.0980321999999987
  0.5000000000000000  0.0000000000000000  0.0000000000000000
  0.8888888890000004  0.2777777780000008  0.0490161000000029
  0.2777777780000008  0.5555555560000016  0.0980321999999987
  0.6944444439999984  0.8888888890000004  0.0245080500000014
  0.0833333329999988  0.1666666670000012  0.0735241499999972
  0.4722222219999992  0.4444444439999984  0.1225402500000001
  0.1944444439999984  0.8888888890000004  0.0245080500000014
  0.5833333329999988  0.1666666670000012  0.0735241499999972
  0.9722222219999992  0.4444444439999984  0.1225402500000001
  0.2368421050000009  0.3934426229999985  0.1815742400000033
  0.4035087720000021  0.2267759559999973  0.3334525940000006
  0.5701754390000033  0.0601092899999998  0.4853309479999979
  0.7368421050000009  0.8934426229999985  0.6372093020000023
  0.9035087720000021  0.7267759559999973  0.7890876570000032
  0.0701754390000033  0.5601092899999998  0.9409660110000004
  0.9035087720000021  0.7267759559999973  0.1815742400000033
  0.0701754390000033  0.5601092899999998  0.3334525940000006
  0.2368421050000009  0.3934426229999985  0.4853309479999979
  0.4035087720000021  0.2267759559999973  0.6372093020000023
  0.5701754390000033  0.0601092899999998  0.7890876570000032
  0.7368421050000009  0.8934426229999985  0.9409660110000004
  0.5701754390000033  0.0601092899999998  0.1815742400000033
  0.7368421050000009  0.8934426229999985  0.3334525940000006
  0.9035087720000021  0.7267759559999973  0.4853309479999979
  0.0701754390000033  0.5601092899999998  0.6372093020000023
  0.2368421050000009  0.3934426229999985  0.7890876570000032
  0.4035087720000021  0.2267759559999973  0.9409660110000004
  0.7368421050000009  0.3934426229999985  0.1815742400000033
  0.9035087720000021  0.2267759559999973  0.3334525940000006
  0.0701754390000033  0.0601092899999998  0.4853309479999979
  0.2368421050000009  0.8934426229999985  0.6372093020000023
  0.4035087720000021  0.7267759559999973  0.7890876570000032
  0.5701754390000033  0.5601092899999998  0.9409660110000004
  0.4035087720000021  0.7267759559999973  0.1815742400000033
  0.5701754390000033  0.5601092899999998  0.3334525940000006
  0.7368421050000009  0.3934426229999985  0.4853309479999979
  0.9035087720000021  0.2267759559999973  0.6372093020000023
  0.0701754390000033  0.0601092899999998  0.7890876570000032
  0.2368421050000009  0.8934426229999985  0.9409660110000004
  0.0701754390000033  0.0601092899999998  0.1815742400000033
  0.2368421050000009  0.8934426229999985  0.3334525940000006
  0.4035087720000021  0.7267759559999973  0.4853309479999979
  0.5701754390000033  0.5601092899999998  0.6372093020000023
  0.7368421050000009  0.3934426229999985  0.7890876570000032
  0.9035087720000021  0.2267759559999973  0.9409660110000004
  0.3201754390000033  0.5601092899999998  0.2575134169999984
  0.4868421050000009  0.3934426229999985  0.4093917710000028
  0.6535087720000021  0.2267759559999973  0.5612701250000001
  0.8201754390000033  0.0601092899999998  0.7131484789999973
  0.9868421050000009  0.8934426229999985  0.8650268339999982
  0.9868421050000009  0.8934426229999985  0.2575134169999984
  0.1535087720000021  0.7267759559999973  0.4093917710000028
  0.3201754390000033  0.5601092899999998  0.5612701250000001
  0.4868421050000009  0.3934426229999985  0.7131484789999973
  0.6535087720000021  0.2267759559999973  0.8650268339999982
  0.6535087720000021  0.2267759559999973  0.2575134169999984
  0.8201754390000033  0.0601092899999998  0.4093917710000028
  0.9868421050000009  0.8934426229999985  0.5612701250000001
  0.1535087720000021  0.7267759559999973  0.7131484789999973
  0.3201754390000033  0.5601092899999998  0.8650268339999982
  0.8201754390000033  0.5601092899999998  0.2575134169999984
  0.9868421050000009  0.3934426229999985  0.4093917710000028
  0.1535087720000021  0.2267759559999973  0.5612701250000001
  0.3201754390000033  0.0601092899999998  0.7131484789999973
  0.4868421050000009  0.8934426229999985  0.8650268339999982
  0.4868421050000009  0.8934426229999985  0.2575134169999984
  0.6535087720000021  0.7267759559999973  0.4093917710000028
  0.8201754390000033  0.5601092899999998  0.5612701250000001
  0.9868421050000009  0.3934426229999985  0.7131484789999973
  0.1535087720000021  0.2267759559999973  0.8650268339999982
  0.1535087720000021  0.2267759559999973  0.2575134169999984
  0.3201754390000033  0.0601092899999998  0.4093917710000028
  0.4868421050000009  0.8934426229999985  0.5612701250000001
  0.6535087720000021  0.7267759559999973  0.7131484789999973
  0.8201754390000033  0.5601092899999998  0.8650268339999982
 
  0.00000000E+00  0.00000000E+00  0.00000000E+00
  0.00000000E+00  0.00000000E+00  0.00000000E+00
  0.00000000E+00  0.00000000E+00  0.00000000E+00
  0.00000000E+00  0.00000000E+00  0.00000000E+00
  0.00000000E+00  0.00000000E+00  0.00000000E+00
  0.00000000E+00  0.00000000E+00  0.00000000E+00
  0.00000000E+00  0.00000000E+00  0.00000000E+00
  0.00000000E+00  0.00000000E+00  0.00000000E+00
  0.00000000E+00  0.00000000E+00  0.00000000E+00
  0.00000000E+00  0.00000000E+00  0.00000000E+00
  0.00000000E+00  0.00000000E+00  0.00000000E+00
  0.00000000E+00  0.00000000E+00  0.00000000E+00
  0.00000000E+00  0.00000000E+00  0.00000000E+00
  0.00000000E+00  0.00000000E+00  0.00000000E+00
  0.00000000E+00  0.00000000E+00  0.00000000E+00
  0.00000000E+00  0.00000000E+00  0.00000000E+00
  0.00000000E+00  0.00000000E+00  0.00000000E+00
  0.00000000E+00  0.00000000E+00  0.00000000E+00
  0.00000000E+00  0.00000000E+00  0.00000000E+00
  0.00000000E+00  0.00000000E+00  0.00000000E+00
  0.00000000E+00  0.00000000E+00  0.00000000E+00
  0.00000000E+00  0.00000000E+00  0.00000000E+00
  0.00000000E+00  0.00000000E+00  0.00000000E+00
  0.00000000E+00  0.00000000E+00  0.00000000E+00
  0.00000000E+00  0.00000000E+00  0.00000000E+00
  0.00000000E+00  0.00000000E+00  0.00000000E+00
  0.00000000E+00  0.00000000E+00  0.00000000E+00
  0.00000000E+00  0.00000000E+00  0.00000000E+00
  0.00000000E+00  0.00000000E+00  0.00000000E+00
  0.00000000E+00  0.00000000E+00  0.00000000E+00
  0.00000000E+00  0.00000000E+00  0.00000000E+00
  0.00000000E+00  0.00000000E+00  0.00000000E+00
  0.00000000E+00  0.00000000E+00  0.00000000E+00
  0.00000000E+00  0.00000000E+00  0.00000000E+00
  0.00000000E+00  0.00000000E+00  0.00000000E+00
  0.00000000E+00  0.00000000E+00  0.00000000E+00
  0.00000000E+00  0.00000000E+00  0.00000000E+00
  0.00000000E+00  0.00000000E+00  0.00000000E+00
  0.00000000E+00  0.00000000E+00  0.00000000E+00
  0.00000000E+00  0.00000000E+00  0.00000000E+00
  0.00000000E+00  0.00000000E+00  0.00000000E+00
  0.00000000E+00  0.00000000E+00  0.00000000E+00
  0.00000000E+00  0.00000000E+00  0.00000000E+00
  0.00000000E+00  0.00000000E+00  0.00000000E+00
  0.00000000E+00  0.00000000E+00  0.00000000E+00
  0.00000000E+00  0.00000000E+00  0.00000000E+00
  0.00000000E+00  0.00000000E+00  0.00000000E+00
  0.00000000E+00  0.00000000E+00  0.00000000E+00
  0.00000000E+00  0.00000000E+00  0.00000000E+00
  0.00000000E+00  0.00000000E+00  0.00000000E+00
  0.00000000E+00  0.00000000E+00  0.00000000E+00
  0.00000000E+00  0.00000000E+00  0.00000000E+00
  0.00000000E+00  0.00000000E+00  0.00000000E+00
  0.00000000E+00  0.00000000E+00  0.00000000E+00
  0.00000000E+00  0.00000000E+00  0.00000000E+00
  0.00000000E+00  0.00000000E+00  0.00000000E+00
  0.00000000E+00  0.00000000E+00  0.00000000E+00
  0.00000000E+00  0.00000000E+00  0.00000000E+00
  0.00000000E+00  0.00000000E+00  0.00000000E+00
  0.00000000E+00  0.00000000E+00  0.00000000E+00
  0.00000000E+00  0.00000000E+00  0.00000000E+00
  0.00000000E+00  0.00000000E+00  0.00000000E+00
  0.00000000E+00  0.00000000E+00  0.00000000E+00
  0.00000000E+00  0.00000000E+00  0.00000000E+00
  0.00000000E+00  0.00000000E+00  0.00000000E+00
  0.00000000E+00  0.00000000E+00  0.00000000E+00
  0.00000000E+00  0.00000000E+00  0.00000000E+00
  0.00000000E+00  0.00000000E+00  0.00000000E+00
  0.00000000E+00  0.00000000E+00  0.00000000E+00
  0.00000000E+00  0.00000000E+00  0.00000000E+00
  0.00000000E+00  0.00000000E+00  0.00000000E+00
  0.00000000E+00  0.00000000E+00  0.00000000E+00
  0.00000000E+00  0.00000000E+00  0.00000000E+00
  0.00000000E+00  0.00000000E+00  0.00000000E+00
  0.00000000E+00  0.00000000E+00  0.00000000E+00
  0.00000000E+00  0.00000000E+00  0.00000000E+00
  0.00000000E+00  0.00000000E+00  0.00000000E+00
  0.00000000E+00  0.00000000E+00  0.00000000E+00
