fcc Si+fcc Ge                           
   1.00000000000000     
     7.7498903219999997    0.0000000000000000    0.0000000000000000
     3.8749451609999999   11.6248354830000000    0.0000000000000000
     0.0000000000000000    0.0000000000000000   18.6333333329999995
   Si   Ge
    12    66
Direct
  0.0000000000000000  0.0000000000000000  0.0000000000000000
  0.1111111109999996  0.2777777780000008  0.0490161000000029
  0.2222222219999992  0.5555555560000016  0.0980321999999987
  0.5000000000000000  0.0000000000000000  0.0000000000000000
  0.6111111109999996  0.2777777780000008  0.0490161000000029
  0.7222222219999992  0.5555555560000016  0.0980321999999987
  0.8055555560000016  0.8888888890000004  0.0245080500000014
  0.9166666670000012  0.1666666670000012  0.0735241499999972
  0.0277777780000008  0.4444444439999984  0.1225402500000001
  0.3055555560000016  0.8888888890000004  0.0245080500000014
  0.4166666670000012  0.1666666670000012  0.0735241499999972
  0.5277777780000008  0.4444444439999984  0.1225402500000001
  0.1052631579999996  0.7213114750000003  0.1815742400000033
  0.4385964909999984  0.5546448090000027  0.3334525940000006
  0.7719298250000008  0.3879781420000015  0.4853309479999979
  0.1052631579999996  0.2213114750000003  0.6372093020000023
  0.4385964909999984  0.0546448090000027  0.7890876570000032
  0.7719298250000008  0.8879781420000015  0.9409660110000004
  0.4385964909999984  0.0546448090000027  0.1815742400000033
  0.7719298250000008  0.8879781420000015  0.3334525940000006
  0.1052631579999996  0.7213114750000003  0.4853309479999979
  0.4385964909999984  0.5546448090000027  0.6372093020000023
  0.7719298250000008  0.3879781420000015  0.7890876570000032
  0.1052631579999996  0.2213114750000003  0.9409660110000004
  0.7719298250000008  0.3879781420000015  0.1815742400000033
  0.1052631579999996  0.2213114750000003  0.3334525940000006
  0.4385964909999984  0.0546448090000027  0.4853309479999979
  0.7719298250000008  0.8879781420000015  0.6372093020000023
  0.1052631579999996  0.7213114750000003  0.7890876570000032
  0.4385964909999984  0.5546448090000027  0.9409660110000004
  0.6052631579999996  0.7213114750000003  0.1815742400000033
  0.9385964909999984  0.5546448090000027  0.3334525940000006
  0.2719298250000008  0.3879781420000015  0.4853309479999979
  0.6052631579999996  0.2213114750000003  0.6372093020000023
  0.9385964909999984  0.0546448090000027  0.7890876570000032
  0.2719298250000008  0.8879781420000015  0.9409660110000004
  0.9385964909999984  0.0546448090000027  0.1815742400000033
  0.2719298250000008  0.8879781420000015  0.3334525940000006
  0.6052631579999996  0.7213114750000003  0.4853309479999979
  0.9385964909999984  0.5546448090000027  0.6372093020000023
  0.2719298250000008  0.3879781420000015  0.7890876570000032
  0.6052631579999996  0.2213114750000003  0.9409660110000004
  0.2719298250000008  0.3879781420000015  0.1815742400000033
  0.6052631579999996  0.2213114750000003  0.3334525940000006
  0.9385964909999984  0.0546448090000027  0.4853309479999979
  0.2719298250000008  0.8879781420000015  0.6372093020000023
  0.6052631579999996  0.7213114750000003  0.7890876570000032
  0.9385964909999984  0.5546448090000027  0.9409660110000004
  0.0219298250000008  0.8879781420000015  0.2575134169999984
  0.3552631579999996  0.7213114750000003  0.4093917710000028
  0.6885964909999984  0.5546448090000027  0.5612701250000001
  0.0219298250000008  0.3879781420000015  0.7131484789999973
  0.3552631579999996  0.2213114750000003  0.8650268339999982
  0.3552631579999996  0.2213114750000003  0.2575134169999984
  0.6885964909999984  0.0546448090000027  0.4093917710000028
  0.0219298250000008  0.8879781420000015  0.5612701250000001
  0.3552631579999996  0.7213114750000003  0.7131484789999973
  0.6885964909999984  0.5546448090000027  0.8650268339999982
  0.6885964909999984  0.5546448090000027  0.2575134169999984
  0.0219298250000008  0.3879781420000015  0.4093917710000028
  0.3552631579999996  0.2213114750000003  0.5612701250000001
  0.6885964909999984  0.0546448090000027  0.7131484789999973
  0.0219298250000008  0.8879781420000015  0.8650268339999982
  0.5219298250000008  0.8879781420000015  0.2575134169999984
  0.8552631579999996  0.7213114750000003  0.4093917710000028
  0.1885964909999984  0.5546448090000027  0.5612701250000001
  0.5219298250000008  0.3879781420000015  0.7131484789999973
  0.8552631579999996  0.2213114750000003  0.8650268339999982
  0.8552631579999996  0.2213114750000003  0.2575134169999984
  0.1885964909999984  0.0546448090000027  0.4093917710000028
  0.5219298250000008  0.8879781420000015  0.5612701250000001
  0.8552631579999996  0.7213114750000003  0.7131484789999973
  0.1885964909999984  0.5546448090000027  0.8650268339999982
  0.1885964909999984  0.5546448090000027  0.2575134169999984
  0.5219298250000008  0.3879781420000015  0.4093917710000028
  0.8552631579999996  0.2213114750000003  0.5612701250000001
  0.1885964909999984  0.0546448090000027  0.7131484789999973
  0.5219298250000008  0.8879781420000015  0.8650268339999982
 
  0.00000000E+00  0.00000000E+00  0.00000000E+00
  0.00000000E+00  0.00000000E+00  0.00000000E+00
  0.00000000E+00  0.00000000E+00  0.00000000E+00
  0.00000000E+00  0.00000000E+00  0.00000000E+00
  0.00000000E+00  0.00000000E+00  0.00000000E+00
  0.00000000E+00  0.00000000E+00  0.00000000E+00
  0.00000000E+00  0.00000000E+00  0.00000000E+00
  0.00000000E+00  0.00000000E+00  0.00000000E+00
  0.00000000E+00  0.00000000E+00  0.00000000E+00
  0.00000000E+00  0.00000000E+00  0.00000000E+00
  0.00000000E+00  0.00000000E+00  0.00000000E+00
  0.00000000E+00  0.00000000E+00  0.00000000E+00
  0.00000000E+00  0.00000000E+00  0.00000000E+00
  0.00000000E+00  0.00000000E+00  0.00000000E+00
  0.00000000E+00  0.00000000E+00  0.00000000E+00
  0.00000000E+00  0.00000000E+00  0.00000000E+00
  0.00000000E+00  0.00000000E+00  0.00000000E+00
  0.00000000E+00  0.00000000E+00  0.00000000E+00
  0.00000000E+00  0.00000000E+00  0.00000000E+00
  0.00000000E+00  0.00000000E+00  0.00000000E+00
  0.00000000E+00  0.00000000E+00  0.00000000E+00
  0.00000000E+00  0.00000000E+00  0.00000000E+00
  0.00000000E+00  0.00000000E+00  0.00000000E+00
  0.00000000E+00  0.00000000E+00  0.00000000E+00
  0.00000000E+00  0.00000000E+00  0.00000000E+00
  0.00000000E+00  0.00000000E+00  0.00000000E+00
  0.00000000E+00  0.00000000E+00  0.00000000E+00
  0.00000000E+00  0.00000000E+00  0.00000000E+00
  0.00000000E+00  0.00000000E+00  0.00000000E+00
  0.00000000E+00  0.00000000E+00  0.00000000E+00
  0.00000000E+00  0.00000000E+00  0.00000000E+00
  0.00000000E+00  0.00000000E+00  0.00000000E+00
  0.00000000E+00  0.00000000E+00  0.00000000E+00
  0.00000000E+00  0.00000000E+00  0.00000000E+00
  0.00000000E+00  0.00000000E+00  0.00000000E+00
  0.00000000E+00  0.00000000E+00  0.00000000E+00
  0.00000000E+00  0.00000000E+00  0.00000000E+00
  0.00000000E+00  0.00000000E+00  0.00000000E+00
  0.00000000E+00  0.00000000E+00  0.00000000E+00
  0.00000000E+00  0.00000000E+00  0.00000000E+00
  0.00000000E+00  0.00000000E+00  0.00000000E+00
  0.00000000E+00  0.00000000E+00  0.00000000E+00
  0.00000000E+00  0.00000000E+00  0.00000000E+00
  0.00000000E+00  0.00000000E+00  0.00000000E+00
  0.00000000E+00  0.00000000E+00  0.00000000E+00
  0.00000000E+00  0.00000000E+00  0.00000000E+00
  0.00000000E+00  0.00000000E+00  0.00000000E+00
  0.00000000E+00  0.00000000E+00  0.00000000E+00
  0.00000000E+00  0.00000000E+00  0.00000000E+00
  0.00000000E+00  0.00000000E+00  0.00000000E+00
  0.00000000E+00  0.00000000E+00  0.00000000E+00
  0.00000000E+00  0.00000000E+00  0.00000000E+00
  0.00000000E+00  0.00000000E+00  0.00000000E+00
  0.00000000E+00  0.00000000E+00  0.00000000E+00
  0.00000000E+00  0.00000000E+00  0.00000000E+00
  0.00000000E+00  0.00000000E+00  0.00000000E+00
  0.00000000E+00  0.00000000E+00  0.00000000E+00
  0.00000000E+00  0.00000000E+00  0.00000000E+00
  0.00000000E+00  0.00000000E+00  0.00000000E+00
  0.00000000E+00  0.00000000E+00  0.00000000E+00
  0.00000000E+00  0.00000000E+00  0.00000000E+00
  0.00000000E+00  0.00000000E+00  0.00000000E+00
  0.00000000E+00  0.00000000E+00  0.00000000E+00
  0.00000000E+00  0.00000000E+00  0.00000000E+00
  0.00000000E+00  0.00000000E+00  0.00000000E+00
  0.00000000E+00  0.00000000E+00  0.00000000E+00
  0.00000000E+00  0.00000000E+00  0.00000000E+00
  0.00000000E+00  0.00000000E+00  0.00000000E+00
  0.00000000E+00  0.00000000E+00  0.00000000E+00
  0.00000000E+00  0.00000000E+00  0.00000000E+00
  0.00000000E+00  0.00000000E+00  0.00000000E+00
  0.00000000E+00  0.00000000E+00  0.00000000E+00
  0.00000000E+00  0.00000000E+00  0.00000000E+00
  0.00000000E+00  0.00000000E+00  0.00000000E+00
  0.00000000E+00  0.00000000E+00  0.00000000E+00
  0.00000000E+00  0.00000000E+00  0.00000000E+00
  0.00000000E+00  0.00000000E+00  0.00000000E+00
  0.00000000E+00  0.00000000E+00  0.00000000E+00
