fcc Si+fcc Ge                           
   1.00000000000000     
     5.4800000000000004    0.0000000000000000    0.0000000000000000
     0.0000000000000000    5.4800000000000004    0.0000000000000000
     0.0000000000000000    0.0000000000000000   28.0500000000000007
   Si   Ge
    22    22
Direct
  0.2500000000000000  0.0000000000000000  0.0488413550000004
  0.7500000000000000  0.0000000000000000  0.1465240639999976
  0.2500000000000000  0.0000000000000000  0.2442067739999985
  0.7500000000000000  0.0000000000000000  0.3418894830000028
  0.2500000000000000  0.0000000000000000  0.4395721929999965
  0.7500000000000000  0.5000000000000000  0.0488413550000004
  0.2500000000000000  0.5000000000000000  0.1465240639999976
  0.7500000000000000  0.5000000000000000  0.2442067739999985
  0.2500000000000000  0.5000000000000000  0.3418894830000028
  0.7500000000000000  0.5000000000000000  0.4395721929999965
  0.0000000000000000  0.2500000000000000  0.0000000000000000
  0.5000000000000000  0.2500000000000000  0.0976827089999972
  0.0000000000000000  0.2500000000000000  0.1953654189999980
  0.5000000000000000  0.2500000000000000  0.2930481280000024
  0.0000000000000000  0.2500000000000000  0.3907308380000032
  0.5000000000000000  0.2500000000000000  0.4884135470000004
  0.5000000000000000  0.7500000000000000  0.0000000000000000
  0.0000000000000000  0.7500000000000000  0.0976827089999972
  0.5000000000000000  0.7500000000000000  0.1953654189999980
  0.0000000000000000  0.7500000000000000  0.2930481280000024
  0.5000000000000000  0.7500000000000000  0.3907308380000032
  0.0000000000000000  0.7500000000000000  0.4884135470000004
  0.0555555560000016  0.3148148149999983  0.4919786099999968
  0.5555555560000016  0.3148148149999983  0.5928698749999981
  0.0555555560000016  0.3148148149999983  0.6937611410000031
  0.5555555560000016  0.3148148149999983  0.7946524059999973
  0.0555555560000016  0.3148148149999983  0.8955436720000023
  0.5555555560000016  0.3148148149999983  0.9964349380000002
  0.5555555560000016  0.8148148149999983  0.4919786099999968
  0.0555555560000016  0.8148148149999983  0.5928698749999981
  0.5555555560000016  0.8148148149999983  0.6937611410000031
  0.0555555560000016  0.8148148149999983  0.7946524059999973
  0.5555555560000016  0.8148148149999983  0.8955436720000023
  0.0555555560000016  0.8148148149999983  0.9964349380000002
  0.3055555560000016  0.5648148149999983  0.5424242420000027
  0.8055555560000016  0.5648148149999983  0.6433155080000006
  0.3055555560000016  0.5648148149999983  0.7442067739999985
  0.8055555560000016  0.5648148149999983  0.8450980389999998
  0.3055555560000016  0.5648148149999983  0.9459893049999977
  0.8055555560000016  0.0648148149999983  0.5424242420000027
  0.3055555560000016  0.0648148149999983  0.6433155080000006
  0.8055555560000016  0.0648148149999983  0.7442067739999985
  0.3055555560000016  0.0648148149999983  0.8450980389999998
  0.8055555560000016  0.0648148149999983  0.9459893049999977
 
  0.00000000E+00  0.00000000E+00  0.00000000E+00
  0.00000000E+00  0.00000000E+00  0.00000000E+00
  0.00000000E+00  0.00000000E+00  0.00000000E+00
  0.00000000E+00  0.00000000E+00  0.00000000E+00
  0.00000000E+00  0.00000000E+00  0.00000000E+00
  0.00000000E+00  0.00000000E+00  0.00000000E+00
  0.00000000E+00  0.00000000E+00  0.00000000E+00
  0.00000000E+00  0.00000000E+00  0.00000000E+00
  0.00000000E+00  0.00000000E+00  0.00000000E+00
  0.00000000E+00  0.00000000E+00  0.00000000E+00
  0.00000000E+00  0.00000000E+00  0.00000000E+00
  0.00000000E+00  0.00000000E+00  0.00000000E+00
  0.00000000E+00  0.00000000E+00  0.00000000E+00
  0.00000000E+00  0.00000000E+00  0.00000000E+00
  0.00000000E+00  0.00000000E+00  0.00000000E+00
  0.00000000E+00  0.00000000E+00  0.00000000E+00
  0.00000000E+00  0.00000000E+00  0.00000000E+00
  0.00000000E+00  0.00000000E+00  0.00000000E+00
  0.00000000E+00  0.00000000E+00  0.00000000E+00
  0.00000000E+00  0.00000000E+00  0.00000000E+00
  0.00000000E+00  0.00000000E+00  0.00000000E+00
  0.00000000E+00  0.00000000E+00  0.00000000E+00
  0.00000000E+00  0.00000000E+00  0.00000000E+00
  0.00000000E+00  0.00000000E+00  0.00000000E+00
  0.00000000E+00  0.00000000E+00  0.00000000E+00
  0.00000000E+00  0.00000000E+00  0.00000000E+00
  0.00000000E+00  0.00000000E+00  0.00000000E+00
  0.00000000E+00  0.00000000E+00  0.00000000E+00
  0.00000000E+00  0.00000000E+00  0.00000000E+00
  0.00000000E+00  0.00000000E+00  0.00000000E+00
  0.00000000E+00  0.00000000E+00  0.00000000E+00
  0.00000000E+00  0.00000000E+00  0.00000000E+00
  0.00000000E+00  0.00000000E+00  0.00000000E+00
  0.00000000E+00  0.00000000E+00  0.00000000E+00
  0.00000000E+00  0.00000000E+00  0.00000000E+00
  0.00000000E+00  0.00000000E+00  0.00000000E+00
  0.00000000E+00  0.00000000E+00  0.00000000E+00
  0.00000000E+00  0.00000000E+00  0.00000000E+00
  0.00000000E+00  0.00000000E+00  0.00000000E+00
  0.00000000E+00  0.00000000E+00  0.00000000E+00
  0.00000000E+00  0.00000000E+00  0.00000000E+00
  0.00000000E+00  0.00000000E+00  0.00000000E+00
  0.00000000E+00  0.00000000E+00  0.00000000E+00
  0.00000000E+00  0.00000000E+00  0.00000000E+00
