fcc Si+fcc Ge
    1.000000000
    5.480000000    0.000000000    0.000000000
    0.000000000    5.480000000    0.000000000
    0.000000000    0.000000000   28.050000000
Si    Ge   
22     22
Direct
    0.250000000    0.000000000    0.048841355
    0.750000000    0.000000000    0.146524064
    0.250000000    0.000000000    0.244206774
    0.750000000    0.000000000    0.341889483
    0.250000000    0.000000000    0.439572193
    0.750000000    0.500000000    0.048841355
    0.250000000    0.500000000    0.146524064
    0.750000000    0.500000000    0.244206774
    0.250000000    0.500000000    0.341889483
    0.750000000    0.500000000    0.439572193
    0.000000000    0.250000000    0.000000000
    0.500000000    0.250000000    0.097682709
    0.000000000    0.250000000    0.195365419
    0.500000000    0.250000000    0.293048128
    0.000000000    0.250000000    0.390730838
    0.500000000    0.250000000    0.488413547
    0.500000000    0.750000000    0.000000000
    0.000000000    0.750000000    0.097682709
    0.500000000    0.750000000    0.195365419
    0.000000000    0.750000000    0.293048128
    0.500000000    0.750000000    0.390730838
    0.000000000    0.750000000    0.488413547
    0.055555556    0.314814815    0.491978610
    0.555555556    0.314814815    0.592869875
    0.055555556    0.314814815    0.693761141
    0.555555556    0.314814815    0.794652406
    0.055555556    0.314814815    0.895543672
    0.555555556    0.314814815    0.996434938
    0.555555556    0.814814815    0.491978610
    0.055555556    0.814814815    0.592869875
    0.555555556    0.814814815    0.693761141
    0.055555556    0.814814815    0.794652406
    0.555555556    0.814814815    0.895543672
    0.055555556    0.814814815    0.996434938
    0.305555556    0.564814815    0.542424242
    0.805555556    0.564814815    0.643315508
    0.305555556    0.564814815    0.744206774
    0.805555556    0.564814815    0.845098039
    0.305555556    0.564814815    0.945989305
    0.805555556    0.064814815    0.542424242
    0.305555556    0.064814815    0.643315508
    0.805555556    0.064814815    0.744206774
    0.305555556    0.064814815    0.845098039
    0.805555556    0.064814815    0.945989305
