Automatic KPOINTS generated
0
Gamma
1 2 5
0 0 0
