Ge+Sn
    1.000000000
   16.002676010    0.000000000    0.000000000
    8.001338005   13.858724594    0.000000000
    0.000000000    0.000000000   20.304012299
Ge  Sn 
96     72
Direct
    0.310883224    0.310883164    0.321762353
    0.977550030    0.977550030    0.000000025
    0.644216537    0.644216597    0.160881206
    0.810883164    0.310883164    0.321762353
    0.477550000    0.977550030    0.000000033
    0.144216582    0.644216597    0.160881206
    0.310883164    0.810883164    0.321762353
    0.977550030    0.477550000    0.000000031
    0.644216597    0.144216582    0.160881206
    0.810883164    0.810883164    0.321762353
    0.477550000    0.477550000    0.000000000
    0.144216567    0.144216567    0.160881177
    0.477549791    0.477549732    0.361982673
    0.144216686    0.144216612    0.040220331
    0.810883284    0.810883224    0.201101482
    0.977549791    0.477549672    0.361982673
    0.644216657    0.144216627    0.040220331
    0.310883284    0.810883224    0.201101482
    0.477549672    0.977549791    0.361982673
    0.144216627    0.644216657    0.040220331
    0.810883224    0.310883284    0.201101482
    0.977549672    0.977549791    0.361982644
    0.644216597    0.644216657    0.040220331
    0.310883164    0.310883254    0.201101452
    0.560883164    0.560883164    0.321762383
    0.227550015    0.227550015    0.000000035
    0.894216597    0.894216597    0.160881177
    0.060883213    0.560883164    0.321762413
    0.727550030    0.227550045    0.000000035
    0.394216597    0.894216597    0.160881206
    0.560883164    0.060883176    0.321762353
    0.227550015    0.727549970    0.000000012
    0.894216537    0.394216597    0.160881177
    0.060883190    0.060883105    0.321762353
    0.727550030    0.727549911    0.000000023
    0.394216627    0.394216567    0.160881206
    0.727549791    0.727549791    0.361982644
    0.394216627    0.394216627    0.040220268
    0.060883194    0.060883190    0.201101452
    0.227549791    0.727549791    0.361982644
    0.894216597    0.394216627    0.040220287
    0.560883164    0.060883190    0.201101452
    0.727549791    0.227549851    0.361982644
    0.394216627    0.894216657    0.040220287
    0.060883202    0.560883284    0.201101452
    0.227549851    0.227549851    0.361982644
    0.894216716    0.894216657    0.040220276
    0.560883284    0.560883284    0.201101452
    0.310883164    0.560883164    0.321762353
    0.977550030    0.227550015    0.000000020
    0.644216537    0.894216597    0.160881206
    0.810883164    0.560883164    0.321762383
    0.477550030    0.227550015    0.000000027
    0.144216597    0.894216597    0.160881206
    0.310883164    0.060883176    0.321762353
    0.977550030    0.727549970    0.000000027
    0.644216597    0.394216597    0.160881206
    0.810883164    0.060883090    0.321762353
    0.477550000    0.727549911    0.000000023
    0.144216612    0.394216537    0.160881177
    0.477549791    0.727549791    0.361982644
    0.144216612    0.394216597    0.040220287
    0.810883164    0.060883190    0.201101452
    0.977549732    0.727549791    0.361982644
    0.644216597    0.394216627    0.040220287
    0.310883164    0.060883190    0.201101452
    0.477549732    0.227549851    0.361982614
    0.144216627    0.894216657    0.040220276
    0.810883164    0.560883284    0.201101452
    0.977549791    0.227549851    0.361982614
    0.644216657    0.894216657    0.040220268
    0.310883224    0.560883284    0.201101452
    0.560883105    0.310883164    0.321762353
    0.227550015    0.977550030    0.000000022
    0.894216597    0.644216597    0.160881206
    0.060883183    0.310883164    0.321762383
    0.727549970    0.977550030    0.000000029
    0.394216627    0.644216597    0.160881206
    0.560883164    0.810883164    0.321762383
    0.227550000    0.477550000    0.000000031
    0.894216597    0.144216582    0.160881206
    0.060883179    0.810883105    0.321762353
    0.727549970    0.477549940    0.000000014
    0.394216597    0.144216537    0.160881177
    0.727549791    0.477549851    0.361982673
    0.394216686    0.144216716    0.040220316
    0.060883284    0.810883343    0.201101482
    0.227549672    0.477549851    0.361982673
    0.894216657    0.144216731    0.040220324
    0.560883284    0.810883343    0.201101452
    0.727549791    0.977549851    0.361982644
    0.394216686    0.644216716    0.040220331
    0.060883276    0.310883373    0.201101482
    0.227549732    0.977549791    0.361982673
    0.894216657    0.644216657    0.040220316
    0.560883284    0.310883284    0.201101452
    0.144654095    0.390106499    0.842448294
    0.144654095    0.056773186    0.473403871
    0.144654095    0.723439813    0.657926083
    0.477987438    0.723439872    0.842448235
    0.477987438    0.390106529    0.473403871
    0.477987438    0.056773186    0.657926083
    0.811320782    0.056773186    0.842448294
    0.811320782    0.723439872    0.473403871
    0.811320782    0.390106529    0.657926083
    0.477987438    0.390106559    0.888578892
    0.477987438    0.056773186    0.519534409
    0.477987438    0.723439813    0.704056621
    0.144654095    0.056773186    0.888578892
    0.144654095    0.723439813    0.519534409
    0.144654095    0.390106469    0.704056621
    0.811320841    0.723439813    0.888578892
    0.811320841    0.390106469    0.519534409
    0.811320841    0.056773067    0.704056621
    0.644654036    0.390106499    0.842448235
    0.644654036    0.056773186    0.473403871
    0.644654036    0.723439813    0.657926083
    0.311320782    0.056773186    0.842448235
    0.311320782    0.723439872    0.473403841
    0.311320782    0.390106529    0.657926083
    0.977987468    0.723439872    0.842448294
    0.977987468    0.390106559    0.473403871
    0.977987468    0.056773186    0.657926142
    0.311320752    0.723439932    0.888578892
    0.311320782    0.390106529    0.519534409
    0.311320782    0.056773186    0.704056621
    0.977987468    0.390106559    0.888578832
    0.977987468    0.056773186    0.519534349
    0.977987468    0.723439813    0.704056561
    0.644654095    0.056773186    0.888578892
    0.644654095    0.723439813    0.519534349
    0.644654095    0.390106499    0.704056561
    0.311320782    0.556773186    0.842448294
    0.311320782    0.223439872    0.473403871
    0.311320782    0.890106499    0.657926083
    0.644654036    0.890106499    0.842448294
    0.644654036    0.556773186    0.473403871
    0.644654036    0.223439813    0.657926083
    0.977987349    0.223439902    0.842448235
    0.977987349    0.890106618    0.473403811
    0.977987349    0.556773305    0.657926023
    0.644654036    0.556773245    0.888578892
    0.644654036    0.223439842    0.519534409
    0.644654036    0.890106499    0.704056621
    0.311320722    0.223439902    0.888578832
    0.311320722    0.890106559    0.519534349
    0.311320722    0.556773186    0.704056561
    0.977987468    0.890106499    0.888578892
    0.977987468    0.556773126    0.519534409
    0.977987468    0.223439783    0.704056621
    0.144654095    0.890106499    0.842448294
    0.144654095    0.556773126    0.473403871
    0.144654095    0.223439813    0.657926083
    0.811320782    0.556773186    0.842448235
    0.811320782    0.223439842    0.473403871
    0.811320782    0.890106499    0.657926083
    0.477987438    0.223439723    0.842448294
    0.477987438    0.890106440    0.473403871
    0.477987438    0.556773126    0.657926023
    0.144654095    0.556773245    0.888578892
    0.144654095    0.223439902    0.519534409
    0.144654095    0.890106559    0.704056621
    0.477987438    0.890106559    0.888578892
    0.477987438    0.556773186    0.519534409
    0.477987438    0.223439872    0.704056621
    0.811320782    0.223439932    0.888578892
    0.811320782    0.890106559    0.519534469
    0.811320782    0.556773245    0.704056621
