Sn+Ge                                   
   1.00000000000000     
    14.5102920530000006    0.0000000000000000    0.0000000000000000
     0.0000000000000000   19.4676017759999986    0.0000000000000000
     0.0000000000000000    0.0000000000000000   17.4044361109999990
   Sn   Ge
    36   144
Direct
  0.9829056259999973  0.6524212960000000  0.0000000069999970
  0.7829055790000012  0.4857546089999971  0.0833712889999987
  0.5829054120000023  0.3190878930000025  0.1667425480000020
  0.9829056259999973  0.3190880120000017  0.0000000069999970
  0.7829055790000012  0.1524213249999988  0.0833712889999987
  0.5829054120000023  0.9857546089999971  0.1667425480000020
  0.9829056259999973  0.9857547280000034  0.0000000069999970
  0.7829055790000012  0.8190880419999971  0.0833712889999987
  0.5829054120000023  0.6524212960000000  0.1667425480000020
  0.6329056020000010  0.9024214149999992  0.0416855699999985
  0.4329055250000025  0.7357547280000034  0.1250568479999998
  0.2329054329999991  0.5690880419999971  0.2084280850000013
  0.6329056020000010  0.5690879819999992  0.0416855699999985
  0.4329055250000025  0.4024212960000000  0.1250568479999998
  0.2329054329999991  0.2357546089999971  0.2084280850000013
  0.6329056020000010  0.2357547579999988  0.0416855699999985
  0.4329055250000025  0.0690880639999989  0.1250568479999998
  0.2329054329999991  0.9024213550000013  0.2084280850000013
  0.4829055960000019  0.8190879229999979  0.0000000000000000
  0.2829054589999984  0.6524212360000021  0.0833712740000010
  0.0829053519999974  0.4857545790000017  0.1667425779999974
  0.4829055960000019  0.4857546690000021  0.0000000000000000
  0.2829054589999984  0.3190879819999992  0.0833712740000010
  0.0829053519999974  0.1524212810000023  0.1667425779999974
  0.4829055960000019  0.1524213550000013  0.0000000000000000
  0.2829054589999984  0.9857546690000021  0.0833712740000010
  0.0829053519999974  0.8190879819999992  0.1667425779999974
  0.1329056470000012  0.7357546690000021  0.0416855630000015
  0.9329055549999978  0.5690879819999992  0.1250568179999973
  0.7329055069999981  0.4024212960000000  0.2084280850000013
  0.1329056470000012  0.4024213849999967  0.0416855630000015
  0.9329055549999978  0.2357547129999986  0.1250568179999973
  0.7329055069999981  0.0690880120000017  0.2084280850000013
  0.1329056470000012  0.0690880120000017  0.0416855630000015
  0.9329055549999978  0.9024213550000013  0.1250568179999973
  0.7329055069999981  0.7357546089999971  0.2084280850000013
  0.3196562529999980  0.1340206120000005  0.3168829079999966
  0.0696561339999988  0.1340205670000003  0.4318153560000013
  0.8196560740000010  0.1340204480000011  0.5467477440000010
  0.5696560140000031  0.1340204480000011  0.6616802220000011
  0.3196561339999988  0.1340203290000019  0.7766126389999997
  0.0696558949999968  0.1340202089999991  0.8915451769999976
  0.9863228800000030  0.3006872529999995  0.3168829079999966
  0.7363228199999980  0.3006871939999982  0.4318153560000013
  0.4863227310000013  0.3006871340000004  0.5467477440000010
  0.2363226410000010  0.3006870449999965  0.6616802220000011
  0.9863227009999989  0.3006869550000033  0.7766126389999997
  0.7363225819999997  0.3006869550000033  0.8915451769999976
  0.6529895070000009  0.4673539400000024  0.3168829079999966
  0.4029894769999984  0.4673538799999974  0.4318153560000013
  0.1529893880000017  0.4673537609999983  0.5467477440000010
  0.9029893880000017  0.4673537609999983  0.6616802220000011
  0.6529893279999968  0.4673536419999991  0.7766126389999997
  0.4029892679999989  0.4673536419999991  0.8915451769999976
  0.3196562529999980  0.6340205670000003  0.3168829079999966
  0.0696561339999988  0.6340205070000025  0.4318153560000013
  0.8196560140000031  0.6340204480000011  0.5467477440000010
  0.5696560740000010  0.6340203880000033  0.6616802220000011
  0.3196560140000031  0.6340203290000019  0.7766126389999997
  0.0696558949999968  0.6340202689999970  0.8915451769999976
  0.9863228800000030  0.8006873129999974  0.3168828789999978
  0.7363228199999980  0.8006871939999982  0.4318153259999988
  0.4863227009999989  0.8006871340000004  0.5467477440000010
  0.2363226410000010  0.8006870749999990  0.6616802220000011
  0.9863226410000010  0.8006870150000012  0.7766126389999997
  0.7363225819999997  0.8006869550000033  0.8915451769999976
  0.6529895660000022  0.9673539400000024  0.3168828789999978
  0.4029895070000009  0.9673538799999974  0.4318153259999988
  0.1529893880000017  0.9673538210000032  0.5467477440000010
  0.9029893880000017  0.9673537019999969  0.6616802220000011
  0.6529893279999968  0.9673537019999969  0.7766126389999997
  0.4029892679999989  0.9673535820000012  0.8915451769999976
  0.8196562529999980  0.1340205670000003  0.3168829079999966
  0.5696561339999988  0.1340205670000003  0.4318153560000013
  0.3196561339999988  0.1340204480000011  0.5467477440000010
  0.0696560140000031  0.1340204480000011  0.6616802220000011
  0.8196560140000031  0.1340203290000019  0.7766126389999997
  0.5696558949999968  0.1340202089999991  0.8915451769999976
  0.4863228800000030  0.3006872529999995  0.3168829079999966
  0.2363228800000030  0.3006871939999982  0.4318153560000013
  0.9863227609999967  0.3006871340000004  0.5467477440000010
  0.7363227009999989  0.3006870749999990  0.6616802220000011
  0.4863227009999989  0.3006869849999987  0.7766126389999997
  0.2363226410000010  0.3006868960000020  0.8915451769999976
  0.1529896260000001  0.4673539400000024  0.3168829079999966
  0.9029895660000022  0.4673538799999974  0.4318153560000013
  0.6529895070000009  0.4673538210000032  0.5467477440000010
  0.4029894769999984  0.4673537609999983  0.6616802810000024
  0.1529893880000017  0.4673536419999991  0.7766126389999997
  0.9029892679999989  0.4673535820000012  0.8915451169999997
  0.8196562529999980  0.6340206269999982  0.3168829079999966
  0.5696561339999988  0.6340205070000025  0.4318153560000013
  0.3196561339999988  0.6340204480000011  0.5467477440000010
  0.0696560140000031  0.6340203880000033  0.6616802810000024
  0.8196560740000010  0.6340202689999970  0.7766126389999997
  0.5696558949999968  0.6340202089999991  0.8915451169999997
  0.4863229099999984  0.8006872529999995  0.3168829079999966
  0.2363228800000030  0.8006871939999982  0.4318153560000013
  0.9863227609999967  0.8006871340000004  0.5467477440000010
  0.7363227009999989  0.8006870749999990  0.6616802810000024
  0.4863225819999997  0.8006869550000033  0.7766126389999997
  0.2363226410000010  0.8006868960000020  0.8915451169999997
  0.1529896260000001  0.9673539400000024  0.3168829079999966
  0.9029895070000009  0.9673539400000024  0.4318153560000013
  0.6529893880000017  0.9673537609999983  0.5467478039999989
  0.4029893880000017  0.9673537609999983  0.6616802810000024
  0.1529893880000017  0.9673536419999991  0.7766126389999997
  0.9029892679999989  0.9673535820000012  0.8915451769999976
  0.9863229990000022  0.1756872529999995  0.3168829079999966
  0.7363228800000030  0.1756871939999982  0.4318153560000013
  0.4863228199999980  0.1756871190000027  0.5467477440000010
  0.2363228800000030  0.1756870449999965  0.6616802220000011
  0.9863227609999967  0.1756870000000035  0.7766126389999997
  0.7363227009999989  0.1756869109999997  0.8915451769999976
  0.6529895070000009  0.3423539400000024  0.3168829079999966
  0.4029895070000009  0.3423538799999974  0.4318153560000013
  0.1529893880000017  0.3423537609999983  0.5467477440000010
  0.9029893880000017  0.3423537019999969  0.6616802220000011
  0.6529893880000017  0.3423536419999991  0.7766126389999997
  0.4029892679999989  0.3423535820000012  0.8915452359999989
  0.3196562529999980  0.5090205670000003  0.3168829079999966
  0.0696561339999988  0.5090205070000025  0.4318153560000013
  0.8196560740000010  0.5090203880000033  0.5467477440000010
  0.5696560740000010  0.5090203880000033  0.6616802220000011
  0.3196561339999988  0.5090202689999970  0.7766126389999997
  0.0696558949999968  0.5090202089999991  0.8915452359999989
  0.9863229389999972  0.6756873129999974  0.3168828789999978
  0.7363228800000030  0.6756871939999982  0.4318153560000013
  0.4863228199999980  0.6756871340000004  0.5467478039999989
  0.2363228800000030  0.6756870749999990  0.6616802220000011
  0.9863227609999967  0.6756869550000033  0.7766126389999997
  0.7363226410000010  0.6756868960000020  0.8915451169999997
  0.6529895660000022  0.8423538799999974  0.3168828789999978
  0.4029894769999984  0.8423538210000032  0.4318153560000013
  0.1529893880000017  0.8423537609999983  0.5467477440000010
  0.9029893880000017  0.8423536419999991  0.6616802220000011
  0.6529893880000017  0.8423535820000012  0.7766126389999997
  0.4029892679999989  0.8423535229999999  0.8915451169999997
  0.3196563719999972  0.0090205670000003  0.3168828789999978
  0.0696562529999980  0.0090205670000003  0.4318153560000013
  0.8196561930000001  0.0090204480000011  0.5467478039999989
  0.5696561339999988  0.0090203290000019  0.6616802220000011
  0.3196561339999988  0.0090202089999991  0.7766126389999997
  0.0696560140000031  0.0090202089999991  0.8915451169999997
  0.4863228800000030  0.1756872679999972  0.3168829079999966
  0.2363228800000030  0.1756871939999982  0.4318153560000013
  0.9863227609999967  0.1756871340000004  0.5467477440000010
  0.7363227009999989  0.1756870449999965  0.6616802220000011
  0.4863227009999989  0.1756869700000010  0.7766126389999997
  0.2363226410000010  0.1756869109999997  0.8915451169999997
  0.1529895070000009  0.3423539400000024  0.3168829079999966
  0.9029894470000031  0.3423538509999986  0.4318153560000013
  0.6529893880000017  0.3423537910000007  0.5467477440000010
  0.4029893279999968  0.3423537019999969  0.6616802220000011
  0.1529893880000017  0.3423536419999991  0.7766126389999997
  0.9029892679999989  0.3423535820000012  0.8915451769999976
  0.8196562529999980  0.5090206269999982  0.3168829079999966
  0.5696561339999988  0.5090205070000025  0.4318153560000013
  0.3196561339999988  0.5090204480000011  0.5467477440000010
  0.0696560140000031  0.5090203880000033  0.6616802220000011
  0.8196560740000010  0.5090203290000019  0.7766126389999997
  0.5696560140000031  0.5090202089999991  0.8915451769999976
  0.4863229099999984  0.6756873129999974  0.3168829079999966
  0.2363228800000030  0.6756872529999995  0.4318153560000013
  0.9863227009999989  0.6756871340000004  0.5467477440000010
  0.7363227009999989  0.6756870749999990  0.6616802220000011
  0.4863227009999989  0.6756870150000012  0.7766126389999997
  0.2363225220000018  0.6756870150000012  0.8915451769999976
  0.1529896260000001  0.8423540000000003  0.3168828789999978
  0.9029895070000009  0.8423539400000024  0.4318153259999988
  0.6529894470000031  0.8423538210000032  0.5467478039999989
  0.4029894170000006  0.8423537609999983  0.6616802810000024
  0.1529893880000017  0.8423537019999969  0.7766126389999997
  0.9029893279999968  0.8423535820000012  0.8915451769999976
  0.8196562529999980  0.0090205670000003  0.3168828789999978
  0.5696561339999988  0.0090205670000003  0.4318153259999988
  0.3196561339999988  0.0090204480000011  0.5467478039999989
  0.0696561339999988  0.0090204480000011  0.6616802810000024
  0.8196560740000010  0.0090203290000019  0.7766126389999997
  0.5696558360000026  0.0090202089999991  0.8915451769999976
 
  0.00000000E+00  0.00000000E+00  0.00000000E+00
  0.00000000E+00  0.00000000E+00  0.00000000E+00
  0.00000000E+00  0.00000000E+00  0.00000000E+00
  0.00000000E+00  0.00000000E+00  0.00000000E+00
  0.00000000E+00  0.00000000E+00  0.00000000E+00
  0.00000000E+00  0.00000000E+00  0.00000000E+00
  0.00000000E+00  0.00000000E+00  0.00000000E+00
  0.00000000E+00  0.00000000E+00  0.00000000E+00
  0.00000000E+00  0.00000000E+00  0.00000000E+00
  0.00000000E+00  0.00000000E+00  0.00000000E+00
  0.00000000E+00  0.00000000E+00  0.00000000E+00
  0.00000000E+00  0.00000000E+00  0.00000000E+00
  0.00000000E+00  0.00000000E+00  0.00000000E+00
  0.00000000E+00  0.00000000E+00  0.00000000E+00
  0.00000000E+00  0.00000000E+00  0.00000000E+00
  0.00000000E+00  0.00000000E+00  0.00000000E+00
  0.00000000E+00  0.00000000E+00  0.00000000E+00
  0.00000000E+00  0.00000000E+00  0.00000000E+00
  0.00000000E+00  0.00000000E+00  0.00000000E+00
  0.00000000E+00  0.00000000E+00  0.00000000E+00
  0.00000000E+00  0.00000000E+00  0.00000000E+00
  0.00000000E+00  0.00000000E+00  0.00000000E+00
  0.00000000E+00  0.00000000E+00  0.00000000E+00
  0.00000000E+00  0.00000000E+00  0.00000000E+00
  0.00000000E+00  0.00000000E+00  0.00000000E+00
  0.00000000E+00  0.00000000E+00  0.00000000E+00
  0.00000000E+00  0.00000000E+00  0.00000000E+00
  0.00000000E+00  0.00000000E+00  0.00000000E+00
  0.00000000E+00  0.00000000E+00  0.00000000E+00
  0.00000000E+00  0.00000000E+00  0.00000000E+00
  0.00000000E+00  0.00000000E+00  0.00000000E+00
  0.00000000E+00  0.00000000E+00  0.00000000E+00
  0.00000000E+00  0.00000000E+00  0.00000000E+00
  0.00000000E+00  0.00000000E+00  0.00000000E+00
  0.00000000E+00  0.00000000E+00  0.00000000E+00
  0.00000000E+00  0.00000000E+00  0.00000000E+00
  0.00000000E+00  0.00000000E+00  0.00000000E+00
  0.00000000E+00  0.00000000E+00  0.00000000E+00
  0.00000000E+00  0.00000000E+00  0.00000000E+00
  0.00000000E+00  0.00000000E+00  0.00000000E+00
  0.00000000E+00  0.00000000E+00  0.00000000E+00
  0.00000000E+00  0.00000000E+00  0.00000000E+00
  0.00000000E+00  0.00000000E+00  0.00000000E+00
  0.00000000E+00  0.00000000E+00  0.00000000E+00
  0.00000000E+00  0.00000000E+00  0.00000000E+00
  0.00000000E+00  0.00000000E+00  0.00000000E+00
  0.00000000E+00  0.00000000E+00  0.00000000E+00
  0.00000000E+00  0.00000000E+00  0.00000000E+00
  0.00000000E+00  0.00000000E+00  0.00000000E+00
  0.00000000E+00  0.00000000E+00  0.00000000E+00
  0.00000000E+00  0.00000000E+00  0.00000000E+00
  0.00000000E+00  0.00000000E+00  0.00000000E+00
  0.00000000E+00  0.00000000E+00  0.00000000E+00
  0.00000000E+00  0.00000000E+00  0.00000000E+00
  0.00000000E+00  0.00000000E+00  0.00000000E+00
  0.00000000E+00  0.00000000E+00  0.00000000E+00
  0.00000000E+00  0.00000000E+00  0.00000000E+00
  0.00000000E+00  0.00000000E+00  0.00000000E+00
  0.00000000E+00  0.00000000E+00  0.00000000E+00
  0.00000000E+00  0.00000000E+00  0.00000000E+00
  0.00000000E+00  0.00000000E+00  0.00000000E+00
  0.00000000E+00  0.00000000E+00  0.00000000E+00
  0.00000000E+00  0.00000000E+00  0.00000000E+00
  0.00000000E+00  0.00000000E+00  0.00000000E+00
  0.00000000E+00  0.00000000E+00  0.00000000E+00
  0.00000000E+00  0.00000000E+00  0.00000000E+00
  0.00000000E+00  0.00000000E+00  0.00000000E+00
  0.00000000E+00  0.00000000E+00  0.00000000E+00
  0.00000000E+00  0.00000000E+00  0.00000000E+00
  0.00000000E+00  0.00000000E+00  0.00000000E+00
  0.00000000E+00  0.00000000E+00  0.00000000E+00
  0.00000000E+00  0.00000000E+00  0.00000000E+00
  0.00000000E+00  0.00000000E+00  0.00000000E+00
  0.00000000E+00  0.00000000E+00  0.00000000E+00
  0.00000000E+00  0.00000000E+00  0.00000000E+00
  0.00000000E+00  0.00000000E+00  0.00000000E+00
  0.00000000E+00  0.00000000E+00  0.00000000E+00
  0.00000000E+00  0.00000000E+00  0.00000000E+00
  0.00000000E+00  0.00000000E+00  0.00000000E+00
  0.00000000E+00  0.00000000E+00  0.00000000E+00
  0.00000000E+00  0.00000000E+00  0.00000000E+00
  0.00000000E+00  0.00000000E+00  0.00000000E+00
  0.00000000E+00  0.00000000E+00  0.00000000E+00
  0.00000000E+00  0.00000000E+00  0.00000000E+00
  0.00000000E+00  0.00000000E+00  0.00000000E+00
  0.00000000E+00  0.00000000E+00  0.00000000E+00
  0.00000000E+00  0.00000000E+00  0.00000000E+00
  0.00000000E+00  0.00000000E+00  0.00000000E+00
  0.00000000E+00  0.00000000E+00  0.00000000E+00
  0.00000000E+00  0.00000000E+00  0.00000000E+00
  0.00000000E+00  0.00000000E+00  0.00000000E+00
  0.00000000E+00  0.00000000E+00  0.00000000E+00
  0.00000000E+00  0.00000000E+00  0.00000000E+00
  0.00000000E+00  0.00000000E+00  0.00000000E+00
  0.00000000E+00  0.00000000E+00  0.00000000E+00
  0.00000000E+00  0.00000000E+00  0.00000000E+00
  0.00000000E+00  0.00000000E+00  0.00000000E+00
  0.00000000E+00  0.00000000E+00  0.00000000E+00
  0.00000000E+00  0.00000000E+00  0.00000000E+00
  0.00000000E+00  0.00000000E+00  0.00000000E+00
  0.00000000E+00  0.00000000E+00  0.00000000E+00
  0.00000000E+00  0.00000000E+00  0.00000000E+00
  0.00000000E+00  0.00000000E+00  0.00000000E+00
  0.00000000E+00  0.00000000E+00  0.00000000E+00
  0.00000000E+00  0.00000000E+00  0.00000000E+00
  0.00000000E+00  0.00000000E+00  0.00000000E+00
  0.00000000E+00  0.00000000E+00  0.00000000E+00
  0.00000000E+00  0.00000000E+00  0.00000000E+00
  0.00000000E+00  0.00000000E+00  0.00000000E+00
  0.00000000E+00  0.00000000E+00  0.00000000E+00
  0.00000000E+00  0.00000000E+00  0.00000000E+00
  0.00000000E+00  0.00000000E+00  0.00000000E+00
  0.00000000E+00  0.00000000E+00  0.00000000E+00
  0.00000000E+00  0.00000000E+00  0.00000000E+00
  0.00000000E+00  0.00000000E+00  0.00000000E+00
  0.00000000E+00  0.00000000E+00  0.00000000E+00
  0.00000000E+00  0.00000000E+00  0.00000000E+00
  0.00000000E+00  0.00000000E+00  0.00000000E+00
  0.00000000E+00  0.00000000E+00  0.00000000E+00
  0.00000000E+00  0.00000000E+00  0.00000000E+00
  0.00000000E+00  0.00000000E+00  0.00000000E+00
  0.00000000E+00  0.00000000E+00  0.00000000E+00
  0.00000000E+00  0.00000000E+00  0.00000000E+00
  0.00000000E+00  0.00000000E+00  0.00000000E+00
  0.00000000E+00  0.00000000E+00  0.00000000E+00
  0.00000000E+00  0.00000000E+00  0.00000000E+00
  0.00000000E+00  0.00000000E+00  0.00000000E+00
  0.00000000E+00  0.00000000E+00  0.00000000E+00
  0.00000000E+00  0.00000000E+00  0.00000000E+00
  0.00000000E+00  0.00000000E+00  0.00000000E+00
  0.00000000E+00  0.00000000E+00  0.00000000E+00
  0.00000000E+00  0.00000000E+00  0.00000000E+00
  0.00000000E+00  0.00000000E+00  0.00000000E+00
  0.00000000E+00  0.00000000E+00  0.00000000E+00
  0.00000000E+00  0.00000000E+00  0.00000000E+00
  0.00000000E+00  0.00000000E+00  0.00000000E+00
  0.00000000E+00  0.00000000E+00  0.00000000E+00
  0.00000000E+00  0.00000000E+00  0.00000000E+00
  0.00000000E+00  0.00000000E+00  0.00000000E+00
  0.00000000E+00  0.00000000E+00  0.00000000E+00
  0.00000000E+00  0.00000000E+00  0.00000000E+00
  0.00000000E+00  0.00000000E+00  0.00000000E+00
  0.00000000E+00  0.00000000E+00  0.00000000E+00
  0.00000000E+00  0.00000000E+00  0.00000000E+00
  0.00000000E+00  0.00000000E+00  0.00000000E+00
  0.00000000E+00  0.00000000E+00  0.00000000E+00
  0.00000000E+00  0.00000000E+00  0.00000000E+00
  0.00000000E+00  0.00000000E+00  0.00000000E+00
  0.00000000E+00  0.00000000E+00  0.00000000E+00
  0.00000000E+00  0.00000000E+00  0.00000000E+00
  0.00000000E+00  0.00000000E+00  0.00000000E+00
  0.00000000E+00  0.00000000E+00  0.00000000E+00
  0.00000000E+00  0.00000000E+00  0.00000000E+00
  0.00000000E+00  0.00000000E+00  0.00000000E+00
  0.00000000E+00  0.00000000E+00  0.00000000E+00
  0.00000000E+00  0.00000000E+00  0.00000000E+00
  0.00000000E+00  0.00000000E+00  0.00000000E+00
  0.00000000E+00  0.00000000E+00  0.00000000E+00
  0.00000000E+00  0.00000000E+00  0.00000000E+00
  0.00000000E+00  0.00000000E+00  0.00000000E+00
  0.00000000E+00  0.00000000E+00  0.00000000E+00
  0.00000000E+00  0.00000000E+00  0.00000000E+00
  0.00000000E+00  0.00000000E+00  0.00000000E+00
  0.00000000E+00  0.00000000E+00  0.00000000E+00
  0.00000000E+00  0.00000000E+00  0.00000000E+00
  0.00000000E+00  0.00000000E+00  0.00000000E+00
  0.00000000E+00  0.00000000E+00  0.00000000E+00
  0.00000000E+00  0.00000000E+00  0.00000000E+00
  0.00000000E+00  0.00000000E+00  0.00000000E+00
  0.00000000E+00  0.00000000E+00  0.00000000E+00
  0.00000000E+00  0.00000000E+00  0.00000000E+00
  0.00000000E+00  0.00000000E+00  0.00000000E+00
  0.00000000E+00  0.00000000E+00  0.00000000E+00
  0.00000000E+00  0.00000000E+00  0.00000000E+00
  0.00000000E+00  0.00000000E+00  0.00000000E+00
  0.00000000E+00  0.00000000E+00  0.00000000E+00
  0.00000000E+00  0.00000000E+00  0.00000000E+00
  0.00000000E+00  0.00000000E+00  0.00000000E+00
  0.00000000E+00  0.00000000E+00  0.00000000E+00
  0.00000000E+00  0.00000000E+00  0.00000000E+00
