Si+C
    1.000000000
   13.303179741    0.000000000    0.000000000
    6.651589394   11.520891190    0.000000000
    0.000000000    0.000000000   21.679418564
Si  C  
72     308
Direct
    0.000000000    0.318506181    0.289268762
    0.000000000    0.985172927    0.000000014
    0.000000000    0.651839554    0.144634396
    0.333333343    0.651839614    0.289268732
    0.333333343    0.318506300    0.000000009
    0.333333343    0.985172868    0.144634381
    0.666666687    0.985172927    0.289268732
    0.666666687    0.651839614    0.000000006
    0.666666687    0.318506241    0.144634381
    0.333333343    0.318506062    0.325427443
    0.333333343    0.985172868    0.036158618
    0.333333343    0.651839495    0.180793002
    1.000000000    0.985172808    0.325427443
    1.000000000    0.651839614    0.036158614
    1.000000000    0.318506271    0.180793002
    0.666666746    0.651839375    0.325427443
    0.666666746    0.318506211    0.036158625
    0.666666746    0.985172868    0.180793002
    0.500000000    0.318506241    0.289268732
    0.500000000    0.985172927    0.000000010
    0.500000000    0.651839554    0.144634381
    0.166666672    0.985172927    0.289268732
    0.166666672    0.651839674    0.000000001
    0.166666672    0.318506241    0.144634381
    0.833333373    0.651839614    0.289268732
    0.833333373    0.318506300    0.000000001
    0.833333373    0.985172927    0.144634381
    0.166666657    0.651839554    0.325427353
    0.166666657    0.318506300    0.036158573
    0.166666657    0.985172868    0.180792958
    0.833333433    0.318506181    0.325427383
    0.833333433    0.985172927    0.036158588
    0.833333433    0.651839495    0.180792972
    0.500000060    0.985172868    0.325427383
    0.500000060    0.651839614    0.036158592
    0.500000060    0.318506211    0.180793002
    0.166666672    0.485172927    0.289268732
    0.166666672    0.151839614    0.000000010
    0.166666672    0.818506241    0.144634381
    0.500000000    0.818506241    0.289268762
    0.500000000    0.485172987    0.000000016
    0.500000000    0.151839584    0.144634396
    0.833333373    0.151839629    0.289268732
    0.833333373    0.818506360    0.000000000
    0.833333373    0.485173017    0.144634351
    0.500000000    0.485172868    0.325427383
    0.500000000    0.151839614    0.036158588
    0.500000000    0.818506241    0.180792972
    0.166666672    0.151839569    0.325427353
    0.166666672    0.818506360    0.036158565
    0.166666672    0.485172927    0.180792958
    0.833333373    0.818506181    0.325427353
    0.833333373    0.485172927    0.036158565
    0.833333373    0.151839525    0.180792958
    0.000000000    0.818506241    0.289268732
    0.000000000    0.485172957    0.000000009
    0.000000000    0.151839554    0.144634381
    0.666666687    0.485172868    0.289268732
    0.666666687    0.151839599    0.000000009
    0.666666687    0.818506181    0.144634381
    0.333333313    0.151839495    0.289268732
    0.333333313    0.818506241    0.000000002
    0.333333313    0.485172868    0.144634351
    0.000000000    0.485172808    0.325427443
    0.000000000    0.151839659    0.036158610
    0.000000000    0.818506300    0.180793002
    0.333333343    0.818506122    0.325427443
    0.333333343    0.485172957    0.036158614
    0.333333343    0.151839599    0.180793002
    0.666666687    0.151839525    0.325427413
    0.666666687    0.818506300    0.036158610
    0.666666687    0.485172957    0.180792972
    0.545151353    0.348181993    0.900184691
    0.211818457    0.014848828    0.425242662
    0.878485084    0.681515455    0.520231068
    0.545151651    0.348182052    0.615219474
    0.211818099    0.014848471    0.710207939
    0.878484726    0.681515098    0.805196404
    0.830865622    0.491039068    0.900184751
    0.497532845    0.157705948    0.425242662
    0.164199352    0.824372530    0.520231068
    0.830865979    0.491039187    0.615219533
    0.497532368    0.157705635    0.710207939
    0.164198995    0.824372292    0.805196345
    0.688008547    0.919610381    0.900184751
    0.354675651    0.586277366    0.425242662
    0.021342278    0.252943963    0.520231068
    0.688008845    0.919610620    0.615219474
    0.354675174    0.586277008    0.710207939
    0.021341920    0.252943724    0.805196404
    0.116580009    0.633896112    0.900184751
    0.783247113    0.300563097    0.425242662
    0.449913681    0.967229724    0.520231068
    0.116580248    0.633896351    0.615219533
    0.783246636    0.300562769    0.710207939
    0.449913323    0.967229366    0.805196464
    0.973722696    0.062467545    0.900184751
    0.640389979    0.729134560    0.425242633
    0.307056516    0.395801157    0.520231009
    0.973723054    0.062467724    0.615219474
    0.640389681    0.729134321    0.710207880
    0.307056129    0.395800799    0.805196404
    0.402294159    0.776753187    0.900184751
    0.068961263    0.443420231    0.425242633
    0.735627949    0.110086843    0.520231009
    0.402294487    0.776753426    0.615219474
    0.068961143    0.443420082    0.710207880
    0.735627532    0.110086530    0.805196404
    0.259437025    0.205324680    0.900184751
    0.926104188    0.871991634    0.425242662
    0.592770755    0.538658261    0.520231068
    0.259437352    0.205324844    0.615219474
    0.926103771    0.871991277    0.710207939
    0.592770398    0.538658023    0.805196345
    0.307056546    0.395801127    0.448989749
    0.973723173    0.062467732    0.543978214
    0.640389740    0.729134321    0.638966620
    0.307056189    0.395800918    0.733955026
    0.973722696    0.062467426    0.828943491
    0.735628009    0.110086858    0.448989749
    0.402294576    0.776753426    0.543978214
    0.068961143    0.443420142    0.638966560
    0.735627651    0.110086650    0.733955026
    0.402294099    0.776753068    0.828943491
    0.592770815    0.538658261    0.448989749
    0.259437412    0.205324873    0.543978214
    0.926103950    0.871991515    0.638966560
    0.592770457    0.538658023    0.733955026
    0.259436965    0.205324620    0.828943431
    0.021342158    0.252943993    0.448989749
    0.688008845    0.919610620    0.543978214
    0.354675353    0.586277246    0.638966620
    0.021341801    0.252943724    0.733955026
    0.688008368    0.919610262    0.828943431
    0.449913681    0.967229724    0.448989749
    0.116580248    0.633896351    0.543978214
    0.783246875    0.300562948    0.638966620
    0.449913323    0.967229366    0.733955026
    0.116579890    0.633895993    0.828943431
    0.878485203    0.681515455    0.448989749
    0.545151770    0.348182023    0.543978214
    0.211818337    0.014848590    0.638966620
    0.878484845    0.681515098    0.733955026
    0.545151293    0.348181695    0.828943491
    0.164199471    0.824372530    0.448989719
    0.830865979    0.491039157    0.543978155
    0.497532606    0.157705784    0.638966560
    0.164199114    0.824372411    0.733955026
    0.830865622    0.491038889    0.828943431
    0.759437084    0.705324650    0.900184691
    0.426104218    0.371991664    0.425242662
    0.092770815    0.038658254    0.520231068
    0.759437382    0.705324888    0.615219474
    0.426103771    0.371991307    0.710207939
    0.092770457    0.038658053    0.805196345
    0.188008547    0.419610411    0.900184691
    0.854675710    0.086277381    0.425242633
    0.521342218    0.752943993    0.520231009
    0.188008785    0.419610649    0.615219474
    0.854675174    0.086277038    0.710207939
    0.521341860    0.752943754    0.805196345
    0.616579890    0.133896083    0.900184751
    0.283247113    0.800563097    0.425242633
    0.949913740    0.467229694    0.520231068
    0.616580248    0.133896261    0.615219474
    0.283246875    0.800562978    0.710207939
    0.949913383    0.467229396    0.805196404
    0.045151353    0.848181844    0.900184751
    0.711818516    0.514848828    0.425242633
    0.378485084    0.181515411    0.520231068
    0.045151591    0.848181963    0.615219474
    0.711818278    0.514848590    0.710207939
    0.378484726    0.181515127    0.805196345
    0.473722756    0.562467456    0.900184751
    0.140389919    0.229134545    0.425242603
    0.807056546    0.895801187    0.520231009
    0.473723054    0.562467694    0.615219474
    0.140389681    0.229134411    0.710207880
    0.807056069    0.895800829    0.805196404
    0.902294159    0.276753336    0.900184751
    0.568961382    0.943420291    0.425242662
    0.235627905    0.610086799    0.520231068
    0.902294517    0.276753485    0.615219474
    0.568960905    0.943419933    0.710207939
    0.235627577    0.610086560    0.805196345
    0.330865681    0.991039038    0.900184751
    0.997532845    0.657705903    0.425242692
    0.664199352    0.324372530    0.520231068
    0.330865979    0.991039157    0.615219533
    0.997532368    0.657705545    0.710207939
    0.664198995    0.324372321    0.805196404
    0.378485143    0.181515440    0.448989719
    0.045151711    0.848181963    0.543978214
    0.711818278    0.514848709    0.638966560
    0.378484786    0.181515247    0.733955026
    0.045151353    0.848181725    0.828943491
    0.235628009    0.610086799    0.448989719
    0.902294517    0.276753426    0.543978214
    0.568961203    0.943420053    0.638966560
    0.235627636    0.610086679    0.733955026
    0.902294278    0.276753157    0.828943372
    0.664199412    0.324372560    0.448989719
    0.330865949    0.991039157    0.543978155
    0.997532547    0.657705784    0.638966560
    0.664199054    0.324372381    0.733955026
    0.330865502    0.991038918    0.828943372
    0.092770696    0.038658246    0.448989719
    0.759437382    0.705324888    0.543978155
    0.426103950    0.371991485    0.638966560
    0.092770457    0.038658053    0.733955026
    0.759437025    0.705324531    0.828943372
    0.521342278    0.752943993    0.448989719
    0.188008785    0.419610560    0.543978155
    0.854675412    0.086277165    0.638966560
    0.521341980    0.752943754    0.733955026
    0.188008428    0.419610292    0.828943431
    0.949913800    0.467229724    0.448989719
    0.616580307    0.133896261    0.543978214
    0.283246875    0.800562859    0.638966620
    0.949913442    0.467229456    0.733955026
    0.616579950    0.133895963    0.828943491
    0.807056546    0.895801067    0.448989719
    0.473723084    0.562467694    0.543978214
    0.140389681    0.229134247    0.638966560
    0.807056189    0.895800829    0.733955026
    0.473722756    0.562467456    0.828943431
    0.688008547    0.419610411    0.900184810
    0.354675651    0.086277381    0.425242662
    0.021342158    0.752943993    0.520231068
    0.688008845    0.419610649    0.615219474
    0.354675233    0.086277097    0.710207939
    0.021341801    0.752943635    0.805196404
    0.545151472    0.848181844    0.900184751
    0.211818576    0.514848828    0.425242662
    0.878485084    0.181515396    0.520231068
    0.545151711    0.848181963    0.615219533
    0.211818099    0.514848471    0.710207939
    0.878484726    0.181515187    0.805196404
    0.973722816    0.562467575    0.900184751
    0.640389979    0.229134530    0.425242633
    0.307056546    0.895801187    0.520231068
    0.973723114    0.562467694    0.615219474
    0.640389502    0.229134172    0.710207939
    0.307056189    0.895800829    0.805196404
    0.830865622    0.991038918    0.900184810
    0.497532785    0.657706022    0.425242633
    0.164199352    0.324372619    0.520231009
    0.830865920    0.991039157    0.615219474
    0.497532547    0.657705903    0.710207880
    0.164198995    0.324372262    0.805196404
    0.259437084    0.705324650    0.900184751
    0.926104248    0.371991694    0.425242633
    0.592770815    0.038658302    0.520231009
    0.259437382    0.705324888    0.615219474
    0.926104009    0.371991545    0.710207880
    0.592770457    0.038657993    0.805196404
    0.116579890    0.133896142    0.900184691
    0.783247113    0.800563097    0.425242662
    0.449913651    0.467229694    0.520231068
    0.116580248    0.133896321    0.615219474
    0.783246636    0.800562739    0.710207939
    0.449913323    0.467229456    0.805196345
    0.402294219    0.276753217    0.900184751
    0.068961382    0.943420172    0.425242662
    0.735627949    0.610086799    0.520231068
    0.402294517    0.276753455    0.615219474
    0.068960905    0.943419933    0.710207939
    0.735627592    0.610086560    0.805196345
    0.592770815    0.038658276    0.448989749
    0.259437352    0.705324888    0.543978214
    0.926103950    0.371991485    0.638966620
    0.592770457    0.038658112    0.733955026
    0.259436965    0.705324531    0.828943491
    0.449913740    0.467229664    0.448989749
    0.116580248    0.133896261    0.543978214
    0.783246875    0.800562859    0.638966560
    0.449913383    0.467229456    0.733955026
    0.116579890    0.133896083    0.828943372
    0.878485143    0.181515411    0.448989749
    0.545151711    0.848181963    0.543978214
    0.211818218    0.514848709    0.638966560
    0.878484786    0.181515187    0.733955026
    0.545151353    0.848181725    0.828943431
    0.307056606    0.895801187    0.448989749
    0.973723114    0.562467694    0.543978214
    0.640389740    0.229134351    0.638966620
    0.307056248    0.895800948    0.733955026
    0.973722696    0.562467456    0.828943491
    0.735628009    0.610086799    0.448989719
    0.402294517    0.276753426    0.543978155
    0.068961024    0.943420053    0.638966560
    0.735627651    0.610086560    0.733954966
    0.402294159    0.276753157    0.828943431
    0.164199471    0.324372560    0.448989719
    0.830866098    0.991039157    0.543978214
    0.497532666    0.657705784    0.638966560
    0.164199114    0.324372321    0.733955026
    0.830865622    0.991038918    0.828943372
    0.021342278    0.752943993    0.448989749
    0.688008845    0.419610560    0.543978214
    0.354675442    0.086277187    0.638966620
    0.021341920    0.752943754    0.733955026
    0.688008487    0.419610351    0.828943431
    0.616580129    0.633896112    0.900184751
    0.283247083    0.300563097    0.425242633
    0.949913621    0.967229724    0.520231068
    0.616580248    0.633896351    0.615219474
    0.283246636    0.300562769    0.710207939
    0.949913263    0.967229486    0.805196345
    0.045151353    0.348181874    0.900184691
    0.711818516    0.014848828    0.425242633
    0.378485054    0.681515455    0.520231068
    0.045151591    0.348182052    0.615219474
    0.711818039    0.014848471    0.710207939
    0.378484666    0.681515217    0.805196345
    0.902294159    0.776753306    0.900184751
    0.568961382    0.443420231    0.425242662
    0.235627934    0.110086881    0.520231009
    0.902294517    0.776753426    0.615219474
    0.568961084    0.443420142    0.710207880
    0.235627517    0.110086590    0.805196404
    0.330865562    0.491038948    0.900184810
    0.997532725    0.157705918    0.425242633
    0.664199352    0.824372530    0.520231009
    0.330865860    0.491039127    0.615219474
    0.997532487    0.157705814    0.710207880
    0.664198935    0.824372292    0.805196345
    0.759436965    0.205324680    0.900184751
    0.426104248    0.871991634    0.425242662
    0.092770815    0.538658261    0.520231068
    0.759437442    0.205324844    0.615219474
    0.426103771    0.871991277    0.710207939
    0.092770338    0.538657904    0.805196404
    0.188008547    0.919610381    0.900184691
    0.854675710    0.586277366    0.425242633
    0.521342218    0.252943993    0.520231009
    0.188008785    0.919610620    0.615219474
    0.854675233    0.586277008    0.710207939
    0.521341860    0.252943724    0.805196345
    0.473722756    0.062467545    0.900184751
    0.140389919    0.729134440    0.425242662
    0.807056546    0.395801067    0.520231068
    0.473723054    0.062467694    0.615219474
    0.140389442    0.729134083    0.710207939
    0.807056189    0.395800859    0.805196404
    0.235628024    0.110086933    0.448989749
    0.902294636    0.776753545    0.543978214
    0.568961143    0.443420142    0.638966620
    0.235627636    0.110086709    0.733955026
    0.902294159    0.776753187    0.828943491
    0.521342337    0.252944052    0.448989749
    0.188008904    0.919610620    0.543978214
    0.854675412    0.586277246    0.638966620
    0.521341920    0.252943784    0.733955026
    0.188008428    0.919610381    0.828943491
    0.378485203    0.681515455    0.448989749
    0.045151711    0.348182082    0.543978214
    0.711818337    0.014848709    0.638966560
    0.378484786    0.681515217    0.733955026
    0.045151353    0.348181754    0.828943491
    0.807056606    0.395801187    0.448989749
    0.473723143    0.062467802    0.543978214
    0.140389681    0.729134440    0.638966620
    0.807056189    0.395800918    0.733955026
    0.473722696    0.062467486    0.828943491
    0.664199412    0.824372530    0.448989749
    0.330865949    0.491039187    0.543978155
    0.997532547    0.157705799    0.638966560
    0.664198995    0.824372292    0.733955026
    0.330865502    0.491038829    0.828943431
    0.092770815    0.538658261    0.448989719
    0.759437382    0.205324858    0.543978214
    0.426103950    0.871991515    0.638966620
    0.092770338    0.538658023    0.733955026
    0.759436905    0.205324560    0.828943431
    0.949913740    0.967229843    0.448989779
    0.616580307    0.633896470    0.543978214
    0.283246875    0.300563067    0.638966620
    0.949913383    0.967229486    0.733955026
    0.616579890    0.633896112    0.828943491
