Sn
 1.0000000000000000
     6.4892000000000003    0.0000000000000000    0.0000000000000000
     0.0000000000000000    9.1771146489514894    0.0000000000000000
     0.0000000000000000    0.0000000000000000   60.6485079601408472
 Sn 
  40
Direct
  0.0000000000000000  0.0000000000000000  0.3297690359199655
  0.2499999999999999  0.0000000000000000  0.3675981390488621
  0.0000000000000000  0.4999999999999999  0.3297690359199655
  0.2499999999999999  0.4999999999999998  0.3675981390488621
  0.4999999999999996  0.7500000000000001  0.3675981390488621
  0.7499999999999992  0.2500000000000001  0.3297690359199655
  0.4999999999999996  0.2499999999999999  0.3675981390488621
  0.7499999999999992  0.7499999999999997  0.3297690359199655
  0.0000000000000000  0.5000000000000001  0.4054272421777586
  0.2499999999999999  0.5000000000000001  0.4432563453066552
  0.0000000000000000  0.0000000000000000  0.4054272421777586
  0.2499999999999999  0.9999999999999998  0.4432563453066552
  0.4999999999999996  0.2500000000000002  0.4432563453066552
  0.7499999999999992  0.7500000000000001  0.4054272421777586
  0.4999999999999996  0.7500000000000000  0.4432563453066552
  0.7499999999999992  0.2499999999999997  0.4054272421777586
  0.0000000000000000  0.0000000000000002  0.4810854484355517
  0.2499999999999999  0.0000000000000002  0.5189145515644483
  0.0000000000000000  0.5000000000000002  0.4810854484355517
  0.2499999999999999  0.5000000000000000  0.5189145515644483
  0.4999999999999996  0.7500000000000002  0.5189145515644483
  0.7499999999999992  0.2500000000000001  0.4810854484355517
  0.4999999999999996  0.2500000000000001  0.5189145515644483
  0.7499999999999992  0.7499999999999998  0.4810854484355517
  0.0000000000000000  0.5000000000000002  0.5567436546933449
  0.2499999999999999  0.5000000000000002  0.5945727578222414
  0.0000000000000000  0.0000000000000002  0.5567436546933449
  0.2499999999999999  0.0000000000000000  0.5945727578222414
  0.4999999999999996  0.2500000000000004  0.5945727578222414
  0.7499999999999992  0.7500000000000000  0.5567436546933449
  0.4999999999999996  0.7500000000000000  0.5945727578222414
  0.7499999999999992  0.2499999999999999  0.5567436546933449
  0.0000000000000000  0.0000000000000004  0.6324018609511380
  0.2499999999999999  0.0000000000000004  0.6702309640800346
  0.0000000000000000  0.5000000000000002  0.6324018609511380
  0.2499999999999999  0.5000000000000002  0.6702309640800346
  0.4999999999999996  0.7500000000000004  0.6702309640800346
  0.7499999999999992  0.2500000000000004  0.6324018609511380
  0.4999999999999996  0.2500000000000004  0.6702309640800346
  0.7499999999999992  0.7500000000000000  0.6324018609511380
