Ge+Ge                                   
   1.00000000000000     
     8.0013380049999991    0.0000000000000000    0.0000000000000000
     0.0000000000000000    9.7995977399999994    0.0000000000000000
     0.0000000000000000    0.0000000000000000   11.5489463810000004
   Ge
    48
Direct
  0.0444577969999997  0.9407229420000007  0.0000000000000000
  0.2944578230000019  0.6073895099999973  0.0999999869999968
  0.5444577929999994  0.2740561370000023  0.1999999430000017
  0.7944577339999981  0.9407228230000015  0.2999999230000014
  0.0444577929999994  0.6073893310000003  0.3999999460000012
  0.2944579119999986  0.2740558389999990  0.4999999699999975
  0.5444577929999994  0.1907229270000030  0.0000000000000000
  0.7944578529999973  0.8573895099999973  0.0999999869999968
  0.0444577929999994  0.5240561370000023  0.1999999140000028
  0.2944577929999994  0.1907227640000002  0.2999998929999990
  0.5444577929999994  0.8573893310000003  0.3999999460000012
  0.7944577929999994  0.5240558389999990  0.4999999699999975
  0.5444577929999994  0.9407229420000007  0.0000000000000000
  0.7944577929999994  0.6073895689999986  0.0999999940000009
  0.0444577929999994  0.2740561370000023  0.1999999430000017
  0.2944577929999994  0.9407228230000015  0.2999998929999990
  0.5444577929999994  0.6073893310000003  0.3999999460000012
  0.7944577929999994  0.2740558389999990  0.5000000000000000
  0.0444578010000001  0.1907229569999984  0.0000000049999969
  0.2944577929999994  0.8573895689999986  0.0999999869999968
  0.5444577929999994  0.5240561959999965  0.1999999430000017
  0.7944577929999994  0.1907228230000015  0.2999999230000014
  0.0444577929999994  0.8573894499999994  0.3999998270000020
  0.2944579119999986  0.5240558389999990  0.4999998810000008
  0.0444577969999997  0.0592770760000008  0.5000000000000000
  0.2944578230000019  0.3926104900000027  0.6000000240000034
  0.5444577929999994  0.7259438629999977  0.6999999880000018
  0.7944577339999981  0.0592771769999985  0.7999998929999990
  0.0444577929999994  0.3926106689999997  0.8999999170000024
  0.2944579119999986  0.7259441610000010  0.9999999400000021
  0.5444577929999994  0.8092770579999993  0.5000000000000000
  0.7944577929999994  0.1426104310000014  0.6000000240000034
  0.0444577929999994  0.4759439230000027  0.6999999279999969
  0.2944577929999994  0.8092771769999985  0.7999998929999990
  0.5444577929999994  0.1426105500000006  0.8999997969999995
  0.7944579119999986  0.4759442809999967  0.9999998210000030
  0.5444577929999994  0.0592770840000014  0.5000000000000000
  0.7944577929999994  0.3926104609999967  0.6000000240000034
  0.0444577929999994  0.7259438629999977  0.6999999880000018
  0.2944577929999994  0.0592771769999985  0.7999998929999990
  0.5444577929999994  0.3926106689999997  0.8999999170000024
  0.7944577929999994  0.7259441610000010  0.9999999400000021
  0.0444577860000024  0.8092770579999993  0.5000000000000000
  0.2944578230000019  0.1426104310000014  0.6000000240000034
  0.5444577929999994  0.4759439230000027  0.6999999880000018
  0.7944577339999981  0.8092771769999985  0.7999998929999990
  0.0444577929999994  0.1426105500000006  0.8999997969999995
  0.2944579119999986  0.4759442809999967  0.9999998210000030
 
  0.00000000E+00  0.00000000E+00  0.00000000E+00
  0.00000000E+00  0.00000000E+00  0.00000000E+00
  0.00000000E+00  0.00000000E+00  0.00000000E+00
  0.00000000E+00  0.00000000E+00  0.00000000E+00
  0.00000000E+00  0.00000000E+00  0.00000000E+00
  0.00000000E+00  0.00000000E+00  0.00000000E+00
  0.00000000E+00  0.00000000E+00  0.00000000E+00
  0.00000000E+00  0.00000000E+00  0.00000000E+00
  0.00000000E+00  0.00000000E+00  0.00000000E+00
  0.00000000E+00  0.00000000E+00  0.00000000E+00
  0.00000000E+00  0.00000000E+00  0.00000000E+00
  0.00000000E+00  0.00000000E+00  0.00000000E+00
  0.00000000E+00  0.00000000E+00  0.00000000E+00
  0.00000000E+00  0.00000000E+00  0.00000000E+00
  0.00000000E+00  0.00000000E+00  0.00000000E+00
  0.00000000E+00  0.00000000E+00  0.00000000E+00
  0.00000000E+00  0.00000000E+00  0.00000000E+00
  0.00000000E+00  0.00000000E+00  0.00000000E+00
  0.00000000E+00  0.00000000E+00  0.00000000E+00
  0.00000000E+00  0.00000000E+00  0.00000000E+00
  0.00000000E+00  0.00000000E+00  0.00000000E+00
  0.00000000E+00  0.00000000E+00  0.00000000E+00
  0.00000000E+00  0.00000000E+00  0.00000000E+00
  0.00000000E+00  0.00000000E+00  0.00000000E+00
  0.00000000E+00  0.00000000E+00  0.00000000E+00
  0.00000000E+00  0.00000000E+00  0.00000000E+00
  0.00000000E+00  0.00000000E+00  0.00000000E+00
  0.00000000E+00  0.00000000E+00  0.00000000E+00
  0.00000000E+00  0.00000000E+00  0.00000000E+00
  0.00000000E+00  0.00000000E+00  0.00000000E+00
  0.00000000E+00  0.00000000E+00  0.00000000E+00
  0.00000000E+00  0.00000000E+00  0.00000000E+00
  0.00000000E+00  0.00000000E+00  0.00000000E+00
  0.00000000E+00  0.00000000E+00  0.00000000E+00
  0.00000000E+00  0.00000000E+00  0.00000000E+00
  0.00000000E+00  0.00000000E+00  0.00000000E+00
  0.00000000E+00  0.00000000E+00  0.00000000E+00
  0.00000000E+00  0.00000000E+00  0.00000000E+00
  0.00000000E+00  0.00000000E+00  0.00000000E+00
  0.00000000E+00  0.00000000E+00  0.00000000E+00
  0.00000000E+00  0.00000000E+00  0.00000000E+00
  0.00000000E+00  0.00000000E+00  0.00000000E+00
  0.00000000E+00  0.00000000E+00  0.00000000E+00
  0.00000000E+00  0.00000000E+00  0.00000000E+00
  0.00000000E+00  0.00000000E+00  0.00000000E+00
  0.00000000E+00  0.00000000E+00  0.00000000E+00
  0.00000000E+00  0.00000000E+00  0.00000000E+00
  0.00000000E+00  0.00000000E+00  0.00000000E+00
