Ge+Ge
    1.000000000
    8.001338005    0.000000000    0.000000000
    0.000000000    9.799597740    0.000000000
    0.000000000    0.000000000   11.548946381
Ge 
48
Direct
    0.044457797    0.940722942    0.000000000
    0.294457823    0.607389510    0.099999987
    0.544457793    0.274056137    0.199999943
    0.794457734    0.940722823    0.299999923
    0.044457793    0.607389331    0.399999946
    0.294457912    0.274055839    0.499999970
    0.544457793    0.190722927    0.000000000
    0.794457853    0.857389510    0.099999987
    0.044457793    0.524056137    0.199999914
    0.294457793    0.190722764    0.299999893
    0.544457793    0.857389331    0.399999946
    0.794457793    0.524055839    0.499999970
    0.544457793    0.940722942    0.000000000
    0.794457793    0.607389569    0.099999994
    0.044457793    0.274056137    0.199999943
    0.294457793    0.940722823    0.299999893
    0.544457793    0.607389331    0.399999946
    0.794457793    0.274055839    0.500000000
    0.044457801    0.190722957    0.000000005
    0.294457793    0.857389569    0.099999987
    0.544457793    0.524056196    0.199999943
    0.794457793    0.190722823    0.299999923
    0.044457793    0.857389450    0.399999827
    0.294457912    0.524055839    0.499999881
    0.044457797    0.059277076    0.500000000
    0.294457823    0.392610490    0.600000024
    0.544457793    0.725943863    0.699999988
    0.794457734    0.059277177    0.799999893
    0.044457793    0.392610669    0.899999917
    0.294457912    0.725944161    0.999999940
    0.544457793    0.809277058    0.500000000
    0.794457793    0.142610431    0.600000024
    0.044457793    0.475943923    0.699999928
    0.294457793    0.809277177    0.799999893
    0.544457793    0.142610550    0.899999797
    0.794457912    0.475944281    0.999999821
    0.544457793    0.059277084    0.500000000
    0.794457793    0.392610461    0.600000024
    0.044457793    0.725943863    0.699999988
    0.294457793    0.059277177    0.799999893
    0.544457793    0.392610669    0.899999917
    0.794457793    0.725944161    0.999999940
    0.044457786    0.809277058    0.500000000
    0.294457823    0.142610431    0.600000024
    0.544457793    0.475943923    0.699999988
    0.794457734    0.809277177    0.799999893
    0.044457793    0.142610550    0.899999797
    0.294457912    0.475944281    0.999999821
