Si+Ge
    1.000000000
   16.293001175    0.000000000    0.000000000
    0.000000000   17.174329758    0.000000000
    0.000000000    0.000000347   14.295264244
Si  Ge 
72     144
Direct
    0.130378902    0.826204658    0.300350517
    0.963712454    0.076203912    0.000000042
    0.797045708    0.426204026    0.060070127
    0.630379081    0.776204169    0.120140187
    0.463712275    0.126204491    0.180210307
    0.297045529    0.476204634    0.240280420
    0.463712275    0.826204658    0.300350517
    0.297045797    0.076203912    0.000000042
    0.130379081    0.426204026    0.060070127
    0.963712394    0.776204169    0.120140187
    0.797045588    0.126204491    0.180210307
    0.630378842    0.476204634    0.240280420
    0.797045588    0.826204658    0.300350517
    0.630379140    0.076203912    0.000000042
    0.463712424    0.426204026    0.060070127
    0.297045767    0.776204169    0.120140187
    0.130378976    0.126204491    0.180210307
    0.963712215    0.476204634    0.240280420
    0.213712215    0.576204777    0.300350428
    0.047045767    0.826204002    0.000000000
    0.880379081    0.176204205    0.060070116
    0.713712335    0.526204467    0.120140158
    0.547045588    0.876204610    0.180210263
    0.380378962    0.226204634    0.240280330
    0.547045588    0.576204777    0.300350428
    0.380379081    0.826204002    0.000000000
    0.213712379    0.176204205    0.060070116
    0.047045693    0.526204467    0.120140158
    0.880378962    0.876204610    0.180210263
    0.713712335    0.226204634    0.240280330
    0.880378902    0.576204777    0.300350428
    0.713712394    0.826204002    0.000000000
    0.547045708    0.176204205    0.060070116
    0.380378991    0.526204467    0.120140158
    0.213712230    0.876204610    0.180210263
    0.047045581    0.226204634    0.240280330
    0.130378902    0.326204777    0.300350517
    0.963712394    0.576204002    0.000000017
    0.797045708    0.926204145    0.060070094
    0.630379021    0.276204228    0.120140158
    0.463712275    0.626204491    0.180210307
    0.297045648    0.976204634    0.240280330
    0.463712275    0.326204777    0.300350517
    0.297045767    0.576204002    0.000000017
    0.130379051    0.926204145    0.060070094
    0.963712394    0.276204228    0.120140158
    0.797045588    0.626204491    0.180210307
    0.630378962    0.976204634    0.240280330
    0.797045588    0.326204777    0.300350517
    0.630379140    0.576204002    0.000000017
    0.463712394    0.926204145    0.060070094
    0.297045738    0.276204228    0.120140158
    0.130378976    0.626204491    0.180210307
    0.963712335    0.976204634    0.240280330
    0.213712215    0.076204777    0.300350398
    0.047045767    0.326203912    0.000000042
    0.880379081    0.676204026    0.060070105
    0.713712394    0.026204228    0.120140165
    0.547045588    0.376204491    0.180210263
    0.380378842    0.726204753    0.240280330
    0.547045588    0.076204777    0.300350398
    0.380379111    0.326203912    0.000000042
    0.213712409    0.676204026    0.060070105
    0.047045726    0.026204228    0.120140165
    0.880378962    0.376204491    0.180210263
    0.713712215    0.726204753    0.240280330
    0.880378962    0.076204777    0.300350398
    0.713712454    0.326203912    0.000000042
    0.547045767    0.676204026    0.060070105
    0.380379081    0.026204228    0.120140165
    0.213712290    0.376204491    0.180210263
    0.047045540    0.726204753    0.240280330
    0.989689231    0.986252308    0.300350547
    0.864689231    0.819585621    0.440280378
    0.739689231    0.652918935    0.580210268
    0.614689231    0.486252248    0.720140100
    0.489689291    0.319585562    0.860069990
    0.364689231    0.152918875    0.999999881
    0.989689231    0.319585651    0.300350547
    0.864689231    0.152918950    0.440280378
    0.739689231    0.986252248    0.580210268
    0.614689231    0.819585562    0.720140100
    0.489689291    0.652918935    0.860069990
    0.364689231    0.486252189    0.999999881
    0.989689231    0.652918994    0.300350547
    0.864689231    0.486252308    0.440280378
    0.739689231    0.319585592    0.580210268
    0.614689231    0.152918935    0.720140100
    0.489689291    0.986252248    0.860069990
    0.364689231    0.819585562    0.999999881
    0.489689231    0.986252308    0.300350547
    0.364689231    0.819585621    0.440280437
    0.239689216    0.652918935    0.580210268
    0.114689231    0.486252248    0.720140159
    0.989689231    0.319585562    0.860069990
    0.864689231    0.152918875    0.999999762
    0.489689231    0.319585651    0.300350547
    0.364689231    0.152918950    0.440280437
    0.239689216    0.986252248    0.580210268
    0.114689231    0.819585562    0.720140159
    0.989689231    0.652918935    0.860069990
    0.864689231    0.486252189    0.999999762
    0.489689231    0.652918994    0.300350547
    0.364689231    0.486252308    0.440280437
    0.239689216    0.319585592    0.580210268
    0.114689231    0.152918935    0.720140159
    0.989689231    0.986252248    0.860069990
    0.864689231    0.819585562    0.999999762
    0.239689231    0.986252308    0.300350547
    0.114689231    0.819585621    0.440280437
    0.989689231    0.652918935    0.580210268
    0.864689231    0.486252248    0.720140159
    0.739689231    0.319585562    0.860069990
    0.614689231    0.152918875    0.999999881
    0.239689231    0.319585651    0.300350547
    0.114689231    0.152918950    0.440280437
    0.989689231    0.986252248    0.580210268
    0.864689231    0.819585562    0.720140159
    0.739689231    0.652918935    0.860069990
    0.614689231    0.486252189    0.999999881
    0.239689231    0.652918994    0.300350547
    0.114689231    0.486252308    0.440280437
    0.989689231    0.319585592    0.580210268
    0.864689231    0.152918935    0.720140159
    0.739689231    0.986252248    0.860069990
    0.614689231    0.819585562    0.999999881
    0.739689231    0.986252308    0.300350487
    0.614689231    0.819585621    0.440280437
    0.489689201    0.652918935    0.580210209
    0.364689231    0.486252248    0.720140159
    0.239689246    0.319585562    0.860069990
    0.114689231    0.152918875    0.999999762
    0.739689231    0.319585651    0.300350487
    0.614689231    0.152918950    0.440280437
    0.489689201    0.986252248    0.580210209
    0.364689231    0.819585562    0.720140159
    0.239689246    0.652918935    0.860069990
    0.114689231    0.486252189    0.999999762
    0.739689231    0.652918994    0.300350487
    0.614689231    0.486252308    0.440280437
    0.489689201    0.319585592    0.580210209
    0.364689231    0.152918935    0.720140159
    0.239689246    0.986252248    0.860069990
    0.114689231    0.819585562    0.999999762
    0.364689231    0.236252308    0.300350487
    0.239689231    0.069585621    0.440280378
    0.114689209    0.902918875    0.580210209
    0.989689231    0.736252189    0.720140159
    0.864689231    0.569585562    0.860069990
    0.739689231    0.402918875    0.999999881
    0.364689231    0.569585681    0.300350487
    0.239689231    0.402918994    0.440280378
    0.114689209    0.236252293    0.580210209
    0.989689231    0.069585614    0.720140159
    0.864689231    0.902918935    0.860069990
    0.739689231    0.736252189    0.999999881
    0.364689231    0.902918994    0.300350487
    0.239689231    0.736252308    0.440280378
    0.114689209    0.569585562    0.580210209
    0.989689231    0.402918905    0.720140159
    0.864689231    0.236252263    0.860069990
    0.739689231    0.069585547    0.999999881
    0.864689291    0.236252308    0.300350487
    0.739689291    0.069585621    0.440280378
    0.614689291    0.902918875    0.580210209
    0.489689291    0.736252189    0.720140100
    0.364689291    0.569585562    0.860069990
    0.239689291    0.402918875    0.999999762
    0.864689291    0.569585681    0.300350487
    0.739689291    0.402918994    0.440280378
    0.614689291    0.236252293    0.580210209
    0.489689291    0.069585614    0.720140100
    0.364689291    0.902918935    0.860069990
    0.239689291    0.736252189    0.999999762
    0.864689291    0.902918994    0.300350487
    0.739689291    0.736252308    0.440280378
    0.614689291    0.569585562    0.580210209
    0.489689291    0.402918905    0.720140100
    0.364689291    0.236252263    0.860069990
    0.239689291    0.069585547    0.999999762
    0.114689223    0.236252308    0.300350547
    0.989689231    0.069585621    0.440280437
    0.864689231    0.902918875    0.580210209
    0.739689231    0.736252189    0.720140159
    0.614689231    0.569585562    0.860069990
    0.489689231    0.402918875    0.999999762
    0.114689223    0.569585681    0.300350547
    0.989689231    0.402918994    0.440280437
    0.864689231    0.236252293    0.580210209
    0.739689231    0.069585614    0.720140159
    0.614689231    0.902918935    0.860069990
    0.489689231    0.736252189    0.999999762
    0.114689223    0.902918994    0.300350547
    0.989689231    0.736252308    0.440280437
    0.864689231    0.569585562    0.580210209
    0.739689231    0.402918905    0.720140159
    0.614689231    0.236252263    0.860069990
    0.489689231    0.069585547    0.999999762
    0.614689231    0.236252308    0.300350487
    0.489689231    0.069585621    0.440280437
    0.364689231    0.902918875    0.580210209
    0.239689231    0.736252189    0.720140159
    0.114689253    0.569585562    0.860069990
    0.989689231    0.402918875    0.999999762
    0.614689231    0.569585681    0.300350487
    0.489689231    0.402918994    0.440280437
    0.364689231    0.236252293    0.580210209
    0.239689231    0.069585614    0.720140159
    0.114689253    0.902918935    0.860069990
    0.989689231    0.736252189    0.999999762
    0.614689231    0.902918994    0.300350487
    0.489689231    0.736252308    0.440280437
    0.364689231    0.569585562    0.580210209
    0.239689231    0.402918905    0.720140159
    0.114689253    0.236252263    0.860069990
    0.989689231    0.069585547    0.999999762
