Automatic KPOINTS generated
0
Gamma
7 7 1
0 0 0
