Ge+Sn                                   
   1.00000000000000     
    11.3156003950000006    0.0000000000000000    0.0000000000000000
   -11.3156003950000006   16.0026760099999983    0.0000000000000000
     0.0000000000000000    0.0000000000000000   25.6042194370000011
   Ge   Sn
    96    72
Direct
  0.4690677230000020  0.9896892309999998  0.0000000169999979
  0.0940677079999972  0.8646892309999998  0.0781252089999995
  0.7190676330000016  0.7396892309999998  0.1562504170000025
  0.3440676929999995  0.6146892309999998  0.2343755810000019
  0.9690678119999987  0.4896892909999977  0.3125007749999966
  0.5940676929999995  0.3646892309999998  0.3906259829999996
  0.9690676929999995  0.9896892309999998  0.0000000169999979
  0.5940676929999995  0.8646892309999998  0.0781252089999995
  0.2190676330000016  0.7396892309999998  0.1562504170000025
  0.8440676929999995  0.6146892309999998  0.2343755810000019
  0.4690678119999987  0.4896892909999977  0.3125007749999966
  0.0940676929999995  0.3646892309999998  0.3906259829999996
  0.4690676929999995  0.4896892309999998  0.0000000089999972
  0.0940676999999965  0.3646892309999998  0.0781252089999995
  0.7190675740000003  0.2396892160000021  0.1562504170000025
  0.3440676929999995  0.1146892309999998  0.2343755810000019
  0.9690678119999987  0.9896892309999998  0.3125007749999966
  0.5940676929999995  0.8646892309999998  0.3906259829999996
  0.9690676929999995  0.4896892309999998  0.0000000089999972
  0.5940676929999995  0.3646892309999998  0.0781252089999995
  0.2190675740000003  0.2396892160000021  0.1562504170000025
  0.8440676929999995  0.1146892309999998  0.2343755810000019
  0.4690676929999995  0.9896892309999998  0.3125007749999966
  0.0940675740000003  0.8646892309999998  0.3906259829999996
  0.7190676929999995  0.2396892309999998  0.0000000169999979
  0.3440676629999970  0.1146892309999998  0.0781252089999995
  0.9690675740000003  0.9896892309999998  0.1562504170000025
  0.5940676929999995  0.8646892309999998  0.2343755810000019
  0.2190676929999995  0.7396892309999998  0.3125007749999966
  0.8440675740000003  0.6146892309999998  0.3906259829999996
  0.2190676780000018  0.2396892309999998  0.0000000169999979
  0.8440676929999995  0.1146892309999998  0.0781252089999995
  0.4690676330000016  0.9896892309999998  0.1562504170000025
  0.0940676929999995  0.8646892309999998  0.2343755810000019
  0.7190678119999987  0.7396892309999998  0.3125007749999966
  0.3440676929999995  0.6146892309999998  0.3906259829999996
  0.7190676330000016  0.7396892309999998  0.0000000209999982
  0.3440676629999970  0.6146892309999998  0.0781252239999972
  0.9690675740000003  0.4896892009999974  0.1562504320000002
  0.5940676330000016  0.3646892309999998  0.2343756109999973
  0.2190676929999995  0.2396892459999975  0.3125008049999991
  0.8440676929999995  0.1146892309999998  0.3906259829999996
  0.2190676929999995  0.7396892309999998  0.0000000209999982
  0.8440676929999995  0.6146892309999998  0.0781252239999972
  0.4690675740000003  0.4896892009999974  0.1562504320000002
  0.0940676929999995  0.3646892309999998  0.2343756109999973
  0.7190676929999995  0.2396892459999975  0.3125008049999991
  0.3440675740000003  0.1146892309999998  0.3906259829999996
  0.4690676629999970  0.3646892309999998  0.0000000160000013
  0.0940676929999995  0.2396892309999998  0.0781252159999966
  0.7190676330000016  0.1146892089999980  0.1562504320000002
  0.3440676929999995  0.9896892309999998  0.2343756109999973
  0.9690678119999987  0.8646892309999998  0.3125007749999966
  0.5940676929999995  0.7396892309999998  0.3906259829999996
  0.9690676929999995  0.3646892309999998  0.0000000160000013
  0.5940676929999995  0.2396892309999998  0.0781252159999966
  0.2190676330000016  0.1146892089999980  0.1562504320000002
  0.8440676929999995  0.9896892309999998  0.2343756109999973
  0.4690678119999987  0.8646892309999998  0.3125007749999966
  0.0940676929999995  0.7396892309999998  0.3906259829999996
  0.4690677520000008  0.8646892909999977  0.0000000000000000
  0.0940677370000031  0.7396892909999977  0.0781252089999995
  0.7190676929999995  0.6146892909999977  0.1562504019999977
  0.3440676929999995  0.4896892909999977  0.2343755810000019
  0.9690678119999987  0.3646892909999977  0.3125007749999966
  0.5940676929999995  0.2396892909999977  0.3906259540000008
  0.9690676929999995  0.8646892909999977  0.0000000000000000
  0.5940675740000003  0.7396892909999977  0.0781252089999995
  0.2190675740000003  0.6146892909999977  0.1562504019999977
  0.8440675740000003  0.4896892909999977  0.2343755810000019
  0.4690675740000003  0.3646892909999977  0.3125007749999966
  0.0940676929999995  0.2396892909999977  0.3906259540000008
  0.7190676929999995  0.1146892229999992  0.0000000169999979
  0.3440676629999970  0.9896892309999998  0.0781252089999995
  0.9690676330000016  0.8646892309999998  0.1562504170000025
  0.5940676929999995  0.7396892309999998  0.2343756109999973
  0.2190676929999995  0.6146892309999998  0.3125007749999966
  0.8440676929999995  0.4896892309999998  0.3906259829999996
  0.2190676780000018  0.1146892229999992  0.0000000169999979
  0.8440676929999995  0.9896892309999998  0.0781252089999995
  0.4690676330000016  0.8646892309999998  0.1562504170000025
  0.0940676929999995  0.7396892309999998  0.2343756109999973
  0.7190678119999987  0.6146892309999998  0.3125007749999966
  0.3440676929999995  0.4896892309999998  0.3906259829999996
  0.7190676929999995  0.6146892309999998  0.0000000149999977
  0.3440676929999995  0.4896892309999998  0.0781252159999966
  0.9690676330000016  0.3646892309999998  0.1562504170000025
  0.5940676929999995  0.2396892309999998  0.2343756109999973
  0.2190677520000008  0.1146892530000017  0.3125007749999966
  0.8440675740000003  0.9896892309999998  0.3906259829999996
  0.2190677230000020  0.6146892309999998  0.0000000149999977
  0.8440676929999995  0.4896892309999998  0.0781252159999966
  0.4690676330000016  0.3646892309999998  0.1562504170000025
  0.0940676929999995  0.2396892309999998  0.2343756109999973
  0.7190678119999987  0.1146892530000017  0.3125007749999966
  0.3440676929999995  0.9896892309999998  0.3906259829999996
  0.5209557410000016  0.7615693810000010  0.4712992010000008
  0.7709557410000016  0.0115693810000010  0.5609046820000003
  0.0209559199999987  0.2615695599999981  0.6505102519999966
  0.2709562180000020  0.5115696789999973  0.7401157620000021
  0.5209560990000028  0.7615696789999973  0.8297212720000005
  0.7709562180000020  0.0115698580000014  0.9193268419999967
  0.1876223679999995  0.0949025970000008  0.4712992010000008
  0.4376224279999974  0.3449026640000028  0.5609047410000016
  0.6876226660000029  0.5949028129999974  0.6505102519999966
  0.9376228449999999  0.8449029330000002  0.7401158210000034
  0.1876228300000022  0.0949030590000035  0.8297212720000005
  0.4376229639999991  0.3449031709999986  0.9193268419999967
  0.8542891139999966  0.4282359480000011  0.4712992010000008
  0.1042891740000016  0.6782360079999989  0.5609047410000016
  0.3542893529999986  0.9282361269999981  0.6505102519999966
  0.6042895909999970  0.1782363060000023  0.7401157620000021
  0.8542894719999978  0.4282363060000023  0.8297212720000005
  0.1042897700000012  0.6782365440000007  0.9193268419999967
  0.3542890550000024  0.9282360079999989  0.4712991709999983
  0.6042889949999974  0.1782360670000003  0.5609046820000003
  0.8542892930000008  0.4282361870000031  0.6505102519999966
  0.1042895320000028  0.6782363060000023  0.7401157620000021
  0.3542893529999986  0.9282364250000015  0.8297212720000005
  0.6042895909999970  0.1782366629999999  0.9193268419999967
  0.6876224880000024  0.5949026349999968  0.4712992010000008
  0.9376223679999995  0.8449026939999982  0.5609047410000016
  0.1876225919999968  0.0949028209999980  0.6505102519999966
  0.4376228449999999  0.3449030519999994  0.7401157620000021
  0.6876228449999999  0.5949029330000002  0.8297212720000005
  0.9376227260000007  0.8449031709999986  0.9193268419999967
  0.0209558009999995  0.2615692910000007  0.4712992010000008
  0.2709559799999965  0.5115693810000010  0.5609047410000016
  0.5209560990000028  0.7615695000000002  0.6505102519999966
  0.7709562180000020  0.0115697379999986  0.7401157620000021
  0.0209560389999979  0.2615696789999973  0.8297212720000005
  0.2709564569999969  0.5115699170000028  0.9193268419999967
  0.2709557410000016  0.7615692620000019  0.4712991709999983
  0.5209558009999995  0.0115692620000019  0.5609047410000016
  0.7709558609999974  0.2615694400000024  0.6505102519999966
  0.0209560389999979  0.5115695599999981  0.7401157620000021
  0.2709560990000028  0.7615695599999981  0.8297212720000005
  0.5209560990000028  0.0115698580000014  0.9193268419999967
  0.6042891139999966  0.4282359480000011  0.4712992010000008
  0.8542891139999966  0.6782359480000011  0.5609047410000016
  0.1042892930000008  0.9282361269999981  0.6505102519999966
  0.3542894719999978  0.1782361870000031  0.7401157620000021
  0.6042893529999986  0.4282363060000023  0.8297212720000005
  0.8542894719999978  0.6782364250000015  0.9193268419999967
  0.9376224279999974  0.0949025970000008  0.4712992010000008
  0.1876224729999976  0.3449026640000028  0.5609047410000016
  0.4376226070000016  0.5949027540000031  0.6505102519999966
  0.6876228449999999  0.8449029330000002  0.7401158210000034
  0.9376229639999991  0.0949030590000035  0.8297212720000005
  0.1876229490000014  0.3449030519999994  0.9193268419999967
  0.4376223679999995  0.5949026939999982  0.4712992010000008
  0.6876224880000024  0.8449026349999968  0.5609047410000016
  0.9376225469999966  0.0949028209999980  0.6505102519999966
  0.1876227110000031  0.3449029330000002  0.7401158210000034
  0.4376227260000007  0.5949029330000002  0.8297212720000005
  0.6876228449999999  0.8449031709999986  0.9193267819999988
  0.1042890550000024  0.9282359480000011  0.4712992010000008
  0.3542892339999995  0.1782360670000003  0.5609047410000016
  0.6042893529999986  0.4282361870000031  0.6505102519999966
  0.8542895909999970  0.6782363060000023  0.7401158210000034
  0.1042894120000000  0.9282363060000023  0.8297212720000005
  0.3542899489999982  0.1782366629999999  0.9193267819999988
  0.7709558009999995  0.2615693210000032  0.4712992010000008
  0.0209556820000003  0.5115693210000032  0.5609047410000016
  0.2709558609999974  0.7615695000000002  0.6505102519999966
  0.5209559799999965  0.0115696189999994  0.7401157620000021
  0.7709559799999965  0.2615696789999973  0.8297212720000005
  0.0209559199999987  0.5115697979999965  0.9193268419999967
 
  0.00000000E+00  0.00000000E+00  0.00000000E+00
  0.00000000E+00  0.00000000E+00  0.00000000E+00
  0.00000000E+00  0.00000000E+00  0.00000000E+00
  0.00000000E+00  0.00000000E+00  0.00000000E+00
  0.00000000E+00  0.00000000E+00  0.00000000E+00
  0.00000000E+00  0.00000000E+00  0.00000000E+00
  0.00000000E+00  0.00000000E+00  0.00000000E+00
  0.00000000E+00  0.00000000E+00  0.00000000E+00
  0.00000000E+00  0.00000000E+00  0.00000000E+00
  0.00000000E+00  0.00000000E+00  0.00000000E+00
  0.00000000E+00  0.00000000E+00  0.00000000E+00
  0.00000000E+00  0.00000000E+00  0.00000000E+00
  0.00000000E+00  0.00000000E+00  0.00000000E+00
  0.00000000E+00  0.00000000E+00  0.00000000E+00
  0.00000000E+00  0.00000000E+00  0.00000000E+00
  0.00000000E+00  0.00000000E+00  0.00000000E+00
  0.00000000E+00  0.00000000E+00  0.00000000E+00
  0.00000000E+00  0.00000000E+00  0.00000000E+00
  0.00000000E+00  0.00000000E+00  0.00000000E+00
  0.00000000E+00  0.00000000E+00  0.00000000E+00
  0.00000000E+00  0.00000000E+00  0.00000000E+00
  0.00000000E+00  0.00000000E+00  0.00000000E+00
  0.00000000E+00  0.00000000E+00  0.00000000E+00
  0.00000000E+00  0.00000000E+00  0.00000000E+00
  0.00000000E+00  0.00000000E+00  0.00000000E+00
  0.00000000E+00  0.00000000E+00  0.00000000E+00
  0.00000000E+00  0.00000000E+00  0.00000000E+00
  0.00000000E+00  0.00000000E+00  0.00000000E+00
  0.00000000E+00  0.00000000E+00  0.00000000E+00
  0.00000000E+00  0.00000000E+00  0.00000000E+00
  0.00000000E+00  0.00000000E+00  0.00000000E+00
  0.00000000E+00  0.00000000E+00  0.00000000E+00
  0.00000000E+00  0.00000000E+00  0.00000000E+00
  0.00000000E+00  0.00000000E+00  0.00000000E+00
  0.00000000E+00  0.00000000E+00  0.00000000E+00
  0.00000000E+00  0.00000000E+00  0.00000000E+00
  0.00000000E+00  0.00000000E+00  0.00000000E+00
  0.00000000E+00  0.00000000E+00  0.00000000E+00
  0.00000000E+00  0.00000000E+00  0.00000000E+00
  0.00000000E+00  0.00000000E+00  0.00000000E+00
  0.00000000E+00  0.00000000E+00  0.00000000E+00
  0.00000000E+00  0.00000000E+00  0.00000000E+00
  0.00000000E+00  0.00000000E+00  0.00000000E+00
  0.00000000E+00  0.00000000E+00  0.00000000E+00
  0.00000000E+00  0.00000000E+00  0.00000000E+00
  0.00000000E+00  0.00000000E+00  0.00000000E+00
  0.00000000E+00  0.00000000E+00  0.00000000E+00
  0.00000000E+00  0.00000000E+00  0.00000000E+00
  0.00000000E+00  0.00000000E+00  0.00000000E+00
  0.00000000E+00  0.00000000E+00  0.00000000E+00
  0.00000000E+00  0.00000000E+00  0.00000000E+00
  0.00000000E+00  0.00000000E+00  0.00000000E+00
  0.00000000E+00  0.00000000E+00  0.00000000E+00
  0.00000000E+00  0.00000000E+00  0.00000000E+00
  0.00000000E+00  0.00000000E+00  0.00000000E+00
  0.00000000E+00  0.00000000E+00  0.00000000E+00
  0.00000000E+00  0.00000000E+00  0.00000000E+00
  0.00000000E+00  0.00000000E+00  0.00000000E+00
  0.00000000E+00  0.00000000E+00  0.00000000E+00
  0.00000000E+00  0.00000000E+00  0.00000000E+00
  0.00000000E+00  0.00000000E+00  0.00000000E+00
  0.00000000E+00  0.00000000E+00  0.00000000E+00
  0.00000000E+00  0.00000000E+00  0.00000000E+00
  0.00000000E+00  0.00000000E+00  0.00000000E+00
  0.00000000E+00  0.00000000E+00  0.00000000E+00
  0.00000000E+00  0.00000000E+00  0.00000000E+00
  0.00000000E+00  0.00000000E+00  0.00000000E+00
  0.00000000E+00  0.00000000E+00  0.00000000E+00
  0.00000000E+00  0.00000000E+00  0.00000000E+00
  0.00000000E+00  0.00000000E+00  0.00000000E+00
  0.00000000E+00  0.00000000E+00  0.00000000E+00
  0.00000000E+00  0.00000000E+00  0.00000000E+00
  0.00000000E+00  0.00000000E+00  0.00000000E+00
  0.00000000E+00  0.00000000E+00  0.00000000E+00
  0.00000000E+00  0.00000000E+00  0.00000000E+00
  0.00000000E+00  0.00000000E+00  0.00000000E+00
  0.00000000E+00  0.00000000E+00  0.00000000E+00
  0.00000000E+00  0.00000000E+00  0.00000000E+00
  0.00000000E+00  0.00000000E+00  0.00000000E+00
  0.00000000E+00  0.00000000E+00  0.00000000E+00
  0.00000000E+00  0.00000000E+00  0.00000000E+00
  0.00000000E+00  0.00000000E+00  0.00000000E+00
  0.00000000E+00  0.00000000E+00  0.00000000E+00
  0.00000000E+00  0.00000000E+00  0.00000000E+00
  0.00000000E+00  0.00000000E+00  0.00000000E+00
  0.00000000E+00  0.00000000E+00  0.00000000E+00
  0.00000000E+00  0.00000000E+00  0.00000000E+00
  0.00000000E+00  0.00000000E+00  0.00000000E+00
  0.00000000E+00  0.00000000E+00  0.00000000E+00
  0.00000000E+00  0.00000000E+00  0.00000000E+00
  0.00000000E+00  0.00000000E+00  0.00000000E+00
  0.00000000E+00  0.00000000E+00  0.00000000E+00
  0.00000000E+00  0.00000000E+00  0.00000000E+00
  0.00000000E+00  0.00000000E+00  0.00000000E+00
  0.00000000E+00  0.00000000E+00  0.00000000E+00
  0.00000000E+00  0.00000000E+00  0.00000000E+00
  0.00000000E+00  0.00000000E+00  0.00000000E+00
  0.00000000E+00  0.00000000E+00  0.00000000E+00
  0.00000000E+00  0.00000000E+00  0.00000000E+00
  0.00000000E+00  0.00000000E+00  0.00000000E+00
  0.00000000E+00  0.00000000E+00  0.00000000E+00
  0.00000000E+00  0.00000000E+00  0.00000000E+00
  0.00000000E+00  0.00000000E+00  0.00000000E+00
  0.00000000E+00  0.00000000E+00  0.00000000E+00
  0.00000000E+00  0.00000000E+00  0.00000000E+00
  0.00000000E+00  0.00000000E+00  0.00000000E+00
  0.00000000E+00  0.00000000E+00  0.00000000E+00
  0.00000000E+00  0.00000000E+00  0.00000000E+00
  0.00000000E+00  0.00000000E+00  0.00000000E+00
  0.00000000E+00  0.00000000E+00  0.00000000E+00
  0.00000000E+00  0.00000000E+00  0.00000000E+00
  0.00000000E+00  0.00000000E+00  0.00000000E+00
  0.00000000E+00  0.00000000E+00  0.00000000E+00
  0.00000000E+00  0.00000000E+00  0.00000000E+00
  0.00000000E+00  0.00000000E+00  0.00000000E+00
  0.00000000E+00  0.00000000E+00  0.00000000E+00
  0.00000000E+00  0.00000000E+00  0.00000000E+00
  0.00000000E+00  0.00000000E+00  0.00000000E+00
  0.00000000E+00  0.00000000E+00  0.00000000E+00
  0.00000000E+00  0.00000000E+00  0.00000000E+00
  0.00000000E+00  0.00000000E+00  0.00000000E+00
  0.00000000E+00  0.00000000E+00  0.00000000E+00
  0.00000000E+00  0.00000000E+00  0.00000000E+00
  0.00000000E+00  0.00000000E+00  0.00000000E+00
  0.00000000E+00  0.00000000E+00  0.00000000E+00
  0.00000000E+00  0.00000000E+00  0.00000000E+00
  0.00000000E+00  0.00000000E+00  0.00000000E+00
  0.00000000E+00  0.00000000E+00  0.00000000E+00
  0.00000000E+00  0.00000000E+00  0.00000000E+00
  0.00000000E+00  0.00000000E+00  0.00000000E+00
  0.00000000E+00  0.00000000E+00  0.00000000E+00
  0.00000000E+00  0.00000000E+00  0.00000000E+00
  0.00000000E+00  0.00000000E+00  0.00000000E+00
  0.00000000E+00  0.00000000E+00  0.00000000E+00
  0.00000000E+00  0.00000000E+00  0.00000000E+00
  0.00000000E+00  0.00000000E+00  0.00000000E+00
  0.00000000E+00  0.00000000E+00  0.00000000E+00
  0.00000000E+00  0.00000000E+00  0.00000000E+00
  0.00000000E+00  0.00000000E+00  0.00000000E+00
  0.00000000E+00  0.00000000E+00  0.00000000E+00
  0.00000000E+00  0.00000000E+00  0.00000000E+00
  0.00000000E+00  0.00000000E+00  0.00000000E+00
  0.00000000E+00  0.00000000E+00  0.00000000E+00
  0.00000000E+00  0.00000000E+00  0.00000000E+00
  0.00000000E+00  0.00000000E+00  0.00000000E+00
  0.00000000E+00  0.00000000E+00  0.00000000E+00
  0.00000000E+00  0.00000000E+00  0.00000000E+00
  0.00000000E+00  0.00000000E+00  0.00000000E+00
  0.00000000E+00  0.00000000E+00  0.00000000E+00
  0.00000000E+00  0.00000000E+00  0.00000000E+00
  0.00000000E+00  0.00000000E+00  0.00000000E+00
  0.00000000E+00  0.00000000E+00  0.00000000E+00
  0.00000000E+00  0.00000000E+00  0.00000000E+00
  0.00000000E+00  0.00000000E+00  0.00000000E+00
  0.00000000E+00  0.00000000E+00  0.00000000E+00
  0.00000000E+00  0.00000000E+00  0.00000000E+00
  0.00000000E+00  0.00000000E+00  0.00000000E+00
  0.00000000E+00  0.00000000E+00  0.00000000E+00
  0.00000000E+00  0.00000000E+00  0.00000000E+00
  0.00000000E+00  0.00000000E+00  0.00000000E+00
  0.00000000E+00  0.00000000E+00  0.00000000E+00
  0.00000000E+00  0.00000000E+00  0.00000000E+00
  0.00000000E+00  0.00000000E+00  0.00000000E+00
  0.00000000E+00  0.00000000E+00  0.00000000E+00
  0.00000000E+00  0.00000000E+00  0.00000000E+00
  0.00000000E+00  0.00000000E+00  0.00000000E+00
  0.00000000E+00  0.00000000E+00  0.00000000E+00
  0.00000000E+00  0.00000000E+00  0.00000000E+00
