Si+C
    1.000000000
   13.303179741    0.000000000    0.000000000
    6.651589394   11.520891190    0.000000000
    0.000000000    0.000000000   21.679414749
Si  C  
72     308
Direct
    0.000000000    0.681493819    0.289268851
    0.000000000    0.014827055    0.000000008
    0.000000000    0.348160446    0.144634441
    0.333333343    0.014827132    0.289268851
    0.333333343    0.348160386    0.000000009
    0.333333343    0.681493819    0.144634441
    0.666666687    0.348160386    0.289268821
    0.666666687    0.681493759    0.000000006
    0.666666687    0.014827132    0.144634441
    0.000000000    0.014827251    0.325427473
    0.000000000    0.348160416    0.036158621
    0.000000000    0.681493819    0.180793047
    0.333333343    0.348160505    0.325427443
    0.333333343    0.681493819    0.036158621
    0.333333343    0.014827132    0.180793032
    0.666666746    0.681493998    0.325427473
    0.666666746    0.014827132    0.036158621
    0.666666746    0.348160505    0.180793062
    0.166666672    0.848160446    0.289268821
    0.166666672    0.181493714    0.000000004
    0.166666672    0.514827132    0.144634441
    0.500000060    0.181493759    0.289268821
    0.500000000    0.514827073    0.000000001
    0.500000000    0.848160505    0.144634441
    0.833333373    0.514827251    0.289268851
    0.833333373    0.848160446    0.000000000
    0.833333373    0.181493759    0.144634411
    0.166666687    0.181493759    0.325427383
    0.166666687    0.514827073    0.036158580
    0.166666687    0.848160505    0.180793002
    0.500000000    0.514827132    0.325427383
    0.500000000    0.848160326    0.036158577
    0.500000000    0.181493759    0.180793017
    0.833333313    0.848160446    0.325427383
    0.833333313    0.181493714    0.036158577
    0.833333313    0.514827132    0.180793047
    0.000000000    0.181493759    0.289268821
    0.000000000    0.514827073    0.000000011
    0.000000000    0.848160446    0.144634441
    0.333333343    0.514827251    0.289268851
    0.333333343    0.848160505    0.000000016
    0.333333343    0.181493878    0.144634470
    0.666666687    0.848160446    0.289268821
    0.666666687    0.181493714    0.000000001
    0.666666687    0.514827132    0.144634441
    0.000000014    0.514827251    0.325427443
    0.000000014    0.848160446    0.036158580
    0.000000014    0.181493878    0.180793032
    0.333333373    0.848160446    0.325427443
    0.333333373    0.181493714    0.036158580
    0.333333373    0.514827073    0.180793002
    0.666666746    0.181493878    0.325427443
    0.666666746    0.514827073    0.036158580
    0.666666746    0.848160505    0.180793017
    0.166666672    0.348160386    0.289268821
    0.166666672    0.681493759    0.000000009
    0.166666672    0.014827132    0.144634470
    0.500000000    0.681493759    0.289268851
    0.500000000    0.014827051    0.000000009
    0.500000000    0.348160475    0.144634441
    0.833333313    0.014827132    0.289268821
    0.833333313    0.348160416    0.000000006
    0.833333313    0.681493759    0.144634426
    0.166666687    0.681493878    0.325427473
    0.166666687    0.014827132    0.036158640
    0.166666687    0.348160386    0.180793032
    0.500000000    0.014827251    0.325427473
    0.500000000    0.348160416    0.036158610
    0.500000000    0.681493759    0.180793032
    0.833333373    0.348160505    0.325427443
    0.833333373    0.681493700    0.036158621
    0.833333373    0.014827013    0.180793032
    0.171375155    0.843979776    0.900184870
    0.123756289    0.082075477    0.425242722
    0.933280051    0.034456372    0.520231128
    0.742803812    0.986837149    0.615219593
    0.552327573    0.939217985    0.710208058
    0.361851394    0.891598880    0.805196404
    0.314232290    0.129694059    0.900184870
    0.266613454    0.367789745    0.425242722
    0.076137185    0.320170581    0.520231187
    0.885661006    0.272551447    0.615219593
    0.695184708    0.224932313    0.710208058
    0.504708529    0.177313179    0.805196464
    0.457089424    0.415408343    0.900184870
    0.409470588    0.653504014    0.425242752
    0.218994334    0.605884850    0.520231187
    0.028518200    0.558265746    0.615219593
    0.838041782    0.510646582    0.710208058
    0.647565663    0.463027477    0.805196404
    0.742803693    0.986836910    0.900184870
    0.695184827    0.224932581    0.425242752
    0.504708648    0.177313447    0.520231128
    0.314232409    0.129694328    0.615219593
    0.123756170    0.082075119    0.710208058
    0.933279932    0.034456015    0.805196404
    0.599946499    0.701122522    0.900184870
    0.552327693    0.939218223    0.425242722
    0.361851484    0.891599119    0.520231128
    0.171375245    0.843979895    0.615219593
    0.980899096    0.796360791    0.710207939
    0.790422797    0.748741686    0.805196464
    0.885660827    0.272551179    0.900184870
    0.838041961    0.510646820    0.425242752
    0.647565782    0.463027716    0.520231128
    0.457089543    0.415408581    0.615219593
    0.266613364    0.367789447    0.710207999
    0.076137066    0.320170283    0.805196464
    0.028517962    0.558265448    0.900184870
    0.980899096    0.796361089    0.425242722
    0.790422857    0.748741984    0.520231128
    0.599946618    0.701122820    0.615219593
    0.409470320    0.653503716    0.710208058
    0.218994141    0.605884612    0.805196404
    0.218994394    0.605884910    0.448989779
    0.028518200    0.558265805    0.543978274
    0.838041902    0.510646701    0.638966739
    0.647565663    0.463027567    0.733955085
    0.457089305    0.415408373    0.828943610
    0.504708648    0.177313536    0.448989779
    0.314232409    0.129694402    0.543978274
    0.123756170    0.082075238    0.638966739
    0.933279932    0.034456134    0.733955085
    0.742803574    0.986836970    0.828943610
    0.361851513    0.891599238    0.448989809
    0.171375290    0.843980074    0.543978274
    0.980899096    0.796360910    0.638966739
    0.790422797    0.748741806    0.733955085
    0.599946499    0.701122642    0.828943610
    0.647565782    0.463027805    0.448989779
    0.457089573    0.415408701    0.543978274
    0.266613364    0.367789567    0.638966739
    0.076137066    0.320170403    0.733955085
    0.885660768    0.272551239    0.828943610
    0.790422916    0.748742044    0.448989809
    0.599946737    0.701122880    0.543978333
    0.409470469    0.653503776    0.638966739
    0.218994200    0.605884671    0.733955085
    0.028517962    0.558265507    0.828943610
    0.076137304    0.320170641    0.448989809
    0.885661006    0.272551507    0.543978274
    0.695184827    0.224932373    0.638966739
    0.504708529    0.177313238    0.733955085
    0.314232230    0.129694074    0.828943610
    0.933280051    0.034456372    0.448989809
    0.742803812    0.986837149    0.543978274
    0.552327514    0.939218044    0.638966739
    0.361851335    0.891598940    0.733955085
    0.171375096    0.843979776    0.828943551
    0.242803693    0.986836851    0.900184929
    0.195184872    0.224932581    0.425242752
    0.004708648    0.177313417    0.520231128
    0.814232409    0.129694313    0.615219593
    0.623756111    0.082075119    0.710208058
    0.433279932    0.034456015    0.805196464
    0.385660827    0.272551209    0.900184870
    0.338042021    0.510646880    0.425242752
    0.147565767    0.463027775    0.520231187
    0.957089543    0.415408611    0.615219593
    0.766613245    0.367789477    0.710208058
    0.576137066    0.320170373    0.805196404
    0.671375096    0.843979776    0.900184870
    0.623756289    0.082075477    0.425242752
    0.433280021    0.034456372    0.520231128
    0.242803812    0.986837149    0.615219593
    0.052327514    0.939217985    0.710208058
    0.861851335    0.891598880    0.805196404
    0.528517902    0.558265448    0.900184929
    0.480899096    0.796361089    0.425242752
    0.290422887    0.748741984    0.520231187
    0.099946618    0.701122880    0.615219593
    0.909470439    0.653503716    0.710207999
    0.718994141    0.605884552    0.805196464
    0.814232230    0.129694015    0.900184870
    0.766613424    0.367789716    0.425242722
    0.576137245    0.320170581    0.520231128
    0.385660976    0.272551447    0.615219593
    0.195184827    0.224932313    0.710207939
    0.004708529    0.177313164    0.805196404
    0.957089424    0.415408343    0.900184810
    0.909470618    0.653504014    0.425242692
    0.718994379    0.605884850    0.520231128
    0.528518140    0.558265746    0.615219593
    0.338041842    0.510646582    0.710208058
    0.147565678    0.463027477    0.805196404
    0.099946618    0.701122522    0.900184870
    0.052327752    0.939218283    0.425242722
    0.861851513    0.891599059    0.520231128
    0.671375334    0.843979955    0.615219593
    0.480899006    0.796360850    0.710208058
    0.290422827    0.748741746    0.805196404
    0.147565827    0.463027775    0.448989779
    0.957089543    0.415408671    0.543978274
    0.766613364    0.367789507    0.638966739
    0.576137125    0.320170373    0.733955085
    0.385660887    0.272551239    0.828943491
    0.290422976    0.748742044    0.448989779
    0.099946737    0.701122880    0.543978274
    0.909470499    0.653503776    0.638966739
    0.718994260    0.605884612    0.733955026
    0.528518021    0.558265507    0.828943491
    0.576137185    0.320170611    0.448989779
    0.385660976    0.272551507    0.543978274
    0.195184737    0.224932402    0.638966739
    0.004708529    0.177313268    0.733955085
    0.814232349    0.129694119    0.828943491
    0.433280081    0.034456372    0.448989809
    0.242803842    0.986837208    0.543978274
    0.052327633    0.939218104    0.638966739
    0.861851394    0.891598940    0.733955085
    0.671375155    0.843979836    0.828943551
    0.718994319    0.605884969    0.448989809
    0.528518081    0.558265865    0.543978274
    0.338041902    0.510646760    0.638966739
    0.147565648    0.463027596    0.733955085
    0.957089424    0.415408462    0.828943551
    0.004708767    0.177313536    0.448989779
    0.814232469    0.129694432    0.543978274
    0.623756289    0.082075238    0.638966739
    0.433280021    0.034456134    0.733955026
    0.242803752    0.986836970    0.828943491
    0.861851513    0.891599119    0.448989779
    0.671375275    0.843980014    0.543978274
    0.480899006    0.796360910    0.638966739
    0.290422797    0.748741746    0.733955026
    0.099946499    0.701122642    0.828943551
    0.242803693    0.486836880    0.900184870
    0.195184872    0.724932551    0.425242752
    0.004708648    0.677313387    0.520231128
    0.814232469    0.629694283    0.615219593
    0.623756111    0.582075179    0.710208058
    0.433279991    0.534456074    0.805196404
    0.528517962    0.058265448    0.900184870
    0.480899125    0.296361148    0.425242752
    0.290422916    0.248742014    0.520231128
    0.099946737    0.201122880    0.615219593
    0.909470379    0.153503716    0.710208058
    0.718994260    0.105884597    0.805196404
    0.385660827    0.772551119    0.900184870
    0.338042021    0.010646820    0.425242722
    0.147565812    0.963027656    0.520231128
    0.957089543    0.915408552    0.615219593
    0.766613364    0.867789388    0.710207939
    0.576137066    0.820170224    0.805196404
    0.671375036    0.343979686    0.900184870
    0.623756289    0.582075357    0.425242722
    0.433280021    0.534456253    0.520231128
    0.242803782    0.486837119    0.615219593
    0.052327633    0.439218014    0.710207939
    0.861851335    0.391598821    0.805196464
    0.957089305    0.915408313    0.900184870
    0.909470499    0.153503984    0.425242722
    0.718994319    0.105884857    0.520231128
    0.528518081    0.058265686    0.615219593
    0.338041902    0.010646582    0.710207939
    0.147565573    0.963027418    0.805196464
    0.814232290    0.629694045    0.900184810
    0.766613483    0.867789745    0.425242722
    0.576137185    0.820170581    0.520231128
    0.385661006    0.772551477    0.615219593
    0.195184708    0.724932313    0.710208058
    0.004708529    0.677313209    0.805196404
    0.099946499    0.201122642    0.900184870
    0.052327752    0.439218313    0.425242752
    0.861851454    0.391599178    0.520231187
    0.671375275    0.343980014    0.615219653
    0.480898947    0.296360880    0.710208058
    0.290422797    0.248741746    0.805196464
    0.290422946    0.248742104    0.448989779
    0.099946737    0.201122969    0.543978274
    0.909470499    0.153503835    0.638966739
    0.718994260    0.105884708    0.733955026
    0.528518021    0.058265567    0.828943491
    0.147565827    0.963027775    0.448989779
    0.957089543    0.915408611    0.543978274
    0.766613364    0.867789507    0.638966739
    0.576137125    0.820170343    0.733955085
    0.385660887    0.772551239    0.828943491
    0.433280110    0.534456372    0.448989779
    0.242803842    0.486837268    0.543978274
    0.052327633    0.439218134    0.638966739
    0.861851454    0.391599000    0.733955085
    0.671375155    0.343979865    0.828943491
    0.718994379    0.105884977    0.448989779
    0.528518081    0.058265805    0.543978274
    0.338041902    0.010646701    0.638966739
    0.147565663    0.963027537    0.733955085
    0.957089424    0.915408432    0.828943491
    0.576137185    0.820170641    0.448989779
    0.385660976    0.772551537    0.543978274
    0.195184752    0.724932373    0.638966739
    0.004708529    0.677313209    0.733955026
    0.814232230    0.629694104    0.828943551
    0.861851513    0.391599238    0.448989779
    0.671375215    0.343980134    0.543978274
    0.480899066    0.296360999    0.638966739
    0.290422797    0.248741865    0.733955026
    0.099946499    0.201122731    0.828943551
    0.004708529    0.677313507    0.448989809
    0.814232290    0.629694402    0.543978274
    0.623756051    0.582075238    0.638966739
    0.433279842    0.534456134    0.733955085
    0.242803603    0.486837029    0.828943491
    0.171375155    0.343979746    0.900184929
    0.123756289    0.582075417    0.425242722
    0.933280051    0.534456253    0.520231128
    0.742803872    0.486837149    0.615219593
    0.552327573    0.439217985    0.710208058
    0.361851394    0.391598880    0.805196404
    0.457089424    0.915408313    0.900184870
    0.409470588    0.153504014    0.425242722
    0.218994349    0.105884880    0.520231128
    0.028518200    0.058265805    0.615219593
    0.838041842    0.010646582    0.710208058
    0.647565603    0.963027477    0.805196404
    0.314232230    0.629693925    0.900184870
    0.266613424    0.867789626    0.425242722
    0.076137185    0.820170522    0.520231128
    0.885660946    0.772551358    0.615219593
    0.695184827    0.724932194    0.710207999
    0.504708469    0.677313089    0.805196464
    0.599946499    0.201122567    0.900184870
    0.552327752    0.439218253    0.425242722
    0.361851513    0.391599149    0.520231128
    0.171375260    0.343979985    0.615219593
    0.980899096    0.296360880    0.710207939
    0.790422797    0.248741686    0.805196404
    0.742803693    0.486836910    0.900184810
    0.695184886    0.724932551    0.425242722
    0.504708648    0.677313447    0.520231128
    0.314232409    0.629694283    0.615219593
    0.123756170    0.582075179    0.710208058
    0.933279932    0.534456015    0.805196404
    0.028517962    0.058265448    0.900184870
    0.980899096    0.296361148    0.425242722
    0.790422857    0.248742014    0.520231128
    0.599946678    0.201122880    0.615219593
    0.409470320    0.153503731    0.710208058
    0.218994170    0.105884627    0.805196464
    0.885660768    0.772551119    0.900184929
    0.838041961    0.010646820    0.425242752
    0.647565722    0.963027716    0.520231128
    0.457089484    0.915408492    0.615219653
    0.266613185    0.867789388    0.710208058
    0.076137066    0.820170283    0.805196404
    0.218994409    0.105884977    0.448989809
    0.028518200    0.058265805    0.543978274
    0.838041961    0.010646701    0.638966739
    0.647565722    0.963027537    0.733955085
    0.457089365    0.915408373    0.828943610
    0.361851573    0.391599208    0.448989779
    0.171375319    0.343980104    0.543978333
    0.980899096    0.296360970    0.638966739
    0.790422797    0.248741835    0.733955085
    0.599946499    0.201122671    0.828943610
    0.504708648    0.677313507    0.448989809
    0.314232409    0.629694402    0.543978274
    0.123756170    0.582075298    0.638966739
    0.933279932    0.534456134    0.733955085
    0.742803574    0.486837000    0.828943610
    0.790422916    0.248742074    0.448989779
    0.599946737    0.201122984    0.543978274
    0.409470499    0.153503835    0.638966739
    0.218994230    0.105884694    0.733955085
    0.028517962    0.058265567    0.828943610
    0.647565782    0.963027775    0.448989809
    0.457089543    0.915408611    0.543978333
    0.266613305    0.867789507    0.638966739
    0.076137066    0.820170403    0.733955085
    0.885660768    0.772551239    0.828943610
    0.933280051    0.534456372    0.448989809
    0.742803812    0.486837268    0.543978274
    0.552327633    0.439218074    0.638966739
    0.361851335    0.391598940    0.733955085
    0.171375006    0.343979806    0.828943610
    0.076137304    0.820170641    0.448989809
    0.885661125    0.772551537    0.543978274
    0.695184886    0.724932373    0.638966739
    0.504708588    0.677313209    0.733955085
    0.314232349    0.629694045    0.828943610
