Si+Si
    1.000000000
    7.680594444    0.000000000    0.000000000
    3.840296984   11.520891190    0.000000000
    0.000000000    0.000000000    9.051669121
Si 
48
Direct
    0.994067729    0.994067729    0.000000000
    0.827401042    0.827401042    0.299999893
    0.660734296    0.660734296    0.599999845
    0.327401042    0.327401042    0.000000000
    0.160734370    0.160734355    0.299999893
    0.994067669    0.994067669    0.599999845
    0.660734415    0.660734415    0.000000000
    0.494067669    0.494067669    0.299999893
    0.327400982    0.327400982    0.599999845
    0.244067714    0.994067729    0.149999961
    0.077401005    0.827400982    0.449999869
    0.910734296    0.660734296    0.749999881
    0.577401102    0.327401012    0.149999961
    0.410734385    0.160734326    0.449999869
    0.244067654    0.994067609    0.749999881
    0.910734355    0.660734355    0.149999961
    0.744067669    0.494067669    0.449999869
    0.577400923    0.327400953    0.749999881
    0.494067729    0.994067729    0.000000000
    0.327401042    0.827401042    0.299999893
    0.160734311    0.660734296    0.599999845
    0.160734355    0.660734415    0.000000000
    0.994067669    0.494067729    0.299999893
    0.827400923    0.327401012    0.599999845
    0.827401102    0.327401072    0.000000000
    0.660734415    0.160734370    0.299999893
    0.494067669    0.994067669    0.599999845
    0.077401005    0.327401042    0.149999961
    0.910734296    0.160734341    0.449999869
    0.744067550    0.994067609    0.749999881
    0.744067729    0.994067729    0.149999961
    0.577401042    0.827401042    0.449999869
    0.410734296    0.660734296    0.749999881
    0.410734385    0.660734415    0.149999961
    0.244067669    0.494067669    0.449999869
    0.077400930    0.327400923    0.749999881
    0.989384770    0.973461866    0.749999881
    0.878273606    0.695684075    0.849999845
    0.767162442    0.417906225    0.949999869
    0.489384741    0.973461866    0.749999881
    0.378273547    0.695684075    0.849999845
    0.267162383    0.417906225    0.949999869
    0.683829129    0.084572926    0.799999893
    0.572717965    0.806795120    0.899999917
    0.461606801    0.529017210    0.999999940
    0.183829144    0.084572934    0.799999893
    0.072717994    0.806795120    0.899999917
    0.961606801    0.529017210    0.999999821
