Sn+Si                                   
   1.00000000000000     
    12.9784002300000001    0.0000000000000000    0.0000000000000000
     0.0000000000000000   19.4675998690000007    0.0000000000000000
     0.0000000000000000    0.0000000000000000   17.7122440340000011
   Sn   Si
    72   144
Direct
  0.9925526379999994  0.6666666870000029  0.0000000000000000
  0.7425526379999994  0.6666666870000029  0.1831840569999983
  0.4925526979999972  0.6666666870000029  0.3663679960000010
  0.9925526379999994  0.3333333429999996  0.0000000000000000
  0.7425526379999994  0.3333333429999996  0.1831840569999983
  0.4925526979999972  0.3333333429999996  0.3663679960000010
  0.9925526379999994  0.0000000000000000  0.0000000000000000
  0.7425526379999994  0.0000000000000000  0.1831840569999983
  0.4925526979999972  0.0000000000000000  0.3663679960000010
  0.4925526680000019  0.6666666870000029  0.0000000000000000
  0.2425526680000019  0.6666666870000029  0.1831840569999983
  0.9925526979999972  0.6666666870000029  0.3663679960000010
  0.4925526680000019  0.3333333429999996  0.0000000000000000
  0.2425526680000019  0.3333333429999996  0.1831840569999983
  0.9925526979999972  0.3333333429999996  0.3663679960000010
  0.4925526680000019  0.0000000000000000  0.0000000000000000
  0.2425526680000019  0.0000000000000000  0.1831840569999983
  0.9925526979999972  0.0000000000000000  0.3663679960000010
  0.1175526600000012  0.9166667459999971  0.0915920209999967
  0.8675526979999972  0.9166667459999971  0.2747760419999992
  0.6175526379999994  0.9166667459999971  0.4579600989999975
  0.1175526600000012  0.5833334330000000  0.0915920209999967
  0.8675526979999972  0.5833334330000000  0.2747760419999992
  0.6175526379999994  0.5833334330000000  0.4579600989999975
  0.1175526600000012  0.2500000000000000  0.0915920209999967
  0.8675526979999972  0.2500000000000000  0.2747760419999992
  0.6175526379999994  0.2500000000000000  0.4579600989999975
  0.6175526379999994  0.9166667459999971  0.0915920209999967
  0.3675527270000032  0.9166667459999971  0.2747760419999992
  0.1175526749999989  0.9166667459999971  0.4579600989999975
  0.6175526379999994  0.5833334330000000  0.0915920209999967
  0.3675527270000032  0.5833334330000000  0.2747760419999992
  0.1175526749999989  0.5833334330000000  0.4579600989999975
  0.6175526379999994  0.2500000000000000  0.0915920209999967
  0.3675527270000032  0.2500000000000000  0.2747760419999992
  0.1175526749999989  0.2500000000000000  0.4579600989999975
  0.2425526680000019  0.8333333129999971  0.0000000000000000
  0.9925526379999994  0.8333333129999971  0.1831840569999983
  0.7425526979999972  0.8333333129999971  0.3663679960000010
  0.2425526680000019  0.5000000000000000  0.0000000000000000
  0.9925526379999994  0.5000000000000000  0.1831840569999983
  0.7425526979999972  0.5000000000000000  0.3663679960000010
  0.2425526680000019  0.1666666719999981  0.0000000000000000
  0.9925526379999994  0.1666666719999981  0.1831840569999983
  0.7425526979999972  0.1666666719999981  0.3663679960000010
  0.7425526379999994  0.8333333129999971  0.0000000000000000
  0.4925526680000019  0.8333333129999971  0.1831840569999983
  0.2425527270000032  0.8333333129999971  0.3663679960000010
  0.7425526379999994  0.5000000000000000  0.0000000000000000
  0.4925526680000019  0.5000000000000000  0.1831840569999983
  0.2425527270000032  0.5000000000000000  0.3663679960000010
  0.7425526379999994  0.1666666719999981  0.0000000000000000
  0.4925526680000019  0.1666666719999981  0.1831840569999983
  0.2425527270000032  0.1666666719999981  0.3663679960000010
  0.3675526680000019  0.7500000599999979  0.0915920209999967
  0.1175527199999991  0.7500000599999979  0.2747760419999992
  0.8675526979999972  0.7500000599999979  0.4579600989999975
  0.3675526680000019  0.4166667160000017  0.0915920209999967
  0.1175527199999991  0.4166667160000017  0.2747760419999992
  0.8675526979999972  0.4166667160000017  0.4579600989999975
  0.3675526680000019  0.0833333429999996  0.0915920209999967
  0.1175527199999991  0.0833333429999996  0.2747760419999992
  0.8675526979999972  0.0833333429999996  0.4579600989999975
  0.8675526379999994  0.7500000599999979  0.0915920209999967
  0.6175526979999972  0.7500000599999979  0.2747760419999992
  0.3675526379999994  0.7500000599999979  0.4579600989999975
  0.8675526379999994  0.4166667160000017  0.0915920209999967
  0.6175526979999972  0.4166667160000017  0.2747760419999992
  0.3675526379999994  0.4166667160000017  0.4579600989999975
  0.8675526379999994  0.0833333429999996  0.0915920209999967
  0.6175526979999972  0.0833333429999996  0.2747760419999992
  0.3675526379999994  0.0833333429999996  0.4579600989999975
  0.9785172939999995  0.0000000000000000  0.4579601590000024
  0.7285171750000003  0.9999999400000021  0.5663682220000013
  0.4785171150000025  0.9999998810000008  0.6747761370000021
  0.2285169960000033  0.9999998210000030  0.7831841710000020
  0.9785169359999983  0.9999998210000030  0.8915920849999992
  0.7285169359999983  0.9999997019999967  0.0000000000000000
  0.6451839799999988  0.1666666570000004  0.4579601590000024
  0.3951838910000021  0.1666665970000025  0.5663682220000013
  0.1451838609999996  0.1666665670000000  0.6747761370000021
  0.8951838019999983  0.1666665230000035  0.7831840520000029
  0.6451835630000033  0.1666664629999985  0.8915920849999992
  0.3951836230000012  0.1666664030000007  0.0000000000000000
  0.3118506369999992  0.3333333429999996  0.4579601590000024
  0.0618505289999973  0.3333332839999983  0.5663682220000013
  0.8118504879999975  0.3333332540000029  0.6747761370000021
  0.5618504290000033  0.3333331939999979  0.7831840520000029
  0.3118502499999991  0.3333331349999966  0.8915920849999992
  0.0618501900000012  0.3333331050000012  0.0000000000000000
  0.9785172340000017  0.5000000000000000  0.4579601590000024
  0.7285171750000003  0.4999999699999975  0.5663682220000013
  0.4785171150000025  0.4999999400000021  0.6747761370000021
  0.2285170560000012  0.4999998210000030  0.7831840520000029
  0.9785169359999983  0.4999998210000030  0.8915920849999992
  0.7285168169999992  0.4999997910000005  0.0000000000000000
  0.6451839799999988  0.6666666870000029  0.4579600989999975
  0.3951838910000021  0.6666666269999979  0.5663682220000013
  0.1451838170000030  0.6666666269999979  0.6747761370000021
  0.8951837420000004  0.6666665670000000  0.7831840520000029
  0.6451835630000033  0.6666665079999987  0.8915920849999992
  0.3951835630000033  0.6666664480000009  0.0000000000000000
  0.3118506369999992  0.8333334330000000  0.4579600989999975
  0.0618505810000016  0.8333333730000021  0.5663682220000013
  0.8118504879999975  0.8333333129999971  0.6747761370000021
  0.5618504290000033  0.8333332540000029  0.7831840520000029
  0.3118503090000004  0.8333331939999979  0.8915920849999992
  0.0618501900000012  0.8333331939999979  0.0000000000000000
  0.4785172939999995  0.0000000109999974  0.4579601590000024
  0.2285172050000028  0.9999999400000021  0.5663682220000013
  0.9785171750000003  0.9999998810000008  0.6747761370000021
  0.7285170560000012  0.9999998810000008  0.7831840520000029
  0.4785168769999970  0.9999997620000016  0.8915920849999992
  0.2285168769999970  0.9999997620000016  0.0000000000000000
  0.1451839509999999  0.1666666719999981  0.4579601590000024
  0.8951838609999996  0.1666666120000002  0.5663682220000013
  0.6451838019999983  0.1666665819999977  0.6747761370000021
  0.3951837420000004  0.1666665230000035  0.7831840520000029
  0.1451835040000020  0.1666664629999985  0.8915920849999992
  0.8951835630000033  0.1666663889999995  0.0000000000000000
  0.8118506069999967  0.3333333730000021  0.4579601590000024
  0.5618505480000024  0.3333333129999971  0.5663682220000013
  0.3118505180000000  0.3333332540000029  0.6747761370000021
  0.0618504250000029  0.3333331939999979  0.7831840520000029
  0.8118502499999991  0.3333331640000026  0.8915920849999992
  0.5618502499999991  0.3333331349999966  0.0000000000000000
  0.4785173240000020  0.5000000599999979  0.4579601590000024
  0.2285172189999969  0.5000000000000000  0.5663682220000013
  0.9785171750000003  0.4999999400000021  0.6747761370000021
  0.7285170560000012  0.4999998509999983  0.7831840520000029
  0.4785169359999983  0.4999998509999983  0.8915920849999992
  0.2285169359999983  0.4999997620000016  0.0000000000000000
  0.1451839360000022  0.6666666870000029  0.4579601590000024
  0.8951838609999996  0.6666666269999979  0.5663682220000013
  0.6451838019999983  0.6666666269999979  0.6747761370000021
  0.3951838019999983  0.6666665670000000  0.7831840520000029
  0.1451835630000033  0.6666664480000009  0.8915920849999992
  0.8951834439999971  0.6666665079999987  0.0000000000000000
  0.8118506670000016  0.8333334330000000  0.4579601590000024
  0.5618505480000024  0.8333333129999971  0.5663682220000013
  0.3118505180000000  0.8333333129999971  0.6747761960000034
  0.0618504469999976  0.8333332540000029  0.7831841710000020
  0.8118503090000004  0.8333331939999979  0.8915920849999992
  0.5618502499999991  0.8333331939999979  0.0000000000000000
  0.6451840399999966  0.0416666530000001  0.4579601590000024
  0.3951839209999974  0.0416666010000029  0.5663682220000013
  0.1451838910000021  0.0416665520000024  0.6747761370000021
  0.8951838019999983  0.0416665079999987  0.7831841710000020
  0.6451836820000025  0.0416664330000032  0.8915920849999992
  0.3951835630000033  0.0416664030000007  0.0000000000000000
  0.3118506369999992  0.2083333429999996  0.4579601590000024
  0.0618505440000021  0.2083332839999983  0.5663682220000013
  0.8118505480000024  0.2083332240000004  0.6747761370000021
  0.5618504290000033  0.2083331939999979  0.7831841710000020
  0.3118501900000012  0.2083331500000014  0.8915920849999992
  0.0618502499999991  0.2083331199999989  0.0000000000000000
  0.9785172939999995  0.3750000000000000  0.4579601590000024
  0.7285171750000003  0.3749999400000021  0.5663682220000013
  0.4785171750000003  0.3749999110000033  0.6747761370000021
  0.2285170560000012  0.3749998509999983  0.7831841710000020
  0.9785169359999983  0.3749998210000030  0.8915920849999992
  0.7285168169999992  0.3749997910000005  0.0000000000000000
  0.6451840399999966  0.5416667459999971  0.4579601590000024
  0.3951839799999988  0.5416666870000029  0.5663682220000013
  0.1451839209999974  0.5416666269999979  0.6747761370000021
  0.8951838609999996  0.5416665670000000  0.7831841710000020
  0.6451836820000025  0.5416665670000000  0.8915920849999992
  0.3951836230000012  0.5416665079999987  0.0000000000000000
  0.3118506670000016  0.7083333730000021  0.4579601590000024
  0.0618505589999998  0.7083333129999971  0.5663682220000013
  0.8118504879999975  0.7083332540000029  0.6747761370000021
  0.5618504290000033  0.7083331939999979  0.7831841710000020
  0.3118502499999991  0.7083331349999966  0.8915920849999992
  0.0618501309999999  0.7083330749999988  0.0000000000000000
  0.9785172939999995  0.8750000599999979  0.4579601590000024
  0.7285171750000003  0.8750000000000000  0.5663682220000013
  0.4785171150000025  0.8749999400000021  0.6747761370000021
  0.2285170560000012  0.8749998210000030  0.7831841710000020
  0.9785169359999983  0.8749998210000030  0.8915920849999992
  0.7285168169999992  0.8749998210000030  0.0000000000000000
  0.1451839360000022  0.0416666599999971  0.4579601590000024
  0.8951838019999983  0.0416666079999999  0.5663682220000013
  0.6451838019999983  0.0416665489999986  0.6747761370000021
  0.3951836820000025  0.0416665079999987  0.7831840520000029
  0.1451835630000033  0.0416664629999985  0.8915920849999992
  0.8951835630000033  0.0416663889999995  0.0000000000000000
  0.8118505480000024  0.2083333579999973  0.4579601590000024
  0.5618504879999975  0.2083333129999971  0.5663682220000013
  0.3118504580000021  0.2083332690000006  0.6747761370000021
  0.0618503210000014  0.2083332090000027  0.7831841710000020
  0.8118501900000012  0.2083331640000026  0.8915920849999992
  0.5618501309999999  0.2083331349999966  0.0000000000000000
  0.4785172639999971  0.3750000000000000  0.4579601590000024
  0.2285171899999980  0.3749999699999975  0.5663682220000013
  0.9785171750000003  0.3749999110000033  0.6747761370000021
  0.7285170560000012  0.3749998509999983  0.7831841710000020
  0.4785168769999970  0.3749997910000005  0.8915920849999992
  0.2285168769999970  0.3749997620000016  0.0000000000000000
  0.1451839209999974  0.5416666870000029  0.4579601590000024
  0.8951838609999996  0.5416666870000029  0.5663682220000013
  0.6451838019999983  0.5416666269999979  0.6747761370000021
  0.3951836820000025  0.5416665670000000  0.7831841710000020
  0.1451835630000033  0.5416665670000000  0.8915920849999992
  0.8951835630000033  0.5416664480000009  0.0000000000000000
  0.8118506670000016  0.7083334330000000  0.4579600989999975
  0.5618505480000024  0.7083333129999971  0.5663682220000013
  0.3118505480000024  0.7083333129999971  0.6747761370000021
  0.0618504400000006  0.7083332540000029  0.7831841710000020
  0.8118503090000004  0.7083332540000029  0.8915920849999992
  0.5618501900000012  0.7083331939999979  0.0000000000000000
  0.4785173240000020  0.8750001189999992  0.4579600989999975
  0.2285172050000028  0.8750000000000000  0.5663682220000013
  0.9785171150000025  0.8750000000000000  0.6747761370000021
  0.7285170560000012  0.8749999400000021  0.7831841710000020
  0.4785169359999983  0.8749999400000021  0.8915920849999992
  0.2285168769999970  0.8749998210000030  0.0000000000000000
 
  0.00000000E+00  0.00000000E+00  0.00000000E+00
  0.00000000E+00  0.00000000E+00  0.00000000E+00
  0.00000000E+00  0.00000000E+00  0.00000000E+00
  0.00000000E+00  0.00000000E+00  0.00000000E+00
  0.00000000E+00  0.00000000E+00  0.00000000E+00
  0.00000000E+00  0.00000000E+00  0.00000000E+00
  0.00000000E+00  0.00000000E+00  0.00000000E+00
  0.00000000E+00  0.00000000E+00  0.00000000E+00
  0.00000000E+00  0.00000000E+00  0.00000000E+00
  0.00000000E+00  0.00000000E+00  0.00000000E+00
  0.00000000E+00  0.00000000E+00  0.00000000E+00
  0.00000000E+00  0.00000000E+00  0.00000000E+00
  0.00000000E+00  0.00000000E+00  0.00000000E+00
  0.00000000E+00  0.00000000E+00  0.00000000E+00
  0.00000000E+00  0.00000000E+00  0.00000000E+00
  0.00000000E+00  0.00000000E+00  0.00000000E+00
  0.00000000E+00  0.00000000E+00  0.00000000E+00
  0.00000000E+00  0.00000000E+00  0.00000000E+00
  0.00000000E+00  0.00000000E+00  0.00000000E+00
  0.00000000E+00  0.00000000E+00  0.00000000E+00
  0.00000000E+00  0.00000000E+00  0.00000000E+00
  0.00000000E+00  0.00000000E+00  0.00000000E+00
  0.00000000E+00  0.00000000E+00  0.00000000E+00
  0.00000000E+00  0.00000000E+00  0.00000000E+00
  0.00000000E+00  0.00000000E+00  0.00000000E+00
  0.00000000E+00  0.00000000E+00  0.00000000E+00
  0.00000000E+00  0.00000000E+00  0.00000000E+00
  0.00000000E+00  0.00000000E+00  0.00000000E+00
  0.00000000E+00  0.00000000E+00  0.00000000E+00
  0.00000000E+00  0.00000000E+00  0.00000000E+00
  0.00000000E+00  0.00000000E+00  0.00000000E+00
  0.00000000E+00  0.00000000E+00  0.00000000E+00
  0.00000000E+00  0.00000000E+00  0.00000000E+00
  0.00000000E+00  0.00000000E+00  0.00000000E+00
  0.00000000E+00  0.00000000E+00  0.00000000E+00
  0.00000000E+00  0.00000000E+00  0.00000000E+00
  0.00000000E+00  0.00000000E+00  0.00000000E+00
  0.00000000E+00  0.00000000E+00  0.00000000E+00
  0.00000000E+00  0.00000000E+00  0.00000000E+00
  0.00000000E+00  0.00000000E+00  0.00000000E+00
  0.00000000E+00  0.00000000E+00  0.00000000E+00
  0.00000000E+00  0.00000000E+00  0.00000000E+00
  0.00000000E+00  0.00000000E+00  0.00000000E+00
  0.00000000E+00  0.00000000E+00  0.00000000E+00
  0.00000000E+00  0.00000000E+00  0.00000000E+00
  0.00000000E+00  0.00000000E+00  0.00000000E+00
  0.00000000E+00  0.00000000E+00  0.00000000E+00
  0.00000000E+00  0.00000000E+00  0.00000000E+00
  0.00000000E+00  0.00000000E+00  0.00000000E+00
  0.00000000E+00  0.00000000E+00  0.00000000E+00
  0.00000000E+00  0.00000000E+00  0.00000000E+00
  0.00000000E+00  0.00000000E+00  0.00000000E+00
  0.00000000E+00  0.00000000E+00  0.00000000E+00
  0.00000000E+00  0.00000000E+00  0.00000000E+00
  0.00000000E+00  0.00000000E+00  0.00000000E+00
  0.00000000E+00  0.00000000E+00  0.00000000E+00
  0.00000000E+00  0.00000000E+00  0.00000000E+00
  0.00000000E+00  0.00000000E+00  0.00000000E+00
  0.00000000E+00  0.00000000E+00  0.00000000E+00
  0.00000000E+00  0.00000000E+00  0.00000000E+00
  0.00000000E+00  0.00000000E+00  0.00000000E+00
  0.00000000E+00  0.00000000E+00  0.00000000E+00
  0.00000000E+00  0.00000000E+00  0.00000000E+00
  0.00000000E+00  0.00000000E+00  0.00000000E+00
  0.00000000E+00  0.00000000E+00  0.00000000E+00
  0.00000000E+00  0.00000000E+00  0.00000000E+00
  0.00000000E+00  0.00000000E+00  0.00000000E+00
  0.00000000E+00  0.00000000E+00  0.00000000E+00
  0.00000000E+00  0.00000000E+00  0.00000000E+00
  0.00000000E+00  0.00000000E+00  0.00000000E+00
  0.00000000E+00  0.00000000E+00  0.00000000E+00
  0.00000000E+00  0.00000000E+00  0.00000000E+00
  0.00000000E+00  0.00000000E+00  0.00000000E+00
  0.00000000E+00  0.00000000E+00  0.00000000E+00
  0.00000000E+00  0.00000000E+00  0.00000000E+00
  0.00000000E+00  0.00000000E+00  0.00000000E+00
  0.00000000E+00  0.00000000E+00  0.00000000E+00
  0.00000000E+00  0.00000000E+00  0.00000000E+00
  0.00000000E+00  0.00000000E+00  0.00000000E+00
  0.00000000E+00  0.00000000E+00  0.00000000E+00
  0.00000000E+00  0.00000000E+00  0.00000000E+00
  0.00000000E+00  0.00000000E+00  0.00000000E+00
  0.00000000E+00  0.00000000E+00  0.00000000E+00
  0.00000000E+00  0.00000000E+00  0.00000000E+00
  0.00000000E+00  0.00000000E+00  0.00000000E+00
  0.00000000E+00  0.00000000E+00  0.00000000E+00
  0.00000000E+00  0.00000000E+00  0.00000000E+00
  0.00000000E+00  0.00000000E+00  0.00000000E+00
  0.00000000E+00  0.00000000E+00  0.00000000E+00
  0.00000000E+00  0.00000000E+00  0.00000000E+00
  0.00000000E+00  0.00000000E+00  0.00000000E+00
  0.00000000E+00  0.00000000E+00  0.00000000E+00
  0.00000000E+00  0.00000000E+00  0.00000000E+00
  0.00000000E+00  0.00000000E+00  0.00000000E+00
  0.00000000E+00  0.00000000E+00  0.00000000E+00
  0.00000000E+00  0.00000000E+00  0.00000000E+00
  0.00000000E+00  0.00000000E+00  0.00000000E+00
  0.00000000E+00  0.00000000E+00  0.00000000E+00
  0.00000000E+00  0.00000000E+00  0.00000000E+00
  0.00000000E+00  0.00000000E+00  0.00000000E+00
  0.00000000E+00  0.00000000E+00  0.00000000E+00
  0.00000000E+00  0.00000000E+00  0.00000000E+00
  0.00000000E+00  0.00000000E+00  0.00000000E+00
  0.00000000E+00  0.00000000E+00  0.00000000E+00
  0.00000000E+00  0.00000000E+00  0.00000000E+00
  0.00000000E+00  0.00000000E+00  0.00000000E+00
  0.00000000E+00  0.00000000E+00  0.00000000E+00
  0.00000000E+00  0.00000000E+00  0.00000000E+00
  0.00000000E+00  0.00000000E+00  0.00000000E+00
  0.00000000E+00  0.00000000E+00  0.00000000E+00
  0.00000000E+00  0.00000000E+00  0.00000000E+00
  0.00000000E+00  0.00000000E+00  0.00000000E+00
  0.00000000E+00  0.00000000E+00  0.00000000E+00
  0.00000000E+00  0.00000000E+00  0.00000000E+00
  0.00000000E+00  0.00000000E+00  0.00000000E+00
  0.00000000E+00  0.00000000E+00  0.00000000E+00
  0.00000000E+00  0.00000000E+00  0.00000000E+00
  0.00000000E+00  0.00000000E+00  0.00000000E+00
  0.00000000E+00  0.00000000E+00  0.00000000E+00
  0.00000000E+00  0.00000000E+00  0.00000000E+00
  0.00000000E+00  0.00000000E+00  0.00000000E+00
  0.00000000E+00  0.00000000E+00  0.00000000E+00
  0.00000000E+00  0.00000000E+00  0.00000000E+00
  0.00000000E+00  0.00000000E+00  0.00000000E+00
  0.00000000E+00  0.00000000E+00  0.00000000E+00
  0.00000000E+00  0.00000000E+00  0.00000000E+00
  0.00000000E+00  0.00000000E+00  0.00000000E+00
  0.00000000E+00  0.00000000E+00  0.00000000E+00
  0.00000000E+00  0.00000000E+00  0.00000000E+00
  0.00000000E+00  0.00000000E+00  0.00000000E+00
  0.00000000E+00  0.00000000E+00  0.00000000E+00
  0.00000000E+00  0.00000000E+00  0.00000000E+00
  0.00000000E+00  0.00000000E+00  0.00000000E+00
  0.00000000E+00  0.00000000E+00  0.00000000E+00
  0.00000000E+00  0.00000000E+00  0.00000000E+00
  0.00000000E+00  0.00000000E+00  0.00000000E+00
  0.00000000E+00  0.00000000E+00  0.00000000E+00
  0.00000000E+00  0.00000000E+00  0.00000000E+00
  0.00000000E+00  0.00000000E+00  0.00000000E+00
  0.00000000E+00  0.00000000E+00  0.00000000E+00
  0.00000000E+00  0.00000000E+00  0.00000000E+00
  0.00000000E+00  0.00000000E+00  0.00000000E+00
  0.00000000E+00  0.00000000E+00  0.00000000E+00
  0.00000000E+00  0.00000000E+00  0.00000000E+00
  0.00000000E+00  0.00000000E+00  0.00000000E+00
  0.00000000E+00  0.00000000E+00  0.00000000E+00
  0.00000000E+00  0.00000000E+00  0.00000000E+00
  0.00000000E+00  0.00000000E+00  0.00000000E+00
  0.00000000E+00  0.00000000E+00  0.00000000E+00
  0.00000000E+00  0.00000000E+00  0.00000000E+00
  0.00000000E+00  0.00000000E+00  0.00000000E+00
  0.00000000E+00  0.00000000E+00  0.00000000E+00
  0.00000000E+00  0.00000000E+00  0.00000000E+00
  0.00000000E+00  0.00000000E+00  0.00000000E+00
  0.00000000E+00  0.00000000E+00  0.00000000E+00
  0.00000000E+00  0.00000000E+00  0.00000000E+00
  0.00000000E+00  0.00000000E+00  0.00000000E+00
  0.00000000E+00  0.00000000E+00  0.00000000E+00
  0.00000000E+00  0.00000000E+00  0.00000000E+00
  0.00000000E+00  0.00000000E+00  0.00000000E+00
  0.00000000E+00  0.00000000E+00  0.00000000E+00
  0.00000000E+00  0.00000000E+00  0.00000000E+00
  0.00000000E+00  0.00000000E+00  0.00000000E+00
  0.00000000E+00  0.00000000E+00  0.00000000E+00
  0.00000000E+00  0.00000000E+00  0.00000000E+00
  0.00000000E+00  0.00000000E+00  0.00000000E+00
  0.00000000E+00  0.00000000E+00  0.00000000E+00
  0.00000000E+00  0.00000000E+00  0.00000000E+00
  0.00000000E+00  0.00000000E+00  0.00000000E+00
  0.00000000E+00  0.00000000E+00  0.00000000E+00
  0.00000000E+00  0.00000000E+00  0.00000000E+00
  0.00000000E+00  0.00000000E+00  0.00000000E+00
  0.00000000E+00  0.00000000E+00  0.00000000E+00
  0.00000000E+00  0.00000000E+00  0.00000000E+00
  0.00000000E+00  0.00000000E+00  0.00000000E+00
  0.00000000E+00  0.00000000E+00  0.00000000E+00
  0.00000000E+00  0.00000000E+00  0.00000000E+00
  0.00000000E+00  0.00000000E+00  0.00000000E+00
  0.00000000E+00  0.00000000E+00  0.00000000E+00
  0.00000000E+00  0.00000000E+00  0.00000000E+00
  0.00000000E+00  0.00000000E+00  0.00000000E+00
  0.00000000E+00  0.00000000E+00  0.00000000E+00
  0.00000000E+00  0.00000000E+00  0.00000000E+00
  0.00000000E+00  0.00000000E+00  0.00000000E+00
  0.00000000E+00  0.00000000E+00  0.00000000E+00
  0.00000000E+00  0.00000000E+00  0.00000000E+00
  0.00000000E+00  0.00000000E+00  0.00000000E+00
  0.00000000E+00  0.00000000E+00  0.00000000E+00
  0.00000000E+00  0.00000000E+00  0.00000000E+00
  0.00000000E+00  0.00000000E+00  0.00000000E+00
  0.00000000E+00  0.00000000E+00  0.00000000E+00
  0.00000000E+00  0.00000000E+00  0.00000000E+00
  0.00000000E+00  0.00000000E+00  0.00000000E+00
  0.00000000E+00  0.00000000E+00  0.00000000E+00
  0.00000000E+00  0.00000000E+00  0.00000000E+00
  0.00000000E+00  0.00000000E+00  0.00000000E+00
  0.00000000E+00  0.00000000E+00  0.00000000E+00
  0.00000000E+00  0.00000000E+00  0.00000000E+00
  0.00000000E+00  0.00000000E+00  0.00000000E+00
  0.00000000E+00  0.00000000E+00  0.00000000E+00
  0.00000000E+00  0.00000000E+00  0.00000000E+00
  0.00000000E+00  0.00000000E+00  0.00000000E+00
  0.00000000E+00  0.00000000E+00  0.00000000E+00
  0.00000000E+00  0.00000000E+00  0.00000000E+00
  0.00000000E+00  0.00000000E+00  0.00000000E+00
  0.00000000E+00  0.00000000E+00  0.00000000E+00
  0.00000000E+00  0.00000000E+00  0.00000000E+00
  0.00000000E+00  0.00000000E+00  0.00000000E+00
  0.00000000E+00  0.00000000E+00  0.00000000E+00
  0.00000000E+00  0.00000000E+00  0.00000000E+00
  0.00000000E+00  0.00000000E+00  0.00000000E+00
  0.00000000E+00  0.00000000E+00  0.00000000E+00
  0.00000000E+00  0.00000000E+00  0.00000000E+00
  0.00000000E+00  0.00000000E+00  0.00000000E+00
  0.00000000E+00  0.00000000E+00  0.00000000E+00
  0.00000000E+00  0.00000000E+00  0.00000000E+00
