Sn+Si
    1.000000000
   12.978400230    0.000000000    0.000000000
    0.000000000   19.467599869    0.000000000
    0.000000000    0.000000000   17.712244034
Sn  Si 
72     144
Direct
    0.992552638    0.666666687    0.000000000
    0.742552638    0.666666687    0.183184057
    0.492552698    0.666666687    0.366367996
    0.992552638    0.333333343    0.000000000
    0.742552638    0.333333343    0.183184057
    0.492552698    0.333333343    0.366367996
    0.992552638    0.000000000    0.000000000
    0.742552638    0.000000000    0.183184057
    0.492552698    0.000000000    0.366367996
    0.492552668    0.666666687    0.000000000
    0.242552668    0.666666687    0.183184057
    0.992552698    0.666666687    0.366367996
    0.492552668    0.333333343    0.000000000
    0.242552668    0.333333343    0.183184057
    0.992552698    0.333333343    0.366367996
    0.492552668    0.000000000    0.000000000
    0.242552668    0.000000000    0.183184057
    0.992552698    0.000000000    0.366367996
    0.117552660    0.916666746    0.091592021
    0.867552698    0.916666746    0.274776042
    0.617552638    0.916666746    0.457960099
    0.117552660    0.583333433    0.091592021
    0.867552698    0.583333433    0.274776042
    0.617552638    0.583333433    0.457960099
    0.117552660    0.250000000    0.091592021
    0.867552698    0.250000000    0.274776042
    0.617552638    0.250000000    0.457960099
    0.617552638    0.916666746    0.091592021
    0.367552727    0.916666746    0.274776042
    0.117552675    0.916666746    0.457960099
    0.617552638    0.583333433    0.091592021
    0.367552727    0.583333433    0.274776042
    0.117552675    0.583333433    0.457960099
    0.617552638    0.250000000    0.091592021
    0.367552727    0.250000000    0.274776042
    0.117552675    0.250000000    0.457960099
    0.242552668    0.833333313    0.000000000
    0.992552638    0.833333313    0.183184057
    0.742552698    0.833333313    0.366367996
    0.242552668    0.500000000    0.000000000
    0.992552638    0.500000000    0.183184057
    0.742552698    0.500000000    0.366367996
    0.242552668    0.166666672    0.000000000
    0.992552638    0.166666672    0.183184057
    0.742552698    0.166666672    0.366367996
    0.742552638    0.833333313    0.000000000
    0.492552668    0.833333313    0.183184057
    0.242552727    0.833333313    0.366367996
    0.742552638    0.500000000    0.000000000
    0.492552668    0.500000000    0.183184057
    0.242552727    0.500000000    0.366367996
    0.742552638    0.166666672    0.000000000
    0.492552668    0.166666672    0.183184057
    0.242552727    0.166666672    0.366367996
    0.367552668    0.750000060    0.091592021
    0.117552720    0.750000060    0.274776042
    0.867552698    0.750000060    0.457960099
    0.367552668    0.416666716    0.091592021
    0.117552720    0.416666716    0.274776042
    0.867552698    0.416666716    0.457960099
    0.367552668    0.083333343    0.091592021
    0.117552720    0.083333343    0.274776042
    0.867552698    0.083333343    0.457960099
    0.867552638    0.750000060    0.091592021
    0.617552698    0.750000060    0.274776042
    0.367552638    0.750000060    0.457960099
    0.867552638    0.416666716    0.091592021
    0.617552698    0.416666716    0.274776042
    0.367552638    0.416666716    0.457960099
    0.867552638    0.083333343    0.091592021
    0.617552698    0.083333343    0.274776042
    0.367552638    0.083333343    0.457960099
    0.978517294    0.000000000    0.457960159
    0.728517175    0.999999940    0.566368222
    0.478517115    0.999999881    0.674776137
    0.228516996    0.999999821    0.783184171
    0.978516936    0.999999821    0.891592085
    0.728516936    0.999999702    1.000000000
    0.645183980    0.166666657    0.457960159
    0.395183891    0.166666597    0.566368222
    0.145183861    0.166666567    0.674776137
    0.895183802    0.166666523    0.783184052
    0.645183563    0.166666463    0.891592085
    0.395183623    0.166666403    1.000000000
    0.311850637    0.333333343    0.457960159
    0.061850529    0.333333284    0.566368222
    0.811850488    0.333333254    0.674776137
    0.561850429    0.333333194    0.783184052
    0.311850250    0.333333135    0.891592085
    0.061850190    0.333333105    1.000000000
    0.978517234    0.500000000    0.457960159
    0.728517175    0.499999970    0.566368222
    0.478517115    0.499999940    0.674776137
    0.228517056    0.499999821    0.783184052
    0.978516936    0.499999821    0.891592085
    0.728516817    0.499999791    1.000000000
    0.645183980    0.666666687    0.457960099
    0.395183891    0.666666627    0.566368222
    0.145183817    0.666666627    0.674776137
    0.895183742    0.666666567    0.783184052
    0.645183563    0.666666508    0.891592085
    0.395183563    0.666666448    1.000000000
    0.311850637    0.833333433    0.457960099
    0.061850581    0.833333373    0.566368222
    0.811850488    0.833333313    0.674776137
    0.561850429    0.833333254    0.783184052
    0.311850309    0.833333194    0.891592085
    0.061850190    0.833333194    1.000000000
    0.478517294    0.000000011    0.457960159
    0.228517205    0.999999940    0.566368222
    0.978517175    0.999999881    0.674776137
    0.728517056    0.999999881    0.783184052
    0.478516877    0.999999762    0.891592085
    0.228516877    0.999999762    1.000000000
    0.145183951    0.166666672    0.457960159
    0.895183861    0.166666612    0.566368222
    0.645183802    0.166666582    0.674776137
    0.395183742    0.166666523    0.783184052
    0.145183504    0.166666463    0.891592085
    0.895183563    0.166666389    1.000000000
    0.811850607    0.333333373    0.457960159
    0.561850548    0.333333313    0.566368222
    0.311850518    0.333333254    0.674776137
    0.061850425    0.333333194    0.783184052
    0.811850250    0.333333164    0.891592085
    0.561850250    0.333333135    1.000000000
    0.478517324    0.500000060    0.457960159
    0.228517219    0.500000000    0.566368222
    0.978517175    0.499999940    0.674776137
    0.728517056    0.499999851    0.783184052
    0.478516936    0.499999851    0.891592085
    0.228516936    0.499999762    1.000000000
    0.145183936    0.666666687    0.457960159
    0.895183861    0.666666627    0.566368222
    0.645183802    0.666666627    0.674776137
    0.395183802    0.666666567    0.783184052
    0.145183563    0.666666448    0.891592085
    0.895183444    0.666666508    1.000000000
    0.811850667    0.833333433    0.457960159
    0.561850548    0.833333313    0.566368222
    0.311850518    0.833333313    0.674776196
    0.061850447    0.833333254    0.783184171
    0.811850309    0.833333194    0.891592085
    0.561850250    0.833333194    1.000000000
    0.645184040    0.041666653    0.457960159
    0.395183921    0.041666601    0.566368222
    0.145183891    0.041666552    0.674776137
    0.895183802    0.041666508    0.783184171
    0.645183682    0.041666433    0.891592085
    0.395183563    0.041666403    1.000000000
    0.311850637    0.208333343    0.457960159
    0.061850544    0.208333284    0.566368222
    0.811850548    0.208333224    0.674776137
    0.561850429    0.208333194    0.783184171
    0.311850190    0.208333150    0.891592085
    0.061850250    0.208333120    1.000000000
    0.978517294    0.375000000    0.457960159
    0.728517175    0.374999940    0.566368222
    0.478517175    0.374999911    0.674776137
    0.228517056    0.374999851    0.783184171
    0.978516936    0.374999821    0.891592085
    0.728516817    0.374999791    1.000000000
    0.645184040    0.541666746    0.457960159
    0.395183980    0.541666687    0.566368222
    0.145183921    0.541666627    0.674776137
    0.895183861    0.541666567    0.783184171
    0.645183682    0.541666567    0.891592085
    0.395183623    0.541666508    1.000000000
    0.311850667    0.708333373    0.457960159
    0.061850559    0.708333313    0.566368222
    0.811850488    0.708333254    0.674776137
    0.561850429    0.708333194    0.783184171
    0.311850250    0.708333135    0.891592085
    0.061850131    0.708333075    1.000000000
    0.978517294    0.875000060    0.457960159
    0.728517175    0.875000000    0.566368222
    0.478517115    0.874999940    0.674776137
    0.228517056    0.874999821    0.783184171
    0.978516936    0.874999821    0.891592085
    0.728516817    0.874999821    1.000000000
    0.145183936    0.041666660    0.457960159
    0.895183802    0.041666608    0.566368222
    0.645183802    0.041666549    0.674776137
    0.395183682    0.041666508    0.783184052
    0.145183563    0.041666463    0.891592085
    0.895183563    0.041666389    1.000000000
    0.811850548    0.208333358    0.457960159
    0.561850488    0.208333313    0.566368222
    0.311850458    0.208333269    0.674776137
    0.061850321    0.208333209    0.783184171
    0.811850190    0.208333164    0.891592085
    0.561850131    0.208333135    1.000000000
    0.478517264    0.375000000    0.457960159
    0.228517190    0.374999970    0.566368222
    0.978517175    0.374999911    0.674776137
    0.728517056    0.374999851    0.783184171
    0.478516877    0.374999791    0.891592085
    0.228516877    0.374999762    1.000000000
    0.145183921    0.541666687    0.457960159
    0.895183861    0.541666687    0.566368222
    0.645183802    0.541666627    0.674776137
    0.395183682    0.541666567    0.783184171
    0.145183563    0.541666567    0.891592085
    0.895183563    0.541666448    1.000000000
    0.811850667    0.708333433    0.457960099
    0.561850548    0.708333313    0.566368222
    0.311850548    0.708333313    0.674776137
    0.061850440    0.708333254    0.783184171
    0.811850309    0.708333254    0.891592085
    0.561850190    0.708333194    1.000000000
    0.478517324    0.875000119    0.457960099
    0.228517205    0.875000000    0.566368222
    0.978517115    0.875000000    0.674776137
    0.728517056    0.874999940    0.783184171
    0.478516936    0.874999940    0.891592085
    0.228516877    0.874999821    1.000000000
