Si+C                                    
   1.00000000000000     
    13.3031797409999992    0.0000000000000000    0.0000000000000000
    -6.6515893940000002   14.8734064099999994    0.0000000000000000
     0.0000000000000000    0.0000000000000000    8.1924047469999994
   Si   C 
    36    84
Direct
  0.0170943480000005  0.9914528130000022  0.0000000000000000
  0.2170944510000012  0.8914527299999975  0.1482359620000011
  0.4170945580000023  0.7914526460000033  0.2964719240000022
  0.0170943480000005  0.3247861270000030  0.0000000000000000
  0.2170944510000012  0.2247860430000017  0.1482359620000011
  0.4170945580000023  0.1247859449999993  0.2964719240000022
  0.0170943480000005  0.6581194999999980  0.0000000000000000
  0.2170944510000012  0.5581193570000025  0.1482359620000011
  0.4170945580000023  0.4581192429999987  0.2964719240000022
  0.3670942780000033  0.1914527859999993  0.0741178319999989
  0.5670943860000008  0.0914526950000010  0.2223538160000018
  0.7670944930000019  0.9914526339999981  0.3705897930000006
  0.3670942780000033  0.5247860549999999  0.0741178319999989
  0.5670943860000008  0.4247860010000011  0.2223538160000018
  0.7670944930000019  0.3247859180000034  0.3705897930000006
  0.3670942780000033  0.8581194280000020  0.0741178319999989
  0.5670943860000008  0.7581192259999980  0.2223538160000018
  0.7670944930000019  0.6581192020000017  0.3705897930000006
  0.5170943740000027  0.9914528130000022  0.0000000040000003
  0.7170944209999988  0.8914526699999996  0.1482359470000034
  0.9170945290000034  0.7914525870000020  0.2964719240000022
  0.5170943740000027  0.3247861270000030  0.0000000040000003
  0.7170944209999988  0.2247860129999992  0.1482359470000034
  0.9170945290000034  0.1247859220000009  0.2964719240000022
  0.5170943740000027  0.6581193800000023  0.0000000040000003
  0.7170944209999988  0.5581192969999975  0.1482359470000034
  0.9170945290000034  0.4581192429999987  0.2964719240000022
  0.8670942780000033  0.1914528009999970  0.0741178390000030
  0.0670944450000022  0.0914527250000035  0.2223538309999995
  0.2670943740000027  0.9914526339999981  0.3705897330000028
  0.8670942780000033  0.5247861149999977  0.0741178390000030
  0.0670944450000022  0.4247860010000011  0.2223538309999995
  0.2670943740000027  0.3247859180000034  0.3705897330000028
  0.8670942780000033  0.8581194879999998  0.0741178390000030
  0.0670944450000022  0.7581193449999972  0.2223538309999995
  0.2670943740000027  0.6581192610000031  0.3705897330000028
  0.7656631469999979  0.9629140500000020  0.7583101990000003
  0.1370916369999975  0.9914855959999969  0.5636027460000008
  0.4513773919999977  0.9771999120000032  0.6609565620000026
  0.9085202219999999  0.8200568560000008  0.7583102580000016
  0.2799487110000030  0.8486284609999970  0.5636027460000008
  0.5942344669999997  0.8343426590000007  0.6609565620000026
  0.0513772959999983  0.6771997809999988  0.7583101990000003
  0.4228059049999970  0.7057713270000008  0.5636027460000008
  0.7370916599999973  0.6914855839999987  0.6609565620000026
  0.1942346100000023  0.5343426470000026  0.7583101990000003
  0.5656630989999982  0.5629141929999975  0.5636027460000008
  0.8799488539999984  0.5486283899999975  0.6609565620000026
  0.3370916840000007  0.3914855120000027  0.7583101990000003
  0.7085201740000002  0.4200570579999976  0.5636027460000008
  0.0228059290000004  0.4057713150000026  0.6609565620000026
  0.4799487590000027  0.2486283479999969  0.7583101990000003
  0.8513772490000022  0.2771999240000014  0.5636027460000008
  0.1656630040000024  0.2629141509999968  0.6609565620000026
  0.6228060720000030  0.1057711839999982  0.7583101990000003
  0.9942344430000034  0.1343427899999980  0.5636027460000008
  0.3085201979999965  0.1200569869999981  0.6609565620000026
  0.3156630989999982  0.0629141329999996  0.8069868680000027
  0.6870913509999994  0.0914856200000003  0.6122795940000003
  0.0013773439999980  0.0771999359999995  0.7096332910000029
  0.4585201740000002  0.9200568799999971  0.8069869879999985
  0.8299484249999978  0.9486284259999991  0.6122795940000003
  0.1442341799999980  0.9343426229999992  0.7096332309999980
  0.6013774870000006  0.7771998050000022  0.8069869879999985
  0.9728057980000031  0.8057712909999992  0.6122795940000003
  0.2870917320000004  0.7914856080000021  0.7096332309999980
  0.7442345620000026  0.6343427300000002  0.8069869879999985
  0.1156628130000001  0.6629142170000009  0.6122795940000003
  0.4299488070000024  0.6486284730000023  0.7096332309999980
  0.8870913980000026  0.4914855359999990  0.8069869879999985
  0.2585200070000013  0.5200570820000010  0.6122795940000003
  0.5728057620000016  0.5057713389999989  0.7096332910000029
  0.0299487110000030  0.3486283419999978  0.8069869879999985
  0.4013772010000025  0.3771999479999977  0.6122795940000003
  0.7156629560000027  0.3629141449999977  0.7096332910000029
  0.1728060249999999  0.2057712670000029  0.8069869879999985
  0.5442342759999974  0.2343427989999967  0.6122795940000003
  0.8585200309999976  0.2200570400000004  0.7096332910000029
  0.2656631469999979  0.9629140500000020  0.7583102580000016
  0.6370916369999975  0.9914857150000032  0.5636027460000008
  0.9513773919999977  0.9771998519999983  0.6609565620000026
  0.4085204599999983  0.8200568560000008  0.7583102580000016
  0.7799489499999979  0.8486285210000020  0.5636027460000008
  0.0942344669999997  0.8343426590000007  0.6609565620000026
  0.5513775350000003  0.6771997210000009  0.7583102580000016
  0.9228060249999999  0.7057713869999986  0.5636027460000008
  0.2370917800000001  0.6914855839999987  0.6609565620000026
  0.6942346100000023  0.5343427059999968  0.7583102580000016
  0.0656629799999990  0.5629142519999988  0.5636027460000008
  0.3799488539999984  0.5486284489999989  0.6609565620000026
  0.8370916840000007  0.3914854530000014  0.7583101990000003
  0.2085201740000002  0.4200570579999976  0.5636027460000008
  0.5228059290000004  0.4057712549999977  0.6609565620000026
  0.9799488190000005  0.2486283479999969  0.7583101990000003
  0.3513772490000022  0.2771999240000014  0.5636027460000008
  0.6656631230000016  0.2629141210000014  0.6609565620000026
  0.1228060720000030  0.1057711839999982  0.7583101990000003
  0.4942344430000034  0.1343427899999980  0.5636027460000008
  0.8085203170000028  0.1200569869999981  0.6609565620000026
  0.8156629799999990  0.0629141329999996  0.8069869879999985
  0.1870914699999986  0.0914856200000003  0.6122795940000003
  0.5013772249999988  0.0771998170000003  0.7096332910000029
  0.9585200550000010  0.9200569990000034  0.8069869879999985
  0.3299485450000006  0.9486285449999983  0.6122795940000003
  0.6442343000000008  0.9343427419999983  0.7096332910000029
  0.1013772490000022  0.7771998050000022  0.8069868680000027
  0.4728057379999981  0.8057712909999992  0.6122795940000003
  0.7870916130000012  0.7914855479999972  0.7096332910000029
  0.2442345620000026  0.6343426110000010  0.8069869879999985
  0.6156629319999993  0.6629141570000030  0.6122795940000003
  0.9299486880000032  0.6486283540000031  0.7096332910000029
  0.3870916369999975  0.4914855359999990  0.8069869879999985
  0.7585198880000021  0.5200570229999997  0.6122796539999982
  0.0728058819999973  0.5057712790000011  0.7096332910000029
  0.5299489499999979  0.3486283720000003  0.8069871069999976
  0.9013772010000025  0.3771999479999977  0.6122795940000003
  0.2156629560000027  0.3629141750000002  0.7096332910000029
  0.6728060249999999  0.2057712820000006  0.8069868680000027
  0.0442342759999974  0.2343427839999990  0.6122795940000003
  0.3585202690000031  0.2200570700000029  0.7096332910000029
 
  0.00000000E+00  0.00000000E+00  0.00000000E+00
  0.00000000E+00  0.00000000E+00  0.00000000E+00
  0.00000000E+00  0.00000000E+00  0.00000000E+00
  0.00000000E+00  0.00000000E+00  0.00000000E+00
  0.00000000E+00  0.00000000E+00  0.00000000E+00
  0.00000000E+00  0.00000000E+00  0.00000000E+00
  0.00000000E+00  0.00000000E+00  0.00000000E+00
  0.00000000E+00  0.00000000E+00  0.00000000E+00
  0.00000000E+00  0.00000000E+00  0.00000000E+00
  0.00000000E+00  0.00000000E+00  0.00000000E+00
  0.00000000E+00  0.00000000E+00  0.00000000E+00
  0.00000000E+00  0.00000000E+00  0.00000000E+00
  0.00000000E+00  0.00000000E+00  0.00000000E+00
  0.00000000E+00  0.00000000E+00  0.00000000E+00
  0.00000000E+00  0.00000000E+00  0.00000000E+00
  0.00000000E+00  0.00000000E+00  0.00000000E+00
  0.00000000E+00  0.00000000E+00  0.00000000E+00
  0.00000000E+00  0.00000000E+00  0.00000000E+00
  0.00000000E+00  0.00000000E+00  0.00000000E+00
  0.00000000E+00  0.00000000E+00  0.00000000E+00
  0.00000000E+00  0.00000000E+00  0.00000000E+00
  0.00000000E+00  0.00000000E+00  0.00000000E+00
  0.00000000E+00  0.00000000E+00  0.00000000E+00
  0.00000000E+00  0.00000000E+00  0.00000000E+00
  0.00000000E+00  0.00000000E+00  0.00000000E+00
  0.00000000E+00  0.00000000E+00  0.00000000E+00
  0.00000000E+00  0.00000000E+00  0.00000000E+00
  0.00000000E+00  0.00000000E+00  0.00000000E+00
  0.00000000E+00  0.00000000E+00  0.00000000E+00
  0.00000000E+00  0.00000000E+00  0.00000000E+00
  0.00000000E+00  0.00000000E+00  0.00000000E+00
  0.00000000E+00  0.00000000E+00  0.00000000E+00
  0.00000000E+00  0.00000000E+00  0.00000000E+00
  0.00000000E+00  0.00000000E+00  0.00000000E+00
  0.00000000E+00  0.00000000E+00  0.00000000E+00
  0.00000000E+00  0.00000000E+00  0.00000000E+00
  0.00000000E+00  0.00000000E+00  0.00000000E+00
  0.00000000E+00  0.00000000E+00  0.00000000E+00
  0.00000000E+00  0.00000000E+00  0.00000000E+00
  0.00000000E+00  0.00000000E+00  0.00000000E+00
  0.00000000E+00  0.00000000E+00  0.00000000E+00
  0.00000000E+00  0.00000000E+00  0.00000000E+00
  0.00000000E+00  0.00000000E+00  0.00000000E+00
  0.00000000E+00  0.00000000E+00  0.00000000E+00
  0.00000000E+00  0.00000000E+00  0.00000000E+00
  0.00000000E+00  0.00000000E+00  0.00000000E+00
  0.00000000E+00  0.00000000E+00  0.00000000E+00
  0.00000000E+00  0.00000000E+00  0.00000000E+00
  0.00000000E+00  0.00000000E+00  0.00000000E+00
  0.00000000E+00  0.00000000E+00  0.00000000E+00
  0.00000000E+00  0.00000000E+00  0.00000000E+00
  0.00000000E+00  0.00000000E+00  0.00000000E+00
  0.00000000E+00  0.00000000E+00  0.00000000E+00
  0.00000000E+00  0.00000000E+00  0.00000000E+00
  0.00000000E+00  0.00000000E+00  0.00000000E+00
  0.00000000E+00  0.00000000E+00  0.00000000E+00
  0.00000000E+00  0.00000000E+00  0.00000000E+00
  0.00000000E+00  0.00000000E+00  0.00000000E+00
  0.00000000E+00  0.00000000E+00  0.00000000E+00
  0.00000000E+00  0.00000000E+00  0.00000000E+00
  0.00000000E+00  0.00000000E+00  0.00000000E+00
  0.00000000E+00  0.00000000E+00  0.00000000E+00
  0.00000000E+00  0.00000000E+00  0.00000000E+00
  0.00000000E+00  0.00000000E+00  0.00000000E+00
  0.00000000E+00  0.00000000E+00  0.00000000E+00
  0.00000000E+00  0.00000000E+00  0.00000000E+00
  0.00000000E+00  0.00000000E+00  0.00000000E+00
  0.00000000E+00  0.00000000E+00  0.00000000E+00
  0.00000000E+00  0.00000000E+00  0.00000000E+00
  0.00000000E+00  0.00000000E+00  0.00000000E+00
  0.00000000E+00  0.00000000E+00  0.00000000E+00
  0.00000000E+00  0.00000000E+00  0.00000000E+00
  0.00000000E+00  0.00000000E+00  0.00000000E+00
  0.00000000E+00  0.00000000E+00  0.00000000E+00
  0.00000000E+00  0.00000000E+00  0.00000000E+00
  0.00000000E+00  0.00000000E+00  0.00000000E+00
  0.00000000E+00  0.00000000E+00  0.00000000E+00
  0.00000000E+00  0.00000000E+00  0.00000000E+00
  0.00000000E+00  0.00000000E+00  0.00000000E+00
  0.00000000E+00  0.00000000E+00  0.00000000E+00
  0.00000000E+00  0.00000000E+00  0.00000000E+00
  0.00000000E+00  0.00000000E+00  0.00000000E+00
  0.00000000E+00  0.00000000E+00  0.00000000E+00
  0.00000000E+00  0.00000000E+00  0.00000000E+00
  0.00000000E+00  0.00000000E+00  0.00000000E+00
  0.00000000E+00  0.00000000E+00  0.00000000E+00
  0.00000000E+00  0.00000000E+00  0.00000000E+00
  0.00000000E+00  0.00000000E+00  0.00000000E+00
  0.00000000E+00  0.00000000E+00  0.00000000E+00
  0.00000000E+00  0.00000000E+00  0.00000000E+00
  0.00000000E+00  0.00000000E+00  0.00000000E+00
  0.00000000E+00  0.00000000E+00  0.00000000E+00
  0.00000000E+00  0.00000000E+00  0.00000000E+00
  0.00000000E+00  0.00000000E+00  0.00000000E+00
  0.00000000E+00  0.00000000E+00  0.00000000E+00
  0.00000000E+00  0.00000000E+00  0.00000000E+00
  0.00000000E+00  0.00000000E+00  0.00000000E+00
  0.00000000E+00  0.00000000E+00  0.00000000E+00
  0.00000000E+00  0.00000000E+00  0.00000000E+00
  0.00000000E+00  0.00000000E+00  0.00000000E+00
  0.00000000E+00  0.00000000E+00  0.00000000E+00
  0.00000000E+00  0.00000000E+00  0.00000000E+00
  0.00000000E+00  0.00000000E+00  0.00000000E+00
  0.00000000E+00  0.00000000E+00  0.00000000E+00
  0.00000000E+00  0.00000000E+00  0.00000000E+00
  0.00000000E+00  0.00000000E+00  0.00000000E+00
  0.00000000E+00  0.00000000E+00  0.00000000E+00
  0.00000000E+00  0.00000000E+00  0.00000000E+00
  0.00000000E+00  0.00000000E+00  0.00000000E+00
  0.00000000E+00  0.00000000E+00  0.00000000E+00
  0.00000000E+00  0.00000000E+00  0.00000000E+00
  0.00000000E+00  0.00000000E+00  0.00000000E+00
  0.00000000E+00  0.00000000E+00  0.00000000E+00
  0.00000000E+00  0.00000000E+00  0.00000000E+00
  0.00000000E+00  0.00000000E+00  0.00000000E+00
  0.00000000E+00  0.00000000E+00  0.00000000E+00
  0.00000000E+00  0.00000000E+00  0.00000000E+00
  0.00000000E+00  0.00000000E+00  0.00000000E+00
  0.00000000E+00  0.00000000E+00  0.00000000E+00
  0.00000000E+00  0.00000000E+00  0.00000000E+00
