fcc Si+fcc Ge
    1.000000000
    7.749890322    0.000000000    0.000000000
    0.000000000   16.440000000    0.000000000
    0.000000000    0.000000000   28.237362902
Si    Ge   
72     88
Direct
    0.000000000    0.000000000    0.000000000
    0.250000000    0.833333333    0.068613793
    0.500000000    0.666666667    0.137227587
    0.750000000    0.500000000    0.205841380
    0.000000000    0.333333333    0.274455173
    0.250000000    0.166666667    0.343068966
    0.000000000    0.333333333    0.000000000
    0.250000000    0.166666667    0.068613793
    0.500000000    0.000000000    0.137227587
    0.750000000    0.833333333    0.205841380
    0.000000000    0.666666667    0.274455173
    0.250000000    0.500000000    0.343068966
    0.000000000    0.666666667    0.000000000
    0.250000000    0.500000000    0.068613793
    0.500000000    0.333333333    0.137227587
    0.750000000    0.166666667    0.205841380
    0.000000000    0.000000000    0.274455173
    0.250000000    0.833333333    0.343068966
    0.500000000    0.000000000    0.000000000
    0.750000000    0.833333333    0.068613793
    0.000000000    0.666666667    0.137227587
    0.250000000    0.500000000    0.205841380
    0.500000000    0.333333333    0.274455173
    0.750000000    0.166666667    0.343068966
    0.500000000    0.333333333    0.000000000
    0.750000000    0.166666667    0.068613793
    0.000000000    0.000000000    0.137227587
    0.250000000    0.833333333    0.205841380
    0.500000000    0.666666667    0.274455173
    0.750000000    0.500000000    0.343068966
    0.500000000    0.666666667    0.000000000
    0.750000000    0.500000000    0.068613793
    0.000000000    0.333333333    0.137227587
    0.250000000    0.166666667    0.205841380
    0.500000000    0.000000000    0.274455173
    0.750000000    0.833333333    0.343068966
    0.750000000    0.250000000    0.000000000
    0.000000000    0.083333333    0.068613793
    0.250000000    0.916666667    0.137227587
    0.500000000    0.750000000    0.205841380
    0.750000000    0.583333333    0.274455173
    0.000000000    0.416666667    0.343068966
    0.750000000    0.583333333    0.000000000
    0.000000000    0.416666667    0.068613793
    0.250000000    0.250000000    0.137227587
    0.500000000    0.083333333    0.205841380
    0.750000000    0.916666667    0.274455173
    0.000000000    0.750000000    0.343068966
    0.750000000    0.916666667    0.000000000
    0.000000000    0.750000000    0.068613793
    0.250000000    0.583333333    0.137227587
    0.500000000    0.416666667    0.205841380
    0.750000000    0.250000000    0.274455173
    0.000000000    0.083333333    0.343068966
    0.250000000    0.250000000    0.000000000
    0.500000000    0.083333333    0.068613793
    0.750000000    0.916666667    0.137227587
    0.000000000    0.750000000    0.205841380
    0.250000000    0.583333333    0.274455173
    0.500000000    0.416666667    0.343068966
    0.250000000    0.583333333    0.000000000
    0.500000000    0.416666667    0.068613793
    0.750000000    0.250000000    0.137227587
    0.000000000    0.083333333    0.205841380
    0.250000000    0.916666667    0.274455173
    0.500000000    0.750000000    0.343068966
    0.250000000    0.916666667    0.000000000
    0.500000000    0.750000000    0.068613793
    0.750000000    0.583333333    0.137227587
    0.000000000    0.416666667    0.205841380
    0.250000000    0.250000000    0.274455173
    0.500000000    0.083333333    0.343068966
    0.381578947    0.622699387    0.420979924
    0.131578947    0.247699387    0.521201748
    0.881578947    0.872699387    0.621423571
    0.631578947    0.497699387    0.721645395
    0.381578947    0.122699387    0.821867218
    0.131578947    0.747699387    0.922089042
    0.881578947    0.872699387    0.420979924
    0.631578947    0.497699387    0.521201748
    0.381578947    0.122699387    0.621423571
    0.131578947    0.747699387    0.721645395
    0.881578947    0.372699387    0.821867218
    0.631578947    0.997699387    0.922089042
    0.381578947    0.122699387    0.420979924
    0.131578947    0.747699387    0.521201748
    0.881578947    0.372699387    0.621423571
    0.631578947    0.997699387    0.721645395
    0.381578947    0.622699387    0.821867218
    0.131578947    0.247699387    0.922089042
    0.881578947    0.372699387    0.420979924
    0.631578947    0.997699387    0.521201748
    0.381578947    0.622699387    0.621423571
    0.131578947    0.247699387    0.721645395
    0.881578947    0.872699387    0.821867218
    0.631578947    0.497699387    0.922089042
    0.381578947    0.872699387    0.420979924
    0.131578947    0.497699387    0.521201748
    0.881578947    0.122699387    0.621423571
    0.631578947    0.747699387    0.721645395
    0.381578947    0.372699387    0.821867218
    0.131578947    0.997699387    0.922089042
    0.381578947    0.372699387    0.420979924
    0.131578947    0.997699387    0.521201748
    0.881578947    0.622699387    0.621423571
    0.631578947    0.247699387    0.721645395
    0.381578947    0.872699387    0.821867218
    0.131578947    0.497699387    0.922089042
    0.881578947    0.622699387    0.420979924
    0.631578947    0.247699387    0.521201748
    0.381578947    0.872699387    0.621423571
    0.131578947    0.497699387    0.721645395
    0.881578947    0.122699387    0.821867218
    0.631578947    0.747699387    0.922089042
    0.881578947    0.122699387    0.420979924
    0.631578947    0.747699387    0.521201748
    0.381578947    0.372699387    0.621423571
    0.131578947    0.997699387    0.721645395
    0.881578947    0.622699387    0.821867218
    0.631578947    0.247699387    0.922089042
    0.631578947    0.622699387    0.471090836
    0.381578947    0.247699387    0.571312660
    0.131578947    0.872699387    0.671534483
    0.881578947    0.497699387    0.771756307
    0.631578947    0.122699387    0.871978130
    0.131578947    0.872699387    0.471090836
    0.881578947    0.497699387    0.571312660
    0.631578947    0.122699387    0.671534483
    0.381578947    0.747699387    0.771756307
    0.131578947    0.372699387    0.871978130
    0.631578947    0.122699387    0.471090836
    0.381578947    0.747699387    0.571312660
    0.131578947    0.372699387    0.671534483
    0.881578947    0.997699387    0.771756307
    0.631578947    0.622699387    0.871978130
    0.131578947    0.372699387    0.471090836
    0.881578947    0.997699387    0.571312660
    0.631578947    0.622699387    0.671534483
    0.381578947    0.247699387    0.771756307
    0.131578947    0.872699387    0.871978130
    0.631578947    0.872699387    0.471090836
    0.381578947    0.497699387    0.571312660
    0.131578947    0.122699387    0.671534483
    0.881578947    0.747699387    0.771756307
    0.631578947    0.372699387    0.871978130
    0.631578947    0.372699387    0.471090836
    0.381578947    0.997699387    0.571312660
    0.131578947    0.622699387    0.671534483
    0.881578947    0.247699387    0.771756307
    0.631578947    0.872699387    0.871978130
    0.131578947    0.622699387    0.471090836
    0.881578947    0.247699387    0.571312660
    0.631578947    0.872699387    0.671534483
    0.381578947    0.497699387    0.771756307
    0.131578947    0.122699387    0.871978130
    0.131578947    0.122699387    0.471090836
    0.881578947    0.747699387    0.571312660
    0.631578947    0.372699387    0.671534483
    0.381578947    0.997699387    0.771756307
    0.131578947    0.622699387    0.871978130
