Si+Ge                                   
   1.00000000000000     
     7.6805944439999996    0.0000000000000000    0.0000000000000000
     0.0000000000000000   16.2929992679999991    0.0000000000000000
     0.0000000000000000    0.0000000000000000   16.6729927059999987
   Si   Ge
    72    48
Direct
  0.9785172939999995  0.9856781960000021  0.0000000009999965
  0.7285172340000017  0.8190114499999979  0.1151652260000020
  0.4785171750000003  0.6523447630000021  0.2303304519999969
  0.2285172340000017  0.4856781359999971  0.3454956409999994
  0.9785171750000003  0.3190113900000000  0.4606608750000021
  0.7285171750000003  0.1523447040000008  0.5758261080000011
  0.9785172939999995  0.3190115390000017  0.0000000009999965
  0.7285172340000017  0.1523448530000024  0.1151652260000020
  0.4785171750000003  0.9856781359999971  0.2303304519999969
  0.2285172340000017  0.8190115089999992  0.3454956409999994
  0.9785171750000003  0.6523447630000021  0.4606608750000021
  0.7285171750000003  0.4856780770000029  0.5758261080000011
  0.9785172939999995  0.6523449419999992  0.0000000009999965
  0.2327425479999974  0.2241138819999975  0.0000001189999992
  0.4785171750000003  0.3190115089999992  0.2303304519999969
  0.2285172340000017  0.1523448680000001  0.3454956409999994
  0.4827425479999974  0.7241138219999996  0.5758261080000011
  0.7285171750000003  0.8190113900000000  0.5758261080000011
  0.4785172939999995  0.9856781960000021  0.0000000000000000
  0.2327425479999974  0.9741138219999996  0.0000001189999992
  0.9785172340000017  0.6523447630000021  0.2303304519999969
  0.7285172939999995  0.4856781359999971  0.3454956109999969
  0.4827425779999999  0.4741138520000021  0.5758261080000011
  0.2285171150000025  0.1523447040000008  0.5758261080000011
  0.4785172939999995  0.3190115390000017  0.0000000000000000
  0.7285173539999974  0.5690116290000020  0.0000000000000000
  0.9785172340000017  0.9856781359999971  0.2303304519999969
  0.7285172939999995  0.8190115089999992  0.3454956109999969
  0.9785170560000012  0.0690113830000030  0.5758261080000011
  0.2285171150000025  0.4856780770000029  0.5758261080000011
  0.4785172939999995  0.6523449419999992  0.0000000000000000
  0.2285172939999995  0.5690116290000020  0.0000000009999965
  0.9785172340000017  0.3190115089999992  0.2303304519999969
  0.7285172939999995  0.1523448680000001  0.3454956109999969
  0.4785172340000017  0.0690113830000030  0.5758260489999998
  0.2285171150000025  0.8190113900000000  0.5758261080000011
  0.7285173539999974  0.2356781960000021  0.0000000000000000
  0.2285172939999995  0.9023449419999992  0.0000000009999965
  0.2285172639999971  0.9023447630000021  0.2303304519999969
  0.9785172939999995  0.7356781359999971  0.3454956409999994
  0.4785172340000017  0.4023446440000029  0.5758260489999998
  0.7285172340000017  0.5690114499999979  0.4606608750000021
  0.2285172489999994  0.1523448530000024  0.1151652260000020
  0.4785172939999995  0.4023448820000013  0.1151652189999979
  0.2285172639999971  0.2356781960000021  0.2303304519999969
  0.9785172939999995  0.0690115390000017  0.3454956409999994
  0.7285172340000017  0.9023448230000000  0.4606608750000021
  0.4785172340000017  0.7356780770000029  0.5758260489999998
  0.7285171750000003  0.9023447630000021  0.2303304519999969
  0.4785172939999995  0.7356781960000021  0.1151652189999979
  0.2285172639999971  0.5690115089999992  0.2303304519999969
  0.9785170560000012  0.4023446440000029  0.5758261080000011
  0.7285172340000017  0.2356781209999994  0.4606608750000021
  0.4785171750000003  0.9856781359999971  0.4606608750000021
  0.2285172939999995  0.2356781960000021  0.0000000009999965
  0.9785172340000017  0.0690114869999974  0.1151652260000020
  0.7285173539999974  0.9023449419999992  0.0000000000000000
  0.4785172939999995  0.7356781359999971  0.3454956109999969
  0.2285171750000003  0.5690114499999979  0.4606608750000021
  0.9785172939999995  0.4023448530000024  0.3454956409999994
  0.2285172489999994  0.4856781960000021  0.1151652260000020
  0.9785172340000017  0.4023448820000013  0.1151652260000020
  0.7285171750000003  0.2356781960000021  0.2303304519999969
  0.4785172939999995  0.0690115390000017  0.3454956109999969
  0.2285171750000003  0.9023448230000000  0.4606608750000021
  0.9785170560000012  0.7356780770000029  0.5758261080000011
  0.4785172939999995  0.0690114869999974  0.1151652189999979
  0.9785172340000017  0.7356781960000021  0.1151652260000020
  0.7285171750000003  0.5690115089999992  0.2303304519999969
  0.4785172939999995  0.4023448530000024  0.3454956109999969
  0.2285171750000003  0.2356781209999994  0.4606608750000021
  0.4785171750000003  0.6523447630000021  0.4606608750000021
  0.9827425479999974  0.4741138219999996  0.5758261080000011
  0.7327426080000023  0.0991138819999975  0.7454956770000010
  0.4827426080000023  0.7241139409999988  0.9151653050000021
  0.9785171750000003  0.9856781359999971  0.4606608750000021
  0.2327425779999999  0.3491138520000021  0.7454956770000010
  0.9827426080000023  0.9741138819999975  0.9151653050000021
  0.9827426080000023  0.9741138819999975  0.5758261080000011
  0.7327426080000023  0.5991139409999988  0.7454956770000010
  0.4827426080000023  0.2241138819999975  0.9151653050000021
  0.4827425180000020  0.2241138369999973  0.5758261080000011
  0.2327425779999999  0.8491138819999975  0.7454956770000010
  0.9827426080000023  0.4741138819999975  0.9151653050000021
  0.2327425329999997  0.4741138219999996  0.6606608629999968
  0.9827426080000023  0.0991138819999975  0.8303305510000030
  0.7327426080000023  0.7241138219999996  0.0000001189999992
  0.7327425479999974  0.7241138219999996  0.6606608629999968
  0.4827425779999999  0.3491138520000021  0.8303305510000030
  0.2285172489999994  0.8190114499999979  0.1151652260000020
  0.2327425929999976  0.9741138819999975  0.6606608629999968
  0.9827426080000023  0.5991139409999988  0.8303305510000030
  0.7327425479999974  0.2241138819999975  0.0000001189999992
  0.7327424879999995  0.2241138369999973  0.6606608629999968
  0.4827425779999999  0.8491138819999975  0.8303305510000030
  0.2327425630000022  0.4741138819999975  0.0000001189999992
  0.9827426080000023  0.7241138819999975  0.5758261080000011
  0.7327426669999966  0.3491139110000034  0.7454956770000010
  0.4827426080000023  0.9741139409999988  0.9151653050000021
  0.9827426080000023  0.2241138520000021  0.5758261080000011
  0.7327426080000023  0.8491138819999975  0.7454956770000010
  0.4827426080000023  0.4741138819999975  0.9151653050000021
  0.4785171750000003  0.3190113900000000  0.4606608750000021
  0.2327426080000023  0.0991139110000034  0.7454956770000010
  0.9827426080000023  0.7241139409999988  0.9151653050000021
  0.4827425479999974  0.9741138819999975  0.5758261080000011
  0.2327425779999999  0.5991138819999975  0.7454956770000010
  0.9827425479999974  0.2241139409999988  0.9151653050000021
  0.2327426220000035  0.7241138819999975  0.6606608629999968
  0.9827426080000023  0.3491139110000034  0.8303305510000030
  0.7327425479999974  0.9741138819999975  0.0000001189999992
  0.2327425779999999  0.2241138669999998  0.6606608629999968
  0.9827426080000023  0.8491138819999975  0.8303305510000030
  0.7327425479999974  0.4741138819999975  0.0000001189999992
  0.7327425479999974  0.4741138219999996  0.6606608629999968
  0.4827425479999974  0.0991138440000014  0.8303305510000030
  0.2327425029999972  0.7241138219999996  0.0000001189999992
  0.7327425479999974  0.9741138819999975  0.6606608629999968
  0.4827425779999999  0.5991139409999988  0.8303305510000030
  0.7285172340000017  0.4856781960000021  0.1151652260000020
 
  0.00000000E+00  0.00000000E+00  0.00000000E+00
  0.00000000E+00  0.00000000E+00  0.00000000E+00
  0.00000000E+00  0.00000000E+00  0.00000000E+00
  0.00000000E+00  0.00000000E+00  0.00000000E+00
  0.00000000E+00  0.00000000E+00  0.00000000E+00
  0.00000000E+00  0.00000000E+00  0.00000000E+00
  0.00000000E+00  0.00000000E+00  0.00000000E+00
  0.00000000E+00  0.00000000E+00  0.00000000E+00
  0.00000000E+00  0.00000000E+00  0.00000000E+00
  0.00000000E+00  0.00000000E+00  0.00000000E+00
  0.00000000E+00  0.00000000E+00  0.00000000E+00
  0.00000000E+00  0.00000000E+00  0.00000000E+00
  0.00000000E+00  0.00000000E+00  0.00000000E+00
  0.00000000E+00  0.00000000E+00  0.00000000E+00
  0.00000000E+00  0.00000000E+00  0.00000000E+00
  0.00000000E+00  0.00000000E+00  0.00000000E+00
  0.00000000E+00  0.00000000E+00  0.00000000E+00
  0.00000000E+00  0.00000000E+00  0.00000000E+00
  0.00000000E+00  0.00000000E+00  0.00000000E+00
  0.00000000E+00  0.00000000E+00  0.00000000E+00
  0.00000000E+00  0.00000000E+00  0.00000000E+00
  0.00000000E+00  0.00000000E+00  0.00000000E+00
  0.00000000E+00  0.00000000E+00  0.00000000E+00
  0.00000000E+00  0.00000000E+00  0.00000000E+00
  0.00000000E+00  0.00000000E+00  0.00000000E+00
  0.00000000E+00  0.00000000E+00  0.00000000E+00
  0.00000000E+00  0.00000000E+00  0.00000000E+00
  0.00000000E+00  0.00000000E+00  0.00000000E+00
  0.00000000E+00  0.00000000E+00  0.00000000E+00
  0.00000000E+00  0.00000000E+00  0.00000000E+00
  0.00000000E+00  0.00000000E+00  0.00000000E+00
  0.00000000E+00  0.00000000E+00  0.00000000E+00
  0.00000000E+00  0.00000000E+00  0.00000000E+00
  0.00000000E+00  0.00000000E+00  0.00000000E+00
  0.00000000E+00  0.00000000E+00  0.00000000E+00
  0.00000000E+00  0.00000000E+00  0.00000000E+00
  0.00000000E+00  0.00000000E+00  0.00000000E+00
  0.00000000E+00  0.00000000E+00  0.00000000E+00
  0.00000000E+00  0.00000000E+00  0.00000000E+00
  0.00000000E+00  0.00000000E+00  0.00000000E+00
  0.00000000E+00  0.00000000E+00  0.00000000E+00
  0.00000000E+00  0.00000000E+00  0.00000000E+00
  0.00000000E+00  0.00000000E+00  0.00000000E+00
  0.00000000E+00  0.00000000E+00  0.00000000E+00
  0.00000000E+00  0.00000000E+00  0.00000000E+00
  0.00000000E+00  0.00000000E+00  0.00000000E+00
  0.00000000E+00  0.00000000E+00  0.00000000E+00
  0.00000000E+00  0.00000000E+00  0.00000000E+00
  0.00000000E+00  0.00000000E+00  0.00000000E+00
  0.00000000E+00  0.00000000E+00  0.00000000E+00
  0.00000000E+00  0.00000000E+00  0.00000000E+00
  0.00000000E+00  0.00000000E+00  0.00000000E+00
  0.00000000E+00  0.00000000E+00  0.00000000E+00
  0.00000000E+00  0.00000000E+00  0.00000000E+00
  0.00000000E+00  0.00000000E+00  0.00000000E+00
  0.00000000E+00  0.00000000E+00  0.00000000E+00
  0.00000000E+00  0.00000000E+00  0.00000000E+00
  0.00000000E+00  0.00000000E+00  0.00000000E+00
  0.00000000E+00  0.00000000E+00  0.00000000E+00
  0.00000000E+00  0.00000000E+00  0.00000000E+00
  0.00000000E+00  0.00000000E+00  0.00000000E+00
  0.00000000E+00  0.00000000E+00  0.00000000E+00
  0.00000000E+00  0.00000000E+00  0.00000000E+00
  0.00000000E+00  0.00000000E+00  0.00000000E+00
  0.00000000E+00  0.00000000E+00  0.00000000E+00
  0.00000000E+00  0.00000000E+00  0.00000000E+00
  0.00000000E+00  0.00000000E+00  0.00000000E+00
  0.00000000E+00  0.00000000E+00  0.00000000E+00
  0.00000000E+00  0.00000000E+00  0.00000000E+00
  0.00000000E+00  0.00000000E+00  0.00000000E+00
  0.00000000E+00  0.00000000E+00  0.00000000E+00
  0.00000000E+00  0.00000000E+00  0.00000000E+00
  0.00000000E+00  0.00000000E+00  0.00000000E+00
  0.00000000E+00  0.00000000E+00  0.00000000E+00
  0.00000000E+00  0.00000000E+00  0.00000000E+00
  0.00000000E+00  0.00000000E+00  0.00000000E+00
  0.00000000E+00  0.00000000E+00  0.00000000E+00
  0.00000000E+00  0.00000000E+00  0.00000000E+00
  0.00000000E+00  0.00000000E+00  0.00000000E+00
  0.00000000E+00  0.00000000E+00  0.00000000E+00
  0.00000000E+00  0.00000000E+00  0.00000000E+00
  0.00000000E+00  0.00000000E+00  0.00000000E+00
  0.00000000E+00  0.00000000E+00  0.00000000E+00
  0.00000000E+00  0.00000000E+00  0.00000000E+00
  0.00000000E+00  0.00000000E+00  0.00000000E+00
  0.00000000E+00  0.00000000E+00  0.00000000E+00
  0.00000000E+00  0.00000000E+00  0.00000000E+00
  0.00000000E+00  0.00000000E+00  0.00000000E+00
  0.00000000E+00  0.00000000E+00  0.00000000E+00
  0.00000000E+00  0.00000000E+00  0.00000000E+00
  0.00000000E+00  0.00000000E+00  0.00000000E+00
  0.00000000E+00  0.00000000E+00  0.00000000E+00
  0.00000000E+00  0.00000000E+00  0.00000000E+00
  0.00000000E+00  0.00000000E+00  0.00000000E+00
  0.00000000E+00  0.00000000E+00  0.00000000E+00
  0.00000000E+00  0.00000000E+00  0.00000000E+00
  0.00000000E+00  0.00000000E+00  0.00000000E+00
  0.00000000E+00  0.00000000E+00  0.00000000E+00
  0.00000000E+00  0.00000000E+00  0.00000000E+00
  0.00000000E+00  0.00000000E+00  0.00000000E+00
  0.00000000E+00  0.00000000E+00  0.00000000E+00
  0.00000000E+00  0.00000000E+00  0.00000000E+00
  0.00000000E+00  0.00000000E+00  0.00000000E+00
  0.00000000E+00  0.00000000E+00  0.00000000E+00
  0.00000000E+00  0.00000000E+00  0.00000000E+00
  0.00000000E+00  0.00000000E+00  0.00000000E+00
  0.00000000E+00  0.00000000E+00  0.00000000E+00
  0.00000000E+00  0.00000000E+00  0.00000000E+00
  0.00000000E+00  0.00000000E+00  0.00000000E+00
  0.00000000E+00  0.00000000E+00  0.00000000E+00
  0.00000000E+00  0.00000000E+00  0.00000000E+00
  0.00000000E+00  0.00000000E+00  0.00000000E+00
  0.00000000E+00  0.00000000E+00  0.00000000E+00
  0.00000000E+00  0.00000000E+00  0.00000000E+00
  0.00000000E+00  0.00000000E+00  0.00000000E+00
  0.00000000E+00  0.00000000E+00  0.00000000E+00
  0.00000000E+00  0.00000000E+00  0.00000000E+00
  0.00000000E+00  0.00000000E+00  0.00000000E+00
  0.00000000E+00  0.00000000E+00  0.00000000E+00
  0.00000000E+00  0.00000000E+00  0.00000000E+00
