fcc Si+fcc Ge                           
   1.00000000000000     
    12.2536525170000008    0.0000000000000000    0.0000000000000000
    -9.8029220129999999    7.3521915099999999    0.0000000000000000
     0.0000000000000000    0.0000000000000000   17.8583333330000009
   Si   Ge
    66    12
Direct
  0.3333333329999988  0.6666666670000012  0.0000000000000000
  0.6666666670000012  0.8333333329999988  0.1534297709999990
  0.0000000000000000  0.0000000000000000  0.3068595430000016
  0.3333333329999988  0.1666666670000012  0.4602893140000006
  0.6666666670000012  0.3333333329999988  0.6137190849999996
  0.0000000000000000  0.5000000000000000  0.7671488570000022
  0.0000000000000000  0.0000000000000000  0.0000000000000000
  0.3333333329999988  0.1666666670000012  0.1534297709999990
  0.6666666670000012  0.3333333329999988  0.3068595430000016
  0.0000000000000000  0.5000000000000000  0.4602893140000006
  0.3333333329999988  0.6666666670000012  0.6137190849999996
  0.6666666670000012  0.8333333329999988  0.7671488570000022
  0.6666666670000012  0.3333333329999988  0.0000000000000000
  0.0000000000000000  0.5000000000000000  0.1534297709999990
  0.3333333329999988  0.6666666670000012  0.3068595430000016
  0.6666666670000012  0.8333333329999988  0.4602893140000006
  0.0000000000000000  0.0000000000000000  0.6137190849999996
  0.3333333329999988  0.1666666670000012  0.7671488570000022
  0.1666666670000012  0.8333333329999988  0.0000000000000000
  0.5000000000000000  0.0000000000000000  0.1534297709999990
  0.8333333329999988  0.1666666670000012  0.3068595430000016
  0.1666666670000012  0.3333333329999988  0.4602893140000006
  0.5000000000000000  0.5000000000000000  0.6137190849999996
  0.8333333329999988  0.6666666670000012  0.7671488570000022
  0.5000000000000000  0.5000000000000000  0.0000000000000000
  0.8333333329999988  0.6666666670000012  0.1534297709999990
  0.1666666670000012  0.8333333329999988  0.3068595430000016
  0.5000000000000000  0.0000000000000000  0.4602893140000006
  0.8333333329999988  0.1666666670000012  0.6137190849999996
  0.1666666670000012  0.3333333329999988  0.7671488570000022
  0.8333333329999988  0.1666666670000012  0.0000000000000000
  0.1666666670000012  0.3333333329999988  0.1534297709999990
  0.5000000000000000  0.5000000000000000  0.3068595430000016
  0.8333333329999988  0.6666666670000012  0.4602893140000006
  0.1666666670000012  0.8333333329999988  0.6137190849999996
  0.5000000000000000  0.0000000000000000  0.7671488570000022
  0.0833333329999988  0.9166666670000012  0.0767148859999978
  0.4166666670000012  0.0833333329999988  0.2301446569999968
  0.7500000000000000  0.2500000000000000  0.3835744280000029
  0.0833333329999988  0.4166666670000012  0.5370041999999984
  0.4166666670000012  0.5833333329999988  0.6904339709999974
  0.4166666670000012  0.5833333329999988  0.0767148859999978
  0.7500000000000000  0.7500000000000000  0.2301446569999968
  0.0833333329999988  0.9166666670000012  0.3835744280000029
  0.4166666670000012  0.0833333329999988  0.5370041999999984
  0.7500000000000000  0.2500000000000000  0.6904339709999974
  0.7500000000000000  0.2500000000000000  0.0767148859999978
  0.0833333329999988  0.4166666670000012  0.2301446569999968
  0.4166666670000012  0.5833333329999988  0.3835744280000029
  0.7500000000000000  0.7500000000000000  0.5370041999999984
  0.0833333329999988  0.9166666670000012  0.6904339709999974
  0.2500000000000000  0.7500000000000000  0.0767148859999978
  0.5833333329999988  0.9166666670000012  0.2301446569999968
  0.9166666670000012  0.0833333329999988  0.3835744280000029
  0.2500000000000000  0.2500000000000000  0.5370041999999984
  0.5833333329999988  0.4166666670000012  0.6904339709999974
  0.5833333329999988  0.4166666670000012  0.0767148859999978
  0.9166666670000012  0.5833333329999988  0.2301446569999968
  0.2500000000000000  0.7500000000000000  0.3835744280000029
  0.5833333329999988  0.9166666670000012  0.5370041999999984
  0.9166666670000012  0.0833333329999988  0.6904339709999974
  0.9166666670000012  0.0833333329999988  0.0767148859999978
  0.2500000000000000  0.2500000000000000  0.2301446569999968
  0.5833333329999988  0.4166666670000012  0.3835744280000029
  0.9166666670000012  0.5833333329999988  0.5370041999999984
  0.2500000000000000  0.7500000000000000  0.6904339709999974
  0.0983606559999970  0.0000000000000000  0.8175454969999976
  0.9872495449999974  0.6111111109999996  0.8703686420000025
  0.8761384339999978  0.2222222219999992  0.9231917870000004
  0.5983606559999970  0.5000000000000000  0.8175454969999976
  0.4872495449999974  0.1111111109999996  0.8703686420000025
  0.3761384339999978  0.7222222219999992  0.9231917870000004
  0.2928051000000025  0.3055555560000016  0.8439570700000019
  0.1816939890000029  0.9166666670000012  0.8967802149999997
  0.0705828780000033  0.5277777780000008  0.9496033599999976
  0.7928051000000025  0.8055555560000016  0.8439570700000019
  0.6816939890000029  0.4166666670000012  0.8967802149999997
  0.5705828780000033  0.0277777780000008  0.9496033599999976
 
  0.00000000E+00  0.00000000E+00  0.00000000E+00
  0.00000000E+00  0.00000000E+00  0.00000000E+00
  0.00000000E+00  0.00000000E+00  0.00000000E+00
  0.00000000E+00  0.00000000E+00  0.00000000E+00
  0.00000000E+00  0.00000000E+00  0.00000000E+00
  0.00000000E+00  0.00000000E+00  0.00000000E+00
  0.00000000E+00  0.00000000E+00  0.00000000E+00
  0.00000000E+00  0.00000000E+00  0.00000000E+00
  0.00000000E+00  0.00000000E+00  0.00000000E+00
  0.00000000E+00  0.00000000E+00  0.00000000E+00
  0.00000000E+00  0.00000000E+00  0.00000000E+00
  0.00000000E+00  0.00000000E+00  0.00000000E+00
  0.00000000E+00  0.00000000E+00  0.00000000E+00
  0.00000000E+00  0.00000000E+00  0.00000000E+00
  0.00000000E+00  0.00000000E+00  0.00000000E+00
  0.00000000E+00  0.00000000E+00  0.00000000E+00
  0.00000000E+00  0.00000000E+00  0.00000000E+00
  0.00000000E+00  0.00000000E+00  0.00000000E+00
  0.00000000E+00  0.00000000E+00  0.00000000E+00
  0.00000000E+00  0.00000000E+00  0.00000000E+00
  0.00000000E+00  0.00000000E+00  0.00000000E+00
  0.00000000E+00  0.00000000E+00  0.00000000E+00
  0.00000000E+00  0.00000000E+00  0.00000000E+00
  0.00000000E+00  0.00000000E+00  0.00000000E+00
  0.00000000E+00  0.00000000E+00  0.00000000E+00
  0.00000000E+00  0.00000000E+00  0.00000000E+00
  0.00000000E+00  0.00000000E+00  0.00000000E+00
  0.00000000E+00  0.00000000E+00  0.00000000E+00
  0.00000000E+00  0.00000000E+00  0.00000000E+00
  0.00000000E+00  0.00000000E+00  0.00000000E+00
  0.00000000E+00  0.00000000E+00  0.00000000E+00
  0.00000000E+00  0.00000000E+00  0.00000000E+00
  0.00000000E+00  0.00000000E+00  0.00000000E+00
  0.00000000E+00  0.00000000E+00  0.00000000E+00
  0.00000000E+00  0.00000000E+00  0.00000000E+00
  0.00000000E+00  0.00000000E+00  0.00000000E+00
  0.00000000E+00  0.00000000E+00  0.00000000E+00
  0.00000000E+00  0.00000000E+00  0.00000000E+00
  0.00000000E+00  0.00000000E+00  0.00000000E+00
  0.00000000E+00  0.00000000E+00  0.00000000E+00
  0.00000000E+00  0.00000000E+00  0.00000000E+00
  0.00000000E+00  0.00000000E+00  0.00000000E+00
  0.00000000E+00  0.00000000E+00  0.00000000E+00
  0.00000000E+00  0.00000000E+00  0.00000000E+00
  0.00000000E+00  0.00000000E+00  0.00000000E+00
  0.00000000E+00  0.00000000E+00  0.00000000E+00
  0.00000000E+00  0.00000000E+00  0.00000000E+00
  0.00000000E+00  0.00000000E+00  0.00000000E+00
  0.00000000E+00  0.00000000E+00  0.00000000E+00
  0.00000000E+00  0.00000000E+00  0.00000000E+00
  0.00000000E+00  0.00000000E+00  0.00000000E+00
  0.00000000E+00  0.00000000E+00  0.00000000E+00
  0.00000000E+00  0.00000000E+00  0.00000000E+00
  0.00000000E+00  0.00000000E+00  0.00000000E+00
  0.00000000E+00  0.00000000E+00  0.00000000E+00
  0.00000000E+00  0.00000000E+00  0.00000000E+00
  0.00000000E+00  0.00000000E+00  0.00000000E+00
  0.00000000E+00  0.00000000E+00  0.00000000E+00
  0.00000000E+00  0.00000000E+00  0.00000000E+00
  0.00000000E+00  0.00000000E+00  0.00000000E+00
  0.00000000E+00  0.00000000E+00  0.00000000E+00
  0.00000000E+00  0.00000000E+00  0.00000000E+00
  0.00000000E+00  0.00000000E+00  0.00000000E+00
  0.00000000E+00  0.00000000E+00  0.00000000E+00
  0.00000000E+00  0.00000000E+00  0.00000000E+00
  0.00000000E+00  0.00000000E+00  0.00000000E+00
  0.00000000E+00  0.00000000E+00  0.00000000E+00
  0.00000000E+00  0.00000000E+00  0.00000000E+00
  0.00000000E+00  0.00000000E+00  0.00000000E+00
  0.00000000E+00  0.00000000E+00  0.00000000E+00
  0.00000000E+00  0.00000000E+00  0.00000000E+00
  0.00000000E+00  0.00000000E+00  0.00000000E+00
  0.00000000E+00  0.00000000E+00  0.00000000E+00
  0.00000000E+00  0.00000000E+00  0.00000000E+00
  0.00000000E+00  0.00000000E+00  0.00000000E+00
  0.00000000E+00  0.00000000E+00  0.00000000E+00
  0.00000000E+00  0.00000000E+00  0.00000000E+00
  0.00000000E+00  0.00000000E+00  0.00000000E+00
