Sn+Ge                                   
   1.00000000000000     
    15.8952283859999994    0.0000000000000000    0.0000000000000000
    -7.9476151469999996   13.7656726840000001    0.0000000000000000
     0.0000000000000000    0.0000000000000000   15.7794198990000005
   Sn   Ge
    72    96
Direct
  0.0000000000000000  0.0124091730000018  0.0000000249999985
  0.0000000000000000  0.3457425530000009  0.2374322120000016
  0.0000000000000000  0.6790759559999984  0.4748644229999996
  0.3333333730000021  0.6790758969999970  0.0000000000000000
  0.3333334029999975  0.0124093290000005  0.2374321969999968
  0.3333334029999975  0.3457427020000026  0.4748643639999983
  0.6666667459999971  0.3457425530000009  0.0000000209999982
  0.6666667459999971  0.6790759559999984  0.2374321969999968
  0.6666667459999971  0.0124093290000005  0.4748643639999983
  0.0000000000000000  0.3457425530000009  0.0593580720000020
  0.0000000000000000  0.6790758969999970  0.2967902720000026
  0.0000000000000000  0.0124092100000013  0.5342224839999972
  0.3333334029999975  0.0124092100000013  0.0593580450000033
  0.3333334029999975  0.3457425830000034  0.2967902420000001
  0.3333334029999975  0.6790760760000012  0.5342224839999972
  0.6666667459999971  0.6790759559999984  0.0593580860000031
  0.6666667459999971  0.0124093290000005  0.2967902720000026
  0.6666667459999971  0.3457425830000034  0.5342224239999993
  0.1666666870000029  0.3457425530000009  0.0000000209999982
  0.1666667009999969  0.6790759559999984  0.2374322120000016
  0.1666666870000029  0.0124093290000005  0.4748644229999996
  0.5000000000000000  0.0124091839999991  0.0000000300000025
  0.5000000000000000  0.3457425830000034  0.2374322120000016
  0.5000000000000000  0.6790760160000033  0.4748644229999996
  0.8333334330000000  0.6790758969999970  0.0000000000000000
  0.8333334330000000  0.0124093290000005  0.2374321819999992
  0.8333334330000000  0.3457427020000026  0.4748644229999996
  0.1666667009999969  0.6790759559999984  0.0593580270000018
  0.1666667009999969  0.0124093290000005  0.2967901829999988
  0.1666667160000017  0.3457428219999983  0.5342224239999993
  0.5000000599999979  0.3457425830000034  0.0593580270000018
  0.5000000599999979  0.6790759559999984  0.2967902420000001
  0.5000000599999979  0.0124093290000005  0.5342224239999993
  0.8333334330000000  0.0124092100000013  0.0593579780000013
  0.8333334330000000  0.3457425830000034  0.2967901829999988
  0.8333334330000000  0.6790759559999984  0.5342224239999993
  0.0000000000000000  0.5124092100000013  0.0000000189999980
  0.0000000000000000  0.8457425830000034  0.2374321819999992
  0.0000000000000000  0.1790759559999984  0.4748644229999996
  0.3333333730000021  0.1790758519999969  0.0000000209999982
  0.3333333730000021  0.5124092699999991  0.2374322120000016
  0.3333333730000021  0.8457426430000012  0.4748644229999996
  0.6666667459999971  0.8457425830000034  0.0000000000000000
  0.6666667459999971  0.1790759559999984  0.2374321819999992
  0.6666668060000021  0.5124094490000033  0.4748644229999996
  0.0000000000000000  0.8457425830000034  0.0593580270000018
  0.0000000000000000  0.1790759559999984  0.2967902119999977
  0.0000000000000000  0.5124094490000033  0.5342224239999993
  0.3333333730000021  0.5124092100000013  0.0593580270000018
  0.3333333730000021  0.8457425830000034  0.2967902119999977
  0.3333334029999975  0.1790760760000012  0.5342224839999972
  0.6666667459999971  0.1790758069999967  0.0593580230000015
  0.6666667459999971  0.5124092100000013  0.2967902119999977
  0.6666667459999971  0.8457426430000012  0.5342224839999972
  0.1666667009999969  0.8457425830000034  0.0000000389999997
  0.1666667009999969  0.1790758369999992  0.2374321819999992
  0.1666667009999969  0.5124093290000005  0.4748643639999983
  0.5000000000000000  0.5124092100000013  0.0000000180000015
  0.5000000000000000  0.8457426430000012  0.2374322120000016
  0.5000000599999979  0.1790759559999984  0.4748643639999983
  0.8333333730000021  0.1790758670000017  0.0000000389999997
  0.8333333730000021  0.5124092699999991  0.2374322120000016
  0.8333333730000021  0.8457427020000026  0.4748643639999983
  0.1666666870000029  0.1790757779999979  0.0593580749999987
  0.1666666870000029  0.5124091510000000  0.2967903019999980
  0.1666666870000029  0.8457425240000020  0.5342224839999972
  0.5000000000000000  0.8457425240000020  0.0593580789999990
  0.5000000000000000  0.1790759559999984  0.2967903019999980
  0.5000000000000000  0.5124092100000013  0.5342224839999972
  0.8333334330000000  0.5124092100000013  0.0593580450000033
  0.8333334330000000  0.8457425830000034  0.2967902420000001
  0.8333334330000000  0.1790759559999984  0.5342224239999993
  0.9857673050000031  0.4928835629999995  0.5342224839999972
  0.6524338720000031  0.3262168469999978  0.7412347790000027
  0.3191004990000010  0.1595501150000018  0.9482468369999992
  0.9857673050000031  0.9928836819999987  0.5342224839999972
  0.6524338720000031  0.8262169360000016  0.7412347790000027
  0.3191004990000010  0.6595501899999974  0.9482469559999984
  0.4857672449999981  0.4928835930000020  0.5342224839999972
  0.1524338420000007  0.3262168469999978  0.7412347790000027
  0.8191004399999997  0.1595501299999995  0.9482469559999984
  0.4857672449999981  0.9928836819999987  0.5342224839999972
  0.1524338420000007  0.8262169360000016  0.7412347790000027
  0.8191004399999997  0.6595501899999974  0.9482469559999984
  0.1524339469999987  0.8262168770000002  0.5859755279999987
  0.8191005589999989  0.6595501299999995  0.7929877039999980
  0.4857671859999968  0.4928834440000003  0.0000000000000000
  0.1524339469999987  0.3262169360000016  0.5859755279999987
  0.8191005589999989  0.1595502199999999  0.7929877039999980
  0.4857671859999968  0.9928835030000016  0.0000000000000000
  0.6524338720000031  0.8262168170000024  0.5859755279999987
  0.3191005290000035  0.6595501299999995  0.7929877039999980
  0.9857671859999968  0.4928834440000003  0.0000000000000000
  0.6524338720000031  0.3262169360000016  0.5859755279999987
  0.3191005290000035  0.1595502349999975  0.7929877039999980
  0.9857671859999968  0.9928835030000016  0.0000000000000000
  0.2357672600000029  0.7428836229999973  0.5342224839999972
  0.9024338720000031  0.5762169360000016  0.7412347790000027
  0.5691003800000018  0.4095501299999995  0.9482469559999984
  0.2357672899999983  0.2428836229999973  0.5342224839999972
  0.9024338720000031  0.0762168990000021  0.7412347790000027
  0.5691004399999997  0.9095501899999974  0.9482469559999984
  0.7357672449999981  0.7428835629999995  0.5342224839999972
  0.4024338420000007  0.5762168770000002  0.7412347790000027
  0.0691004019999966  0.4095501010000007  0.9482469559999984
  0.7357672449999981  0.2428836079999996  0.5342224839999972
  0.4024338420000007  0.0762168910000014  0.7412347790000027
  0.0691004170000014  0.9095501899999974  0.9482469559999984
  0.4024339320000010  0.5762169360000016  0.5859755279999987
  0.0691005139999987  0.4095501600000020  0.7929877039999980
  0.7357671859999968  0.2428834890000005  0.0000000000000000
  0.4024339320000010  0.0762169730000011  0.5859755279999987
  0.0691005139999987  0.9095502500000023  0.7929877039999980
  0.7357671859999968  0.7428835629999995  0.0000000000000000
  0.9024339910000023  0.5762168770000002  0.5859755279999987
  0.5691006180000002  0.4095501899999974  0.7929877039999980
  0.2357672449999981  0.2428834589999980  0.0000000000000000
  0.9024339910000023  0.0762169730000011  0.5859755279999987
  0.5691006180000002  0.9095502500000023  0.7929877039999980
  0.2357672449999981  0.7428835629999995  0.0000000000000000
  0.2357672750000006  0.4928835930000020  0.5342224839999972
  0.9024338720000031  0.3262168469999978  0.7412347790000027
  0.5691004399999997  0.1595501150000018  0.9482469559999984
  0.2357672899999983  0.9928836819999987  0.5342224839999972
  0.9024338720000031  0.8262169360000016  0.7412347790000027
  0.5691004399999997  0.6595501899999974  0.9482469559999984
  0.7357672449999981  0.4928835930000020  0.5342224839999972
  0.4024338420000007  0.3262168770000002  0.7412347790000027
  0.0691004019999966  0.1595501150000018  0.9482469559999984
  0.7357672449999981  0.9928836819999987  0.5342224839999972
  0.4024338420000007  0.8262169360000016  0.7412347790000027
  0.0691004170000014  0.6595501899999974  0.9482469559999984
  0.4024339320000010  0.8262169360000016  0.5859755279999987
  0.0691004990000010  0.6595501299999995  0.7929877039999980
  0.7357671859999968  0.4928834740000028  0.0000000000000000
  0.4024339320000010  0.3262169959999994  0.5859755279999987
  0.0691005290000035  0.1595502500000023  0.7929877039999980
  0.7357671859999968  0.9928835629999995  0.0000000000000000
  0.9024339910000023  0.8262168770000002  0.5859755279999987
  0.5691005589999989  0.6595501299999995  0.7929877039999980
  0.2357672449999981  0.4928834740000028  0.9999998810000008
  0.9024339910000023  0.3262169659999969  0.5859755279999987
  0.5691006180000002  0.1595502500000023  0.7929877039999980
  0.2357672449999981  0.9928835629999995  0.0000000000000000
  0.9857673050000031  0.7428836229999973  0.5342224839999972
  0.6524339320000010  0.5762168770000002  0.7412347790000027
  0.3191004990000010  0.4095501600000020  0.9482468369999992
  0.9857673050000031  0.2428836229999973  0.5342224839999972
  0.6524338720000031  0.0762168839999973  0.7412347790000027
  0.3191004990000010  0.9095501899999974  0.9482469559999984
  0.4857672449999981  0.7428836229999973  0.5342224839999972
  0.1524338420000007  0.5762169360000016  0.7412347790000027
  0.8191004399999997  0.4095501010000007  0.9482469559999984
  0.4857672449999981  0.2428836229999973  0.5342224839999972
  0.1524338420000007  0.0762168990000021  0.7412347790000027
  0.8191004399999997  0.9095501899999974  0.9482469559999984
  0.1524339770000012  0.5762169360000016  0.5859755279999987
  0.8191006180000002  0.4095502199999999  0.7929877039999980
  0.4857672449999981  0.2428835480000018  0.0000000000000000
  0.1524339770000012  0.0762169810000017  0.5859755279999987
  0.8191006180000002  0.9095503089999966  0.7929877039999980
  0.4857672449999981  0.7428835629999995  0.0000000000000000
  0.6524339910000023  0.5762169360000016  0.5859755279999987
  0.3191006180000002  0.4095502199999999  0.7929877039999980
  0.9857672449999981  0.2428835179999993  0.0000000000000000
  0.6524339910000023  0.0762169879999988  0.5859755279999987
  0.3191006180000002  0.9095503089999966  0.7929877039999980
  0.9857672449999981  0.7428835629999995  0.0000000000000000
 
  0.00000000E+00  0.00000000E+00  0.00000000E+00
  0.00000000E+00  0.00000000E+00  0.00000000E+00
  0.00000000E+00  0.00000000E+00  0.00000000E+00
  0.00000000E+00  0.00000000E+00  0.00000000E+00
  0.00000000E+00  0.00000000E+00  0.00000000E+00
  0.00000000E+00  0.00000000E+00  0.00000000E+00
  0.00000000E+00  0.00000000E+00  0.00000000E+00
  0.00000000E+00  0.00000000E+00  0.00000000E+00
  0.00000000E+00  0.00000000E+00  0.00000000E+00
  0.00000000E+00  0.00000000E+00  0.00000000E+00
  0.00000000E+00  0.00000000E+00  0.00000000E+00
  0.00000000E+00  0.00000000E+00  0.00000000E+00
  0.00000000E+00  0.00000000E+00  0.00000000E+00
  0.00000000E+00  0.00000000E+00  0.00000000E+00
  0.00000000E+00  0.00000000E+00  0.00000000E+00
  0.00000000E+00  0.00000000E+00  0.00000000E+00
  0.00000000E+00  0.00000000E+00  0.00000000E+00
  0.00000000E+00  0.00000000E+00  0.00000000E+00
  0.00000000E+00  0.00000000E+00  0.00000000E+00
  0.00000000E+00  0.00000000E+00  0.00000000E+00
  0.00000000E+00  0.00000000E+00  0.00000000E+00
  0.00000000E+00  0.00000000E+00  0.00000000E+00
  0.00000000E+00  0.00000000E+00  0.00000000E+00
  0.00000000E+00  0.00000000E+00  0.00000000E+00
  0.00000000E+00  0.00000000E+00  0.00000000E+00
  0.00000000E+00  0.00000000E+00  0.00000000E+00
  0.00000000E+00  0.00000000E+00  0.00000000E+00
  0.00000000E+00  0.00000000E+00  0.00000000E+00
  0.00000000E+00  0.00000000E+00  0.00000000E+00
  0.00000000E+00  0.00000000E+00  0.00000000E+00
  0.00000000E+00  0.00000000E+00  0.00000000E+00
  0.00000000E+00  0.00000000E+00  0.00000000E+00
  0.00000000E+00  0.00000000E+00  0.00000000E+00
  0.00000000E+00  0.00000000E+00  0.00000000E+00
  0.00000000E+00  0.00000000E+00  0.00000000E+00
  0.00000000E+00  0.00000000E+00  0.00000000E+00
  0.00000000E+00  0.00000000E+00  0.00000000E+00
  0.00000000E+00  0.00000000E+00  0.00000000E+00
  0.00000000E+00  0.00000000E+00  0.00000000E+00
  0.00000000E+00  0.00000000E+00  0.00000000E+00
  0.00000000E+00  0.00000000E+00  0.00000000E+00
  0.00000000E+00  0.00000000E+00  0.00000000E+00
  0.00000000E+00  0.00000000E+00  0.00000000E+00
  0.00000000E+00  0.00000000E+00  0.00000000E+00
  0.00000000E+00  0.00000000E+00  0.00000000E+00
  0.00000000E+00  0.00000000E+00  0.00000000E+00
  0.00000000E+00  0.00000000E+00  0.00000000E+00
  0.00000000E+00  0.00000000E+00  0.00000000E+00
  0.00000000E+00  0.00000000E+00  0.00000000E+00
  0.00000000E+00  0.00000000E+00  0.00000000E+00
  0.00000000E+00  0.00000000E+00  0.00000000E+00
  0.00000000E+00  0.00000000E+00  0.00000000E+00
  0.00000000E+00  0.00000000E+00  0.00000000E+00
  0.00000000E+00  0.00000000E+00  0.00000000E+00
  0.00000000E+00  0.00000000E+00  0.00000000E+00
  0.00000000E+00  0.00000000E+00  0.00000000E+00
  0.00000000E+00  0.00000000E+00  0.00000000E+00
  0.00000000E+00  0.00000000E+00  0.00000000E+00
  0.00000000E+00  0.00000000E+00  0.00000000E+00
  0.00000000E+00  0.00000000E+00  0.00000000E+00
  0.00000000E+00  0.00000000E+00  0.00000000E+00
  0.00000000E+00  0.00000000E+00  0.00000000E+00
  0.00000000E+00  0.00000000E+00  0.00000000E+00
  0.00000000E+00  0.00000000E+00  0.00000000E+00
  0.00000000E+00  0.00000000E+00  0.00000000E+00
  0.00000000E+00  0.00000000E+00  0.00000000E+00
  0.00000000E+00  0.00000000E+00  0.00000000E+00
  0.00000000E+00  0.00000000E+00  0.00000000E+00
  0.00000000E+00  0.00000000E+00  0.00000000E+00
  0.00000000E+00  0.00000000E+00  0.00000000E+00
  0.00000000E+00  0.00000000E+00  0.00000000E+00
  0.00000000E+00  0.00000000E+00  0.00000000E+00
  0.00000000E+00  0.00000000E+00  0.00000000E+00
  0.00000000E+00  0.00000000E+00  0.00000000E+00
  0.00000000E+00  0.00000000E+00  0.00000000E+00
  0.00000000E+00  0.00000000E+00  0.00000000E+00
  0.00000000E+00  0.00000000E+00  0.00000000E+00
  0.00000000E+00  0.00000000E+00  0.00000000E+00
  0.00000000E+00  0.00000000E+00  0.00000000E+00
  0.00000000E+00  0.00000000E+00  0.00000000E+00
  0.00000000E+00  0.00000000E+00  0.00000000E+00
  0.00000000E+00  0.00000000E+00  0.00000000E+00
  0.00000000E+00  0.00000000E+00  0.00000000E+00
  0.00000000E+00  0.00000000E+00  0.00000000E+00
  0.00000000E+00  0.00000000E+00  0.00000000E+00
  0.00000000E+00  0.00000000E+00  0.00000000E+00
  0.00000000E+00  0.00000000E+00  0.00000000E+00
  0.00000000E+00  0.00000000E+00  0.00000000E+00
  0.00000000E+00  0.00000000E+00  0.00000000E+00
  0.00000000E+00  0.00000000E+00  0.00000000E+00
  0.00000000E+00  0.00000000E+00  0.00000000E+00
  0.00000000E+00  0.00000000E+00  0.00000000E+00
  0.00000000E+00  0.00000000E+00  0.00000000E+00
  0.00000000E+00  0.00000000E+00  0.00000000E+00
  0.00000000E+00  0.00000000E+00  0.00000000E+00
  0.00000000E+00  0.00000000E+00  0.00000000E+00
  0.00000000E+00  0.00000000E+00  0.00000000E+00
  0.00000000E+00  0.00000000E+00  0.00000000E+00
  0.00000000E+00  0.00000000E+00  0.00000000E+00
  0.00000000E+00  0.00000000E+00  0.00000000E+00
  0.00000000E+00  0.00000000E+00  0.00000000E+00
  0.00000000E+00  0.00000000E+00  0.00000000E+00
  0.00000000E+00  0.00000000E+00  0.00000000E+00
  0.00000000E+00  0.00000000E+00  0.00000000E+00
  0.00000000E+00  0.00000000E+00  0.00000000E+00
  0.00000000E+00  0.00000000E+00  0.00000000E+00
  0.00000000E+00  0.00000000E+00  0.00000000E+00
  0.00000000E+00  0.00000000E+00  0.00000000E+00
  0.00000000E+00  0.00000000E+00  0.00000000E+00
  0.00000000E+00  0.00000000E+00  0.00000000E+00
  0.00000000E+00  0.00000000E+00  0.00000000E+00
  0.00000000E+00  0.00000000E+00  0.00000000E+00
  0.00000000E+00  0.00000000E+00  0.00000000E+00
  0.00000000E+00  0.00000000E+00  0.00000000E+00
  0.00000000E+00  0.00000000E+00  0.00000000E+00
  0.00000000E+00  0.00000000E+00  0.00000000E+00
  0.00000000E+00  0.00000000E+00  0.00000000E+00
  0.00000000E+00  0.00000000E+00  0.00000000E+00
  0.00000000E+00  0.00000000E+00  0.00000000E+00
  0.00000000E+00  0.00000000E+00  0.00000000E+00
  0.00000000E+00  0.00000000E+00  0.00000000E+00
  0.00000000E+00  0.00000000E+00  0.00000000E+00
  0.00000000E+00  0.00000000E+00  0.00000000E+00
  0.00000000E+00  0.00000000E+00  0.00000000E+00
  0.00000000E+00  0.00000000E+00  0.00000000E+00
  0.00000000E+00  0.00000000E+00  0.00000000E+00
  0.00000000E+00  0.00000000E+00  0.00000000E+00
  0.00000000E+00  0.00000000E+00  0.00000000E+00
  0.00000000E+00  0.00000000E+00  0.00000000E+00
  0.00000000E+00  0.00000000E+00  0.00000000E+00
  0.00000000E+00  0.00000000E+00  0.00000000E+00
  0.00000000E+00  0.00000000E+00  0.00000000E+00
  0.00000000E+00  0.00000000E+00  0.00000000E+00
  0.00000000E+00  0.00000000E+00  0.00000000E+00
  0.00000000E+00  0.00000000E+00  0.00000000E+00
  0.00000000E+00  0.00000000E+00  0.00000000E+00
  0.00000000E+00  0.00000000E+00  0.00000000E+00
  0.00000000E+00  0.00000000E+00  0.00000000E+00
  0.00000000E+00  0.00000000E+00  0.00000000E+00
  0.00000000E+00  0.00000000E+00  0.00000000E+00
  0.00000000E+00  0.00000000E+00  0.00000000E+00
  0.00000000E+00  0.00000000E+00  0.00000000E+00
  0.00000000E+00  0.00000000E+00  0.00000000E+00
  0.00000000E+00  0.00000000E+00  0.00000000E+00
  0.00000000E+00  0.00000000E+00  0.00000000E+00
  0.00000000E+00  0.00000000E+00  0.00000000E+00
  0.00000000E+00  0.00000000E+00  0.00000000E+00
  0.00000000E+00  0.00000000E+00  0.00000000E+00
  0.00000000E+00  0.00000000E+00  0.00000000E+00
  0.00000000E+00  0.00000000E+00  0.00000000E+00
  0.00000000E+00  0.00000000E+00  0.00000000E+00
  0.00000000E+00  0.00000000E+00  0.00000000E+00
  0.00000000E+00  0.00000000E+00  0.00000000E+00
  0.00000000E+00  0.00000000E+00  0.00000000E+00
  0.00000000E+00  0.00000000E+00  0.00000000E+00
  0.00000000E+00  0.00000000E+00  0.00000000E+00
  0.00000000E+00  0.00000000E+00  0.00000000E+00
  0.00000000E+00  0.00000000E+00  0.00000000E+00
  0.00000000E+00  0.00000000E+00  0.00000000E+00
  0.00000000E+00  0.00000000E+00  0.00000000E+00
  0.00000000E+00  0.00000000E+00  0.00000000E+00
  0.00000000E+00  0.00000000E+00  0.00000000E+00
  0.00000000E+00  0.00000000E+00  0.00000000E+00
  0.00000000E+00  0.00000000E+00  0.00000000E+00
  0.00000000E+00  0.00000000E+00  0.00000000E+00
  0.00000000E+00  0.00000000E+00  0.00000000E+00
  0.00000000E+00  0.00000000E+00  0.00000000E+00
  0.00000000E+00  0.00000000E+00  0.00000000E+00
