Ge+Si                                   
   1.00000000000000     
    16.9734001160000005    0.0000000000000000    0.0000000000000000
     0.0000000000000000   16.9734001160000005    0.0000000000000000
     0.0000000000000000    0.0000000000000000   13.8610000610000004
   Ge   Si
   108   120
Direct
  0.9943054909999987  0.6666665670000000  0.0000000000000000
  0.8276388649999973  0.6666665670000000  0.2040905949999967
  0.6609721179999966  0.6666665670000000  0.4081812200000030
  0.9943054909999987  0.3333332839999983  0.0000000000000000
  0.8276388649999973  0.3333332839999983  0.2040905949999967
  0.6609721179999966  0.3333332839999983  0.4081812200000030
  0.9943054909999987  0.0000000000000000  0.0000000000000000
  0.8276388649999973  0.0000000000000000  0.2040905949999967
  0.6609721179999966  0.0000000000000000  0.4081812200000030
  0.3276388049999994  0.6666665670000000  0.0000000000000000
  0.1609721479999990  0.6666665670000000  0.2040905949999967
  0.9943054319999973  0.6666665670000000  0.4081812200000030
  0.3276388049999994  0.3333332839999983  0.0000000000000000
  0.1609721479999990  0.3333332839999983  0.2040905949999967
  0.9943054319999973  0.3333332839999983  0.4081812200000030
  0.3276388049999994  0.0000000000000000  0.0000000000000000
  0.1609721479999990  0.0000000000000000  0.2040905949999967
  0.9943054319999973  0.0000000000000000  0.4081812200000030
  0.6609721179999966  0.6666665670000000  0.0000000000000000
  0.4943054319999973  0.6666665670000000  0.2040905949999967
  0.3276387450000016  0.6666665670000000  0.4081812200000030
  0.6609721179999966  0.3333332839999983  0.0000000000000000
  0.4943054319999973  0.3333332839999983  0.2040905949999967
  0.3276387450000016  0.3333332839999983  0.4081812200000030
  0.6609721179999966  0.0000000000000000  0.0000000000000000
  0.4943054319999973  0.0000000000000000  0.2040905949999967
  0.3276387450000016  0.0000000000000000  0.4081812200000030
  0.0776388419999989  0.9166665670000000  0.1020453049999972
  0.9109721179999966  0.9166665670000000  0.3061359229999994
  0.7443054909999987  0.9166665670000000  0.5102265479999986
  0.0776388419999989  0.5833333129999971  0.1020453049999972
  0.9109721179999966  0.5833333129999971  0.3061359229999994
  0.7443054909999987  0.5833333129999971  0.5102265479999986
  0.0776388419999989  0.2499999549999998  0.1020453049999972
  0.9109721179999966  0.2499999549999998  0.3061359229999994
  0.7443054909999987  0.2499999549999998  0.5102265479999986
  0.4109720889999977  0.9166665670000000  0.1020453049999972
  0.2443054169999996  0.9166665670000000  0.3061359229999994
  0.0776387229999997  0.9166665670000000  0.5102265479999986
  0.4109720889999977  0.5833333129999971  0.1020453049999972
  0.2443054169999996  0.5833333129999971  0.3061359229999994
  0.0776387229999997  0.5833333129999971  0.5102265479999986
  0.4109720889999977  0.2499999549999998  0.1020453049999972
  0.2443054169999996  0.2499999549999998  0.3061359229999994
  0.0776387229999997  0.2499999549999998  0.5102265479999986
  0.7443054909999987  0.9166665670000000  0.1020453049999972
  0.5776387450000016  0.9166665670000000  0.3061359229999994
  0.4109720590000023  0.9166665670000000  0.5102265479999986
  0.7443054909999987  0.5833333129999971  0.1020453049999972
  0.5776387450000016  0.5833333129999971  0.3061359229999994
  0.4109720590000023  0.5833333129999971  0.5102265479999986
  0.7443054909999987  0.2499999549999998  0.1020453049999972
  0.5776387450000016  0.2499999549999998  0.3061359229999994
  0.4109720590000023  0.2499999549999998  0.5102265479999986
  0.1609721629999967  0.8333331939999979  0.0000000000000000
  0.9943054909999987  0.8333331939999979  0.2040905949999967
  0.8276388049999994  0.8333331939999979  0.4081812200000030
  0.1609721629999967  0.4999999110000033  0.0000000000000000
  0.9943054909999987  0.4999999110000033  0.2040905949999967
  0.8276388049999994  0.4999999110000033  0.4081812200000030
  0.1609721629999967  0.1666666420000027  0.0000000000000000
  0.9943054909999987  0.1666666420000027  0.2040905949999967
  0.8276388049999994  0.1666666420000027  0.4081812200000030
  0.4943054319999973  0.8333331939999979  0.0000000000000000
  0.3276387450000016  0.8333331939999979  0.2040905949999967
  0.1609720740000000  0.8333331939999979  0.4081812200000030
  0.4943054319999973  0.4999999110000033  0.0000000000000000
  0.3276387450000016  0.4999999110000033  0.2040905949999967
  0.1609720740000000  0.4999999110000033  0.4081812200000030
  0.4943054319999973  0.1666666420000027  0.0000000000000000
  0.3276387450000016  0.1666666420000027  0.2040905949999967
  0.1609720740000000  0.1666666420000027  0.4081812200000030
  0.8276388049999994  0.8333331939999979  0.0000000000000000
  0.6609721179999966  0.8333331939999979  0.2040905949999967
  0.4943054319999973  0.8333331939999979  0.4081812200000030
  0.8276388049999994  0.4999999110000033  0.0000000000000000
  0.6609721179999966  0.4999999110000033  0.2040905949999967
  0.4943054319999973  0.4999999110000033  0.4081812200000030
  0.8276388049999994  0.1666666420000027  0.0000000000000000
  0.6609721179999966  0.1666666420000027  0.2040905949999967
  0.4943054319999973  0.1666666420000027  0.4081812200000030
  0.2443054619999998  0.7499998810000008  0.1020453049999972
  0.0776387829999976  0.7499998810000008  0.3061359229999994
  0.9109721179999966  0.7499998810000008  0.5102265479999986
  0.2443054619999998  0.4166666269999979  0.1020453049999972
  0.0776387829999976  0.4166666269999979  0.3061359229999994
  0.9109721179999966  0.4166666269999979  0.5102265479999986
  0.2443054619999998  0.0833333280000019  0.1020453049999972
  0.0776387829999976  0.0833333280000019  0.3061359229999994
  0.9109721179999966  0.0833333280000019  0.5102265479999986
  0.5776388649999973  0.7499998810000008  0.1020453049999972
  0.4109721479999990  0.7499998810000008  0.3061359229999994
  0.2443054470000021  0.7499998810000008  0.5102265479999986
  0.5776388649999973  0.4166666269999979  0.1020453049999972
  0.4109721479999990  0.4166666269999979  0.3061359229999994
  0.2443054470000021  0.4166666269999979  0.5102265479999986
  0.5776388649999973  0.0833333280000019  0.1020453049999972
  0.4109721479999990  0.0833333280000019  0.3061359229999994
  0.2443054470000021  0.0833333280000019  0.5102265479999986
  0.9109721780000015  0.7499998810000008  0.1020453049999972
  0.7443054909999987  0.7499998810000008  0.3061359229999994
  0.5776387450000016  0.7499998810000008  0.5102265479999986
  0.9109721780000015  0.4166666269999979  0.1020453049999972
  0.7443054909999987  0.4166666269999979  0.3061359229999994
  0.5776387450000016  0.4166666269999979  0.5102265479999986
  0.9109721780000015  0.0833333280000019  0.1020453049999972
  0.7443054909999987  0.0833333280000019  0.3061359229999994
  0.5776387450000016  0.0833333280000019  0.5102265479999986
  0.6946610210000017  0.1017797220000034  0.5102266069999999
  0.5446609259999988  0.1517797859999988  0.7061359879999998
  0.3946608600000019  0.2017798270000029  0.9020453689999997
  0.7946609259999988  0.4017797710000011  0.5102266069999999
  0.6446608899999973  0.4517798720000030  0.7061359879999998
  0.4946608249999969  0.5017799139999966  0.9020453689999997
  0.8946609500000022  0.7017797230000014  0.5102266069999999
  0.7446608540000028  0.7517797349999995  0.7061359879999998
  0.5946608779999991  0.8017798659999968  0.9020453689999997
  0.3946609500000022  0.2017797379999990  0.5102266069999999
  0.2446608839999982  0.2517797949999974  0.7061359879999998
  0.0946607959999994  0.3017798360000015  0.9020453689999997
  0.4946609440000032  0.5017797349999995  0.5102266069999999
  0.3446608779999991  0.5517798070000026  0.7061359879999998
  0.1946608129999987  0.6017798780000021  0.9020453689999997
  0.5946609379999970  0.8017797469999977  0.5102266069999999
  0.4446608419999976  0.8517797590000029  0.7061359879999998
  0.2946608069999996  0.9017798900000003  0.9020453689999997
  0.9946609140000007  0.0017796890000028  0.5102266069999999
  0.8446608779999991  0.0517797580000021  0.7061359879999998
  0.6946607830000033  0.1017798259999978  0.9020453689999997
  0.0946609379999970  0.3017797170000023  0.5102266069999999
  0.9446609020000025  0.3517797889999983  0.7061359879999998
  0.7946608069999996  0.4017798300000024  0.9020453689999997
  0.1946609319999979  0.6017797590000029  0.5102266069999999
  0.0446608700000013  0.6517798300000024  0.7061359879999998
  0.8946608299999994  0.7017799019999984  0.9020453689999997
  0.2946609259999988  0.9017797110000032  0.5102266069999999
  0.1446608299999994  0.9517797230000014  0.7061359879999998
  0.9946607950000015  0.0017799139999966  0.9020453689999997
  0.9446609020000025  0.1017797069999986  0.6081812979999981
  0.7946608069999996  0.1517797710000011  0.8040906789999980
  0.6446607110000002  0.2017798569999982  0.0000000000000000
  0.6446610090000036  0.2017797379999990  0.6081812979999981
  0.4946609739999985  0.2517797949999974  0.8040906789999980
  0.3446608479999966  0.3017798659999968  0.0000000000000000
  0.7446609739999985  0.5017797949999974  0.6081812979999981
  0.5946608779999991  0.5517798659999968  0.8040906789999980
  0.4446608129999987  0.6017798780000021  0.0000000000000000
  0.8446609379999970  0.8017797469999977  0.6081812979999981
  0.6946609020000025  0.8517798780000021  0.8040906789999980
  0.5446608069999996  0.9017798900000003  0.0000000000000000
  0.2446609440000032  0.0017796750000016  0.6081812979999981
  0.0946608929999968  0.0517798659999968  0.8040906789999980
  0.9446607830000033  0.1017799380000000  0.0000000000000000
  0.3446609080000016  0.3017797170000023  0.6081812979999981
  0.1946608570000024  0.3517798190000008  0.8040906789999980
  0.0446607579999991  0.4017798300000024  0.0000000000000000
  0.4446609319999979  0.6017796989999979  0.6081812979999981
  0.2946608660000010  0.6517797710000011  0.8040906789999980
  0.1446607860000029  0.7017799019999984  0.0000000000000000
  0.5446609259999988  0.9017797110000032  0.6081812979999981
  0.3946608899999973  0.9517798420000005  0.8040906789999980
  0.2446607799999967  0.0017799139999966  0.0000000000000000
  0.0446609330000030  0.4017797110000032  0.6081812979999981
  0.8946608299999994  0.4517798130000017  0.8040906789999980
  0.7446607349999965  0.5017798539999987  0.0000000000000000
  0.1446609349999974  0.7017797829999992  0.6081812979999981
  0.9946608540000028  0.7517798539999987  0.8040906789999980
  0.8446607589999999  0.8017798659999968  0.0000000000000000
  0.8946609500000022  0.2017797079999966  0.5102266069999999
  0.7446609140000007  0.2517797949999974  0.7061359879999998
  0.5946608189999978  0.3017798959999993  0.9020453689999997
  0.4946609440000032  0.0017796980000000  0.5102266069999999
  0.3446609080000016  0.0517797620000024  0.7061359879999998
  0.1946607980000010  0.1017798410000026  0.9020453689999997
  0.5946609379999970  0.3017797170000023  0.5102266069999999
  0.4446609020000025  0.3517797889999983  0.7061359879999998
  0.2946608069999996  0.4017798900000003  0.9020453689999997
  0.6946609620000004  0.6017797590000029  0.5102266069999999
  0.5446609259999988  0.6517798300000024  0.7061359879999998
  0.3946608010000006  0.7017799019999984  0.9020453689999997
  0.7946609850000002  0.9017798900000003  0.5102266069999999
  0.6446608899999973  0.9517799019999984  0.7061359879999998
  0.4946608249999969  0.0017799139999966  0.9020453689999997
  0.1946609319999979  0.1017797140000027  0.5102266069999999
  0.0446608740000016  0.1517797859999988  0.7061359879999998
  0.8946607709999981  0.2017798569999982  0.9020453689999997
  0.2946609560000013  0.4017797710000011  0.5102266069999999
  0.1446608899999973  0.4517798420000005  0.7061359879999998
  0.9946607950000015  0.5017799139999966  0.9020453689999997
  0.3946609199999997  0.7017797230000014  0.5102266069999999
  0.2446608389999980  0.7517797949999974  0.7061359879999998
  0.0946607739999976  0.8017798659999968  0.9020453689999997
  0.9946609140000007  0.5017796750000016  0.5102266069999999
  0.8446608779999991  0.5517798070000026  0.7061359879999998
  0.6946607830000033  0.6017798780000021  0.9020453689999997
  0.0946609149999986  0.8017797469999977  0.5102266069999999
  0.9446609020000025  0.8517798190000008  0.7061359879999998
  0.7946608069999996  0.9017798900000003  0.9020453689999997
  0.7446609140000007  0.0017796750000016  0.6081812979999981
  0.5946608779999991  0.0517798659999968  0.8040906789999980
  0.4446608129999987  0.1017798190000008  0.0000000000000000
  0.8446609969999983  0.3017797170000023  0.6081812979999981
  0.6946609020000025  0.3517798190000008  0.8040906789999980
  0.5446608069999996  0.4017798300000024  0.0000000000000000
  0.9446609620000004  0.6017796989999979  0.6081812979999981
  0.7946609259999988  0.6517797710000011  0.8040906789999980
  0.6446608299999994  0.7017798420000005  0.0000000000000000
  0.4446609620000004  0.1017796989999979  0.6081812979999981
  0.2946608960000034  0.1517797859999988  0.8040906789999980
  0.1446608010000006  0.2017798270000029  0.0000000000000000
  0.5446610449999980  0.4017797710000011  0.6081812979999981
  0.3946609500000022  0.4517797829999992  0.8040906789999980
  0.2446608690000005  0.5017798539999987  0.0000000000000000
  0.6446609500000022  0.7017797230000014  0.6081812979999981
  0.4946608839999982  0.7517797949999974  0.8040906789999980
  0.3446608189999978  0.8017799260000018  0.0000000000000000
  0.1446609649999999  0.2017797230000014  0.6081812979999981
  0.9946609140000007  0.2517797949999974  0.8040906789999980
  0.8446607589999999  0.3017798659999968  0.0000000000000000
  0.2446609440000032  0.5017797349999995  0.6081812979999981
  0.0946608710000021  0.5517798070000026  0.8040906789999980
  0.9446607830000033  0.6017798190000008  0.0000000000000000
  0.3446609080000016  0.8017796869999998  0.6081812979999981
  0.1946608419999976  0.8517797590000029  0.8040906789999980
  0.0446607209999996  0.9017798900000003  0.0000000000000000
  0.0446609299999992  0.9017797110000032  0.6081812979999981
  0.8946608299999994  0.9517798420000005  0.8040906789999980
  0.7446607349999965  0.0017799139999966  0.0000000000000000
 
  0.00000000E+00  0.00000000E+00  0.00000000E+00
  0.00000000E+00  0.00000000E+00  0.00000000E+00
  0.00000000E+00  0.00000000E+00  0.00000000E+00
  0.00000000E+00  0.00000000E+00  0.00000000E+00
  0.00000000E+00  0.00000000E+00  0.00000000E+00
  0.00000000E+00  0.00000000E+00  0.00000000E+00
  0.00000000E+00  0.00000000E+00  0.00000000E+00
  0.00000000E+00  0.00000000E+00  0.00000000E+00
  0.00000000E+00  0.00000000E+00  0.00000000E+00
  0.00000000E+00  0.00000000E+00  0.00000000E+00
  0.00000000E+00  0.00000000E+00  0.00000000E+00
  0.00000000E+00  0.00000000E+00  0.00000000E+00
  0.00000000E+00  0.00000000E+00  0.00000000E+00
  0.00000000E+00  0.00000000E+00  0.00000000E+00
  0.00000000E+00  0.00000000E+00  0.00000000E+00
  0.00000000E+00  0.00000000E+00  0.00000000E+00
  0.00000000E+00  0.00000000E+00  0.00000000E+00
  0.00000000E+00  0.00000000E+00  0.00000000E+00
  0.00000000E+00  0.00000000E+00  0.00000000E+00
  0.00000000E+00  0.00000000E+00  0.00000000E+00
  0.00000000E+00  0.00000000E+00  0.00000000E+00
  0.00000000E+00  0.00000000E+00  0.00000000E+00
  0.00000000E+00  0.00000000E+00  0.00000000E+00
  0.00000000E+00  0.00000000E+00  0.00000000E+00
  0.00000000E+00  0.00000000E+00  0.00000000E+00
  0.00000000E+00  0.00000000E+00  0.00000000E+00
  0.00000000E+00  0.00000000E+00  0.00000000E+00
  0.00000000E+00  0.00000000E+00  0.00000000E+00
  0.00000000E+00  0.00000000E+00  0.00000000E+00
  0.00000000E+00  0.00000000E+00  0.00000000E+00
  0.00000000E+00  0.00000000E+00  0.00000000E+00
  0.00000000E+00  0.00000000E+00  0.00000000E+00
  0.00000000E+00  0.00000000E+00  0.00000000E+00
  0.00000000E+00  0.00000000E+00  0.00000000E+00
  0.00000000E+00  0.00000000E+00  0.00000000E+00
  0.00000000E+00  0.00000000E+00  0.00000000E+00
  0.00000000E+00  0.00000000E+00  0.00000000E+00
  0.00000000E+00  0.00000000E+00  0.00000000E+00
  0.00000000E+00  0.00000000E+00  0.00000000E+00
  0.00000000E+00  0.00000000E+00  0.00000000E+00
  0.00000000E+00  0.00000000E+00  0.00000000E+00
  0.00000000E+00  0.00000000E+00  0.00000000E+00
  0.00000000E+00  0.00000000E+00  0.00000000E+00
  0.00000000E+00  0.00000000E+00  0.00000000E+00
  0.00000000E+00  0.00000000E+00  0.00000000E+00
  0.00000000E+00  0.00000000E+00  0.00000000E+00
  0.00000000E+00  0.00000000E+00  0.00000000E+00
  0.00000000E+00  0.00000000E+00  0.00000000E+00
  0.00000000E+00  0.00000000E+00  0.00000000E+00
  0.00000000E+00  0.00000000E+00  0.00000000E+00
  0.00000000E+00  0.00000000E+00  0.00000000E+00
  0.00000000E+00  0.00000000E+00  0.00000000E+00
  0.00000000E+00  0.00000000E+00  0.00000000E+00
  0.00000000E+00  0.00000000E+00  0.00000000E+00
  0.00000000E+00  0.00000000E+00  0.00000000E+00
  0.00000000E+00  0.00000000E+00  0.00000000E+00
  0.00000000E+00  0.00000000E+00  0.00000000E+00
  0.00000000E+00  0.00000000E+00  0.00000000E+00
  0.00000000E+00  0.00000000E+00  0.00000000E+00
  0.00000000E+00  0.00000000E+00  0.00000000E+00
  0.00000000E+00  0.00000000E+00  0.00000000E+00
  0.00000000E+00  0.00000000E+00  0.00000000E+00
  0.00000000E+00  0.00000000E+00  0.00000000E+00
  0.00000000E+00  0.00000000E+00  0.00000000E+00
  0.00000000E+00  0.00000000E+00  0.00000000E+00
  0.00000000E+00  0.00000000E+00  0.00000000E+00
  0.00000000E+00  0.00000000E+00  0.00000000E+00
  0.00000000E+00  0.00000000E+00  0.00000000E+00
  0.00000000E+00  0.00000000E+00  0.00000000E+00
  0.00000000E+00  0.00000000E+00  0.00000000E+00
  0.00000000E+00  0.00000000E+00  0.00000000E+00
  0.00000000E+00  0.00000000E+00  0.00000000E+00
  0.00000000E+00  0.00000000E+00  0.00000000E+00
  0.00000000E+00  0.00000000E+00  0.00000000E+00
  0.00000000E+00  0.00000000E+00  0.00000000E+00
  0.00000000E+00  0.00000000E+00  0.00000000E+00
  0.00000000E+00  0.00000000E+00  0.00000000E+00
  0.00000000E+00  0.00000000E+00  0.00000000E+00
  0.00000000E+00  0.00000000E+00  0.00000000E+00
  0.00000000E+00  0.00000000E+00  0.00000000E+00
  0.00000000E+00  0.00000000E+00  0.00000000E+00
  0.00000000E+00  0.00000000E+00  0.00000000E+00
  0.00000000E+00  0.00000000E+00  0.00000000E+00
  0.00000000E+00  0.00000000E+00  0.00000000E+00
  0.00000000E+00  0.00000000E+00  0.00000000E+00
  0.00000000E+00  0.00000000E+00  0.00000000E+00
  0.00000000E+00  0.00000000E+00  0.00000000E+00
  0.00000000E+00  0.00000000E+00  0.00000000E+00
  0.00000000E+00  0.00000000E+00  0.00000000E+00
  0.00000000E+00  0.00000000E+00  0.00000000E+00
  0.00000000E+00  0.00000000E+00  0.00000000E+00
  0.00000000E+00  0.00000000E+00  0.00000000E+00
  0.00000000E+00  0.00000000E+00  0.00000000E+00
  0.00000000E+00  0.00000000E+00  0.00000000E+00
  0.00000000E+00  0.00000000E+00  0.00000000E+00
  0.00000000E+00  0.00000000E+00  0.00000000E+00
  0.00000000E+00  0.00000000E+00  0.00000000E+00
  0.00000000E+00  0.00000000E+00  0.00000000E+00
  0.00000000E+00  0.00000000E+00  0.00000000E+00
  0.00000000E+00  0.00000000E+00  0.00000000E+00
  0.00000000E+00  0.00000000E+00  0.00000000E+00
  0.00000000E+00  0.00000000E+00  0.00000000E+00
  0.00000000E+00  0.00000000E+00  0.00000000E+00
  0.00000000E+00  0.00000000E+00  0.00000000E+00
  0.00000000E+00  0.00000000E+00  0.00000000E+00
  0.00000000E+00  0.00000000E+00  0.00000000E+00
  0.00000000E+00  0.00000000E+00  0.00000000E+00
  0.00000000E+00  0.00000000E+00  0.00000000E+00
  0.00000000E+00  0.00000000E+00  0.00000000E+00
  0.00000000E+00  0.00000000E+00  0.00000000E+00
  0.00000000E+00  0.00000000E+00  0.00000000E+00
  0.00000000E+00  0.00000000E+00  0.00000000E+00
  0.00000000E+00  0.00000000E+00  0.00000000E+00
  0.00000000E+00  0.00000000E+00  0.00000000E+00
  0.00000000E+00  0.00000000E+00  0.00000000E+00
  0.00000000E+00  0.00000000E+00  0.00000000E+00
  0.00000000E+00  0.00000000E+00  0.00000000E+00
  0.00000000E+00  0.00000000E+00  0.00000000E+00
  0.00000000E+00  0.00000000E+00  0.00000000E+00
  0.00000000E+00  0.00000000E+00  0.00000000E+00
  0.00000000E+00  0.00000000E+00  0.00000000E+00
  0.00000000E+00  0.00000000E+00  0.00000000E+00
  0.00000000E+00  0.00000000E+00  0.00000000E+00
  0.00000000E+00  0.00000000E+00  0.00000000E+00
  0.00000000E+00  0.00000000E+00  0.00000000E+00
  0.00000000E+00  0.00000000E+00  0.00000000E+00
  0.00000000E+00  0.00000000E+00  0.00000000E+00
  0.00000000E+00  0.00000000E+00  0.00000000E+00
  0.00000000E+00  0.00000000E+00  0.00000000E+00
  0.00000000E+00  0.00000000E+00  0.00000000E+00
  0.00000000E+00  0.00000000E+00  0.00000000E+00
  0.00000000E+00  0.00000000E+00  0.00000000E+00
  0.00000000E+00  0.00000000E+00  0.00000000E+00
  0.00000000E+00  0.00000000E+00  0.00000000E+00
  0.00000000E+00  0.00000000E+00  0.00000000E+00
  0.00000000E+00  0.00000000E+00  0.00000000E+00
  0.00000000E+00  0.00000000E+00  0.00000000E+00
  0.00000000E+00  0.00000000E+00  0.00000000E+00
  0.00000000E+00  0.00000000E+00  0.00000000E+00
  0.00000000E+00  0.00000000E+00  0.00000000E+00
  0.00000000E+00  0.00000000E+00  0.00000000E+00
  0.00000000E+00  0.00000000E+00  0.00000000E+00
  0.00000000E+00  0.00000000E+00  0.00000000E+00
  0.00000000E+00  0.00000000E+00  0.00000000E+00
  0.00000000E+00  0.00000000E+00  0.00000000E+00
  0.00000000E+00  0.00000000E+00  0.00000000E+00
  0.00000000E+00  0.00000000E+00  0.00000000E+00
  0.00000000E+00  0.00000000E+00  0.00000000E+00
  0.00000000E+00  0.00000000E+00  0.00000000E+00
  0.00000000E+00  0.00000000E+00  0.00000000E+00
  0.00000000E+00  0.00000000E+00  0.00000000E+00
  0.00000000E+00  0.00000000E+00  0.00000000E+00
  0.00000000E+00  0.00000000E+00  0.00000000E+00
  0.00000000E+00  0.00000000E+00  0.00000000E+00
  0.00000000E+00  0.00000000E+00  0.00000000E+00
  0.00000000E+00  0.00000000E+00  0.00000000E+00
  0.00000000E+00  0.00000000E+00  0.00000000E+00
  0.00000000E+00  0.00000000E+00  0.00000000E+00
  0.00000000E+00  0.00000000E+00  0.00000000E+00
  0.00000000E+00  0.00000000E+00  0.00000000E+00
  0.00000000E+00  0.00000000E+00  0.00000000E+00
  0.00000000E+00  0.00000000E+00  0.00000000E+00
  0.00000000E+00  0.00000000E+00  0.00000000E+00
  0.00000000E+00  0.00000000E+00  0.00000000E+00
  0.00000000E+00  0.00000000E+00  0.00000000E+00
  0.00000000E+00  0.00000000E+00  0.00000000E+00
  0.00000000E+00  0.00000000E+00  0.00000000E+00
  0.00000000E+00  0.00000000E+00  0.00000000E+00
  0.00000000E+00  0.00000000E+00  0.00000000E+00
  0.00000000E+00  0.00000000E+00  0.00000000E+00
  0.00000000E+00  0.00000000E+00  0.00000000E+00
  0.00000000E+00  0.00000000E+00  0.00000000E+00
  0.00000000E+00  0.00000000E+00  0.00000000E+00
  0.00000000E+00  0.00000000E+00  0.00000000E+00
  0.00000000E+00  0.00000000E+00  0.00000000E+00
  0.00000000E+00  0.00000000E+00  0.00000000E+00
  0.00000000E+00  0.00000000E+00  0.00000000E+00
  0.00000000E+00  0.00000000E+00  0.00000000E+00
  0.00000000E+00  0.00000000E+00  0.00000000E+00
  0.00000000E+00  0.00000000E+00  0.00000000E+00
  0.00000000E+00  0.00000000E+00  0.00000000E+00
  0.00000000E+00  0.00000000E+00  0.00000000E+00
  0.00000000E+00  0.00000000E+00  0.00000000E+00
  0.00000000E+00  0.00000000E+00  0.00000000E+00
  0.00000000E+00  0.00000000E+00  0.00000000E+00
  0.00000000E+00  0.00000000E+00  0.00000000E+00
  0.00000000E+00  0.00000000E+00  0.00000000E+00
  0.00000000E+00  0.00000000E+00  0.00000000E+00
  0.00000000E+00  0.00000000E+00  0.00000000E+00
  0.00000000E+00  0.00000000E+00  0.00000000E+00
  0.00000000E+00  0.00000000E+00  0.00000000E+00
  0.00000000E+00  0.00000000E+00  0.00000000E+00
  0.00000000E+00  0.00000000E+00  0.00000000E+00
  0.00000000E+00  0.00000000E+00  0.00000000E+00
  0.00000000E+00  0.00000000E+00  0.00000000E+00
  0.00000000E+00  0.00000000E+00  0.00000000E+00
  0.00000000E+00  0.00000000E+00  0.00000000E+00
  0.00000000E+00  0.00000000E+00  0.00000000E+00
  0.00000000E+00  0.00000000E+00  0.00000000E+00
  0.00000000E+00  0.00000000E+00  0.00000000E+00
  0.00000000E+00  0.00000000E+00  0.00000000E+00
  0.00000000E+00  0.00000000E+00  0.00000000E+00
  0.00000000E+00  0.00000000E+00  0.00000000E+00
  0.00000000E+00  0.00000000E+00  0.00000000E+00
  0.00000000E+00  0.00000000E+00  0.00000000E+00
  0.00000000E+00  0.00000000E+00  0.00000000E+00
  0.00000000E+00  0.00000000E+00  0.00000000E+00
  0.00000000E+00  0.00000000E+00  0.00000000E+00
  0.00000000E+00  0.00000000E+00  0.00000000E+00
  0.00000000E+00  0.00000000E+00  0.00000000E+00
  0.00000000E+00  0.00000000E+00  0.00000000E+00
  0.00000000E+00  0.00000000E+00  0.00000000E+00
  0.00000000E+00  0.00000000E+00  0.00000000E+00
  0.00000000E+00  0.00000000E+00  0.00000000E+00
  0.00000000E+00  0.00000000E+00  0.00000000E+00
  0.00000000E+00  0.00000000E+00  0.00000000E+00
  0.00000000E+00  0.00000000E+00  0.00000000E+00
  0.00000000E+00  0.00000000E+00  0.00000000E+00
  0.00000000E+00  0.00000000E+00  0.00000000E+00
  0.00000000E+00  0.00000000E+00  0.00000000E+00
  0.00000000E+00  0.00000000E+00  0.00000000E+00
  0.00000000E+00  0.00000000E+00  0.00000000E+00
  0.00000000E+00  0.00000000E+00  0.00000000E+00
  0.00000000E+00  0.00000000E+00  0.00000000E+00
  0.00000000E+00  0.00000000E+00  0.00000000E+00
  0.00000000E+00  0.00000000E+00  0.00000000E+00
  0.00000000E+00  0.00000000E+00  0.00000000E+00
  0.00000000E+00  0.00000000E+00  0.00000000E+00
