Ge+Si
    1.000000000
   16.973400116    0.000000000    0.000000000
    0.000000000   16.973400116    0.000000000
    0.000000000    0.000000000   13.861000061
Ge  Si 
108     120
Direct
    0.994305491    0.666666567    0.000000000
    0.827638865    0.666666567    0.204090595
    0.660972118    0.666666567    0.408181220
    0.994305491    0.333333284    0.000000000
    0.827638865    0.333333284    0.204090595
    0.660972118    0.333333284    0.408181220
    0.994305491    0.000000000    0.000000000
    0.827638865    0.000000000    0.204090595
    0.660972118    0.000000000    0.408181220
    0.327638805    0.666666567    0.000000000
    0.160972148    0.666666567    0.204090595
    0.994305432    0.666666567    0.408181220
    0.327638805    0.333333284    0.000000000
    0.160972148    0.333333284    0.204090595
    0.994305432    0.333333284    0.408181220
    0.327638805    0.000000000    0.000000000
    0.160972148    0.000000000    0.204090595
    0.994305432    0.000000000    0.408181220
    0.660972118    0.666666567    0.000000000
    0.494305432    0.666666567    0.204090595
    0.327638745    0.666666567    0.408181220
    0.660972118    0.333333284    0.000000000
    0.494305432    0.333333284    0.204090595
    0.327638745    0.333333284    0.408181220
    0.660972118    0.000000000    0.000000000
    0.494305432    0.000000000    0.204090595
    0.327638745    0.000000000    0.408181220
    0.077638842    0.916666567    0.102045305
    0.910972118    0.916666567    0.306135923
    0.744305491    0.916666567    0.510226548
    0.077638842    0.583333313    0.102045305
    0.910972118    0.583333313    0.306135923
    0.744305491    0.583333313    0.510226548
    0.077638842    0.249999955    0.102045305
    0.910972118    0.249999955    0.306135923
    0.744305491    0.249999955    0.510226548
    0.410972089    0.916666567    0.102045305
    0.244305417    0.916666567    0.306135923
    0.077638723    0.916666567    0.510226548
    0.410972089    0.583333313    0.102045305
    0.244305417    0.583333313    0.306135923
    0.077638723    0.583333313    0.510226548
    0.410972089    0.249999955    0.102045305
    0.244305417    0.249999955    0.306135923
    0.077638723    0.249999955    0.510226548
    0.744305491    0.916666567    0.102045305
    0.577638745    0.916666567    0.306135923
    0.410972059    0.916666567    0.510226548
    0.744305491    0.583333313    0.102045305
    0.577638745    0.583333313    0.306135923
    0.410972059    0.583333313    0.510226548
    0.744305491    0.249999955    0.102045305
    0.577638745    0.249999955    0.306135923
    0.410972059    0.249999955    0.510226548
    0.160972163    0.833333194    0.000000000
    0.994305491    0.833333194    0.204090595
    0.827638805    0.833333194    0.408181220
    0.160972163    0.499999911    0.000000000
    0.994305491    0.499999911    0.204090595
    0.827638805    0.499999911    0.408181220
    0.160972163    0.166666642    0.000000000
    0.994305491    0.166666642    0.204090595
    0.827638805    0.166666642    0.408181220
    0.494305432    0.833333194    0.000000000
    0.327638745    0.833333194    0.204090595
    0.160972074    0.833333194    0.408181220
    0.494305432    0.499999911    0.000000000
    0.327638745    0.499999911    0.204090595
    0.160972074    0.499999911    0.408181220
    0.494305432    0.166666642    0.000000000
    0.327638745    0.166666642    0.204090595
    0.160972074    0.166666642    0.408181220
    0.827638805    0.833333194    0.000000000
    0.660972118    0.833333194    0.204090595
    0.494305432    0.833333194    0.408181220
    0.827638805    0.499999911    0.000000000
    0.660972118    0.499999911    0.204090595
    0.494305432    0.499999911    0.408181220
    0.827638805    0.166666642    0.000000000
    0.660972118    0.166666642    0.204090595
    0.494305432    0.166666642    0.408181220
    0.244305462    0.749999881    0.102045305
    0.077638783    0.749999881    0.306135923
    0.910972118    0.749999881    0.510226548
    0.244305462    0.416666627    0.102045305
    0.077638783    0.416666627    0.306135923
    0.910972118    0.416666627    0.510226548
    0.244305462    0.083333328    0.102045305
    0.077638783    0.083333328    0.306135923
    0.910972118    0.083333328    0.510226548
    0.577638865    0.749999881    0.102045305
    0.410972148    0.749999881    0.306135923
    0.244305447    0.749999881    0.510226548
    0.577638865    0.416666627    0.102045305
    0.410972148    0.416666627    0.306135923
    0.244305447    0.416666627    0.510226548
    0.577638865    0.083333328    0.102045305
    0.410972148    0.083333328    0.306135923
    0.244305447    0.083333328    0.510226548
    0.910972178    0.749999881    0.102045305
    0.744305491    0.749999881    0.306135923
    0.577638745    0.749999881    0.510226548
    0.910972178    0.416666627    0.102045305
    0.744305491    0.416666627    0.306135923
    0.577638745    0.416666627    0.510226548
    0.910972178    0.083333328    0.102045305
    0.744305491    0.083333328    0.306135923
    0.577638745    0.083333328    0.510226548
    0.694661021    0.101779722    0.510226607
    0.544660926    0.151779786    0.706135988
    0.394660860    0.201779827    0.902045369
    0.794660926    0.401779771    0.510226607
    0.644660890    0.451779872    0.706135988
    0.494660825    0.501779914    0.902045369
    0.894660950    0.701779723    0.510226607
    0.744660854    0.751779735    0.706135988
    0.594660878    0.801779866    0.902045369
    0.394660950    0.201779738    0.510226607
    0.244660884    0.251779795    0.706135988
    0.094660796    0.301779836    0.902045369
    0.494660944    0.501779735    0.510226607
    0.344660878    0.551779807    0.706135988
    0.194660813    0.601779878    0.902045369
    0.594660938    0.801779747    0.510226607
    0.444660842    0.851779759    0.706135988
    0.294660807    0.901779890    0.902045369
    0.994660914    0.001779689    0.510226607
    0.844660878    0.051779758    0.706135988
    0.694660783    0.101779826    0.902045369
    0.094660938    0.301779717    0.510226607
    0.944660902    0.351779789    0.706135988
    0.794660807    0.401779830    0.902045369
    0.194660932    0.601779759    0.510226607
    0.044660870    0.651779830    0.706135988
    0.894660830    0.701779902    0.902045369
    0.294660926    0.901779711    0.510226607
    0.144660830    0.951779723    0.706135988
    0.994660795    0.001779914    0.902045369
    0.944660902    0.101779707    0.608181298
    0.794660807    0.151779771    0.804090679
    0.644660711    0.201779857    1.000000000
    0.644661009    0.201779738    0.608181298
    0.494660974    0.251779795    0.804090679
    0.344660848    0.301779866    1.000000000
    0.744660974    0.501779795    0.608181298
    0.594660878    0.551779866    0.804090679
    0.444660813    0.601779878    1.000000000
    0.844660938    0.801779747    0.608181298
    0.694660902    0.851779878    0.804090679
    0.544660807    0.901779890    1.000000000
    0.244660944    0.001779675    0.608181298
    0.094660893    0.051779866    0.804090679
    0.944660783    0.101779938    1.000000000
    0.344660908    0.301779717    0.608181298
    0.194660857    0.351779819    0.804090679
    0.044660758    0.401779830    1.000000000
    0.444660932    0.601779699    0.608181298
    0.294660866    0.651779771    0.804090679
    0.144660786    0.701779902    1.000000000
    0.544660926    0.901779711    0.608181298
    0.394660890    0.951779842    0.804090679
    0.244660780    0.001779914    1.000000000
    0.044660933    0.401779711    0.608181298
    0.894660830    0.451779813    0.804090679
    0.744660735    0.501779854    1.000000000
    0.144660935    0.701779783    0.608181298
    0.994660854    0.751779854    0.804090679
    0.844660759    0.801779866    1.000000000
    0.894660950    0.201779708    0.510226607
    0.744660914    0.251779795    0.706135988
    0.594660819    0.301779896    0.902045369
    0.494660944    0.001779698    0.510226607
    0.344660908    0.051779762    0.706135988
    0.194660798    0.101779841    0.902045369
    0.594660938    0.301779717    0.510226607
    0.444660902    0.351779789    0.706135988
    0.294660807    0.401779890    0.902045369
    0.694660962    0.601779759    0.510226607
    0.544660926    0.651779830    0.706135988
    0.394660801    0.701779902    0.902045369
    0.794660985    0.901779890    0.510226607
    0.644660890    0.951779902    0.706135988
    0.494660825    0.001779914    0.902045369
    0.194660932    0.101779714    0.510226607
    0.044660874    0.151779786    0.706135988
    0.894660771    0.201779857    0.902045369
    0.294660956    0.401779771    0.510226607
    0.144660890    0.451779842    0.706135988
    0.994660795    0.501779914    0.902045369
    0.394660920    0.701779723    0.510226607
    0.244660839    0.751779795    0.706135988
    0.094660774    0.801779866    0.902045369
    0.994660914    0.501779675    0.510226607
    0.844660878    0.551779807    0.706135988
    0.694660783    0.601779878    0.902045369
    0.094660915    0.801779747    0.510226607
    0.944660902    0.851779819    0.706135988
    0.794660807    0.901779890    0.902045369
    0.744660914    0.001779675    0.608181298
    0.594660878    0.051779866    0.804090679
    0.444660813    0.101779819    1.000000000
    0.844660997    0.301779717    0.608181298
    0.694660902    0.351779819    0.804090679
    0.544660807    0.401779830    1.000000000
    0.944660962    0.601779699    0.608181298
    0.794660926    0.651779771    0.804090679
    0.644660830    0.701779842    1.000000000
    0.444660962    0.101779699    0.608181298
    0.294660896    0.151779786    0.804090679
    0.144660801    0.201779827    1.000000000
    0.544661045    0.401779771    0.608181298
    0.394660950    0.451779783    0.804090679
    0.244660869    0.501779854    1.000000000
    0.644660950    0.701779723    0.608181298
    0.494660884    0.751779795    0.804090679
    0.344660819    0.801779926    1.000000000
    0.144660965    0.201779723    0.608181298
    0.994660914    0.251779795    0.804090679
    0.844660759    0.301779866    1.000000000
    0.244660944    0.501779735    0.608181298
    0.094660871    0.551779807    0.804090679
    0.944660783    0.601779819    1.000000000
    0.344660908    0.801779687    0.608181298
    0.194660842    0.851779759    0.804090679
    0.044660721    0.901779890    1.000000000
    0.044660930    0.901779711    0.608181298
    0.894660830    0.951779842    0.804090679
    0.744660735    0.001779914    1.000000000
