Ge+Ge
    1.000000000
   17.891534805    0.000000000    0.000000000
  -16.102380753    7.798739433    0.000000000
    0.000000320   -0.000000073   15.628338814
Ge 
96
Direct
    0.812287450    0.187712550    0.415267795
    0.022813324    0.977186680    0.000000009
    0.180708155    0.819291830    0.083053559
    0.338602990    0.661396980    0.166107118
    0.496497810    0.503502190    0.249160692
    0.654392600    0.345607400    0.332214236
    0.101761222    0.898238838    0.436031133
    0.312287062    0.687712908    0.020763416
    0.470181882    0.529818058    0.103816956
    0.628076732    0.371923268    0.186870545
    0.785971582    0.214028403    0.269924104
    0.943866432    0.056133550    0.352977663
    0.312287331    0.687712610    0.415267736
    0.522813261    0.477186650    0.000000000
    0.680708110    0.319291830    0.083053552
    0.838602960    0.161397010    0.166107088
    0.996497810    0.003502154    0.249160662
    0.154392600    0.845607400    0.332214236
    0.601761222    0.398238838    0.436031312
    0.812287092    0.187712908    0.020763565
    0.970181823    0.029818127    0.103817068
    0.128076673    0.871923268    0.186870694
    0.285971522    0.714028358    0.269924223
    0.443866372    0.556133628    0.352977782
    0.312287450    0.187712491    0.415267825
    0.522813261    0.977186680    0.000000010
    0.680708110    0.819291890    0.083053552
    0.838602960    0.661397040    0.166107088
    0.996497750    0.503502250    0.249160662
    0.154392600    0.345607400    0.332214236
    0.601761460    0.898238719    0.436031282
    0.812287271    0.687712848    0.020763541
    0.970182121    0.529818058    0.103817098
    0.128076911    0.371923238    0.186870635
    0.285971761    0.214028388    0.269924223
    0.443866730    0.056133520    0.352977753
    0.812287509    0.687712491    0.415267795
    0.022813387    0.477186650    0.000000012
    0.180708200    0.319291830    0.083053544
    0.338603050    0.161396980    0.166107118
    0.496497840    0.003502190    0.249160662
    0.654392660    0.845607340    0.332214236
    0.101761222    0.398238778    0.436031312
    0.312287062    0.187712878    0.020763552
    0.470181882    0.029818086    0.103817098
    0.628076732    0.871923268    0.186870679
    0.785971522    0.714028418    0.269924223
    0.943866372    0.556133509    0.352977782
    0.261725426    0.243892327    0.915267825
    0.472251534    0.033366442    0.500000000
    0.630146325    0.875471592    0.583053589
    0.788041115    0.717576742    0.666107118
    0.945935845    0.559681892    0.749160707
    0.103830695    0.401787043    0.832214296
    0.551199198    0.954418540    0.936031222
    0.761725307    0.743892670    0.520763457
    0.919620037    0.585997880    0.603816986
    0.077514887    0.428102970    0.686870575
    0.235409737    0.270208150    0.769924164
    0.393304467    0.112313271    0.852977753
    0.761725307    0.743892312    0.915267825
    0.972251475    0.533366442    0.500000000
    0.130146265    0.375471592    0.583053529
    0.288041115    0.217576727    0.666107118
    0.445935845    0.059681911    0.749160707
    0.603830576    0.901787043    0.832214236
    0.051199198    0.454418480    0.936031342
    0.261725187    0.243892714    0.520763576
    0.419620037    0.085997857    0.603817105
    0.577514887    0.928103030    0.686870635
    0.735409617    0.770208180    0.769924283
    0.893304467    0.612313271    0.852977812
    0.261725426    0.743892193    0.915267766
    0.472251594    0.533366382    0.500000000
    0.630146384    0.375471592    0.583053529
    0.788041174    0.217576712    0.666107118
    0.945935965    0.059681911    0.749160707
    0.103830814    0.901787043    0.832214296
    0.551199198    0.454418421    0.936031342
    0.761725307    0.243892655    0.520763576
    0.919620037    0.085997850    0.603817105
    0.077514887    0.928102970    0.686870694
    0.235409617    0.770208180    0.769924223
    0.393304348    0.612313271    0.852977812
    0.761725426    0.243892267    0.915267766
    0.972251475    0.033366442    0.500000000
    0.130146265    0.875471592    0.583053589
    0.288041115    0.717576742    0.666107118
    0.445935726    0.559682012    0.749160707
    0.603830576    0.401787102    0.832214236
    0.051199436    0.954418421    0.936031342
    0.261725545    0.743892610    0.520763576
    0.419620275    0.585997760    0.603817105
    0.577515125    0.428102970    0.686870635
    0.735409856    0.270208120    0.769924223
    0.893304706    0.112313241    0.852977812
