Sn+Ge
    1.000000000
   15.895228386    0.000000000    0.000000000
   -7.947615147   13.765672684    0.000000000
    0.000000000    0.000000000   20.304010391
Sn  Ge 
72     96
Direct
    0.000000000    0.012409173    0.000000020
    0.000000000    0.345742553    0.184522286
    0.000000000    0.679075956    0.369044572
    0.333333373    0.679075897    0.000000000
    0.333333403    0.012409329    0.184522271
    0.333333403    0.345742702    0.369044513
    0.666666746    0.345742553    0.000000016
    0.666666746    0.679075956    0.184522271
    0.666666746    0.012409329    0.369044513
    0.000000000    0.345742553    0.046130586
    0.000000000    0.679075897    0.230652869
    0.000000000    0.012409210    0.415175140
    0.333333403    0.012409210    0.046130564
    0.333333403    0.345742583    0.230652839
    0.333333403    0.679076076    0.415175140
    0.666666746    0.679075956    0.046130598
    0.666666746    0.012409329    0.230652869
    0.666666746    0.345742583    0.415175080
    0.166666687    0.345742553    0.000000016
    0.166666701    0.679075956    0.184522286
    0.166666687    0.012409329    0.369044572
    0.500000000    0.012409184    0.000000023
    0.500000000    0.345742583    0.184522286
    0.500000000    0.679076016    0.369044572
    0.833333433    0.679075897    0.000000000
    0.833333433    0.012409329    0.184522256
    0.833333433    0.345742702    0.369044572
    0.166666701    0.679075956    0.046130553
    0.166666701    0.012409329    0.230652794
    0.166666716    0.345742822    0.415175080
    0.500000060    0.345742583    0.046130553
    0.500000060    0.679075956    0.230652839
    0.500000060    0.012409329    0.415175080
    0.833333433    0.012409210    0.046130516
    0.833333433    0.345742583    0.230652794
    0.833333433    0.679075956    0.415175080
    0.000000000    0.512409210    0.000000015
    0.000000000    0.845742583    0.184522256
    0.000000000    0.179075956    0.369044572
    0.333333373    0.179075852    0.000000016
    0.333333373    0.512409270    0.184522286
    0.333333373    0.845742643    0.369044572
    0.666666746    0.845742583    0.000000000
    0.666666746    0.179075956    0.184522256
    0.666666806    0.512409449    0.369044572
    0.000000000    0.845742583    0.046130553
    0.000000000    0.179075956    0.230652809
    0.000000000    0.512409449    0.415175080
    0.333333373    0.512409210    0.046130553
    0.333333373    0.845742583    0.230652809
    0.333333403    0.179076076    0.415175140
    0.666666746    0.179075807    0.046130549
    0.666666746    0.512409210    0.230652824
    0.666666746    0.845742643    0.415175140
    0.166666701    0.845742583    0.000000030
    0.166666701    0.179075837    0.184522256
    0.166666701    0.512409329    0.369044513
    0.500000000    0.512409210    0.000000014
    0.500000000    0.845742643    0.184522286
    0.500000060    0.179075956    0.369044513
    0.833333373    0.179075867    0.000000030
    0.833333373    0.512409270    0.184522286
    0.833333373    0.845742702    0.369044513
    0.166666687    0.179075778    0.046130590
    0.166666687    0.512409151    0.230652884
    0.166666687    0.845742524    0.415175140
    0.500000000    0.845742524    0.046130594
    0.500000000    0.179075956    0.230652884
    0.500000000    0.512409210    0.415175140
    0.833333433    0.512409210    0.046130564
    0.833333433    0.845742583    0.230652839
    0.833333433    0.179075956    0.415175080
    0.511083841    0.682756960    0.526596308
    0.177750349    0.516090274    0.687477529
    0.844416976    0.349423528    0.848358631
    0.511083841    0.182757139    0.526596308
    0.177750349    0.016090393    0.687477529
    0.844416976    0.849423587    0.848358691
    0.011083722    0.682757020    0.526596308
    0.677750349    0.516090274    0.687477529
    0.344416857    0.349423528    0.848358691
    0.011083722    0.182757139    0.526596308
    0.677750349    0.016090393    0.687477529
    0.344416857    0.849423587    0.848358691
    0.677750409    0.016090274    0.566816628
    0.344417095    0.849423528    0.727697730
    0.011083603    0.682756841    0.888578951
    0.677750409    0.516090333    0.566816628
    0.344417095    0.349423647    0.727697730
    0.011083603    0.182756901    0.888578951
    0.177750349    0.016090274    0.566816628
    0.844416976    0.849423528    0.727697730
    0.511083603    0.682756841    0.888578951
    0.177750349    0.516090333    0.566816628
    0.844416976    0.349423647    0.727697730
    0.511083603    0.182756901    0.888578951
    0.761083722    0.932757020    0.526596308
    0.427750349    0.766090333    0.687477529
    0.094416857    0.599423528    0.848358691
    0.761083782    0.432757020    0.526596308
    0.427750349    0.266090304    0.687477529
    0.094416857    0.099423647    0.848358691
    0.261083722    0.932756960    0.526596308
    0.927750349    0.766090274    0.687477529
    0.594416857    0.599423528    0.848358691
    0.261083722    0.432757020    0.526596308
    0.927750349    0.266090304    0.687477529
    0.594416916    0.099423647    0.848358691
    0.927750409    0.766090333    0.566816568
    0.594416976    0.599423587    0.727697730
    0.261083603    0.432756901    0.888578951
    0.927750409    0.266090393    0.566816568
    0.594416976    0.099423647    0.727697730
    0.261083603    0.932756960    0.888578951
    0.427750468    0.766090274    0.566816568
    0.094417095    0.599423587    0.727697670
    0.761083722    0.432756871    0.888578951
    0.427750468    0.266090393    0.566816568
    0.094417095    0.099423647    0.727697730
    0.761083722    0.932756960    0.888578951
    0.761083722    0.682757020    0.526596308
    0.427750349    0.516090274    0.687477529
    0.094416857    0.349423528    0.848358691
    0.761083782    0.182757139    0.526596308
    0.427750349    0.016090393    0.687477529
    0.094416857    0.849423587    0.848358691
    0.261083722    0.682757020    0.526596308
    0.927750349    0.516090274    0.687477529
    0.594416857    0.349423528    0.848358691
    0.261083722    0.182757139    0.526596308
    0.927750349    0.016090393    0.687477529
    0.594416916    0.849423587    0.848358691
    0.927750409    0.016090393    0.566816568
    0.594416976    0.849423528    0.727697670
    0.261083603    0.682756901    0.888578951
    0.927750409    0.516090393    0.566816568
    0.594416976    0.349423647    0.727697730
    0.261083603    0.182757020    0.888578951
    0.427750468    0.016090274    0.566816568
    0.094417095    0.849423528    0.727697670
    0.761083722    0.682756901    0.888578832
    0.427750468    0.516090393    0.566816568
    0.094417095    0.349423647    0.727697730
    0.761083722    0.182757020    0.888578951
    0.511083841    0.932757020    0.526596308
    0.177750349    0.766090274    0.687477529
    0.844416976    0.599423587    0.848358631
    0.511083841    0.432757020    0.526596308
    0.177750349    0.266090304    0.687477529
    0.844416976    0.099423647    0.848358691
    0.011083722    0.932757020    0.526596308
    0.677750349    0.766090333    0.687477529
    0.344416857    0.599423528    0.848358691
    0.011083722    0.432757020    0.526596308
    0.677750349    0.266090304    0.687477529
    0.344416857    0.099423647    0.848358691
    0.677750468    0.766090333    0.566816568
    0.344417095    0.599423647    0.727697730
    0.011083722    0.432756960    0.888578951
    0.677750468    0.266090393    0.566816568
    0.344417095    0.099423766    0.727697730
    0.011083722    0.932756960    0.888578951
    0.177750468    0.766090333    0.566816628
    0.844417095    0.599423647    0.727697730
    0.511083722    0.432756931    0.888578951
    0.177750468    0.266090393    0.566816568
    0.844417095    0.099423766    0.727697730
    0.511083722    0.932756960    0.888578951
