Ge+Ge
    1.000000000
   17.891534805    0.000000000    0.000000000
  -16.102380753    7.798739433    0.000000000
    0.000000304   -0.000000070   14.828559875
Ge 
96
Direct
    0.439726502    0.863644183    0.675066113
    0.022813324    0.977186680    0.000000009
    0.180708155    0.819291830    0.087533057
    0.338602990    0.661396980    0.175066113
    0.496497810    0.503502190    0.262599170
    0.654392600    0.345607400    0.350132227
    0.996497810    0.003502154    0.262599140
    0.312287062    0.687712908    0.021883292
    0.470181882    0.529818058    0.109416328
    0.628076732    0.371923268    0.196949422
    0.413410664    0.889960110    0.521883309
    0.943866432    0.056133550    0.372015506
    0.623936832    0.679433823    0.500000000
    0.522813261    0.477186650    0.000000000
    0.680708110    0.319291830    0.087533049
    0.838602960    0.161397010    0.175066084
    0.101761222    0.898238838    0.459548503
    0.154392600    0.845607400    0.350132227
    0.443866372    0.556133628    0.372015655
    0.812287092    0.187712908    0.021883449
    0.970181823    0.029818127    0.109416448
    0.128076673    0.871923268    0.196949586
    0.285971522    0.714028358    0.284482598
    0.601761222    0.398238838    0.459548652
    0.601761460    0.898238719    0.459548622
    0.522813261    0.977186680    0.000000010
    0.680708110    0.819291890    0.087533049
    0.838602960    0.661397040    0.175066084
    0.996497750    0.503502250    0.262599140
    0.154392600    0.345607400    0.350132227
    0.312287450    0.187712491    0.437665313
    0.812287271    0.687712848    0.021883423
    0.970182121    0.529818058    0.109416470
    0.101761222    0.398238778    0.459548652
    0.285971761    0.214028388    0.284482569
    0.443866730    0.056133520    0.372015625
    0.812287509    0.687712491    0.437665254
    0.022813387    0.477186650    0.000000013
    0.180708200    0.319291830    0.087533042
    0.338603050    0.161396980    0.175066113
    0.123936981    0.679433823    0.500000000
    0.654392660    0.845607340    0.350132227
    0.729200184    0.074170351    0.696949542
    0.312287062    0.187712878    0.021883436
    0.470181882    0.029818086    0.109416470
    0.628076732    0.871923268    0.196949542
    0.785971522    0.714028418    0.284482569
    0.943866372    0.556133509    0.372015655
    0.913410783    0.389959753    0.937665343
    0.229200274    0.074170470    0.696949482
    0.281831712    0.021538973    0.587533057
    0.812287450    0.187712550    0.437665254
    0.597621262    0.705749333    0.762599170
    0.755516052    0.547854483    0.850132287
    0.202884585    0.100485921    0.959548593
    0.785971582    0.214028403    0.284482479
    0.571305394    0.732065320    0.609416306
    0.729200184    0.574170411    0.696949422
    0.887095034    0.416275561    0.784482479
    0.044989824    0.258380681    0.872015595
    0.413410693    0.889959753    0.937665343
    0.781831622    0.521539032    0.587532997
    0.623936832    0.679433823    0.500000000
    0.939726412    0.363644123    0.675066113
    0.097621202    0.205749318    0.762599170
    0.255515963    0.047854424    0.850132167
    0.702884555    0.600485921    0.959548712
    0.601761222    0.398238838    0.459548652
    0.071305394    0.232065260    0.609416485
    0.123936914    0.179433823    0.500000000
    0.387095004    0.916275620    0.784482598
    0.544989824    0.758380711    0.872015655
    0.913410842    0.889959633    0.937665224
    0.496497840    0.003502190    0.262599140
    0.281831741    0.521538973    0.587532997
    0.439726561    0.363644123    0.675066113
    0.597621322    0.205749318    0.762599170
    0.755516112    0.047854424    0.850132287
    0.202884585    0.600485861    0.959548712
    0.413410664    0.389960051    0.521883428
    0.571305454    0.232065260    0.609416485
    0.101761222    0.398238778    0.459548652
    0.887094975    0.916275620    0.784482539
    0.044989824    0.758380711    0.872015655
    0.413410813    0.389959693    0.937665224
    0.913410902    0.889960051    0.521883428
    0.781831622    0.021538973    0.587533057
    0.939726412    0.863644183    0.675066113
    0.123936981    0.679433823    0.500000000
    0.255515963    0.547854543    0.850132167
    0.702884793    0.100485802    0.959548712
    0.623936832    0.179433823    0.500000000
    0.071305633    0.732065201    0.609416485
    0.229200512    0.574170351    0.696949482
    0.387095243    0.416275561    0.784482539
    0.544990063    0.258380651    0.872015655
