Automatic KPOINTS generated
0
Gamma
7 7 7
0 0 0
