C+Si
    1.000000000
   12.355758667    0.000000000    0.000000000
  -16.474342346    5.824560165    0.000000000
    0.000000000    0.000000000   11.848266602
C   Si 
96     24
Direct
    0.000000000    0.423967123    0.000000010
    0.000000055    0.048967127    0.106433667
    0.000000129    0.673967123    0.212867320
    0.000000143    0.298967302    0.319300920
    0.000000177    0.923967361    0.425734580
    0.000000432    0.548967481    0.532168269
    0.000000015    0.923967123    0.000000010
    0.000000057    0.548967123    0.106433660
    0.000000099    0.173967063    0.212867320
    0.000000134    0.798967242    0.319300920
    0.000000194    0.423967242    0.425734580
    0.000000203    0.048967242    0.532168210
    0.500000060    0.423967123    0.000000010
    0.500000060    0.048967123    0.106433660
    0.500000119    0.673967123    0.212867320
    0.500000179    0.298967183    0.319300920
    0.500000477    0.923967600    0.425734580
    0.500000000    0.548967004    0.532168210
    0.500000000    0.923967063    0.000000005
    0.500000000    0.548967063    0.106433660
    0.499999911    0.173966944    0.212867290
    0.500000358    0.798967361    0.319300950
    0.500000119    0.423967242    0.425734609
    0.500000238    0.048967242    0.532168210
    0.000000023    0.673967183    0.000000006
    0.000000091    0.298967183    0.106433667
    0.000000102    0.923967183    0.212867305
    0.000000195    0.548967302    0.319300920
    0.000000109    0.173967242    0.425734580
    0.000000125    0.798967242    0.532168210
    0.000000025    0.173967108    0.000000005
    0.000000042    0.798967123    0.106433660
    0.000000091    0.423967123    0.212867320
    0.000000032    0.048967183    0.319300920
    0.000000365    0.673967481    0.425734520
    0.000000142    0.298967123    0.532168210
    0.499999970    0.673967123    0.000000005
    0.500000060    0.298967153    0.106433660
    0.500000179    0.923967183    0.212867320
    0.500000179    0.548967302    0.319300920
    0.500000179    0.173967302    0.425734520
    0.500000358    0.798967481    0.532168210
    0.500000060    0.173967108    0.000000016
    0.500000060    0.798967123    0.106433667
    0.500000119    0.423967123    0.212867320
    0.500000119    0.048967183    0.319300920
    0.500000298    0.673967361    0.425734609
    0.500000536    0.298967600    0.532168269
    0.125000119    0.673967183    0.000000000
    0.125000164    0.298967183    0.106433667
    0.125000209    0.923967242    0.212867305
    0.125000328    0.548967421    0.319300920
    0.125000238    0.173967421    0.425734580
    0.125000462    0.798967481    0.532168269
    0.125000015    0.173967108    0.000000011
    0.125000045    0.798967123    0.106433660
    0.125000060    0.423967063    0.212867305
    0.125000030    0.048967183    0.319300920
    0.125000224    0.673967361    0.425734609
    0.125000477    0.298967481    0.532168269
    0.625000000    0.673967123    0.000000011
    0.625000000    0.298967123    0.106433660
    0.625000179    0.923967242    0.212867320
    0.625000119    0.548967242    0.319300920
    0.625000358    0.173967481    0.425734580
    0.625000238    0.798967123    0.532168269
    0.625000000    0.173967108    0.000000011
    0.625000060    0.798967183    0.106433667
    0.625000060    0.423967063    0.212867305
    0.625000298    0.048967421    0.319300920
    0.625000358    0.673967481    0.425734580
    0.625000119    0.298967123    0.532168210
    0.125000030    0.423967183    0.000000005
    0.125000104    0.048967171    0.106433667
    0.125000164    0.673967242    0.212867320
    0.125000179    0.298967302    0.319300920
    0.125000387    0.923967481    0.425734580
    0.125000104    0.548967123    0.532168210
    0.125000015    0.923967123    0.000000002
    0.125000030    0.548967063    0.106433682
    0.125000164    0.173967063    0.212867320
    0.125000343    0.798967361    0.319300950
    0.125000477    0.423967481    0.425734580
    0.125000194    0.048967361    0.532168210
    0.625000000    0.423967123    0.000000003
    0.625000000    0.048967093    0.106433645
    0.624999940    0.673967063    0.212867305
    0.625000119    0.298967183    0.319300950
    0.625000119    0.923967361    0.425734609
    0.625000358    0.548967481    0.532168269
    0.625000000    0.923967063    0.000000002
    0.625000060    0.548967183    0.106433660
    0.624999881    0.173966944    0.212867320
    0.625000060    0.798967123    0.319300920
    0.625000000    0.423967242    0.425734580
    0.624999940    0.048967004    0.532168210
    0.017361157    0.086805589    0.532168269
    0.100694694    0.503472388    0.625734627
    0.184028253    0.920139253    0.719300866
    0.267361790    0.336806178    0.812867165
    0.350695372    0.753472805    0.906433582
    0.434028924    0.170140028    0.999999881
    0.017361293    0.836805701    0.532168269
    0.100694790    0.253472447    0.625734568
    0.184028402    0.670139313    0.719300807
    0.267362088    0.086806297    0.812867165
    0.350695401    0.503473043    0.906433702
    0.434029073    0.920140266    1.000000000
    0.517361283    0.586805582    0.532168269
    0.600694835    0.003472447    0.625734568
    0.684028447    0.420139432    0.719300866
    0.767361820    0.836806059    0.812867165
    0.850695729    0.253473043    0.906433702
    0.934029162    0.670140028    1.000000000
    0.517361224    0.336805612    0.532168269
    0.600694776    0.753472447    0.625734627
    0.684028327    0.170139313    0.719300866
    0.767361879    0.586806178    0.812867165
    0.850695610    0.003473043    0.906433582
    0.934029043    0.420139790    0.999999881
