Si+C
    1.000000000
   13.303179741    0.000000000    0.000000000
    6.651589394   11.520891190    0.000000000
    0.000000000    0.000000000   21.679418564
Si  C  
72     308
Direct
    0.000000000    0.318506181    0.289268762
    0.000000000    0.985172927    0.000000014
    0.000000000    0.651839554    0.144634396
    0.333333343    0.651839614    0.289268732
    0.333333343    0.318506300    0.000000009
    0.333333343    0.985172868    0.144634381
    0.666666687    0.985172927    0.289268732
    0.666666687    0.651839614    0.000000006
    0.666666687    0.318506241    0.144634381
    0.333333343    0.318506062    0.325427443
    0.333333343    0.985172868    0.036158618
    0.333333343    0.651839495    0.180793002
    1.000000000    0.985172808    0.325427443
    1.000000000    0.651839614    0.036158614
    1.000000000    0.318506271    0.180793002
    0.666666746    0.651839375    0.325427443
    0.666666746    0.318506211    0.036158625
    0.666666746    0.985172868    0.180793002
    0.500000000    0.318506241    0.289268732
    0.500000000    0.985172927    0.000000010
    0.500000000    0.651839554    0.144634381
    0.166666672    0.985172927    0.289268732
    0.166666672    0.651839674    0.000000001
    0.166666672    0.318506241    0.144634381
    0.833333373    0.651839614    0.289268732
    0.833333373    0.318506300    0.000000001
    0.833333373    0.985172927    0.144634381
    0.166666657    0.651839554    0.325427353
    0.166666657    0.318506300    0.036158573
    0.166666657    0.985172868    0.180792958
    0.833333433    0.318506181    0.325427383
    0.833333433    0.985172927    0.036158588
    0.833333433    0.651839495    0.180792972
    0.500000060    0.985172868    0.325427383
    0.500000060    0.651839614    0.036158592
    0.500000060    0.318506211    0.180793002
    0.166666672    0.485172927    0.289268732
    0.166666672    0.151839614    0.000000010
    0.166666672    0.818506241    0.144634381
    0.500000000    0.818506241    0.289268762
    0.500000000    0.485172987    0.000000016
    0.500000000    0.151839584    0.144634396
    0.833333373    0.151839629    0.289268732
    0.833333373    0.818506360    0.000000000
    0.833333373    0.485173017    0.144634351
    0.500000000    0.485172868    0.325427383
    0.500000000    0.151839614    0.036158588
    0.500000000    0.818506241    0.180792972
    0.166666672    0.151839569    0.325427353
    0.166666672    0.818506360    0.036158565
    0.166666672    0.485172927    0.180792958
    0.833333373    0.818506181    0.325427353
    0.833333373    0.485172927    0.036158565
    0.833333373    0.151839525    0.180792958
    0.000000000    0.818506241    0.289268732
    0.000000000    0.485172957    0.000000009
    0.000000000    0.151839554    0.144634381
    0.666666687    0.485172868    0.289268732
    0.666666687    0.151839599    0.000000009
    0.666666687    0.818506181    0.144634381
    0.333333313    0.151839495    0.289268732
    0.333333313    0.818506241    0.000000002
    0.333333313    0.485172868    0.144634351
    0.000000000    0.485172808    0.325427443
    0.000000000    0.151839659    0.036158610
    0.000000000    0.818506300    0.180793002
    0.333333343    0.818506122    0.325427443
    0.333333343    0.485172957    0.036158614
    0.333333343    0.151839599    0.180793002
    0.666666687    0.151839525    0.325427413
    0.666666687    0.818506300    0.036158610
    0.666666687    0.485172957    0.180792972
    0.499696791    0.317878962    0.900184691
    0.166363955    0.984545767    0.425242662
    0.833030522    0.651212394    0.520231068
    0.499697089    0.317879021    0.615219474
    0.166363478    0.984545469    0.710207939
    0.833030164    0.651212096    0.805196404
    0.785411060    0.460736036    0.900184751
    0.452078283    0.127402917    0.425242662
    0.118744850    0.794069529    0.520231068
    0.785411417    0.460736156    0.615219533
    0.452077806    0.127402604    0.710207939
    0.118744373    0.794069290    0.805196345
    0.642553985    0.889307380    0.900184751
    0.309221119    0.555974305    0.425242662
    0.975887716    0.222640932    0.520231068
    0.642554283    0.889307559    0.615219474
    0.309220612    0.555974007    0.710207939
    0.975887358    0.222640693    0.805196404
    0.071125507    0.603593111    0.900184751
    0.737792552    0.270260066    0.425242662
    0.404459119    0.936926663    0.520231068
    0.071125746    0.603593290    0.615219533
    0.737792075    0.270259738    0.710207939
    0.404458761    0.936926365    0.805196464
    0.928268135    0.032164514    0.900184751
    0.594935417    0.698831499    0.425242633
    0.261601985    0.365498126    0.520231009
    0.928268492    0.032164693    0.615219474
    0.594935119    0.698831320    0.710207880
    0.261601567    0.365497768    0.805196404
    0.356839597    0.746450186    0.900184751
    0.023506761    0.413117200    0.425242633
    0.690173388    0.079783812    0.520231009
    0.356839955    0.746450424    0.615219474
    0.023506641    0.413117051    0.710207880
    0.690172970    0.079783499    0.805196404
    0.213982463    0.175021648    0.900184751
    0.880649626    0.841688573    0.425242662
    0.547316194    0.508355200    0.520231068
    0.213982791    0.175021812    0.615219474
    0.880649209    0.841688275    0.710207939
    0.547315836    0.508354962    0.805196345
    0.261602014    0.365498096    0.448989749
    0.928268611    0.032164700    0.543978214
    0.594935179    0.698831320    0.638966620
    0.261601627    0.365497887    0.733955026
    0.928268135    0.032164395    0.828943491
    0.690173447    0.079783827    0.448989749
    0.356840014    0.746450424    0.543978214
    0.023506641    0.413117111    0.638966560
    0.690173090    0.079783618    0.733955026
    0.356839538    0.746450067    0.828943491
    0.547316313    0.508355200    0.448989749
    0.213982850    0.175021842    0.543978214
    0.880649388    0.841688454    0.638966560
    0.547315896    0.508355021    0.733955026
    0.213982403    0.175021589    0.828943431
    0.975887656    0.222640947    0.448989749
    0.642554283    0.889307559    0.543978214
    0.309220821    0.555974185    0.638966620
    0.975887299    0.222640693    0.733955026
    0.642553806    0.889307261    0.828943431
    0.404459149    0.936926723    0.448989749
    0.071125746    0.603593290    0.543978214
    0.737792313    0.270259917    0.638966620
    0.404458761    0.936926365    0.733955026
    0.071125269    0.603592992    0.828943431
    0.833030641    0.651212394    0.448989749
    0.499697208    0.317878991    0.543978214
    0.166363716    0.984545588    0.638966620
    0.833030283    0.651212096    0.733955026
    0.499696732    0.317878664    0.828943491
    0.118744850    0.794069529    0.448989719
    0.785411417    0.460736126    0.543978155
    0.452078044    0.127402753    0.638966560
    0.118744612    0.794069350    0.733955026
    0.785411060    0.460735857    0.828943431
    0.713982522    0.675021648    0.900184691
    0.380649686    0.341688633    0.425242662
    0.047316313    0.008355225    0.520231068
    0.713982821    0.675021827    0.615219474
    0.380649209    0.341688275    0.710207939
    0.047315836    0.008355021    0.805196345
    0.142554045    0.389307380    0.900184691
    0.809221148    0.055974353    0.425242633
    0.475887656    0.722640991    0.520231009
    0.142554283    0.389307618    0.615219474
    0.809220612    0.055974007    0.710207939
    0.475887299    0.722640753    0.805196345
    0.571125329    0.103593051    0.900184751
    0.237792566    0.770260036    0.425242633
    0.904459178    0.436926663    0.520231068
    0.571125686    0.103593223    0.615219474
    0.237792313    0.770259917    0.710207939
    0.904458821    0.436926365    0.805196404
    0.999696791    0.817878842    0.900184751
    0.666363955    0.484545767    0.425242633
    0.333030522    0.151212379    0.520231068
    0.999697030    0.817878962    0.615219474
    0.666363716    0.484545588    0.710207939
    0.333030164    0.151212096    0.805196345
    0.428268194    0.532164454    0.900184751
    0.094935417    0.198831514    0.425242603
    0.761601985    0.865498126    0.520231009
    0.428268522    0.532164693    0.615219474
    0.094935179    0.198831379    0.710207880
    0.761601508    0.865497828    0.805196404
    0.856839597    0.246450305    0.900184751
    0.523506880    0.913117230    0.425242662
    0.190173358    0.579783797    0.520231068
    0.856839955    0.246450439    0.615219474
    0.523506343    0.913116872    0.710207939
    0.190173030    0.579783559    0.805196345
    0.285411119    0.960736036    0.900184751
    0.952078283    0.627402902    0.425242692
    0.618744850    0.294069499    0.520231068
    0.285411417    0.960736156    0.615219533
    0.952077806    0.627402544    0.710207939
    0.618744433    0.294069290    0.805196404
    0.333030581    0.151212409    0.448989719
    0.999697149    0.817878962    0.543978214
    0.666363716    0.484545648    0.638966560
    0.333030224    0.151212215    0.733955026
    0.999696791    0.817878723    0.828943491
    0.190173462    0.579783797    0.448989719
    0.856839955    0.246450394    0.543978214
    0.523506641    0.913117051    0.638966560
    0.190173090    0.579783618    0.733955026
    0.856839716    0.246450126    0.828943372
    0.618744850    0.294069529    0.448989719
    0.285411417    0.960736096    0.543978155
    0.952077985    0.627402782    0.638966560
    0.618744493    0.294069350    0.733955026
    0.285410941    0.960735917    0.828943372
    0.047316194    0.008355216    0.448989719
    0.713982821    0.675021827    0.543978155
    0.380649418    0.341688454    0.638966560
    0.047315955    0.008355021    0.733955026
    0.713982463    0.675021529    0.828943372
    0.475887746    0.722640991    0.448989719
    0.142554283    0.389307529    0.543978155
    0.809220850    0.055974133    0.638966560
    0.475887418    0.722640753    0.733955026
    0.142553806    0.389307261    0.828943431
    0.904459238    0.436926693    0.448989719
    0.571125746    0.103593230    0.543978214
    0.237792343    0.770259857    0.638966620
    0.904458880    0.436926425    0.733955026
    0.571125388    0.103592932    0.828943491
    0.761601985    0.865498066    0.448989719
    0.428268552    0.532164633    0.543978214
    0.094935179    0.198831216    0.638966560
    0.761601627    0.865497828    0.733955026
    0.428268194    0.532164395    0.828943431
    0.642553985    0.389307380    0.900184810
    0.309221089    0.055974346    0.425242662
    0.975887656    0.722640991    0.520231068
    0.642554283    0.389307618    0.615219474
    0.309220672    0.055974066    0.710207939
    0.975887239    0.722640634    0.805196404
    0.499696910    0.817878842    0.900184751
    0.166363955    0.484545767    0.425242662
    0.833030522    0.151212364    0.520231068
    0.499697149    0.817878962    0.615219533
    0.166363478    0.484545410    0.710207939
    0.833030164    0.151212156    0.805196404
    0.928268254    0.532164574    0.900184751
    0.594935417    0.198831499    0.425242633
    0.261601985    0.865498126    0.520231068
    0.928268552    0.532164693    0.615219474
    0.594934940    0.198831141    0.710207939
    0.261601627    0.865497828    0.805196404
    0.785411060    0.960735917    0.900184810
    0.452078253    0.627402961    0.425242633
    0.118744850    0.294069588    0.520231009
    0.785411358    0.960736156    0.615219474
    0.452077985    0.627402842    0.710207880
    0.118744373    0.294069231    0.805196404
    0.213982522    0.675021648    0.900184751
    0.880649686    0.341688663    0.425242633
    0.547316313    0.008355270    0.520231009
    0.213982835    0.675021827    0.615219474
    0.880649447    0.341688514    0.710207880
    0.547315896    0.008354962    0.805196404
    0.071125269    0.103593111    0.900184691
    0.737792552    0.770260036    0.425242662
    0.404459119    0.436926663    0.520231068
    0.071125746    0.103593290    0.615219474
    0.737792075    0.770259738    0.710207939
    0.404458761    0.436926425    0.805196345
    0.356839657    0.246450186    0.900184751
    0.023506880    0.913117170    0.425242662
    0.690173388    0.579783797    0.520231068
    0.356839955    0.246450424    0.615219474
    0.023506403    0.913116872    0.710207939
    0.690173030    0.579783559    0.805196345
    0.547316313    0.008355243    0.448989749
    0.213982791    0.675021827    0.543978214
    0.880649388    0.341688454    0.638966620
    0.547315896    0.008355081    0.733955026
    0.213982403    0.675021529    0.828943491
    0.404459208    0.436926633    0.448989749
    0.071125746    0.103593238    0.543978214
    0.737792313    0.770259857    0.638966560
    0.404458821    0.436926425    0.733955026
    0.071125269    0.103593051    0.828943372
    0.833030581    0.151212379    0.448989749
    0.499697149    0.817878962    0.543978214
    0.166363716    0.484545648    0.638966560
    0.833030224    0.151212156    0.733955026
    0.499696791    0.817878723    0.828943431
    0.261602044    0.865498126    0.448989749
    0.928268552    0.532164693    0.543978214
    0.594935179    0.198831320    0.638966620
    0.261601686    0.865497947    0.733955026
    0.928268135    0.532164454    0.828943491
    0.690173447    0.579783797    0.448989719
    0.356839955    0.246450379    0.543978155
    0.023506522    0.913116992    0.638966560
    0.690173090    0.579783559    0.733954966
    0.356839597    0.246450126    0.828943431
    0.118744969    0.294069529    0.448989719
    0.785411537    0.960736096    0.543978214
    0.452078104    0.627402723    0.638966560
    0.118744612    0.294069290    0.733955026
    0.785411060    0.960735917    0.828943372
    0.975887775    0.722640991    0.448989749
    0.642554283    0.389307529    0.543978214
    0.309220910    0.055974159    0.638966620
    0.975887358    0.722640753    0.733955026
    0.642553926    0.389307320    0.828943431
    0.571125567    0.603593111    0.900184751
    0.237792552    0.270260066    0.425242633
    0.904459059    0.936926663    0.520231068
    0.571125686    0.603593290    0.615219474
    0.237792075    0.270259738    0.710207939
    0.904458702    0.936926484    0.805196345
    0.999696791    0.317878842    0.900184691
    0.666363955    0.984545767    0.425242633
    0.333030522    0.651212394    0.520231068
    0.999697089    0.317879021    0.615219474
    0.666363478    0.984545469    0.710207939
    0.333030105    0.651212215    0.805196345
    0.856839597    0.746450305    0.900184751
    0.523506820    0.413117200    0.425242662
    0.190173388    0.079783849    0.520231009
    0.856839955    0.746450424    0.615219474
    0.523506522    0.413117111    0.710207880
    0.190172970    0.079783559    0.805196404
    0.285411000    0.460735917    0.900184810
    0.952078164    0.127402887    0.425242633
    0.618744791    0.794069529    0.520231009
    0.285411298    0.460736096    0.615219474
    0.952077925    0.127402782    0.710207880
    0.618744373    0.794069290    0.805196345
    0.713982403    0.175021648    0.900184751
    0.380649686    0.841688573    0.425242662
    0.047316313    0.508355200    0.520231068
    0.713982880    0.175021812    0.615219474
    0.380649209    0.841688275    0.710207939
    0.047315836    0.508354902    0.805196404
    0.142554045    0.889307380    0.900184691
    0.809221148    0.555974364    0.425242633
    0.475887686    0.222640947    0.520231009
    0.142554283    0.889307559    0.615219474
    0.809220672    0.555974007    0.710207939
    0.475887299    0.222640693    0.805196345
    0.428268194    0.032164514    0.900184751
    0.094935417    0.698831439    0.425242662
    0.761601985    0.365498036    0.520231068
    0.428268522    0.032164663    0.615219474
    0.094934940    0.698831081    0.710207939
    0.761601627    0.365497828    0.805196404
    0.190173477    0.079783902    0.448989749
    0.856840074    0.746450543    0.543978214
    0.523506582    0.413117111    0.638966620
    0.190173090    0.079783678    0.733955026
    0.856839597    0.746450186    0.828943491
    0.475887775    0.222641021    0.448989749
    0.142554283    0.889307618    0.543978214
    0.809220850    0.555974245    0.638966620
    0.475887358    0.222640753    0.733955026
    0.142553806    0.889307380    0.828943491
    0.333030641    0.651212394    0.448989749
    0.999697208    0.317879051    0.543978214
    0.666363776    0.984545648    0.638966560
    0.333030224    0.651212215    0.733955026
    0.999696791    0.317878723    0.828943491
    0.761602044    0.365498155    0.448989749
    0.428268611    0.032164771    0.543978214
    0.094935179    0.698831379    0.638966620
    0.761601627    0.365497887    0.733955026
    0.428268135    0.032164454    0.828943491
    0.618744850    0.794069529    0.448989749
    0.285411417    0.460736156    0.543978155
    0.952077985    0.127402768    0.638966560
    0.618744433    0.794069290    0.733955026
    0.285410941    0.460735798    0.828943431
    0.047316313    0.508355200    0.448989719
    0.713982821    0.175021827    0.543978214
    0.380649388    0.841688454    0.638966620
    0.047315836    0.508354962    0.733955026
    0.713982344    0.175021529    0.828943431
    0.904459178    0.936926782    0.448989779
    0.571125746    0.603593409    0.543978214
    0.237792343    0.270260036    0.638966620
    0.904458821    0.936926484    0.733955026
    0.571125329    0.603593111    0.828943491
