Sn+Si
    1.000000000
   12.978400230    0.000000000    0.000000000
  -12.978400230    9.177114487    0.000000000
    0.000000000    0.000000000   21.072141647
Sn  Si 
48     72
Direct
    0.000000000    0.017979508    0.000000014
    0.000000000    0.267979503    0.108877331
    0.000000017    0.517979562    0.217754707
    0.000000025    0.767979562    0.326632023
    1.000000000    0.017979622    0.435509384
    0.000000054    0.267979622    0.544386744
    0.500000000    0.017979508    0.000000014
    0.499999970    0.267979503    0.108877331
    0.500000000    0.517979562    0.217754707
    0.499999940    0.767979562    0.326632023
    0.499999970    0.017979622    0.435509384
    0.500000000    0.267979622    0.544386744
    0.000000055    0.517979503    0.000000016
    0.000000000    0.767979503    0.108877346
    0.000000085    0.017979622    0.217754707
    0.000000092    0.267979622    0.326632023
    0.000000027    0.517979503    0.435509384
    0.999999940    0.767979622    0.544386744
    0.499999970    0.517979503    0.000000016
    0.500000000    0.767979503    0.108877346
    0.500000000    0.017979622    0.217754707
    0.500000060    0.267979622    0.326632023
    0.499999911    0.517979503    0.435509384
    0.500000060    0.767979622    0.544386744
    0.124999993    0.267979503    0.000000015
    0.125000000    0.517979503    0.108877346
    0.125000015    0.767979562    0.217754707
    0.125000030    0.017979622    0.326632023
    0.124999978    0.267979622    0.435509413
    0.124999985    0.517979622    0.544386744
    0.624999940    0.267979503    0.000000015
    0.624999940    0.517979503    0.108877346
    0.624999940    0.767979562    0.217754707
    0.624999881    0.017979622    0.326632023
    0.624999940    0.267979622    0.435509413
    0.624999881    0.517979622    0.544386744
    0.124999993    0.767979443    0.000000000
    0.125000060    0.017979503    0.108877346
    0.125000015    0.267979503    0.217754692
    0.124999978    0.517979622    0.326632023
    0.124999985    0.767979622    0.435509413
    0.124999993    0.017979622    0.544386744
    0.624999881    0.767979443    0.000000000
    0.624999940    0.017979503    0.108877346
    0.624999940    0.267979503    0.217754692
    0.624999940    0.517979622    0.326632023
    0.625000000    0.767979622    0.435509413
    0.624999881    0.017979622    0.544386744
    0.311850607    0.666666687    0.544386744
    0.061850544    0.666666627    0.635509372
    0.811850488    0.666666627    0.726631999
    0.561850548    0.666666627    0.817754567
    0.311850309    0.666666567    0.908877194
    0.061850369    0.666666627    0.999999821
    0.978517294    0.000000000    0.544386744
    0.728517175    0.000000000    0.635509372
    0.478517115    0.999999940    0.726631999
    0.228517175    0.999999940    0.817754567
    0.978517056    0.999999940    0.908877194
    0.728517056    0.999999940    0.999999821
    0.645183980    0.333333343    0.544386744
    0.395183951    0.333333343    0.635509372
    0.145183876    0.333333343    0.726631999
    0.895183921    0.333333343    0.817754567
    0.645183802    0.333333313    0.908877194
    0.395183802    0.333333343    0.999999821
    0.145183951    0.333333343    0.544386744
    0.895183861    0.333333313    0.635509372
    0.645183802    0.333333313    0.726631999
    0.395183802    0.333333284    0.817754567
    0.145183742    0.333333284    0.908877194
    0.895183802    0.333333373    0.999999821
    0.811850607    0.666666687    0.544386744
    0.561850607    0.666666687    0.635509372
    0.311850518    0.666666687    0.726631999
    0.061850544    0.666666627    0.817754567
    0.811850369    0.666666627    0.908877194
    0.561850309    0.666666687    0.999999821
    0.478517264    0.000000000    0.544386744
    0.228517234    0.000000000    0.635509372
    0.978517175    0.999999940    0.726631999
    0.728517175    0.999999940    0.817754567
    0.478517115    0.999999940    0.908877194
    0.228516936    0.999999940    0.999999821
    0.228517309    0.750000000    0.544386744
    0.978517234    0.750000000    0.635509372
    0.728517175    0.750000000    0.726631999
    0.478517056    0.749999881    0.817754567
    0.228517115    0.749999940    0.908877075
    0.978517056    0.750000000    0.999999821
    0.561850667    0.416666687    0.544386744
    0.311850578    0.416666657    0.635509372
    0.061850492    0.416666627    0.726631999
    0.811850488    0.416666627    0.817754567
    0.561850429    0.416666627    0.908877194
    0.311850190    0.416666538    0.999999821
    0.895184040    0.083333366    0.544386744
    0.645183861    0.083333299    0.635509372
    0.395183861    0.083333299    0.726631999
    0.145183861    0.083333276    0.817754567
    0.895183742    0.083333261    0.908877194
    0.645183682    0.083333232    0.999999821
    0.061850604    0.416666657    0.544386744
    0.811850548    0.416666687    0.635509372
    0.561850429    0.416666657    0.726631999
    0.311850429    0.416666567    0.817754567
    0.061850429    0.416666597    0.908877194
    0.811850190    0.416666567    0.999999821
    0.728517294    0.749999940    0.544386744
    0.478517205    0.750000000    0.635509372
    0.228517130    0.749999940    0.726631939
    0.978517175    0.749999940    0.817754567
    0.728517115    0.749999940    0.908877194
    0.478516877    0.749999821    0.999999821
    0.395183951    0.083333328    0.544386744
    0.145183831    0.083333291    0.635509372
    0.895183742    0.083333291    0.726631999
    0.645183802    0.083333232    0.817754567
    0.395183682    0.083333291    0.908877194
    0.145183623    0.083333254    0.999999821
