Si+C                                    
   1.00000000000000     
    13.3031797409999992    0.0000000000000000    0.0000000000000000
     6.6515893940000002   14.8734064099999994    0.0000000000000000
     0.0000000000000000    0.0000000000000000    8.1924057010000002
   Si   C 
    36    84
Direct
  0.9829056259999973  0.6581194999999980  0.0000000049999969
  0.7829055790000012  0.5581192969999975  0.1482359620000011
  0.5829054120000023  0.4581190939999971  0.2964719240000022
  0.9829056259999973  0.3247861270000030  0.0000000049999969
  0.7829055790000012  0.2247859690000027  0.1482359620000011
  0.5829054120000023  0.1247858030000017  0.2964719240000022
  0.9829056259999973  0.9914528130000022  0.0000000049999969
  0.7829055790000012  0.8914526699999996  0.1482359620000011
  0.5829054120000023  0.7914525269999970  0.2964719240000022
  0.6329056619999989  0.6914526819999978  0.0741178239999982
  0.4329055850000003  0.5914524789999973  0.2223538009999970
  0.2329055220000029  0.4914524260000022  0.3705897330000028
  0.6329056619999989  0.3581194280000020  0.0741178239999982
  0.4329055850000003  0.2581192849999994  0.2223538009999970
  0.2329055220000029  0.1581191419999968  0.3705897330000028
  0.6329056619999989  0.0247861369999995  0.0741178239999982
  0.4329055850000003  0.9247859720000022  0.2223538009999970
  0.2329055220000029  0.8247858289999996  0.3705897330000028
  0.4829056259999973  0.6581194999999980  0.0000000000000000
  0.2829055489999988  0.5581192969999975  0.1482359620000011
  0.0829054419999977  0.4581190939999971  0.2964719240000022
  0.4829056259999973  0.3247861270000030  0.0000000000000000
  0.2829055489999988  0.2247859539999979  0.1482359620000011
  0.0829054419999977  0.1247858110000024  0.2964719240000022
  0.4829056259999973  0.9914528130000022  0.0000000000000000
  0.2829055489999988  0.8914526699999996  0.1482359620000011
  0.0829054419999977  0.7914525269999970  0.2964719240000022
  0.1329056769999966  0.6914527420000027  0.0741178390000030
  0.9329055549999978  0.5914524789999973  0.2223538009999970
  0.7329055069999981  0.4914523959999997  0.3705897330000028
  0.1329056769999966  0.3581194879999998  0.0741178390000030
  0.9329055549999978  0.2581192849999994  0.2223538009999970
  0.7329055069999981  0.1581191269999991  0.3705897330000028
  0.1329056769999966  0.0247861369999995  0.0741178390000030
  0.9329055549999978  0.9247859720000022  0.2223538009999970
  0.7329055069999981  0.8247858289999996  0.3705897330000028
  0.7112786770000028  0.9629139299999991  0.7583102580000016
  0.0541356800000017  0.9914855959999969  0.5636027460000008
  0.3827071190000026  0.9771997929999969  0.6609564419999998
  0.9969928260000032  0.8200568560000008  0.7583102580000016
  0.3398499489999978  0.8486284609999970  0.5636027460000008
  0.6684215069999979  0.8343426590000007  0.6609564419999998
  0.2827070949999992  0.6771997210000009  0.7583102580000016
  0.6255642180000009  0.7057713270000008  0.5636027460000008
  0.9541356559999983  0.6914855240000009  0.6609564419999998
  0.5684214830000016  0.5343425869999976  0.7583101990000003
  0.9112786049999997  0.5629141929999975  0.5636026860000030
  0.2398500440000007  0.5486283899999975  0.6609564419999998
  0.8541357519999977  0.3914854530000014  0.7583101990000003
  0.1969928740000029  0.4200570579999976  0.5636026860000030
  0.5255641939999975  0.4057712549999977  0.6609564419999998
  0.1398500199999972  0.2486283180000015  0.7583101990000003
  0.4827070239999998  0.2771999240000014  0.5636026860000030
  0.8112785819999999  0.2629141509999968  0.6609564419999998
  0.4255644079999996  0.1057711839999982  0.7583102580000016
  0.7684214120000021  0.1343427899999980  0.5636026860000030
  0.0969929700000023  0.1200569869999981  0.6609565019999977
  0.1612784860000005  0.0629140140000004  0.8069870469999998
  0.5041356090000022  0.0914856200000003  0.6122795340000025
  0.8327070469999995  0.0771996969999975  0.7096332910000029
  0.4469927549999966  0.9200568199999992  0.8069870469999998
  0.7898498770000018  0.9486284259999991  0.6122795340000025
  0.1184213160000027  0.9343425630000013  0.7096332910000029
  0.7327070239999998  0.7771996860000030  0.8069871069999976
  0.0755641459999978  0.8057712909999992  0.6122794750000011
  0.4041357039999980  0.7914854879999993  0.7096332309999980
  0.0184214120000021  0.6343426110000010  0.8069869879999985
  0.3612785340000002  0.6629141570000030  0.6122794750000011
  0.6898498540000020  0.6486284140000009  0.7096332309999980
  0.3041357990000009  0.4914855359999990  0.8069871069999976
  0.6469929220000026  0.5200570820000010  0.6122794750000011
  0.9755642410000007  0.5057713389999989  0.7096331719999966
  0.5898499489999978  0.3486283419999978  0.8069871069999976
  0.9327071310000008  0.3771999180000023  0.6122795340000025
  0.2612786290000031  0.3629141150000024  0.7096332309999980
  0.8755643370000001  0.2057711779999991  0.8069869879999985
  0.2184214589999982  0.2343427839999990  0.6122795340000025
  0.5469927790000000  0.2200569959999967  0.7096332309999980
  0.2112785579999965  0.9629139899999970  0.7583101990000003
  0.5541356800000017  0.9914854760000011  0.5636026860000030
  0.8827070000000035  0.9771997929999969  0.6609565019999977
  0.4969930649999981  0.8200568560000008  0.7583102580000016
  0.8398500679999970  0.8486284609999970  0.5636026860000030
  0.1684215069999979  0.8343426590000007  0.6609564419999998
  0.7827073340000013  0.6771997210000009  0.7583102580000016
  0.1255643370000001  0.7057713270000008  0.5636026860000030
  0.4541357760000011  0.6914855240000009  0.6609564419999998
  0.0684214830000016  0.5343426470000026  0.7583102580000016
  0.4112784860000005  0.5629141929999975  0.5636026860000030
  0.7398499250000015  0.5486284489999989  0.6609564419999998
  0.3541356329999985  0.3914855720000006  0.7583102580000016
  0.6969928740000029  0.4200570579999976  0.5636026860000030
  0.0255643129999967  0.4057712549999977  0.6609564419999998
  0.6398501400000001  0.2486283479999969  0.7583102580000016
  0.9827071429999990  0.2771998939999989  0.5636027460000008
  0.3112785819999999  0.2629141210000014  0.6609565019999977
  0.9255642890000004  0.1057713029999974  0.7583102580000016
  0.2684214120000021  0.1343427899999980  0.5636027460000008
  0.5969928499999995  0.1200569869999981  0.6609565019999977
  0.6612784860000005  0.0629141329999996  0.8069870469999998
  0.0041356090000022  0.0914856200000003  0.6122795340000025
  0.3327070469999995  0.0771998170000003  0.7096332309999980
  0.9469928740000029  0.9200568799999971  0.8069870469999998
  0.2898499969999975  0.9486284850000004  0.6122795340000025
  0.6184213160000027  0.9343426229999992  0.7096332309999980
  0.2327071429999990  0.7771996860000030  0.8069870469999998
  0.5755643840000033  0.8057712909999992  0.6122795340000025
  0.9041358229999972  0.7914854289999980  0.7096332309999980
  0.5184212919999993  0.6343426110000010  0.8069869879999985
  0.8612785340000002  0.6629140969999980  0.6122794750000011
  0.1898499730000012  0.6486283540000031  0.7096332309999980
  0.8041357990000009  0.4914854760000011  0.8069869879999985
  0.1469929220000026  0.5200570229999997  0.6122794750000011
  0.4755643609999964  0.5057712790000011  0.7096332309999980
  0.0898498299999986  0.3486282829999965  0.8069870469999998
  0.4327070710000029  0.3771998879999998  0.6122794750000011
  0.7612783909999976  0.3629141150000024  0.7096332309999980
  0.3755642180000009  0.2057712670000029  0.8069869879999985
  0.7184214589999982  0.2343427539999965  0.6122795340000025
  0.0469927790000000  0.2200569809999990  0.7096332309999980
 
  0.00000000E+00  0.00000000E+00  0.00000000E+00
  0.00000000E+00  0.00000000E+00  0.00000000E+00
  0.00000000E+00  0.00000000E+00  0.00000000E+00
  0.00000000E+00  0.00000000E+00  0.00000000E+00
  0.00000000E+00  0.00000000E+00  0.00000000E+00
  0.00000000E+00  0.00000000E+00  0.00000000E+00
  0.00000000E+00  0.00000000E+00  0.00000000E+00
  0.00000000E+00  0.00000000E+00  0.00000000E+00
  0.00000000E+00  0.00000000E+00  0.00000000E+00
  0.00000000E+00  0.00000000E+00  0.00000000E+00
  0.00000000E+00  0.00000000E+00  0.00000000E+00
  0.00000000E+00  0.00000000E+00  0.00000000E+00
  0.00000000E+00  0.00000000E+00  0.00000000E+00
  0.00000000E+00  0.00000000E+00  0.00000000E+00
  0.00000000E+00  0.00000000E+00  0.00000000E+00
  0.00000000E+00  0.00000000E+00  0.00000000E+00
  0.00000000E+00  0.00000000E+00  0.00000000E+00
  0.00000000E+00  0.00000000E+00  0.00000000E+00
  0.00000000E+00  0.00000000E+00  0.00000000E+00
  0.00000000E+00  0.00000000E+00  0.00000000E+00
  0.00000000E+00  0.00000000E+00  0.00000000E+00
  0.00000000E+00  0.00000000E+00  0.00000000E+00
  0.00000000E+00  0.00000000E+00  0.00000000E+00
  0.00000000E+00  0.00000000E+00  0.00000000E+00
  0.00000000E+00  0.00000000E+00  0.00000000E+00
  0.00000000E+00  0.00000000E+00  0.00000000E+00
  0.00000000E+00  0.00000000E+00  0.00000000E+00
  0.00000000E+00  0.00000000E+00  0.00000000E+00
  0.00000000E+00  0.00000000E+00  0.00000000E+00
  0.00000000E+00  0.00000000E+00  0.00000000E+00
  0.00000000E+00  0.00000000E+00  0.00000000E+00
  0.00000000E+00  0.00000000E+00  0.00000000E+00
  0.00000000E+00  0.00000000E+00  0.00000000E+00
  0.00000000E+00  0.00000000E+00  0.00000000E+00
  0.00000000E+00  0.00000000E+00  0.00000000E+00
  0.00000000E+00  0.00000000E+00  0.00000000E+00
  0.00000000E+00  0.00000000E+00  0.00000000E+00
  0.00000000E+00  0.00000000E+00  0.00000000E+00
  0.00000000E+00  0.00000000E+00  0.00000000E+00
  0.00000000E+00  0.00000000E+00  0.00000000E+00
  0.00000000E+00  0.00000000E+00  0.00000000E+00
  0.00000000E+00  0.00000000E+00  0.00000000E+00
  0.00000000E+00  0.00000000E+00  0.00000000E+00
  0.00000000E+00  0.00000000E+00  0.00000000E+00
  0.00000000E+00  0.00000000E+00  0.00000000E+00
  0.00000000E+00  0.00000000E+00  0.00000000E+00
  0.00000000E+00  0.00000000E+00  0.00000000E+00
  0.00000000E+00  0.00000000E+00  0.00000000E+00
  0.00000000E+00  0.00000000E+00  0.00000000E+00
  0.00000000E+00  0.00000000E+00  0.00000000E+00
  0.00000000E+00  0.00000000E+00  0.00000000E+00
  0.00000000E+00  0.00000000E+00  0.00000000E+00
  0.00000000E+00  0.00000000E+00  0.00000000E+00
  0.00000000E+00  0.00000000E+00  0.00000000E+00
  0.00000000E+00  0.00000000E+00  0.00000000E+00
  0.00000000E+00  0.00000000E+00  0.00000000E+00
  0.00000000E+00  0.00000000E+00  0.00000000E+00
  0.00000000E+00  0.00000000E+00  0.00000000E+00
  0.00000000E+00  0.00000000E+00  0.00000000E+00
  0.00000000E+00  0.00000000E+00  0.00000000E+00
  0.00000000E+00  0.00000000E+00  0.00000000E+00
  0.00000000E+00  0.00000000E+00  0.00000000E+00
  0.00000000E+00  0.00000000E+00  0.00000000E+00
  0.00000000E+00  0.00000000E+00  0.00000000E+00
  0.00000000E+00  0.00000000E+00  0.00000000E+00
  0.00000000E+00  0.00000000E+00  0.00000000E+00
  0.00000000E+00  0.00000000E+00  0.00000000E+00
  0.00000000E+00  0.00000000E+00  0.00000000E+00
  0.00000000E+00  0.00000000E+00  0.00000000E+00
  0.00000000E+00  0.00000000E+00  0.00000000E+00
  0.00000000E+00  0.00000000E+00  0.00000000E+00
  0.00000000E+00  0.00000000E+00  0.00000000E+00
  0.00000000E+00  0.00000000E+00  0.00000000E+00
  0.00000000E+00  0.00000000E+00  0.00000000E+00
  0.00000000E+00  0.00000000E+00  0.00000000E+00
  0.00000000E+00  0.00000000E+00  0.00000000E+00
  0.00000000E+00  0.00000000E+00  0.00000000E+00
  0.00000000E+00  0.00000000E+00  0.00000000E+00
  0.00000000E+00  0.00000000E+00  0.00000000E+00
  0.00000000E+00  0.00000000E+00  0.00000000E+00
  0.00000000E+00  0.00000000E+00  0.00000000E+00
  0.00000000E+00  0.00000000E+00  0.00000000E+00
  0.00000000E+00  0.00000000E+00  0.00000000E+00
  0.00000000E+00  0.00000000E+00  0.00000000E+00
  0.00000000E+00  0.00000000E+00  0.00000000E+00
  0.00000000E+00  0.00000000E+00  0.00000000E+00
  0.00000000E+00  0.00000000E+00  0.00000000E+00
  0.00000000E+00  0.00000000E+00  0.00000000E+00
  0.00000000E+00  0.00000000E+00  0.00000000E+00
  0.00000000E+00  0.00000000E+00  0.00000000E+00
  0.00000000E+00  0.00000000E+00  0.00000000E+00
  0.00000000E+00  0.00000000E+00  0.00000000E+00
  0.00000000E+00  0.00000000E+00  0.00000000E+00
  0.00000000E+00  0.00000000E+00  0.00000000E+00
  0.00000000E+00  0.00000000E+00  0.00000000E+00
  0.00000000E+00  0.00000000E+00  0.00000000E+00
  0.00000000E+00  0.00000000E+00  0.00000000E+00
  0.00000000E+00  0.00000000E+00  0.00000000E+00
  0.00000000E+00  0.00000000E+00  0.00000000E+00
  0.00000000E+00  0.00000000E+00  0.00000000E+00
  0.00000000E+00  0.00000000E+00  0.00000000E+00
  0.00000000E+00  0.00000000E+00  0.00000000E+00
  0.00000000E+00  0.00000000E+00  0.00000000E+00
  0.00000000E+00  0.00000000E+00  0.00000000E+00
  0.00000000E+00  0.00000000E+00  0.00000000E+00
  0.00000000E+00  0.00000000E+00  0.00000000E+00
  0.00000000E+00  0.00000000E+00  0.00000000E+00
  0.00000000E+00  0.00000000E+00  0.00000000E+00
  0.00000000E+00  0.00000000E+00  0.00000000E+00
  0.00000000E+00  0.00000000E+00  0.00000000E+00
  0.00000000E+00  0.00000000E+00  0.00000000E+00
  0.00000000E+00  0.00000000E+00  0.00000000E+00
  0.00000000E+00  0.00000000E+00  0.00000000E+00
  0.00000000E+00  0.00000000E+00  0.00000000E+00
  0.00000000E+00  0.00000000E+00  0.00000000E+00
  0.00000000E+00  0.00000000E+00  0.00000000E+00
  0.00000000E+00  0.00000000E+00  0.00000000E+00
  0.00000000E+00  0.00000000E+00  0.00000000E+00
  0.00000000E+00  0.00000000E+00  0.00000000E+00
  0.00000000E+00  0.00000000E+00  0.00000000E+00
