Si+C
    1.000000000
   13.303179741    0.000000000    0.000000000
    6.651589394   14.873406410    0.000000000
    0.000000000    0.000000000    7.994752407
Si  C  
36     84
Direct
    0.283249497    0.641624749    0.000000047
    0.816582799    0.408291280    0.151900828
    0.349915981    0.174957767    0.303801656
    0.616582751    0.308291376    0.000000057
    0.149916053    0.074957930    0.151900828
    0.683249235    0.841624439    0.303801626
    0.949916124    0.974958062    0.000000040
    0.483249485    0.741624594    0.151900828
    0.016582668    0.508291125    0.303801626
    0.799916267    0.774958014    0.075950287
    0.333249509    0.541624546    0.227851093
    0.866582751    0.308291078    0.379751951
    0.133249685    0.441624761    0.075950302
    0.666582942    0.208291277    0.227851093
    0.199916244    0.974957764    0.379751951
    0.466582894    0.108291537    0.075950302
    0.999916136    0.874958038    0.227851093
    0.533249378    0.641624570    0.379751951
    0.783249557    0.641624749    0.000000000
    0.316582829    0.408291280    0.151900813
    0.849916041    0.174957782    0.303801656
    0.116582796    0.308291405    0.000000057
    0.649916053    0.074957952    0.151900858
    0.183249295    0.841624498    0.303801656
    0.449916124    0.974958062    0.000000057
    0.983249426    0.741624594    0.151900858
    0.516582668    0.508291125    0.303801656
    0.299916178    0.774958134    0.075950302
    0.833249450    0.541624665    0.227851152
    0.366582692    0.308291197    0.379751921
    0.633249402    0.441624731    0.075950317
    0.166582644    0.208291262    0.227851152
    0.699915946    0.974957824    0.379751891
    0.966582716    0.108291551    0.075950302
    0.499915957    0.874958038    0.227851152
    0.033249259    0.641624629    0.379751951
    0.256733179    0.901185572    0.764696479
    0.599590242    0.929757237    0.565175295
    0.928161740    0.915471435    0.664935887
    0.542447329    0.758328497    0.764696479
    0.885304570    0.786900103    0.565175295
    0.213876009    0.772614300    0.664935887
    0.828161597    0.615471363    0.764696479
    0.171018720    0.644042969    0.565175295
    0.499590188    0.629757166    0.664935887
    0.113875985    0.472614169    0.764696479
    0.456733108    0.501185775    0.565175235
    0.785304546    0.486900032    0.664935887
    0.399590284    0.329757035    0.764696479
    0.742447376    0.358328640    0.565175235
    0.071018815    0.344042897    0.664935887
    0.685304523    0.186899930    0.764696479
    0.028161645    0.215471536    0.565175235
    0.356733114    0.201185763    0.664935887
    0.971018910    0.044042826    0.764696538
    0.313875973    0.072614312    0.565175235
    0.642447472    0.058328629    0.664935887
    0.706732988    0.001185536    0.814576685
    0.049590111    0.029757142    0.615055501
    0.378161579    0.015471339    0.714816153
    0.992447257    0.858328462    0.814576685
    0.335304409    0.886900067    0.615055501
    0.663875818    0.872614205    0.714816153
    0.278161526    0.715471327    0.814576805
    0.621018708    0.744042933    0.615055442
    0.949590206    0.729757130    0.714816093
    0.563875914    0.572614253    0.814576685
    0.906733036    0.601185799    0.615055442
    0.235304475    0.586900055    0.714816153
    0.849590302    0.429757118    0.814576805
    0.192447424    0.458328724    0.615055442
    0.521018744    0.444042921    0.714816093
    0.135304451    0.286899924    0.814576805
    0.478161633    0.315471530    0.615055501
    0.806733131    0.301185727    0.714816153
    0.421018869    0.144042790    0.814576685
    0.763875961    0.172614396    0.615055501
    0.092447400    0.158328608    0.714816093
    0.756733060    0.901185632    0.764696479
    0.099590182    0.929757118    0.565175235
    0.428161532    0.915471435    0.664935946
    0.042447567    0.758328497    0.764696538
    0.385304570    0.786900103    0.565175235
    0.713876009    0.772614300    0.664935887
    0.328161865    0.615471363    0.764696538
    0.671018839    0.644042969    0.565175235
    0.999590278    0.629757166    0.664935887
    0.613875985    0.472614229    0.764696538
    0.956733108    0.501185834    0.565175235
    0.285304457    0.486900032    0.664935887
    0.899590135    0.329757154    0.764696538
    0.242447376    0.358328700    0.565175235
    0.571018815    0.344042897    0.664935887
    0.185304642    0.186899960    0.764696538
    0.528161645    0.215471506    0.565175295
    0.856733203    0.201185718    0.664935887
    0.471018821    0.044042826    0.764696538
    0.813875914    0.072614431    0.565175295
    0.142447352    0.058328629    0.664935887
    0.206733108    0.001185656    0.814576685
    0.549590230    0.029757261    0.615055501
    0.878161550    0.015471339    0.714816093
    0.492447406    0.858328521    0.814576685
    0.835304499    0.886900127    0.615055501
    0.163875937    0.872614264    0.714816093
    0.778161645    0.715471327    0.814576685
    0.121018887    0.744042933    0.615055501
    0.449590355    0.729757071    0.714816093
    0.063875794    0.572614253    0.814576626
    0.406733066    0.601185739    0.615055442
    0.735304475    0.586899996    0.714816093
    0.349590331    0.429757059    0.814576685
    0.692447484    0.458328664    0.615055442
    0.021018863    0.444042861    0.714816093
    0.635304332    0.286899894    0.814576685
    0.978161573    0.315471500    0.615055442
    0.306732923    0.301185727    0.714816093
    0.921018720    0.144042879    0.814576685
    0.263875961    0.172614366    0.615055501
    0.592447281    0.158328593    0.714816153
