Ge+Si
    1.000000000
   16.973400116    0.000000000    0.000000000
    0.000000000   17.891534805    0.000000000
    0.000000000    0.000000000   11.261644363
Ge  Si 
72     120
Direct
    0.130378962    0.826204419    0.397179216
    0.963712454    0.076203898    0.000000000
    0.797045708    0.426204026    0.079435863
    0.630379021    0.776204109    0.158871710
    0.463712275    0.126204371    0.238307580
    0.297045529    0.476204634    0.317743450
    0.463712275    0.826204419    0.397179216
    0.297045767    0.076203898    0.000000000
    0.130379096    0.426204026    0.079435863
    0.963712394    0.776204109    0.158871710
    0.797045648    0.126204371    0.238307580
    0.630378902    0.476204634    0.317743450
    0.797045648    0.826204419    0.397179216
    0.630379140    0.076203898    0.000000000
    0.463712454    0.426204026    0.079435863
    0.297045738    0.776204109    0.158871710
    0.130379006    0.126204371    0.238307580
    0.963712275    0.476204634    0.317743450
    0.213712215    0.576204777    0.397179425
    0.047045767    0.826203942    0.000000011
    0.880379081    0.176204205    0.079435818
    0.713712335    0.526204228    0.158871695
    0.547045648    0.876204491    0.238307565
    0.380378962    0.226204634    0.317743450
    0.547045588    0.576204777    0.397179425
    0.380379111    0.826203942    0.000000011
    0.213712409    0.176204205    0.079435818
    0.047045726    0.526204228    0.158871695
    0.880379021    0.876204491    0.238307565
    0.713712275    0.226204634    0.317743450
    0.880378902    0.576204777    0.397179425
    0.713712394    0.826203942    0.000000011
    0.547045708    0.176204205    0.079435818
    0.380379051    0.526204228    0.158871695
    0.213712320    0.876204491    0.238307565
    0.047045615    0.226204634    0.317743450
    0.130378902    0.326204538    0.397179306
    0.963712394    0.576203942    0.000000005
    0.797045708    0.926204145    0.079435878
    0.630379021    0.276204109    0.158871680
    0.463712275    0.626204371    0.238307580
    0.297045588    0.976204395    0.317743450
    0.463712215    0.326204538    0.397179306
    0.297045767    0.576203942    0.000000005
    0.130379066    0.926204145    0.079435878
    0.963712394    0.276204109    0.158871680
    0.797045648    0.626204371    0.238307580
    0.630378962    0.976204395    0.317743450
    0.797045588    0.326204538    0.397179306
    0.630379081    0.576203942    0.000000005
    0.463712424    0.926204145    0.079435878
    0.297045738    0.276204109    0.158871680
    0.130379006    0.626204371    0.238307580
    0.963712275    0.976204395    0.317743450
    0.213712275    0.076204538    0.397179276
    0.047045771    0.326203912    0.000000015
    0.880379081    0.676204026    0.079435863
    0.713712335    0.026204109    0.158871725
    0.547045648    0.376204252    0.238307565
    0.380378902    0.726204634    0.317743421
    0.547045648    0.076204538    0.397179276
    0.380379111    0.326203912    0.000000015
    0.213712439    0.676204026    0.079435863
    0.047045730    0.026204109    0.158871725
    0.880379021    0.376204252    0.238307565
    0.713712215    0.726204634    0.317743421
    0.880378962    0.076204538    0.397179276
    0.713712454    0.326203912    0.000000015
    0.547045708    0.676204026    0.079435863
    0.380379051    0.026204109    0.158871725
    0.213712320    0.376204252    0.238307565
    0.047045570    0.726204634    0.317743421
    0.998220325    0.994660914    0.397179425
    0.948220253    0.844660878    0.638307631
    0.898220181    0.694660902    0.879435837
    0.098220311    0.294660956    0.397179425
    0.048220240    0.144660935    0.638307631
    0.998220146    0.994660914    0.879435837
    0.398220330    0.194660977    0.397179425
    0.348220259    0.044660930    0.638307631
    0.298220187    0.894660890    0.879435837
    0.698220372    0.094660960    0.397179425
    0.648220301    0.944660902    0.638307631
    0.598220229    0.794660866    0.879435837
    0.198220313    0.594660997    0.397179425
    0.148220241    0.444660962    0.638307631
    0.098220170    0.294660926    0.879435837
    0.498220354    0.494660944    0.397179425
    0.448220283    0.344660908    0.638307631
    0.398220181    0.194660857    0.879435837
    0.798220336    0.394661009    0.397179425
    0.748220265    0.244660974    0.638307631
    0.698220193    0.094660930    0.879435837
    0.298220307    0.894660950    0.397179425
    0.248220235    0.744660974    0.638307631
    0.198220149    0.594660878    0.879435837
    0.598220289    0.794660985    0.397179425
    0.548220217    0.644660950    0.638307631
    0.498220146    0.494660884    0.879435837
    0.898220360    0.694660962    0.397179425
    0.848220289    0.544660926    0.638307631
    0.798220217    0.394660860    0.879435837
    0.098220304    0.044660952    0.517743468
    0.048220236    0.894660950    0.758871794
    0.998220146    0.744660854    0.999999940
    0.198220327    0.344660997    0.517743468
    0.148220256    0.194660932    0.758871794
    0.098220170    0.044660874    0.999999940
    0.498220354    0.244660988    0.517743468
    0.448220283    0.094660930    0.758871794
    0.398220181    0.944660902    0.999999940
    0.798220396    0.144660980    0.517743468
    0.748220325    0.994660914    0.758871794
    0.698220253    0.844660878    0.999999940
    0.998220325    0.744660974    0.517743468
    0.948220253    0.594660938    0.758871794
    0.898220181    0.444660902    0.999999940
    0.298220307    0.644660950    0.517743468
    0.248220250    0.494660914    0.758871794
    0.198220164    0.344660878    0.999999940
    0.598220348    0.544660926    0.517743468
    0.548220277    0.394660920    0.758871794
    0.498220176    0.244660869    0.999999940
    0.898220301    0.444661021    0.517743468
    0.848220229    0.294660985    0.758871794
    0.798220158    0.144660935    0.999999940
    0.398220330    0.944661021    0.517743468
    0.348220259    0.794660985    0.758871794
    0.298220187    0.644660950    0.999999940
    0.698220432    0.844661057    0.517743468
    0.648220360    0.694660962    0.758871794
    0.598220229    0.544660926    0.999999940
    0.198220313    0.094660953    0.397179425
    0.148220241    0.944660902    0.638307631
    0.098220162    0.794660866    0.879435837
    0.498220325    0.994660974    0.397179425
    0.448220253    0.844660878    0.638307631
    0.398220211    0.694660842    0.879435837
    0.998220325    0.494660944    0.397179425
    0.948220253    0.344660938    0.638307631
    0.898220181    0.194660872    0.879435837
    0.298220336    0.394661009    0.397179425
    0.248220265    0.244660988    0.638307631
    0.198220178    0.094660930    0.879435837
    0.598220348    0.294660956    0.397179425
    0.548220277    0.144660935    0.638307631
    0.498220205    0.994660854    0.879435837
    0.898220420    0.194660917    0.397179425
    0.848220348    0.044660911    0.638307631
    0.798220277    0.894660830    0.879435837
    0.098220296    0.794661045    0.397179425
    0.048220240    0.644661009    0.638307631
    0.998220146    0.494660944    0.879435837
    0.398220330    0.694661021    0.397179425
    0.348220259    0.544661045    0.638307631
    0.298220187    0.394660950    0.879435837
    0.698220313    0.594660997    0.397179425
    0.648220241    0.444660962    0.638307631
    0.598220229    0.294660896    0.879435837
    0.798220336    0.894661069    0.397179425
    0.748220265    0.744660974    0.638307631
    0.698220193    0.594660997    0.879435837
    0.998220325    0.244660929    0.517743468
    0.948220253    0.094660901    0.758871794
    0.898220122    0.944660842    0.999999940
    0.298220336    0.144660965    0.517743468
    0.248220265    0.994660914    0.758871794
    0.198220178    0.844660878    0.999999940
    0.598220348    0.044660959    0.517743468
    0.548220277    0.894660950    0.758871794
    0.498220205    0.744660854    0.999999940
    0.098220304    0.544660926    0.517743468
    0.048220240    0.394660920    0.758871794
    0.998220146    0.244660854    0.999999940
    0.398220301    0.444660962    0.517743468
    0.348220259    0.294660926    0.758871794
    0.298220187    0.144660860    0.999999940
    0.698220372    0.344660938    0.517743468
    0.648220301    0.194660902    0.758871794
    0.598220229    0.044660844    0.999999940
    0.198220313    0.844661057    0.517743468
    0.148220256    0.694661021    0.758871794
    0.098220162    0.544660926    0.999999940
    0.498220295    0.744660914    0.517743468
    0.448220253    0.594660878    0.758871794
    0.398220152    0.444660813    0.999999940
    0.798220336    0.644660950    0.517743468
    0.748220265    0.494660914    0.758871794
    0.698220193    0.344660848    0.999999940
    0.898220301    0.944661021    0.517743468
    0.848220229    0.794661045    0.758871794
    0.798220158    0.644660950    0.999999940
