Sn+Ge                                   
   1.00000000000000     
    12.9784002300000001    0.0000000000000000    0.0000000000000000
   -12.9784002300000001   14.5102930069999996    0.0000000000000000
     0.0000000000000000    0.0000000000000000    9.1904125210000007
   Sn   Ge
    24    24
Direct
  0.4743584989999974  0.9743584989999974  0.0000000000000000
  0.1743583530000024  0.6743584279999979  0.1578851189999995
  0.8743582959999969  0.3743583560000019  0.3157702680000014
  0.9743584989999974  0.9743584989999974  0.0000000000000000
  0.6743583680000000  0.6743584279999979  0.1578851189999995
  0.3743582959999969  0.3743583560000019  0.3157702680000014
  0.6993584630000029  0.3243584929999983  0.0789424109999999
  0.3993583620000010  0.0243584460000008  0.2368275370000035
  0.0993583200000003  0.7243584389999995  0.3947126569999995
  0.1993584780000006  0.3243584929999983  0.0789424109999999
  0.8993583920000034  0.0243584460000008  0.2368275370000035
  0.5993583200000003  0.7243584389999995  0.3947126569999995
  0.7243584389999995  0.4743584989999974  0.0000000160000013
  0.4243583379999976  0.1743583980000025  0.1578851339999972
  0.1243581920000025  0.8743582959999969  0.3157702680000014
  0.2243584690000020  0.4743584989999974  0.0000000160000013
  0.9243583680000000  0.1743583980000025  0.1578851339999972
  0.6243582370000027  0.8743582959999969  0.3157702680000014
  0.9493585820000021  0.8243585820000021  0.0789424179999969
  0.6493585110000026  0.5243585710000005  0.2368275079999975
  0.3493583799999982  0.2243584989999974  0.3947126569999995
  0.4493587910000016  0.8243585820000021  0.0789424179999969
  0.1493586449999995  0.5243585710000005  0.2368275079999975
  0.8493585590000023  0.2243584989999974  0.3947126569999995
  0.3295963999999998  0.3520510199999975  0.5568605659999974
  0.2129297259999987  0.9353843330000018  0.6130588050000014
  0.0962629320000019  0.5187175869999976  0.6692571040000033
  0.9795960780000001  0.1020507810000026  0.7254555820000022
  0.8629294039999991  0.6853842140000026  0.7816537619999977
  0.7462625499999973  0.2687172890000014  0.8378521200000009
  0.8295963999999998  0.6020510199999975  0.5568605659999974
  0.7129296060000030  0.1853842740000005  0.6130588050000014
  0.5962628719999969  0.7687175869999976  0.6692572239999990
  0.4795960780000001  0.3520507810000026  0.7254554029999980
  0.3629293440000012  0.9353840950000034  0.7816537019999998
  0.2462626700000001  0.5187172290000035  0.8378519420000003
  0.8295963999999998  0.8520510199999975  0.5568606260000024
  0.7129296060000030  0.4353842740000005  0.6130588050000014
  0.5962628130000027  0.0187175269999997  0.6692572239999990
  0.4795961080000026  0.6020507810000026  0.7254555230000008
  0.3629294039999991  0.1853840349999984  0.7816537019999998
  0.2462625499999973  0.7687171099999972  0.8378520010000017
  0.3295962810000006  0.1020510199999975  0.5568606260000024
  0.2129296060000030  0.6853842740000005  0.6130589249999971
  0.0962629320000019  0.2687175269999997  0.6692572239999990
  0.9795960780000001  0.8520507810000026  0.7254555230000008
  0.8629293440000012  0.4353840349999984  0.7816537619999977
  0.7462625499999973  0.0187170510000030  0.8378521200000009
 
  0.00000000E+00  0.00000000E+00  0.00000000E+00
  0.00000000E+00  0.00000000E+00  0.00000000E+00
  0.00000000E+00  0.00000000E+00  0.00000000E+00
  0.00000000E+00  0.00000000E+00  0.00000000E+00
  0.00000000E+00  0.00000000E+00  0.00000000E+00
  0.00000000E+00  0.00000000E+00  0.00000000E+00
  0.00000000E+00  0.00000000E+00  0.00000000E+00
  0.00000000E+00  0.00000000E+00  0.00000000E+00
  0.00000000E+00  0.00000000E+00  0.00000000E+00
  0.00000000E+00  0.00000000E+00  0.00000000E+00
  0.00000000E+00  0.00000000E+00  0.00000000E+00
  0.00000000E+00  0.00000000E+00  0.00000000E+00
  0.00000000E+00  0.00000000E+00  0.00000000E+00
  0.00000000E+00  0.00000000E+00  0.00000000E+00
  0.00000000E+00  0.00000000E+00  0.00000000E+00
  0.00000000E+00  0.00000000E+00  0.00000000E+00
  0.00000000E+00  0.00000000E+00  0.00000000E+00
  0.00000000E+00  0.00000000E+00  0.00000000E+00
  0.00000000E+00  0.00000000E+00  0.00000000E+00
  0.00000000E+00  0.00000000E+00  0.00000000E+00
  0.00000000E+00  0.00000000E+00  0.00000000E+00
  0.00000000E+00  0.00000000E+00  0.00000000E+00
  0.00000000E+00  0.00000000E+00  0.00000000E+00
  0.00000000E+00  0.00000000E+00  0.00000000E+00
  0.00000000E+00  0.00000000E+00  0.00000000E+00
  0.00000000E+00  0.00000000E+00  0.00000000E+00
  0.00000000E+00  0.00000000E+00  0.00000000E+00
  0.00000000E+00  0.00000000E+00  0.00000000E+00
  0.00000000E+00  0.00000000E+00  0.00000000E+00
  0.00000000E+00  0.00000000E+00  0.00000000E+00
  0.00000000E+00  0.00000000E+00  0.00000000E+00
  0.00000000E+00  0.00000000E+00  0.00000000E+00
  0.00000000E+00  0.00000000E+00  0.00000000E+00
  0.00000000E+00  0.00000000E+00  0.00000000E+00
  0.00000000E+00  0.00000000E+00  0.00000000E+00
  0.00000000E+00  0.00000000E+00  0.00000000E+00
  0.00000000E+00  0.00000000E+00  0.00000000E+00
  0.00000000E+00  0.00000000E+00  0.00000000E+00
  0.00000000E+00  0.00000000E+00  0.00000000E+00
  0.00000000E+00  0.00000000E+00  0.00000000E+00
  0.00000000E+00  0.00000000E+00  0.00000000E+00
  0.00000000E+00  0.00000000E+00  0.00000000E+00
  0.00000000E+00  0.00000000E+00  0.00000000E+00
  0.00000000E+00  0.00000000E+00  0.00000000E+00
  0.00000000E+00  0.00000000E+00  0.00000000E+00
  0.00000000E+00  0.00000000E+00  0.00000000E+00
  0.00000000E+00  0.00000000E+00  0.00000000E+00
  0.00000000E+00  0.00000000E+00  0.00000000E+00
