Sn+Ge
    1.000000000
   12.978400230    0.000000000    0.000000000
    0.000000000   12.978400230    0.000000000
    0.000000000    0.000000000   19.583751678
Sn  Ge 
48     60
Direct
    0.992552638    0.499999970    0.000000000
    0.742552638    0.499999970    0.165678188
    0.492552757    0.499999970    0.331356287
    0.992552638    0.000000000    0.000000000
    0.742552638    0.000000000    0.165678188
    0.492552757    0.000000000    0.331356287
    0.492552608    0.499999970    0.000000000
    0.242552638    0.499999970    0.165678188
    0.992552698    0.499999970    0.331356287
    0.492552608    0.000000000    0.000000000
    0.242552638    0.000000000    0.165678188
    0.992552698    0.000000000    0.331356287
    0.117552646    0.874999940    0.082839087
    0.867552757    0.874999940    0.248517260
    0.617552698    0.874999940    0.414195418
    0.117552646    0.374999970    0.082839087
    0.867552757    0.374999970    0.248517260
    0.617552698    0.374999970    0.414195418
    0.617552578    0.874999940    0.082839087
    0.367552698    0.874999940    0.248517260
    0.117552668    0.874999940    0.414195418
    0.617552578    0.374999970    0.082839087
    0.367552698    0.374999970    0.248517260
    0.117552668    0.374999970    0.414195418
    0.242552638    0.749999940    0.000000000
    0.992552638    0.749999940    0.165678188
    0.742552757    0.749999940    0.331356287
    0.242552638    0.249999985    0.000000000
    0.992552638    0.249999985    0.165678188
    0.742552757    0.249999985    0.331356287
    0.742552578    0.749999940    0.000000000
    0.492552608    0.749999940    0.165678188
    0.242552698    0.749999940    0.331356287
    0.742552578    0.249999985    0.000000000
    0.492552608    0.249999985    0.165678188
    0.242552698    0.249999985    0.331356287
    0.367552638    0.624999940    0.082839087
    0.117552713    0.624999940    0.248517260
    0.867552698    0.624999940    0.414195418
    0.367552638    0.124999993    0.082839087
    0.117552713    0.124999993    0.248517260
    0.867552698    0.124999993    0.414195418
    0.867552638    0.624999940    0.082839087
    0.617552757    0.624999940    0.248517260
    0.367552698    0.624999940    0.414195418
    0.867552638    0.124999993    0.082839087
    0.617552757    0.124999993    0.248517260
    0.367552698    0.124999993    0.414195418
    0.321848869    0.528998077    0.526533484
    0.121848822    0.628998101    0.670984805
    0.921848714    0.728998125    0.815436304
    0.521848679    0.928998113    0.526533484
    0.321848631    0.028998017    0.670984805
    0.121848583    0.128998160    0.815436304
    0.721848726    0.328998089    0.526533484
    0.521848679    0.428998113    0.670984805
    0.321848631    0.528998137    0.815436304
    0.921848774    0.728998065    0.526533484
    0.721848726    0.828998089    0.670984805
    0.521848679    0.928998113    0.815436304
    0.121848822    0.128998041    0.526533484
    0.921848714    0.228998065    0.670984805
    0.721848726    0.328998059    0.815436304
    0.671848774    0.478998095    0.598759174
    0.471848726    0.578998089    0.743210614
    0.271848559    0.678998113    0.887661994
    0.271848798    0.678998113    0.598759174
    0.071848750    0.778998137    0.743210614
    0.871848643    0.878998160    0.887661994
    0.471848726    0.078998089    0.598759174
    0.271848679    0.178998113    0.743210614
    0.071848631    0.278998137    0.887661994
    0.871848762    0.878998041    0.598759174
    0.671848774    0.978998184    0.743210614
    0.471848607    0.078998208    0.887661994
    0.071848750    0.278998137    0.598759174
    0.871848702    0.378998131    0.743210614
    0.671848655    0.478998154    0.887661994
    0.621848583    0.628998041    0.526533484
    0.421848655    0.728998065    0.670984805
    0.221848607    0.828998089    0.815436304
    0.021848798    0.428998113    0.526533484
    0.821848750    0.528998137    0.670984805
    0.621848702    0.628998160    0.815436304
    0.221848726    0.828998089    0.526533484
    0.021848679    0.928998113    0.670984805
    0.821848691    0.028998137    0.815436304
    0.421848774    0.228998065    0.526533484
    0.221848726    0.328998178    0.670984805
    0.021848679    0.428998202    0.815436304
    0.821848750    0.028998137    0.526533484
    0.621848822    0.128998160    0.670984805
    0.421848774    0.228998184    0.815436304
    0.371848822    0.378998101    0.598759174
    0.171848774    0.478998125    0.743210614
    0.971848667    0.578998208    0.887661994
    0.571848869    0.778998137    0.598759174
    0.371848822    0.878998160    0.743210614
    0.171848774    0.978998184    0.887661994
    0.971848786    0.578998089    0.598759174
    0.771848738    0.678998113    0.743210614
    0.571848631    0.778998137    0.887661994
    0.171848774    0.978998065    0.598759174
    0.971848726    0.078998089    0.743210614
    0.771848679    0.178998113    0.887661994
    0.771848738    0.178998113    0.598759174
    0.571848631    0.278998137    0.743210614
    0.371848583    0.378998131    0.887661994
