Sn+Si                                   
   1.00000000000000     
    11.2396240229999993    0.0000000000000000    0.0000000000000000
     0.0000000000000000   15.8952293400000002    0.0000000000000000
     0.0000000000000000    0.0000000000000000   18.2601470950000007
   Sn   Si
    72    72
Direct
  0.0000000000000000  0.0179795159999969  0.0000000020000002
  0.9999999400000021  0.2679795920000032  0.1256440579999989
  0.9999998810000008  0.5179797409999978  0.2512881159999978
  0.9999998210000030  0.7679799200000019  0.3769322039999992
  0.9999998210000030  0.0179799799999998  0.5025762320000027
  0.9999997620000016  0.2679800989999990  0.6282203789999983
  0.3333333730000021  0.3513128760000015  0.0000000020000002
  0.3333333129999971  0.6013128760000015  0.1256440579999989
  0.3333333129999971  0.8513130549999985  0.2512881159999978
  0.3333332240000004  0.1013132329999991  0.3769322039999992
  0.3333332240000004  0.3513133530000019  0.5025762320000027
  0.3333331640000026  0.6013134720000011  0.6282203789999983
  0.6666667459999971  0.6846462489999965  0.0000000020000002
  0.6666666870000029  0.9346462489999965  0.1256440579999989
  0.6666668060000021  0.1846464870000020  0.2512881159999978
  0.6666665079999987  0.4346464870000020  0.3769322039999992
  0.6666665670000000  0.6846466060000012  0.5025762320000027
  0.6666665670000000  0.9346468450000032  0.6282203789999983
  0.0000000300000025  0.5179795620000007  0.0000000029999967
  0.9999999400000021  0.7679796219999986  0.1256440430000012
  0.9999998810000008  0.0179797409999978  0.2512881159999978
  0.9999998810000008  0.2679798599999970  0.3769321440000013
  0.9999998210000030  0.5179799799999998  0.5025762320000027
  0.9999997620000016  0.7679800989999990  0.6282203789999983
  0.3333333730000021  0.8513128760000015  0.0000000029999967
  0.3333333429999996  0.1013129950000007  0.1256440430000012
  0.3333333730000021  0.3513132329999991  0.2512881159999978
  0.3333332540000029  0.6013132329999991  0.3769321440000013
  0.3333332839999983  0.8513133530000019  0.5025762320000027
  0.3333331050000012  0.1013135910000003  0.6282203789999983
  0.6666668060000021  0.1846462040000034  0.0000000000000000
  0.6666666269999979  0.4346462489999965  0.1256440430000012
  0.6666666870000029  0.6846464280000006  0.2512881159999978
  0.6666666269999979  0.9346464870000020  0.3769321440000013
  0.6666665079999987  0.1846466060000012  0.5025762320000027
  0.6666665670000000  0.4346467259999969  0.6282203199999969
  0.0833333209999978  0.3513128459999990  0.0000000060000005
  0.0833332460000022  0.6013128760000015  0.1256440430000012
  0.0833332910000024  0.8513130549999985  0.2512881159999978
  0.0833331270000031  0.1013131139999999  0.3769322039999992
  0.0833331270000031  0.3513132329999991  0.5025762320000027
  0.0833331349999966  0.6013133530000019  0.6282203199999969
  0.4166667160000017  0.6846461889999986  0.0000000069999970
  0.4166666269999979  0.9346462489999965  0.1256440579999989
  0.4166666570000004  0.1846464870000020  0.2512881159999978
  0.4166665970000025  0.4346466060000012  0.3769321440000013
  0.4166663889999995  0.6846466060000012  0.5025762320000027
  0.4166665079999987  0.9346467259999969  0.6282203199999969
  0.7500000000000000  0.0179795470000030  0.0000000180000015
  0.7500000000000000  0.2679795920000032  0.1256440579999989
  0.7499999400000021  0.5179797409999978  0.2512881159999978
  0.7499998210000030  0.7679798599999970  0.3769321440000013
  0.7499998210000030  0.0179799799999998  0.5025762320000027
  0.7499998210000030  0.2679800989999990  0.6282203199999969
  0.0833333360000026  0.8513129350000028  0.0000000000000000
  0.0833332759999976  0.1013129950000007  0.1256440729999966
  0.0833332240000004  0.3513131139999999  0.2512881159999978
  0.0833332460000022  0.6013134720000011  0.3769322039999992
  0.0833331349999966  0.8513133530000019  0.5025762920000005
  0.0833330749999988  0.1013135910000003  0.6282203199999969
  0.4166667160000017  0.1846462040000034  0.0000000049999969
  0.4166666570000004  0.4346462489999965  0.1256440579999989
  0.4166665670000000  0.6846464280000006  0.2512881159999978
  0.4166665670000000  0.9346465469999998  0.3769322039999992
  0.4166665670000000  0.1846466060000012  0.5025762320000027
  0.4166664480000009  0.4346467259999969  0.6282203199999969
  0.7500000000000000  0.5179795029999994  0.0000000040000003
  0.7499999400000021  0.7679796219999986  0.1256440579999989
  0.7500000000000000  0.0179797409999978  0.2512881159999978
  0.7499998810000008  0.2679798599999970  0.3769322039999992
  0.7499998210000030  0.5179798599999970  0.5025762320000027
  0.7499997620000016  0.7679800989999990  0.6282203199999969
  0.0000000000000000  0.9940677290000011  0.6282203789999983
  0.0000000000000000  0.8274010419999982  0.7769321800000029
  0.0000000000000000  0.6607342960000011  0.9256440400000017
  0.5000000000000000  0.9940677290000011  0.6282203789999983
  0.5000000000000000  0.8274010419999982  0.7769321800000029
  0.5000000000000000  0.6607342960000011  0.9256440400000017
  0.0000000000000000  0.3274010720000007  0.6282203789999983
  0.0000000000000000  0.1607343849999978  0.7769321800000029
  0.0000000000000000  0.9940676690000032  0.9256440400000017
  0.5000000000000000  0.3274010720000007  0.6282203789999983
  0.5000000000000000  0.1607343849999978  0.7769321800000029
  0.5000000000000000  0.9940676690000032  0.9256440400000017
  0.0000000000000000  0.6607344749999982  0.6282203789999983
  0.0000000000000000  0.4940677290000011  0.7769321800000029
  0.0000000000000000  0.3274010419999982  0.9256440400000017
  0.5000000000000000  0.6607344749999982  0.6282203789999983
  0.5000000000000000  0.4940677290000011  0.7769321800000029
  0.5000000000000000  0.3274010419999982  0.9256440400000017
  0.1250000000000000  0.0774010570000030  0.7025762800000024
  0.1250000000000000  0.9107343550000024  0.8512881990000025
  0.1250000000000000  0.7440676690000032  0.0000000000000000
  0.6250000000000000  0.0774010570000030  0.7025762800000024
  0.6250000000000000  0.9107343550000024  0.8512881990000025
  0.6250000000000000  0.7440676690000032  0.0000000000000000
  0.1250000000000000  0.4107343849999978  0.7025762800000024
  0.1250000000000000  0.2440676690000032  0.8512881990000025
  0.1250000000000000  0.0774009530000015  0.0000000000000000
  0.6250000000000000  0.4107343849999978  0.7025762800000024
  0.6250000000000000  0.2440676690000032  0.8512881990000025
  0.6250000000000000  0.0774009530000015  0.0000000000000000
  0.1250000000000000  0.7440677880000024  0.7025762800000024
  0.1250000000000000  0.5774010419999982  0.8512881990000025
  0.1250000000000000  0.4107343259999965  0.0000000000000000
  0.6250000000000000  0.7440677880000024  0.7025762800000024
  0.6250000000000000  0.5774010419999982  0.8512881990000025
  0.6250000000000000  0.4107343259999965  0.0000000000000000
  0.2500000000000000  0.1607343849999978  0.6282203789999983
  0.2500000000000000  0.9940676690000032  0.7769321800000029
  0.2500000000000000  0.8274009820000003  0.9256440400000017
  0.7500000599999979  0.1607343849999978  0.6282203789999983
  0.7500000599999979  0.9940676690000032  0.7769321800000029
  0.7500000599999979  0.8274009820000003  0.9256440400000017
  0.2500000000000000  0.4940677290000011  0.6282203789999983
  0.2500000000000000  0.3274010419999982  0.7769321800000029
  0.2500000000000000  0.1607343259999965  0.9256440400000017
  0.7500000599999979  0.4940677290000011  0.6282203789999983
  0.7500000599999979  0.3274010419999982  0.7769321800000029
  0.7500000599999979  0.1607343259999965  0.9256440400000017
  0.2500000000000000  0.8274011020000032  0.6282203789999983
  0.2500000000000000  0.6607344150000003  0.7769321800000029
  0.2500000000000000  0.4940677290000011  0.9256440400000017
  0.7500000599999979  0.8274011020000032  0.6282203789999983
  0.7500000599999979  0.6607344150000003  0.7769321800000029
  0.7500000599999979  0.4940677290000011  0.9256440400000017
  0.3750000300000025  0.2440677290000011  0.7025762800000024
  0.3750000300000025  0.0774010200000035  0.8512881990000025
  0.3750000300000025  0.9107342960000011  0.0000000000000000
  0.8750000599999979  0.2440677290000011  0.7025762800000024
  0.8750000599999979  0.0774010200000035  0.8512881990000025
  0.8750000599999979  0.9107342960000011  0.0000000000000000
  0.3750000300000025  0.5774011609999974  0.7025762800000024
  0.3750000300000025  0.4107344749999982  0.8512881990000025
  0.3750000300000025  0.2440677140000034  0.0000000000000000
  0.8750000599999979  0.5774011609999974  0.7025762800000024
  0.8750000599999979  0.4107344749999982  0.8512881990000025
  0.8750000599999979  0.2440677140000034  0.0000000000000000
  0.3750000300000025  0.9107343550000024  0.7025762800000024
  0.3750000300000025  0.7440676690000032  0.8512881990000025
  0.3750000300000025  0.5774009229999990  0.0000000000000000
  0.8750000599999979  0.9107343550000024  0.7025762800000024
  0.8750000599999979  0.7440676690000032  0.8512881990000025
  0.8750000599999979  0.5774009229999990  0.0000000000000000
 
  0.00000000E+00  0.00000000E+00  0.00000000E+00
  0.00000000E+00  0.00000000E+00  0.00000000E+00
  0.00000000E+00  0.00000000E+00  0.00000000E+00
  0.00000000E+00  0.00000000E+00  0.00000000E+00
  0.00000000E+00  0.00000000E+00  0.00000000E+00
  0.00000000E+00  0.00000000E+00  0.00000000E+00
  0.00000000E+00  0.00000000E+00  0.00000000E+00
  0.00000000E+00  0.00000000E+00  0.00000000E+00
  0.00000000E+00  0.00000000E+00  0.00000000E+00
  0.00000000E+00  0.00000000E+00  0.00000000E+00
  0.00000000E+00  0.00000000E+00  0.00000000E+00
  0.00000000E+00  0.00000000E+00  0.00000000E+00
  0.00000000E+00  0.00000000E+00  0.00000000E+00
  0.00000000E+00  0.00000000E+00  0.00000000E+00
  0.00000000E+00  0.00000000E+00  0.00000000E+00
  0.00000000E+00  0.00000000E+00  0.00000000E+00
  0.00000000E+00  0.00000000E+00  0.00000000E+00
  0.00000000E+00  0.00000000E+00  0.00000000E+00
  0.00000000E+00  0.00000000E+00  0.00000000E+00
  0.00000000E+00  0.00000000E+00  0.00000000E+00
  0.00000000E+00  0.00000000E+00  0.00000000E+00
  0.00000000E+00  0.00000000E+00  0.00000000E+00
  0.00000000E+00  0.00000000E+00  0.00000000E+00
  0.00000000E+00  0.00000000E+00  0.00000000E+00
  0.00000000E+00  0.00000000E+00  0.00000000E+00
  0.00000000E+00  0.00000000E+00  0.00000000E+00
  0.00000000E+00  0.00000000E+00  0.00000000E+00
  0.00000000E+00  0.00000000E+00  0.00000000E+00
  0.00000000E+00  0.00000000E+00  0.00000000E+00
  0.00000000E+00  0.00000000E+00  0.00000000E+00
  0.00000000E+00  0.00000000E+00  0.00000000E+00
  0.00000000E+00  0.00000000E+00  0.00000000E+00
  0.00000000E+00  0.00000000E+00  0.00000000E+00
  0.00000000E+00  0.00000000E+00  0.00000000E+00
  0.00000000E+00  0.00000000E+00  0.00000000E+00
  0.00000000E+00  0.00000000E+00  0.00000000E+00
  0.00000000E+00  0.00000000E+00  0.00000000E+00
  0.00000000E+00  0.00000000E+00  0.00000000E+00
  0.00000000E+00  0.00000000E+00  0.00000000E+00
  0.00000000E+00  0.00000000E+00  0.00000000E+00
  0.00000000E+00  0.00000000E+00  0.00000000E+00
  0.00000000E+00  0.00000000E+00  0.00000000E+00
  0.00000000E+00  0.00000000E+00  0.00000000E+00
  0.00000000E+00  0.00000000E+00  0.00000000E+00
  0.00000000E+00  0.00000000E+00  0.00000000E+00
  0.00000000E+00  0.00000000E+00  0.00000000E+00
  0.00000000E+00  0.00000000E+00  0.00000000E+00
  0.00000000E+00  0.00000000E+00  0.00000000E+00
  0.00000000E+00  0.00000000E+00  0.00000000E+00
  0.00000000E+00  0.00000000E+00  0.00000000E+00
  0.00000000E+00  0.00000000E+00  0.00000000E+00
  0.00000000E+00  0.00000000E+00  0.00000000E+00
  0.00000000E+00  0.00000000E+00  0.00000000E+00
  0.00000000E+00  0.00000000E+00  0.00000000E+00
  0.00000000E+00  0.00000000E+00  0.00000000E+00
  0.00000000E+00  0.00000000E+00  0.00000000E+00
  0.00000000E+00  0.00000000E+00  0.00000000E+00
  0.00000000E+00  0.00000000E+00  0.00000000E+00
  0.00000000E+00  0.00000000E+00  0.00000000E+00
  0.00000000E+00  0.00000000E+00  0.00000000E+00
  0.00000000E+00  0.00000000E+00  0.00000000E+00
  0.00000000E+00  0.00000000E+00  0.00000000E+00
  0.00000000E+00  0.00000000E+00  0.00000000E+00
  0.00000000E+00  0.00000000E+00  0.00000000E+00
  0.00000000E+00  0.00000000E+00  0.00000000E+00
  0.00000000E+00  0.00000000E+00  0.00000000E+00
  0.00000000E+00  0.00000000E+00  0.00000000E+00
  0.00000000E+00  0.00000000E+00  0.00000000E+00
  0.00000000E+00  0.00000000E+00  0.00000000E+00
  0.00000000E+00  0.00000000E+00  0.00000000E+00
  0.00000000E+00  0.00000000E+00  0.00000000E+00
  0.00000000E+00  0.00000000E+00  0.00000000E+00
  0.00000000E+00  0.00000000E+00  0.00000000E+00
  0.00000000E+00  0.00000000E+00  0.00000000E+00
  0.00000000E+00  0.00000000E+00  0.00000000E+00
  0.00000000E+00  0.00000000E+00  0.00000000E+00
  0.00000000E+00  0.00000000E+00  0.00000000E+00
  0.00000000E+00  0.00000000E+00  0.00000000E+00
  0.00000000E+00  0.00000000E+00  0.00000000E+00
  0.00000000E+00  0.00000000E+00  0.00000000E+00
  0.00000000E+00  0.00000000E+00  0.00000000E+00
  0.00000000E+00  0.00000000E+00  0.00000000E+00
  0.00000000E+00  0.00000000E+00  0.00000000E+00
  0.00000000E+00  0.00000000E+00  0.00000000E+00
  0.00000000E+00  0.00000000E+00  0.00000000E+00
  0.00000000E+00  0.00000000E+00  0.00000000E+00
  0.00000000E+00  0.00000000E+00  0.00000000E+00
  0.00000000E+00  0.00000000E+00  0.00000000E+00
  0.00000000E+00  0.00000000E+00  0.00000000E+00
  0.00000000E+00  0.00000000E+00  0.00000000E+00
  0.00000000E+00  0.00000000E+00  0.00000000E+00
  0.00000000E+00  0.00000000E+00  0.00000000E+00
  0.00000000E+00  0.00000000E+00  0.00000000E+00
  0.00000000E+00  0.00000000E+00  0.00000000E+00
  0.00000000E+00  0.00000000E+00  0.00000000E+00
  0.00000000E+00  0.00000000E+00  0.00000000E+00
  0.00000000E+00  0.00000000E+00  0.00000000E+00
  0.00000000E+00  0.00000000E+00  0.00000000E+00
  0.00000000E+00  0.00000000E+00  0.00000000E+00
  0.00000000E+00  0.00000000E+00  0.00000000E+00
  0.00000000E+00  0.00000000E+00  0.00000000E+00
  0.00000000E+00  0.00000000E+00  0.00000000E+00
  0.00000000E+00  0.00000000E+00  0.00000000E+00
  0.00000000E+00  0.00000000E+00  0.00000000E+00
  0.00000000E+00  0.00000000E+00  0.00000000E+00
  0.00000000E+00  0.00000000E+00  0.00000000E+00
  0.00000000E+00  0.00000000E+00  0.00000000E+00
  0.00000000E+00  0.00000000E+00  0.00000000E+00
  0.00000000E+00  0.00000000E+00  0.00000000E+00
  0.00000000E+00  0.00000000E+00  0.00000000E+00
  0.00000000E+00  0.00000000E+00  0.00000000E+00
  0.00000000E+00  0.00000000E+00  0.00000000E+00
  0.00000000E+00  0.00000000E+00  0.00000000E+00
  0.00000000E+00  0.00000000E+00  0.00000000E+00
  0.00000000E+00  0.00000000E+00  0.00000000E+00
  0.00000000E+00  0.00000000E+00  0.00000000E+00
  0.00000000E+00  0.00000000E+00  0.00000000E+00
  0.00000000E+00  0.00000000E+00  0.00000000E+00
  0.00000000E+00  0.00000000E+00  0.00000000E+00
  0.00000000E+00  0.00000000E+00  0.00000000E+00
  0.00000000E+00  0.00000000E+00  0.00000000E+00
  0.00000000E+00  0.00000000E+00  0.00000000E+00
  0.00000000E+00  0.00000000E+00  0.00000000E+00
  0.00000000E+00  0.00000000E+00  0.00000000E+00
  0.00000000E+00  0.00000000E+00  0.00000000E+00
  0.00000000E+00  0.00000000E+00  0.00000000E+00
  0.00000000E+00  0.00000000E+00  0.00000000E+00
  0.00000000E+00  0.00000000E+00  0.00000000E+00
  0.00000000E+00  0.00000000E+00  0.00000000E+00
  0.00000000E+00  0.00000000E+00  0.00000000E+00
  0.00000000E+00  0.00000000E+00  0.00000000E+00
  0.00000000E+00  0.00000000E+00  0.00000000E+00
  0.00000000E+00  0.00000000E+00  0.00000000E+00
  0.00000000E+00  0.00000000E+00  0.00000000E+00
  0.00000000E+00  0.00000000E+00  0.00000000E+00
  0.00000000E+00  0.00000000E+00  0.00000000E+00
  0.00000000E+00  0.00000000E+00  0.00000000E+00
  0.00000000E+00  0.00000000E+00  0.00000000E+00
  0.00000000E+00  0.00000000E+00  0.00000000E+00
  0.00000000E+00  0.00000000E+00  0.00000000E+00
  0.00000000E+00  0.00000000E+00  0.00000000E+00
  0.00000000E+00  0.00000000E+00  0.00000000E+00
  0.00000000E+00  0.00000000E+00  0.00000000E+00
  0.00000000E+00  0.00000000E+00  0.00000000E+00
