Sn+Si
    1.000000000
   11.239624023    0.000000000    0.000000000
    0.000000000   15.895229340    0.000000000
    0.000000000    0.000000000   18.260147095
Sn  Si 
72     72
Direct
    0.000000000    0.017979516    0.000000002
    0.999999940    0.267979592    0.125644058
    0.999999881    0.517979741    0.251288116
    0.999999821    0.767979920    0.376932204
    0.999999821    0.017979980    0.502576232
    0.999999762    0.267980099    0.628220379
    0.333333373    0.351312876    0.000000002
    0.333333313    0.601312876    0.125644058
    0.333333313    0.851313055    0.251288116
    0.333333224    0.101313233    0.376932204
    0.333333224    0.351313353    0.502576232
    0.333333164    0.601313472    0.628220379
    0.666666746    0.684646249    0.000000002
    0.666666687    0.934646249    0.125644058
    0.666666806    0.184646487    0.251288116
    0.666666508    0.434646487    0.376932204
    0.666666567    0.684646606    0.502576232
    0.666666567    0.934646845    0.628220379
    0.000000030    0.517979562    0.000000003
    0.999999940    0.767979622    0.125644043
    0.999999881    0.017979741    0.251288116
    0.999999881    0.267979860    0.376932144
    0.999999821    0.517979980    0.502576232
    0.999999762    0.767980099    0.628220379
    0.333333373    0.851312876    0.000000003
    0.333333343    0.101312995    0.125644043
    0.333333373    0.351313233    0.251288116
    0.333333254    0.601313233    0.376932144
    0.333333284    0.851313353    0.502576232
    0.333333105    0.101313591    0.628220379
    0.666666806    0.184646204    0.000000000
    0.666666627    0.434646249    0.125644043
    0.666666687    0.684646428    0.251288116
    0.666666627    0.934646487    0.376932144
    0.666666508    0.184646606    0.502576232
    0.666666567    0.434646726    0.628220320
    0.083333321    0.351312846    0.000000006
    0.083333246    0.601312876    0.125644043
    0.083333291    0.851313055    0.251288116
    0.083333127    0.101313114    0.376932204
    0.083333127    0.351313233    0.502576232
    0.083333135    0.601313353    0.628220320
    0.416666716    0.684646189    0.000000007
    0.416666627    0.934646249    0.125644058
    0.416666657    0.184646487    0.251288116
    0.416666597    0.434646606    0.376932144
    0.416666389    0.684646606    0.502576232
    0.416666508    0.934646726    0.628220320
    0.750000000    0.017979547    0.000000018
    0.750000000    0.267979592    0.125644058
    0.749999940    0.517979741    0.251288116
    0.749999821    0.767979860    0.376932144
    0.749999821    0.017979980    0.502576232
    0.749999821    0.267980099    0.628220320
    0.083333336    0.851312935    0.000000000
    0.083333276    0.101312995    0.125644073
    0.083333224    0.351313114    0.251288116
    0.083333246    0.601313472    0.376932204
    0.083333135    0.851313353    0.502576292
    0.083333075    0.101313591    0.628220320
    0.416666716    0.184646204    0.000000005
    0.416666657    0.434646249    0.125644058
    0.416666567    0.684646428    0.251288116
    0.416666567    0.934646547    0.376932204
    0.416666567    0.184646606    0.502576232
    0.416666448    0.434646726    0.628220320
    0.750000000    0.517979503    0.000000004
    0.749999940    0.767979622    0.125644058
    0.750000000    0.017979741    0.251288116
    0.749999881    0.267979860    0.376932204
    0.749999821    0.517979860    0.502576232
    0.749999762    0.767980099    0.628220320
    0.000000000    0.994067729    0.628220379
    0.000000000    0.827401042    0.776932180
    0.000000000    0.660734296    0.925644040
    0.500000000    0.994067729    0.628220379
    0.500000000    0.827401042    0.776932180
    0.500000000    0.660734296    0.925644040
    0.000000000    0.327401072    0.628220379
    0.000000000    0.160734385    0.776932180
    0.000000000    0.994067669    0.925644040
    0.500000000    0.327401072    0.628220379
    0.500000000    0.160734385    0.776932180
    0.500000000    0.994067669    0.925644040
    0.000000000    0.660734475    0.628220379
    0.000000000    0.494067729    0.776932180
    0.000000000    0.327401042    0.925644040
    0.500000000    0.660734475    0.628220379
    0.500000000    0.494067729    0.776932180
    0.500000000    0.327401042    0.925644040
    0.125000000    0.077401057    0.702576280
    0.125000000    0.910734355    0.851288199
    0.125000000    0.744067669    1.000000000
    0.625000000    0.077401057    0.702576280
    0.625000000    0.910734355    0.851288199
    0.625000000    0.744067669    1.000000000
    0.125000000    0.410734385    0.702576280
    0.125000000    0.244067669    0.851288199
    0.125000000    0.077400953    1.000000000
    0.625000000    0.410734385    0.702576280
    0.625000000    0.244067669    0.851288199
    0.625000000    0.077400953    1.000000000
    0.125000000    0.744067788    0.702576280
    0.125000000    0.577401042    0.851288199
    0.125000000    0.410734326    1.000000000
    0.625000000    0.744067788    0.702576280
    0.625000000    0.577401042    0.851288199
    0.625000000    0.410734326    1.000000000
    0.250000000    0.160734385    0.628220379
    0.250000000    0.994067669    0.776932180
    0.250000000    0.827400982    0.925644040
    0.750000060    0.160734385    0.628220379
    0.750000060    0.994067669    0.776932180
    0.750000060    0.827400982    0.925644040
    0.250000000    0.494067729    0.628220379
    0.250000000    0.327401042    0.776932180
    0.250000000    0.160734326    0.925644040
    0.750000060    0.494067729    0.628220379
    0.750000060    0.327401042    0.776932180
    0.750000060    0.160734326    0.925644040
    0.250000000    0.827401102    0.628220379
    0.250000000    0.660734415    0.776932180
    0.250000000    0.494067729    0.925644040
    0.750000060    0.827401102    0.628220379
    0.750000060    0.660734415    0.776932180
    0.750000060    0.494067729    0.925644040
    0.375000030    0.244067729    0.702576280
    0.375000030    0.077401020    0.851288199
    0.375000030    0.910734296    1.000000000
    0.875000060    0.244067729    0.702576280
    0.875000060    0.077401020    0.851288199
    0.875000060    0.910734296    1.000000000
    0.375000030    0.577401161    0.702576280
    0.375000030    0.410734475    0.851288199
    0.375000030    0.244067714    1.000000000
    0.875000060    0.577401161    0.702576280
    0.875000060    0.410734475    0.851288199
    0.875000060    0.244067714    1.000000000
    0.375000030    0.910734355    0.702576280
    0.375000030    0.744067669    0.851288199
    0.375000030    0.577400923    1.000000000
    0.875000060    0.910734355    0.702576280
    0.875000060    0.744067669    0.851288199
    0.875000060    0.577400923    1.000000000
