Ge+Sn
    1.000000000
   11.315600395    0.000000000    0.000000000
  -11.315600395   16.002676010    0.000000000
    0.000000000    0.000000000   25.800939560
Ge  Sn 
96     72
Direct
    0.985331416    0.455994159    0.000000018
    0.860331416    0.080994137    0.077529535
    0.735331416    0.705994129    0.155059069
    0.610331416    0.330994248    0.232588530
    0.485331357    0.955994129    0.310118079
    0.360331357    0.580994129    0.387647629
    0.485331386    0.455994159    0.000000018
    0.360331416    0.080994137    0.077529535
    0.235331357    0.705994129    0.155059069
    0.110331379    0.330994248    0.232588530
    0.985331476    0.955994129    0.310118079
    0.860331416    0.580994129    0.387647629
    0.985331357    0.955994129    0.000000016
    0.860331416    0.580994129    0.077529542
    0.735331416    0.205994129    0.155059054
    0.610331416    0.830994368    0.232588530
    0.485331416    0.455994129    0.310118109
    0.360331357    0.080994129    0.387647599
    0.485331386    0.955994129    0.000000016
    0.360331357    0.580994129    0.077529542
    0.235331446    0.205994129    0.155059054
    0.110331491    0.830994368    0.232588530
    0.985331297    0.455994129    0.310118109
    0.860331357    0.080994129    0.387647599
    0.235331371    0.705994129    0.000000021
    0.110331371    0.330994129    0.077529535
    0.985331357    0.955994129    0.155059054
    0.860331357    0.580994248    0.232588559
    0.735331357    0.205994189    0.310118109
    0.610331297    0.830994129    0.387647629
    0.735331357    0.705994129    0.000000021
    0.610331357    0.330994129    0.077529535
    0.485331327    0.955994129    0.155059054
    0.360331357    0.580994248    0.232588559
    0.235331371    0.205994189    0.310118109
    0.110331364    0.830994129    0.387647629
    0.235331386    0.205994144    0.000000017
    0.110331394    0.830994129    0.077529535
    0.985331357    0.455994129    0.155059054
    0.860331357    0.080994248    0.232588559
    0.735331476    0.705994248    0.310118079
    0.610331357    0.330994129    0.387647599
    0.735331297    0.205994144    0.000000017
    0.610331357    0.830994129    0.077529535
    0.485331386    0.455994129    0.155059054
    0.360331297    0.080994248    0.232588559
    0.235331386    0.705994248    0.310118079
    0.110331260    0.330994129    0.387647599
    0.985331416    0.580994189    0.000000026
    0.860331416    0.205994159    0.077529535
    0.735331357    0.830994129    0.155059054
    0.610331416    0.455994248    0.232588530
    0.485331357    0.080994189    0.310118109
    0.360331357    0.705994129    0.387647629
    0.485331416    0.580994189    0.000000026
    0.360331416    0.205994159    0.077529535
    0.235331401    0.830994129    0.155059054
    0.110331431    0.455994248    0.232588530
    0.985331357    0.080994189    0.310118109
    0.860331416    0.705994129    0.387647629
    0.985331357    0.080994137    0.000000013
    0.860331416    0.705994129    0.077529535
    0.735331416    0.330994129    0.155059054
    0.610331416    0.955994248    0.232588559
    0.485331416    0.580994248    0.310118079
    0.360331357    0.205994010    0.387647599
    0.485331386    0.080994137    0.000000013
    0.360331357    0.705994129    0.077529535
    0.235331401    0.330994129    0.155059054
    0.110331446    0.955994248    0.232588559
    0.985331535    0.580994248    0.310118079
    0.860331237    0.205994010    0.387647599
    0.235331446    0.830994189    0.000000000
    0.110331416    0.455994189    0.077529535
    0.985331416    0.080994174    0.155059054
    0.860331416    0.705994308    0.232588530
    0.735331416    0.330994248    0.310118079
    0.610331416    0.955994129    0.387647569
    0.735331416    0.830994189    0.000000000
    0.610331416    0.455994189    0.077529535
    0.485331386    0.080994174    0.155059054
    0.360331416    0.705994308    0.232588530
    0.235331416    0.330994248    0.310118079
    0.110331357    0.955994129    0.387647569
    0.235331371    0.330994129    0.000000018
    0.110331379    0.955994129    0.077529542
    0.985331357    0.580994129    0.155059054
    0.860331416    0.205994248    0.232588559
    0.735331357    0.830994129    0.310118079
    0.610331416    0.455994129    0.387647599
    0.735331357    0.330994129    0.000000018
    0.610331357    0.955994129    0.077529542
    0.485331386    0.580994129    0.155059054
    0.360331416    0.205994248    0.232588559
    0.235331461    0.830994129    0.310118079
    0.110331304    0.455994129    0.387647599
    0.223091960    0.238430738    0.471518010
    0.973091960    0.988430738    0.560440361
    0.723091841    0.738430619    0.649362683
    0.473091751    0.488430500    0.738284945
    0.223091722    0.238430500    0.827207208
    0.973091722    0.988430381    0.916129589
    0.223091960    0.905097485    0.471518010
    0.973091960    0.655097425    0.560440361
    0.723091841    0.405097246    0.649362683
    0.473091751    0.155097127    0.738284945
    0.223091722    0.905097127    0.827207208
    0.973091722    0.655097008    0.916129589
    0.223091960    0.571764112    0.471518010
    0.973091960    0.321763992    0.560440361
    0.723091841    0.071763873    0.649362683
    0.473091751    0.821763754    0.738284945
    0.223091722    0.571763754    0.827207208
    0.973091722    0.321763635    0.916129589
    0.723091960    0.405097485    0.471518010
    0.473091900    0.155097365    0.560440361
    0.223091841    0.905097306    0.649362624
    0.973091841    0.655097187    0.738284945
    0.723091722    0.405097127    0.827207208
    0.473091692    0.155097008    0.916129589
    0.723091960    0.071764112    0.471518010
    0.473091900    0.821764052    0.560440361
    0.223091841    0.571763992    0.649362624
    0.973091841    0.321763754    0.738284945
    0.723091722    0.071763754    0.827207208
    0.473091692    0.821763694    0.916129589
    0.723091960    0.738430798    0.471518010
    0.473091900    0.488430738    0.560440361
    0.223091841    0.238430619    0.649362624
    0.973091841    0.988430440    0.738284945
    0.723091722    0.738430381    0.827207208
    0.473091692    0.488430262    0.916129589
    0.973091960    0.238430858    0.471518010
    0.723091900    0.988430858    0.560440421
    0.473091841    0.738430679    0.649362683
    0.223091722    0.488430500    0.738284945
    0.973091722    0.238430500    0.827207267
    0.723091722    0.988430440    0.916129589
    0.973091960    0.905097485    0.471518010
    0.723091900    0.655097365    0.560440421
    0.473091841    0.405097246    0.649362683
    0.223091722    0.155097127    0.738284945
    0.973091722    0.905097127    0.827207267
    0.723091722    0.655097008    0.916129589
    0.973091960    0.571764112    0.471518010
    0.723091900    0.321763992    0.560440421
    0.473091841    0.071763992    0.649362683
    0.223091722    0.821763813    0.738284945
    0.973091722    0.571763754    0.827207267
    0.723091722    0.321763754    0.916129589
    0.473091930    0.405097485    0.471518010
    0.223091960    0.155097365    0.560440421
    0.973091841    0.905097187    0.649362683
    0.723091722    0.655097067    0.738284945
    0.473091751    0.405097008    0.827207208
    0.223091722    0.155097008    0.916129589
    0.473091930    0.071764112    0.471518010
    0.223091960    0.821764052    0.560440421
    0.973091841    0.571763992    0.649362683
    0.723091722    0.321763754    0.738284945
    0.473091751    0.071763754    0.827207208
    0.223091722    0.821763694    0.916129589
    0.473091930    0.738430738    0.471518010
    0.223091960    0.488430738    0.560440421
    0.973091841    0.238430619    0.649362683
    0.723091722    0.988430440    0.738284945
    0.473091751    0.738430500    0.827207208
    0.223091722    0.488430262    0.916129589
