Sn+Si
    1.000000000
   19.467599869    0.000000000    0.000000000
    0.000000000   19.467599869    0.000000000
    0.000000000    0.000000000   14.900251389
Sn  Si 
108     156
Direct
    0.995035112    0.666666687    0.000000000
    0.828368425    0.666666687    0.217754737
    0.661701739    0.666666687    0.435509443
    0.995035112    0.333333343    0.000000000
    0.828368425    0.333333343    0.217754737
    0.661701739    0.333333343    0.435509443
    0.995035112    0.000000000    0.000000000
    0.828368425    0.000000000    0.217754737
    0.661701739    0.000000000    0.435509443
    0.328368455    0.666666687    0.000000000
    0.161701739    0.666666687    0.217754737
    0.995035112    0.666666687    0.435509443
    0.328368455    0.333333343    0.000000000
    0.161701739    0.333333343    0.217754737
    0.995035112    0.333333343    0.435509443
    0.328368455    0.000000000    0.000000000
    0.161701739    0.000000000    0.217754737
    0.995035112    0.000000000    0.435509443
    0.661701798    0.666666687    0.000000000
    0.495035112    0.666666687    0.217754737
    0.328368455    0.666666687    0.435509443
    0.661701798    0.333333343    0.000000000
    0.495035112    0.333333343    0.217754737
    0.328368455    0.333333343    0.435509443
    0.661701798    0.000000000    0.000000000
    0.495035112    0.000000000    0.217754737
    0.328368455    0.000000000    0.435509443
    0.078368433    0.916666746    0.108877368
    0.911701798    0.916666746    0.326632023
    0.745035052    0.916666746    0.544386804
    0.078368433    0.583333433    0.108877368
    0.911701798    0.583333433    0.326632023
    0.745035052    0.583333433    0.544386804
    0.078368433    0.250000000    0.108877368
    0.911701798    0.250000000    0.326632023
    0.745035052    0.250000000    0.544386804
    0.411701769    0.916666746    0.108877368
    0.245035097    0.916666746    0.326632023
    0.078368381    0.916666746    0.544386804
    0.411701769    0.583333433    0.108877368
    0.245035097    0.583333433    0.326632023
    0.078368381    0.583333433    0.544386804
    0.411701769    0.250000000    0.108877368
    0.245035097    0.250000000    0.326632023
    0.078368381    0.250000000    0.544386804
    0.745035172    0.916666746    0.108877368
    0.578368545    0.916666746    0.326632023
    0.411701798    0.916666746    0.544386804
    0.745035172    0.583333433    0.108877368
    0.578368545    0.583333433    0.326632023
    0.411701798    0.583333433    0.544386804
    0.745035172    0.250000000    0.108877368
    0.578368545    0.250000000    0.326632023
    0.411701798    0.250000000    0.544386804
    0.161701769    0.833333313    0.000000000
    0.995035052    0.833333313    0.217754737
    0.828368425    0.833333313    0.435509443
    0.161701769    0.500000000    0.000000000
    0.995035052    0.500000000    0.217754737
    0.828368425    0.500000000    0.435509443
    0.161701769    0.166666672    0.000000000
    0.995035052    0.166666672    0.217754737
    0.828368425    0.166666672    0.435509443
    0.495035112    0.833333313    0.000000000
    0.328368425    0.833333313    0.217754737
    0.161701754    0.833333313    0.435509443
    0.495035112    0.500000000    0.000000000
    0.328368425    0.500000000    0.217754737
    0.161701754    0.500000000    0.435509443
    0.495035112    0.166666672    0.000000000
    0.328368425    0.166666672    0.217754737
    0.161701754    0.166666672    0.435509443
    0.828368545    0.833333313    0.000000000
    0.661701858    0.833333313    0.217754737
    0.495035201    0.833333313    0.435509443
    0.828368545    0.500000000    0.000000000
    0.661701858    0.500000000    0.217754737
    0.495035201    0.500000000    0.435509443
    0.828368545    0.166666672    0.000000000
    0.661701858    0.166666672    0.217754737
    0.495035201    0.166666672    0.435509443
    0.245035097    0.750000060    0.108877368
    0.078368433    0.750000060    0.326632023
    0.911701739    0.750000060    0.544386804
    0.245035097    0.416666716    0.108877368
    0.078368433    0.416666716    0.326632023
    0.911701739    0.416666716    0.544386804
    0.245035097    0.083333343    0.108877368
    0.078368433    0.083333343    0.326632023
    0.911701739    0.083333343    0.544386804
    0.578368485    0.750000060    0.108877368
    0.411701858    0.750000060    0.326632023
    0.245035127    0.750000060    0.544386804
    0.578368485    0.416666716    0.108877368
    0.411701858    0.416666716    0.326632023
    0.245035127    0.416666716    0.544386804
    0.578368485    0.083333343    0.108877368
    0.411701858    0.083333343    0.326632023
    0.245035127    0.083333343    0.544386804
    0.911701739    0.750000060    0.108877368
    0.745035052    0.750000060    0.326632023
    0.578368366    0.750000060    0.544386804
    0.911701739    0.416666716    0.108877368
    0.745035052    0.416666716    0.326632023
    0.578368366    0.416666716    0.544386804
    0.911701739    0.083333343    0.108877368
    0.745035052    0.083333343    0.326632023
    0.578368366    0.083333343    0.544386804
    0.995893002    0.997262001    0.544386804
    0.880508363    0.920338869    0.726632059
    0.765123725    0.843415737    0.908877313
    0.072816126    0.381877452    0.544386804
    0.957431436    0.304954290    0.726632059
    0.842046797    0.228031158    0.908877313
    0.226662278    0.151108176    0.544386804
    0.111277618    0.074185051    0.726632059
    0.995892942    0.997261941    0.908877313
    0.149739221    0.766492844    0.544386804
    0.034354534    0.689569712    0.726632059
    0.918969870    0.612646580    0.908877313
    0.303585410    0.535723567    0.544386804
    0.188200727    0.458800435    0.726632059
    0.072816066    0.381877303    0.908877313
    0.457431555    0.304954350    0.544386804
    0.342046857    0.228031203    0.726632059
    0.226662204    0.151108071    0.908877313
    0.611277699    0.074185103    0.544386804
    0.495893002    0.997261941    0.726632059
    0.380508363    0.920338809    0.908877313
    0.380508512    0.920339048    0.544386804
    0.265123844    0.843415916    0.726632059
    0.149739176    0.766492724    0.908877313
    0.534354627    0.689569712    0.544386804
    0.418969929    0.612646580    0.726632059
    0.303585261    0.535723448    0.908877313
    0.688200712    0.458800495    0.544386804
    0.572816074    0.381877363    0.726632059
    0.457431376    0.304954231    0.908877313
    0.842046916    0.228031188    0.544386804
    0.726662278    0.151108041    0.726632059
    0.611277580    0.074184909    0.908877313
    0.765123904    0.843415856    0.544386804
    0.649739265    0.766492724    0.726632059
    0.534354568    0.689569592    0.908877313
    0.918970048    0.612646639    0.544386804
    0.803585410    0.535723507    0.726632059
    0.688200712    0.458800375    0.908877313
    0.015123837    0.593415856    0.635509431
    0.899739206    0.516492724    0.817754686
    0.784354508    0.439569622    1.000000238
    0.168969959    0.362646669    0.635509431
    0.053585295    0.285723537    0.817754686
    0.938200593    0.208800375    1.000000238
    0.322816133    0.131877407    0.635509431
    0.207431450    0.054954268    0.817754686
    0.092046767    0.978031158    1.000000238
    0.092046887    0.978031278    0.635509431
    0.976662219    0.901108146    0.817754686
    0.861277521    0.824185014    1.000000238
    0.245893061    0.747262061    0.635509431
    0.130508408    0.670338929    0.817754686
    0.015123715    0.593415797    1.000000238
    0.399739265    0.516492844    0.635509431
    0.284354597    0.439569682    0.817754686
    0.168969929    0.362646550    1.000000238
    0.553585410    0.285723537    0.635509431
    0.438200712    0.208800390    0.817754686
    0.322816044    0.131877258    1.000000238
    0.707431555    0.054954302    0.635509431
    0.592046857    0.978031158    0.817754686
    0.476662189    0.901108027    1.000000238
    0.476662397    0.901108205    0.635509431
    0.361277699    0.824185073    0.817754686
    0.245893002    0.747261941    1.000000238
    0.630508542    0.670338988    0.635509431
    0.515123844    0.593415797    0.817754686
    0.399739146    0.516492665    1.000000238
    0.784354687    0.439569712    0.635509431
    0.668969989    0.362646550    0.817754686
    0.553585291    0.285723418    1.000000238
    0.938200831    0.208800495    0.635509431
    0.822816133    0.131877348    0.817754686
    0.707431436    0.054954205    1.000000238
    0.861277878    0.824185133    0.635509431
    0.745893180    0.747262001    0.817754686
    0.630508423    0.670338809    1.000000238
    0.034354586    0.189569741    0.544386804
    0.918969929    0.112646602    0.726632059
    0.803585231    0.035723470    0.908877313
    0.111277662    0.574185073    0.544386804
    0.995893002    0.497262001    0.726632059
    0.880508304    0.420338839    0.908877313
    0.265123844    0.343415916    0.544386804
    0.149739191    0.266492784    0.726632059
    0.034354493    0.189569652    0.908877313
    0.418969989    0.112646602    0.544386804
    0.303585321    0.035723474    0.726632059
    0.188200638    0.958800316    0.908877313
    0.188200757    0.958800435    0.544386804
    0.072816059    0.881877303    0.726632059
    0.957431376    0.804954231    0.908877313
    0.342046916    0.728031278    0.544386804
    0.226662233    0.651108146    0.726632059
    0.111277573    0.574185014    0.908877313
    0.495893091    0.497262001    0.544386804
    0.380508423    0.420338869    0.726632059
    0.265123725    0.343415737    0.908877313
    0.649739265    0.266492784    0.544386804
    0.534354627    0.189569652    0.726632059
    0.418969929    0.112646520    0.908877313
    0.803585410    0.035723574    0.544386804
    0.688200712    0.958800435    0.726632059
    0.572816074    0.881877303    0.908877313
    0.572816133    0.881877363    0.544386804
    0.457431436    0.804954290    0.726632059
    0.342046797    0.728031099    0.908877313
    0.726662338    0.651108146    0.544386804
    0.611277640    0.574185014    0.726632059
    0.495892942    0.497261852    0.908877313
    0.880508482    0.420338988    0.544386804
    0.765123844    0.343415856    0.726632059
    0.649739146    0.266492724    0.908877313
    0.957431614    0.804954290    0.544386804
    0.842046916    0.728031158    0.726632059
    0.726662278    0.651108027    0.908877313
    0.130508438    0.170338959    0.635509431
    0.015123768    0.093415834    0.817754686
    0.899739087    0.016492693    1.000000238
    0.053585343    0.785723627    0.635509431
    0.938200712    0.708800435    0.817754686
    0.822816014    0.631877303    1.000000238
    0.207431525    0.554954410    0.635509431
    0.092046872    0.478031248    0.817754686
    0.976662159    0.401108086    1.000000238
    0.361277699    0.324185133    0.635509431
    0.245893031    0.247262001    0.817754686
    0.130508333    0.170338854    1.000000238
    0.515123844    0.093415849    0.635509431
    0.399739206    0.016492724    0.817754686
    0.284354508    0.939569533    1.000000238
    0.284354657    0.939569831    0.635509431
    0.168969989    0.862646639    0.817754686
    0.053585291    0.785723507    1.000000238
    0.438200772    0.708800614    0.635509431
    0.322816074    0.631877422    0.817754686
    0.207431406    0.554954290    1.000000238
    0.592046976    0.478031278    0.635509431
    0.476662278    0.401108146    0.817754686
    0.361277610    0.324185014    1.000000238
    0.745893121    0.247262001    0.635509431
    0.630508423    0.170338869    0.817754686
    0.515123785    0.093415722    1.000000238
    0.899739265    0.016492788    0.635509431
    0.784354568    0.939569652    0.817754686
    0.668969929    0.862646520    1.000000238
    0.668970108    0.862646759    0.635509431
    0.553585410    0.785723627    0.817754686
    0.438200712    0.708800495    1.000000238
    0.822816253    0.631877422    0.635509431
    0.707431555    0.554954290    0.817754686
    0.592046797    0.478031129    1.000000238
    0.976662278    0.401108235    0.635509431
    0.861277580    0.324185073    0.817754686
    0.745892882    0.247261927    1.000000238
