Si+C
    1.000000000
   16.293001175    0.000000000    0.000000000
  -10.862000465   12.144085884    0.000000000
    0.000000000    0.000000000    7.994749546
Si  C  
36     84
Direct
    0.982905626    0.641025126    0.000000002
    0.782905579    0.341025025    0.151900828
    0.582905412    0.041024935    0.303801656
    0.982905626    0.307691783    0.000000002
    0.782905579    0.007691715    0.151900828
    0.582905412    0.707691669    0.303801656
    0.982905626    0.974358499    0.000000002
    0.782905579    0.674358368    0.151900828
    0.582905412    0.374358296    0.303801656
    0.632905662    0.657691717    0.075950257
    0.432905585    0.357691616    0.227851093
    0.232905522    0.057691578    0.379751921
    0.632905662    0.324358463    0.075950257
    0.432905585    0.024358369    0.227851093
    0.232905522    0.724358320    0.379751921
    0.632905662    0.991025209    0.075950257
    0.432905585    0.691025138    0.227851093
    0.232905522    0.391025066    0.379751921
    0.482905626    0.807691753    0.000000000
    0.282905549    0.507691622    0.151900828
    0.082905442    0.207691610    0.303801656
    0.482905626    0.474358439    0.000000000
    0.282905549    0.174358353    0.151900828
    0.082905442    0.874358296    0.303801656
    0.482905626    0.141025141    0.000000000
    0.282905549    0.841025054    0.151900828
    0.082905442    0.541024983    0.303801656
    0.132905677    0.824358523    0.075950272
    0.932905555    0.524358392    0.227851093
    0.732905507    0.224358380    0.379751921
    0.132905677    0.491025209    0.075950272
    0.932905555    0.191025108    0.227851093
    0.732905507    0.891025126    0.379751921
    0.132905677    0.157691956    0.075950272
    0.932905555    0.857691884    0.227851093
    0.732905507    0.557691932    0.379751921
    0.765555501    0.102018833    0.565175176
    0.008412719    0.073447466    0.664935827
    0.251269937    0.044875860    0.764696479
    0.051269770    0.244876027    0.565175176
    0.294126987    0.216304541    0.664935827
    0.536984205    0.187733069    0.764696479
    0.336983919    0.387733132    0.565175176
    0.579841256    0.359161645    0.664935827
    0.822698534    0.330590189    0.764696479
    0.622698307    0.530590296    0.565175176
    0.865555584    0.502018809    0.664935827
    0.108412981    0.473447382    0.764696479
    0.908412635    0.673447430    0.565175176
    0.151269913    0.644876003    0.664935827
    0.394127131    0.616304517    0.764696479
    0.194126964    0.816304624    0.565175176
    0.436984181    0.787733138    0.664935827
    0.679841399    0.759161651    0.764696479
    0.479841232    0.959161758    0.565175176
    0.722698450    0.930590212    0.664935827
    0.965555608    0.902018785    0.764696479
    0.601269722    0.194876030    0.615055442
    0.844126999    0.166304559    0.714816093
    0.086984158    0.137733042    0.814576626
    0.886983871    0.337733150    0.615055442
    0.129841089    0.309161693    0.714816093
    0.372698307    0.280590177    0.814576745
    0.172698259    0.480590343    0.615055442
    0.415555477    0.452018857    0.714816093
    0.658412695    0.423447371    0.814576745
    0.458412647    0.623447478    0.615055442
    0.701269865    0.594875932    0.714816093
    0.944127142    0.566304564    0.814576745
    0.744126737    0.766304612    0.615055442
    0.986984074    0.737733126    0.714816093
    0.229841232    0.709161639    0.814576745
    0.029841185    0.909161747    0.615055442
    0.272698402    0.880590200    0.714816093
    0.515555620    0.852018774    0.814576626
    0.315555334    0.052018881    0.615055442
    0.558412552    0.023447394    0.714816093
    0.801269829    0.994875908    0.814576626
    0.408412695    0.173447475    0.565175176
    0.651269913    0.144875973    0.664935827
    0.894127190    0.116304547    0.764696479
    0.694127083    0.316304624    0.565175176
    0.936984241    0.287733108    0.664935827
    0.179841280    0.259161621    0.764696479
    0.979841232    0.459161758    0.565175176
    0.222698450    0.430590272    0.664935827
    0.465555668    0.402018785    0.764696479
    0.265555382    0.602018893    0.565175176
    0.508412719    0.573447406    0.664935827
    0.751269996    0.544875979    0.764696479
    0.551269770    0.744876027    0.565175176
    0.794127047    0.716304600    0.664935827
    0.036984205    0.687733054    0.764696479
    0.836984038    0.887733221    0.565175176
    0.079841256    0.859161794    0.664935827
    0.322698593    0.830590308    0.764696479
    0.122698307    0.030590296    0.565175176
    0.365555525    0.002018929    0.664935827
    0.608412862    0.973447442    0.764696479
    0.958412647    0.123447463    0.615055442
    0.201269865    0.094875932    0.714816093
    0.444127202    0.066304445    0.814576745
    0.244126797    0.266304612    0.615055442
    0.486984015    0.237733111    0.714816093
    0.729841232    0.209161669    0.814576626
    0.529841065    0.409161717    0.615055442
    0.772698462    0.380590290    0.714816093
    0.015555620    0.352018833    0.814576626
    0.815555274    0.552018881    0.615055442
    0.058412552    0.523447394    0.714816093
    0.301269770    0.494875908    0.814576626
    0.101269722    0.694875956    0.615055442
    0.344127059    0.666304469    0.714816093
    0.586984277    0.637733042    0.814576745
    0.386984110    0.837733150    0.615055442
    0.629841328    0.809161663    0.714816093
    0.872698605    0.780590296    0.814576745
    0.672698259    0.980590284    0.615055442
    0.915555537    0.952018857    0.714816093
    0.158412695    0.923447371    0.814576745
