Sn+Ge                                   
   1.00000000000000     
    12.9784002300000001    0.0000000000000000    0.0000000000000000
   -12.9784002300000001   14.5102930069999996    0.0000000000000000
     0.0000000000000000    0.0000000000000000    9.1904125210000007
   Sn   Ge
    24    24
Direct
  0.4743584989999974  0.9743584989999974  0.0000000000000000
  0.1743583530000024  0.6743584279999979  0.1578851189999995
  0.8743582959999969  0.3743583560000019  0.3157702680000014
  0.9743584989999974  0.9743584989999974  0.0000000000000000
  0.6743583680000000  0.6743584279999979  0.1578851189999995
  0.3743582959999969  0.3743583560000019  0.3157702680000014
  0.6993584630000029  0.3243584929999983  0.0789424109999999
  0.3993583620000010  0.0243584460000008  0.2368275370000035
  0.0993583200000003  0.7243584389999995  0.3947126569999995
  0.1993584780000006  0.3243584929999983  0.0789424109999999
  0.8993583920000034  0.0243584460000008  0.2368275370000035
  0.5993583200000003  0.7243584389999995  0.3947126569999995
  0.7243584389999995  0.4743584989999974  0.0000000160000013
  0.4243583379999976  0.1743583980000025  0.1578851339999972
  0.1243581920000025  0.8743582959999969  0.3157702680000014
  0.2243584690000020  0.4743584989999974  0.0000000160000013
  0.9243583680000000  0.1743583980000025  0.1578851339999972
  0.6243582370000027  0.8743582959999969  0.3157702680000014
  0.9493585820000021  0.8243585820000021  0.0789424179999969
  0.6493585110000026  0.5243585710000005  0.2368275079999975
  0.3493583799999982  0.2243584989999974  0.3947126569999995
  0.4493587910000016  0.8243585820000021  0.0789424179999969
  0.1493586449999995  0.5243585710000005  0.2368275079999975
  0.8493585590000023  0.2243584989999974  0.3947126569999995
  0.3295963999999998  0.3468964099999994  0.5568605659999974
  0.2129297259999987  0.9302296640000023  0.6130588050000014
  0.0962629320000019  0.5135629179999981  0.6692571040000033
  0.9795960780000001  0.0968961720000010  0.7254555820000022
  0.8629294039999991  0.6802295450000031  0.7816537619999977
  0.7462625499999973  0.2635625599999969  0.8378521200000009
  0.8295963999999998  0.5968964099999994  0.5568605659999974
  0.7129296060000030  0.1802296640000023  0.6130588050000014
  0.5962628719999969  0.7635629179999981  0.6692572239999990
  0.4795960780000001  0.3468961720000010  0.7254554029999980
  0.3629293440000012  0.9302294250000003  0.7816537019999998
  0.2462626700000001  0.5135625599999969  0.8378519420000003
  0.8295963999999998  0.8468964099999994  0.5568606260000024
  0.7129296060000030  0.4302296640000023  0.6130588050000014
  0.5962628130000027  0.0135629179999981  0.6692572239999990
  0.4795961080000026  0.5968961720000010  0.7254555230000008
  0.3629294039999991  0.1802294250000003  0.7816537019999998
  0.2462625499999973  0.7635624409999977  0.8378520010000017
  0.3295962810000006  0.0968964099999994  0.5568606260000024
  0.2129296060000030  0.6802296640000023  0.6130589249999971
  0.0962629320000019  0.2635629179999981  0.6692572239999990
  0.9795960780000001  0.8468961720000010  0.7254555230000008
  0.8629293440000012  0.4302294250000003  0.7816537619999977
  0.7462625499999973  0.0135624409999977  0.8378521200000009
 
  0.00000000E+00  0.00000000E+00  0.00000000E+00
  0.00000000E+00  0.00000000E+00  0.00000000E+00
  0.00000000E+00  0.00000000E+00  0.00000000E+00
  0.00000000E+00  0.00000000E+00  0.00000000E+00
  0.00000000E+00  0.00000000E+00  0.00000000E+00
  0.00000000E+00  0.00000000E+00  0.00000000E+00
  0.00000000E+00  0.00000000E+00  0.00000000E+00
  0.00000000E+00  0.00000000E+00  0.00000000E+00
  0.00000000E+00  0.00000000E+00  0.00000000E+00
  0.00000000E+00  0.00000000E+00  0.00000000E+00
  0.00000000E+00  0.00000000E+00  0.00000000E+00
  0.00000000E+00  0.00000000E+00  0.00000000E+00
  0.00000000E+00  0.00000000E+00  0.00000000E+00
  0.00000000E+00  0.00000000E+00  0.00000000E+00
  0.00000000E+00  0.00000000E+00  0.00000000E+00
  0.00000000E+00  0.00000000E+00  0.00000000E+00
  0.00000000E+00  0.00000000E+00  0.00000000E+00
  0.00000000E+00  0.00000000E+00  0.00000000E+00
  0.00000000E+00  0.00000000E+00  0.00000000E+00
  0.00000000E+00  0.00000000E+00  0.00000000E+00
  0.00000000E+00  0.00000000E+00  0.00000000E+00
  0.00000000E+00  0.00000000E+00  0.00000000E+00
  0.00000000E+00  0.00000000E+00  0.00000000E+00
  0.00000000E+00  0.00000000E+00  0.00000000E+00
  0.00000000E+00  0.00000000E+00  0.00000000E+00
  0.00000000E+00  0.00000000E+00  0.00000000E+00
  0.00000000E+00  0.00000000E+00  0.00000000E+00
  0.00000000E+00  0.00000000E+00  0.00000000E+00
  0.00000000E+00  0.00000000E+00  0.00000000E+00
  0.00000000E+00  0.00000000E+00  0.00000000E+00
  0.00000000E+00  0.00000000E+00  0.00000000E+00
  0.00000000E+00  0.00000000E+00  0.00000000E+00
  0.00000000E+00  0.00000000E+00  0.00000000E+00
  0.00000000E+00  0.00000000E+00  0.00000000E+00
  0.00000000E+00  0.00000000E+00  0.00000000E+00
  0.00000000E+00  0.00000000E+00  0.00000000E+00
  0.00000000E+00  0.00000000E+00  0.00000000E+00
  0.00000000E+00  0.00000000E+00  0.00000000E+00
  0.00000000E+00  0.00000000E+00  0.00000000E+00
  0.00000000E+00  0.00000000E+00  0.00000000E+00
  0.00000000E+00  0.00000000E+00  0.00000000E+00
  0.00000000E+00  0.00000000E+00  0.00000000E+00
  0.00000000E+00  0.00000000E+00  0.00000000E+00
  0.00000000E+00  0.00000000E+00  0.00000000E+00
  0.00000000E+00  0.00000000E+00  0.00000000E+00
  0.00000000E+00  0.00000000E+00  0.00000000E+00
  0.00000000E+00  0.00000000E+00  0.00000000E+00
  0.00000000E+00  0.00000000E+00  0.00000000E+00
