Si+Sn
    1.000000000
   13.303179741    0.000000000    0.000000000
   -6.651589394   14.873406410    0.000000000
    0.000000000    0.000000000    6.663593769
Si  Sn 
36     24
Direct
    0.997150958    0.980056584    0.000000000
    0.963817537    0.746723175    0.182245389
    0.930484116    0.513389826    0.364490777
    0.330484211    0.313389868    0.000000000
    0.297150791    0.080056474    0.182245389
    0.263817370    0.846723080    0.364490777
    0.663817465    0.646723151    0.000000000
    0.630484045    0.413389713    0.182245389
    0.597150624    0.180056334    0.364490777
    0.313817531    0.946723342    0.091122515
    0.280484110    0.713389993    0.273367912
    0.247150689    0.480056584    0.455613256
    0.647150815    0.280056566    0.091122515
    0.613817394    0.046723194    0.273367912
    0.580483973    0.813389778    0.455613285
    0.980484426    0.613389850    0.091122545
    0.947151005    0.380056471    0.273367912
    0.913817585    0.146723092    0.455613256
    0.163817570    0.646723092    0.000000002
    0.130484164    0.413389713    0.182245389
    0.097150750    0.180056319    0.364490777
    0.497150898    0.980056643    0.000000006
    0.463817418    0.746723175    0.182245329
    0.430484056    0.513389826    0.364490747
    0.830484152    0.313389868    0.000000006
    0.797150731    0.080056526    0.182245329
    0.763817310    0.846723080    0.364490747
    0.147150904    0.280056566    0.091122530
    0.113817483    0.046723165    0.273367912
    0.080484070    0.813389778    0.455613285
    0.480484217    0.613389909    0.091122530
    0.447150826    0.380056530    0.273367912
    0.413817406    0.146723166    0.455613285
    0.813817501    0.946723282    0.091122515
    0.780484140    0.713389874    0.273367912
    0.747150719    0.480056465    0.455613285
    0.964237571    0.030653533    0.455613315
    0.614237547    0.330653578    0.673368096
    0.264237285    0.630653620    0.891122997
    0.464237481    0.030653533    0.455613315
    0.114237398    0.330653578    0.673368096
    0.764237285    0.630653620    0.891122997
    0.414237499    0.680653512    0.564490438
    0.064237349    0.980653465    0.782245219
    0.714237332    0.280653596    1.000000238
    0.914237559    0.680653512    0.564490438
    0.564237416    0.980653465    0.782245219
    0.214237332    0.280653596    1.000000238
    0.964237571    0.530653477    0.455613315
    0.614237428    0.830653489    0.673368096
    0.264237225    0.130653620    0.891122997
    0.464237481    0.530653477    0.455613315
    0.114237420    0.830653489    0.673368096
    0.764237285    0.130653620    0.891122997
    0.414237440    0.180653512    0.564490438
    0.064237319    0.480653584    0.782245219
    0.714237332    0.780653656    1.000000238
    0.914237559    0.180653512    0.564490438
    0.564237356    0.480653584    0.782245219
    0.214237392    0.780653656    1.000000238
