C+Si
    1.000000000
   16.345130920    0.000000000    0.000000000
  -10.896755219   12.182942390    0.000000000
    0.000000000    0.000000000    8.390058517
C   Si 
84     36
Direct
    0.615538597    0.710903406    0.190120444
    0.844110012    0.768046021    0.000000000
    0.729824305    0.239474773    0.095060237
    0.472681403    0.425189137    0.190120444
    0.701252878    0.482331723    0.000000003
    0.586967111    0.953760505    0.095060229
    0.329824239    0.139474869    0.190120444
    0.558395684    0.196617484    0.000000006
    0.444109917    0.668046236    0.095060237
    0.186967164    0.853760600    0.190120444
    0.415538609    0.910903156    0.000000020
    0.301252872    0.382331967    0.095060244
    0.044110037    0.568046331    0.190120444
    0.272681475    0.625188887    0.000000021
    0.158395737    0.096617699    0.095060244
    0.901252866    0.282332063    0.190120444
    0.129824311    0.339474618    0.000000022
    0.015538570    0.810903370    0.095060259
    0.758395791    0.996617734    0.190120444
    0.986967206    0.053760353    0.000000023
    0.872681499    0.525189102    0.095060229
    0.665538669    0.160903454    0.237650469
    0.894110084    0.218045950    0.047530055
    0.779824436    0.689474821    0.142590269
    0.522681475    0.875189185    0.237650454
    0.751252830    0.932331800    0.047530055
    0.636967123    0.403760433    0.142590269
    0.379824400    0.589474440    0.237650454
    0.608395755    0.646617174    0.047530059
    0.494110107    0.118045926    0.142590269
    0.236967221    0.303760409    0.237650469
    0.465538621    0.360903025    0.047530059
    0.351252884    0.832331717    0.142590269
    0.094110020    0.018046141    0.237650469
    0.322681487    0.075188875    0.047530055
    0.208395705    0.546617508    0.142590314
    0.951252997    0.732332110    0.237650424
    0.179824427    0.789474726    0.047530051
    0.065538712    0.260903358    0.142590269
    0.808395743    0.446617365    0.237650469
    0.036967218    0.503760099    0.047530040
    0.922681451    0.975188792    0.142590299
    0.686967075    0.353760600    0.190120459
    0.915538609    0.410903215    0.000000029
    0.801252782    0.882331908    0.095060244
    0.544109881    0.068046331    0.190120459
    0.772681355    0.125188932    0.000000035
    0.658395588    0.596617639    0.095060252
    0.401252806    0.782331944    0.190120459
    0.629824281    0.839474559    0.000000015
    0.515538573    0.310903430    0.095060244
    0.258395672    0.496617675    0.190120459
    0.486967176    0.553760350    0.000000013
    0.372681409    0.025189042    0.095060244
    0.115538605    0.210903525    0.190120459
    0.344110042    0.268046051    0.000000013
    0.229824275    0.739474773    0.095060244
    0.972681403    0.925189018    0.190120459
    0.201252878    0.982331693    0.000000037
    0.086967200    0.453760505    0.095060237
    0.829824328    0.639474750    0.190120459
    0.058395743    0.696617424    0.000000037
    0.944110155    0.168046355    0.095060237
    0.736967206    0.803760409    0.237650424
    0.965538681    0.860903084    0.047530040
    0.851252913    0.332331657    0.142590269
    0.594110072    0.518046379    0.237650454
    0.822681367    0.575188816    0.047530025
    0.708395720    0.046617627    0.142590255
    0.451252908    0.232331634    0.237650454
    0.679824293    0.289474279    0.047530010
    0.565538585    0.760902941    0.142590255
    0.308395773    0.946617484    0.237650454
    0.536967218    0.003760099    0.047530051
    0.422681540    0.475188851    0.142590269
    0.165538624    0.660903335    0.237650454
    0.394110084    0.718045950    0.047530051
    0.279824376    0.189474583    0.142590255
    0.022681480    0.375189185    0.237650454
    0.251252919    0.432331830    0.047530051
    0.136967212    0.903760552    0.142590284
    0.879824460    0.089474678    0.237650469
    0.108395860    0.146617174    0.047530036
    0.994110227    0.618046045    0.142590210
    0.019942641    0.869420171    0.437895536
    0.819942594    0.569420099    0.582639337
    0.619942427    0.269419998    0.727383077
    0.019942641    0.536086857    0.437895536
    0.819942594    0.236086771    0.582639337
    0.619942427    0.936086714    0.727383077
    0.019942641    0.202753544    0.437895536
    0.819942594    0.902753413    0.582639337
    0.619942427    0.602753341    0.727383077
    0.669942677    0.886086762    0.510267258
    0.469942629    0.586086690    0.655011058
    0.269942552    0.286086649    0.799754798
    0.669942677    0.552753508    0.510267258
    0.469942629    0.252753437    0.655011058
    0.269942552    0.952753365    0.799754798
    0.669942677    0.219420314    0.510267258
    0.469942629    0.919420183    0.655011058
    0.269942552    0.619420111    0.799754798
    0.519942641    0.036086798    0.437895536
    0.319942594    0.736086667    0.582639337
    0.119942479    0.436086655    0.727383077
    0.519942641    0.702753484    0.437895536
    0.319942594    0.402753413    0.582639337
    0.119942479    0.102753401    0.727383077
    0.519942641    0.369420201    0.437895536
    0.319942594    0.069420099    0.582639337
    0.119942479    0.769420028    0.727383077
    0.169942707    0.052753568    0.510267258
    0.969942570    0.752753437    0.655011058
    0.769942522    0.452753425    0.799754798
    0.169942707    0.719420254    0.510267258
    0.969942570    0.419420183    0.655011058
    0.769942522    0.119420171    0.799754798
    0.169942707    0.386087000    0.510267258
    0.969942570    0.086086988    0.655011058
    0.769942522    0.786086977    0.799754798
