Si+C
    1.000000000
   13.303179741    0.000000000    0.000000000
    6.651589394   14.873406410    0.000000000
    0.000000000    0.000000000    7.994752407
Si  C  
36     84
Direct
    0.283249497    0.641624749    0.000000047
    0.816582799    0.408291280    0.151900828
    0.349915981    0.174957767    0.303801656
    0.616582751    0.308291376    0.000000057
    0.149916053    0.074957930    0.151900828
    0.683249235    0.841624439    0.303801626
    0.949916124    0.974958062    0.000000040
    0.483249485    0.741624594    0.151900828
    0.016582668    0.508291125    0.303801626
    0.799916267    0.774958014    0.075950287
    0.333249509    0.541624546    0.227851093
    0.866582751    0.308291078    0.379751951
    0.133249685    0.441624761    0.075950302
    0.666582942    0.208291277    0.227851093
    0.199916244    0.974957764    0.379751951
    0.466582894    0.108291537    0.075950302
    0.999916136    0.874958038    0.227851093
    0.533249378    0.641624570    0.379751951
    0.783249557    0.641624749    0.000000000
    0.316582829    0.408291280    0.151900813
    0.849916041    0.174957782    0.303801656
    0.116582796    0.308291405    0.000000057
    0.649916053    0.074957952    0.151900858
    0.183249295    0.841624498    0.303801656
    0.449916124    0.974958062    0.000000057
    0.983249426    0.741624594    0.151900858
    0.516582668    0.508291125    0.303801656
    0.299916178    0.774958134    0.075950302
    0.833249450    0.541624665    0.227851152
    0.366582692    0.308291197    0.379751921
    0.633249402    0.441624731    0.075950317
    0.166582644    0.208291262    0.227851152
    0.699915946    0.974957824    0.379751891
    0.966582716    0.108291551    0.075950302
    0.499915957    0.874958038    0.227851152
    0.033249259    0.641624629    0.379751951
    0.256733179    0.895012736    0.764696479
    0.599590242    0.923584402    0.565175295
    0.928161740    0.909298599    0.664935887
    0.542447329    0.752155662    0.764696479
    0.885304570    0.780727267    0.565175295
    0.213876009    0.766441464    0.664935887
    0.828161597    0.609298527    0.764696479
    0.171018720    0.637870133    0.565175295
    0.499590188    0.623584330    0.664935887
    0.113875985    0.466441333    0.764696479
    0.456733108    0.495012939    0.565175235
    0.785304546    0.480727166    0.664935887
    0.399590284    0.323584199    0.764696479
    0.742447376    0.352155805    0.565175235
    0.071018815    0.337870032    0.664935887
    0.685304523    0.180727094    0.764696479
    0.028161645    0.209298700    0.565175235
    0.356733114    0.195012927    0.664935887
    0.971018910    0.037869930    0.764696538
    0.313875973    0.066441536    0.565175235
    0.642447472    0.052155733    0.664935887
    0.706732988    0.995012760    0.814576685
    0.049590111    0.023584366    0.615055501
    0.378161579    0.009298444    0.714816153
    0.992447257    0.852155626    0.814576685
    0.335304409    0.880727232    0.615055501
    0.663875818    0.866441369    0.714816153
    0.278161526    0.709298491    0.814576805
    0.621018708    0.737870097    0.615055442
    0.949590206    0.723584294    0.714816093
    0.563875914    0.566441417    0.814576685
    0.906733036    0.595012963    0.615055442
    0.235304475    0.580727220    0.714816153
    0.849590302    0.423584282    0.814576805
    0.192447424    0.452155858    0.615055442
    0.521018744    0.437870085    0.714816093
    0.135304451    0.280727088    0.814576805
    0.478161633    0.309298694    0.615055501
    0.806733131    0.295012891    0.714816153
    0.421018869    0.137869954    0.814576685
    0.763875961    0.166441560    0.615055501
    0.092447400    0.152155757    0.714816093
    0.756733060    0.895012796    0.764696479
    0.099590182    0.923584282    0.565175235
    0.428161532    0.909298599    0.664935946
    0.042447567    0.752155662    0.764696538
    0.385304570    0.780727267    0.565175235
    0.713876009    0.766441464    0.664935887
    0.328161865    0.609298527    0.764696538
    0.671018839    0.637870133    0.565175235
    0.999590278    0.623584330    0.664935887
    0.613875985    0.466441393    0.764696538
    0.956733108    0.495012969    0.565175235
    0.285304457    0.480727196    0.664935887
    0.899590135    0.323584318    0.764696538
    0.242447376    0.352155834    0.565175235
    0.571018815    0.337870032    0.664935887
    0.185304642    0.180727109    0.764696538
    0.528161645    0.209298670    0.565175295
    0.856733203    0.195012867    0.664935887
    0.471018821    0.037870049    0.764696538
    0.813875914    0.066441536    0.565175295
    0.142447352    0.052155733    0.664935887
    0.206733108    0.995012879    0.814576685
    0.549590230    0.023584366    0.615055501
    0.878161550    0.009298563    0.714816093
    0.492447406    0.852155685    0.814576685
    0.835304499    0.880727291    0.615055501
    0.163875937    0.866441429    0.714816093
    0.778161645    0.709298491    0.814576685
    0.121018887    0.737870097    0.615055501
    0.449590355    0.723584235    0.714816093
    0.063875794    0.566441417    0.814576626
    0.406733066    0.595012903    0.615055442
    0.735304475    0.580727160    0.714816093
    0.349590331    0.423584223    0.814576685
    0.692447484    0.452155799    0.615055442
    0.021018863    0.437870026    0.714816093
    0.635304332    0.280727059    0.814576685
    0.978161573    0.309298664    0.615055442
    0.306732923    0.295012891    0.714816093
    0.921018720    0.137870029    0.814576685
    0.263875961    0.166441530    0.615055501
    0.592447281    0.152155757    0.714816153
