Ge+Si                                   
   1.00000000000000     
    12.6512260439999995    0.0000000000000000    0.0000000000000000
    -2.5302445890000000   17.7117156979999990    0.0000000000000000
     0.0000000000000000    0.0000000000000000   12.6152458190000001
   Ge   Si
    84    72
Direct
  0.0345148409999965  0.0000000000000000  0.0000000000000000
  0.5345148440000003  0.9999999400000021  0.2242445349999969
  0.0345149039999981  0.9999999400000021  0.4484891299999987
  0.4630863370000000  0.1428571490000010  0.0000000000000000
  0.9630863069999975  0.1428570899999997  0.2242445349999969
  0.4630864860000017  0.1428570599999972  0.4484891299999987
  0.8916578290000032  0.2857142690000032  0.0000000000000000
  0.3916578290000032  0.2857142390000007  0.2242445349999969
  0.8916578290000032  0.2857141490000004  0.4484891299999987
  0.3202291730000013  0.4285714629999973  0.0000000000000000
  0.8202291730000013  0.4285714029999994  0.2242445349999969
  0.3202292920000005  0.4285713729999969  0.4484891299999987
  0.7488006350000020  0.5714285370000027  0.0000000000000000
  0.2488007549999978  0.5714285370000027  0.2242445349999969
  0.7488006350000020  0.5714284179999964  0.4484891299999987
  0.1773720529999991  0.7142857309999968  0.0000000000000000
  0.6773720380000015  0.7142856720000026  0.2242445349999969
  0.1773722169999985  0.7142856119999976  0.4484891299999987
  0.6059435009999987  0.8571429249999980  0.0000000000000000
  0.1059435609999966  0.8571429249999980  0.2242445349999969
  0.6059434410000009  0.8571428059999988  0.4484891299999987
  0.1059434410000009  0.1071428360000013  0.1121222749999973
  0.6059435609999966  0.1071428139999995  0.3363668619999984
  0.1059434410000009  0.1071427319999998  0.5606114269999978
  0.5345149039999981  0.2499999850000023  0.1121222749999973
  0.0345149039999981  0.2499999400000021  0.3363668619999984
  0.5345150229999973  0.2499998810000008  0.5606114269999978
  0.9630863069999975  0.3928571340000033  0.1121222749999973
  0.4630863670000025  0.3928570750000020  0.3363668619999984
  0.9630864860000017  0.3928570449999995  0.5606114269999978
  0.3916578290000032  0.5357142690000032  0.1121222749999973
  0.8916578290000032  0.5357142690000032  0.3363668619999984
  0.3916578290000032  0.5357141490000004  0.5606114269999978
  0.8202291730000013  0.6785714029999994  0.1121222749999973
  0.3202292920000005  0.6785713430000015  0.3363668619999984
  0.8202292920000005  0.6785712840000002  0.5606114269999978
  0.2488006350000020  0.8214285970000006  0.1121222749999973
  0.7488006350000020  0.8214285970000006  0.3363668619999984
  0.2488005160000029  0.8214285370000027  0.5606114269999978
  0.6773720979999993  0.9642857910000018  0.1121222749999973
  0.1773722169999985  0.9642857910000018  0.3363668619999984
  0.6773720979999993  0.9642856720000026  0.5606114269999978
  0.7488005760000007  0.0714285970000006  0.0000000000000000
  0.2488005160000029  0.0714285520000004  0.2242445349999969
  0.7488006350000020  0.0714285299999986  0.4484891299999987
  0.1773719939999978  0.2142857309999968  0.0000000000000000
  0.6773719790000001  0.2142856569999978  0.2242445349999969
  0.1773719790000001  0.2142856270000024  0.4484891299999987
  0.6059435609999966  0.3571428659999967  0.0000000000000000
  0.1059435609999966  0.3571428059999988  0.2242445349999969
  0.6059434410000009  0.3571427460000010  0.4484891299999987
  0.0345148669999986  0.4999999699999975  0.0000000000000000
  0.5345148440000003  0.4999999110000033  0.2242445349999969
  0.0345149039999981  0.4999998509999983  0.4484891299999987
  0.4630864259999967  0.6428571340000033  0.0000000000000000
  0.9630864259999967  0.6428570750000020  0.2242445349999969
  0.4630863670000025  0.6428570149999970  0.4484891299999987
  0.8916578290000032  0.7857142690000032  0.0000000000000000
  0.3916577099999969  0.7857142089999982  0.2242445349999969
  0.8916578290000032  0.7857141490000004  0.4484891299999987
  0.3202291429999988  0.9285714629999973  0.0000000000000000
  0.8202291130000035  0.9285714029999994  0.2242445349999969
  0.3202291730000013  0.9285713430000015  0.4484891299999987
  0.3916577099999969  0.0357143020000024  0.1121222749999973
  0.8916577700000019  0.0357142200000027  0.3363668619999984
  0.3916578290000032  0.0357141980000009  0.5606114269999978
  0.8202291730000013  0.1785714179999971  0.1121222749999973
  0.3202291730000013  0.1785713880000017  0.3363668619999984
  0.8202291730000013  0.1785713290000004  0.5606114269999978
  0.2488006350000020  0.3214285970000006  0.1121222749999973
  0.7488005160000029  0.3214285079999968  0.3363668619999984
  0.2488007549999978  0.3214284780000014  0.5606114269999978
  0.6773720380000015  0.4642857019999980  0.1121222749999973
  0.1773720979999993  0.4642856720000026  0.3363668619999984
  0.6773719790000001  0.4642856119999976  0.5606114269999978
  0.1059434410000009  0.6071428659999967  0.1121222749999973
  0.6059434410000009  0.6071428059999988  0.3363668619999984
  0.1059436800000029  0.6071427460000010  0.5606114269999978
  0.5345149039999981  0.7500000599999979  0.1121222749999973
  0.0345149039999981  0.7500000000000000  0.3363668619999984
  0.5345149039999981  0.7500000000000000  0.5606114269999978
  0.9630863670000025  0.8928571340000033  0.1121222749999973
  0.4630863670000025  0.8928571340000033  0.3363668619999984
  0.9630864860000017  0.8928570149999970  0.5606114269999978
  0.4178842310000022  0.8561706540000031  0.9999999400000021
  0.9456626180000001  0.9950602050000015  0.5606114269999978
  0.6401069160000006  0.9672822949999969  0.6484891180000005
  0.3345512149999976  0.9395043849999993  0.7363668079999997
  0.0289955739999996  0.9117264750000018  0.8242444990000024
  0.7234399319999980  0.8839485649999972  0.9121223089999972
  0.0845509769999992  0.1895040269999981  0.9999999400000021
  0.6123293639999972  0.3283935790000001  0.5606114859999991
  0.3067736329999988  0.3006156679999989  0.6484891770000019
  0.0012180040000018  0.2728377879999968  0.7363668079999997
  0.6956623789999981  0.2450598929999970  0.8242444990000024
  0.3901067380000001  0.2172819379999993  0.9121223089999972
  0.7512176039999972  0.5228374000000002  0.9999999400000021
  0.2789959910000022  0.6617269520000022  0.5606114859999991
  0.9734402890000027  0.6339491009999989  0.6484891770000019
  0.6678846479999976  0.6061711910000014  0.7363668079999997
  0.3623289470000017  0.5783932809999968  0.8242444990000024
  0.0567733050000001  0.5506153700000027  0.9121223089999972
  0.4178842310000022  0.1061706919999992  0.9999999400000021
  0.9456626180000001  0.2450602349999969  0.5606114269999978
  0.6401069160000006  0.2172823249999993  0.6484891180000005
  0.3345512750000026  0.1895043999999970  0.7363668079999997
  0.0289955739999996  0.1617265189999983  0.8242444990000024
  0.7234400509999972  0.1339486090000008  0.9121221899999981
  0.0845508580000001  0.4395039979999993  0.9999999400000021
  0.6123293039999993  0.5783936380000014  0.5606114269999978
  0.3067736030000034  0.5506157279999968  0.6484891770000019
  0.0012178950000035  0.5228378179999993  0.7363668079999997
  0.6956623199999967  0.4950598779999993  0.8242444990000024
  0.3901066780000022  0.4672819669999981  0.9121223089999972
  0.7512174840000014  0.7728374599999981  0.9999999400000021
  0.2789959910000022  0.9117270109999964  0.5606114859999991
  0.9734402890000027  0.8839491009999989  0.6484891180000005
  0.6678845879999997  0.8561711910000014  0.7363668079999997
  0.3623290060000031  0.8283933399999981  0.8242444990000024
  0.0567733649999980  0.8006153110000014  0.9121221899999981
  0.2512176039999972  0.0228373369999986  0.9999999400000021
  0.7789960500000035  0.1617269070000020  0.5606114269999978
  0.4734403490000005  0.1339489969999974  0.6484891180000005
  0.1678846630000024  0.1061710860000034  0.7363668079999997
  0.8623290660000009  0.0783931690000017  0.8242444990000024
  0.5567734239999993  0.0506152620000009  0.9121223089999972
  0.9178842310000022  0.3561707140000010  0.9999999400000021
  0.4456626469999989  0.4950602950000018  0.5606114859999991
  0.1401069460000031  0.4672823849999972  0.6484891770000019
  0.8345512149999976  0.4395044740000031  0.7363668079999997
  0.5289956929999988  0.4117265340000031  0.8242444990000024
  0.2234400509999972  0.3839485940000031  0.9121223089999972
  0.5845508580000001  0.6895040870000031  0.9999999400000021
  0.1123293039999993  0.8283936380000014  0.5606114269999978
  0.8067736030000034  0.8006157880000018  0.6484891180000005
  0.5012178420000026  0.7728378770000006  0.7363668079999997
  0.1956623789999981  0.7450599670000031  0.8242444990000024
  0.8901066780000022  0.7172820569999985  0.9121223089999972
  0.5845508580000001  0.9395040269999981  0.9999999400000021
  0.1123292739999968  0.0783935709999994  0.5606114269999978
  0.8067735429999985  0.0506156610000019  0.6484891180000005
  0.5012179020000005  0.0228377379999998  0.7363668079999997
  0.1956622599999989  0.9950598479999968  0.8242444990000024
  0.8901066780000022  0.9672819379999993  0.9121221899999981
  0.2512176039999972  0.2728373710000014  0.9999999400000021
  0.7789960500000035  0.4117269520000022  0.5606114269999978
  0.4734403189999981  0.3839490410000010  0.6484891180000005
  0.1678846479999976  0.3561711309999964  0.7363668079999997
  0.8623290060000031  0.3283932209999989  0.8242444990000024
  0.5567733649999980  0.3006153110000014  0.9121221899999981
  0.9178842310000022  0.6061707739999989  0.9999999400000021
  0.4456626770000014  0.7450603839999985  0.5606114859999991
  0.1401069610000008  0.7172824140000031  0.6484891770000019
  0.8345513339999968  0.6895045039999985  0.7363668079999997
  0.5289956330000010  0.6617265940000010  0.8242444990000024
  0.2234399909999993  0.6339486239999985  0.9121223089999972
 
  0.00000000E+00  0.00000000E+00  0.00000000E+00
  0.00000000E+00  0.00000000E+00  0.00000000E+00
  0.00000000E+00  0.00000000E+00  0.00000000E+00
  0.00000000E+00  0.00000000E+00  0.00000000E+00
  0.00000000E+00  0.00000000E+00  0.00000000E+00
  0.00000000E+00  0.00000000E+00  0.00000000E+00
  0.00000000E+00  0.00000000E+00  0.00000000E+00
  0.00000000E+00  0.00000000E+00  0.00000000E+00
  0.00000000E+00  0.00000000E+00  0.00000000E+00
  0.00000000E+00  0.00000000E+00  0.00000000E+00
  0.00000000E+00  0.00000000E+00  0.00000000E+00
  0.00000000E+00  0.00000000E+00  0.00000000E+00
  0.00000000E+00  0.00000000E+00  0.00000000E+00
  0.00000000E+00  0.00000000E+00  0.00000000E+00
  0.00000000E+00  0.00000000E+00  0.00000000E+00
  0.00000000E+00  0.00000000E+00  0.00000000E+00
  0.00000000E+00  0.00000000E+00  0.00000000E+00
  0.00000000E+00  0.00000000E+00  0.00000000E+00
  0.00000000E+00  0.00000000E+00  0.00000000E+00
  0.00000000E+00  0.00000000E+00  0.00000000E+00
  0.00000000E+00  0.00000000E+00  0.00000000E+00
  0.00000000E+00  0.00000000E+00  0.00000000E+00
  0.00000000E+00  0.00000000E+00  0.00000000E+00
  0.00000000E+00  0.00000000E+00  0.00000000E+00
  0.00000000E+00  0.00000000E+00  0.00000000E+00
  0.00000000E+00  0.00000000E+00  0.00000000E+00
  0.00000000E+00  0.00000000E+00  0.00000000E+00
  0.00000000E+00  0.00000000E+00  0.00000000E+00
  0.00000000E+00  0.00000000E+00  0.00000000E+00
  0.00000000E+00  0.00000000E+00  0.00000000E+00
  0.00000000E+00  0.00000000E+00  0.00000000E+00
  0.00000000E+00  0.00000000E+00  0.00000000E+00
  0.00000000E+00  0.00000000E+00  0.00000000E+00
  0.00000000E+00  0.00000000E+00  0.00000000E+00
  0.00000000E+00  0.00000000E+00  0.00000000E+00
  0.00000000E+00  0.00000000E+00  0.00000000E+00
  0.00000000E+00  0.00000000E+00  0.00000000E+00
  0.00000000E+00  0.00000000E+00  0.00000000E+00
  0.00000000E+00  0.00000000E+00  0.00000000E+00
  0.00000000E+00  0.00000000E+00  0.00000000E+00
  0.00000000E+00  0.00000000E+00  0.00000000E+00
  0.00000000E+00  0.00000000E+00  0.00000000E+00
  0.00000000E+00  0.00000000E+00  0.00000000E+00
  0.00000000E+00  0.00000000E+00  0.00000000E+00
  0.00000000E+00  0.00000000E+00  0.00000000E+00
  0.00000000E+00  0.00000000E+00  0.00000000E+00
  0.00000000E+00  0.00000000E+00  0.00000000E+00
  0.00000000E+00  0.00000000E+00  0.00000000E+00
  0.00000000E+00  0.00000000E+00  0.00000000E+00
  0.00000000E+00  0.00000000E+00  0.00000000E+00
  0.00000000E+00  0.00000000E+00  0.00000000E+00
  0.00000000E+00  0.00000000E+00  0.00000000E+00
  0.00000000E+00  0.00000000E+00  0.00000000E+00
  0.00000000E+00  0.00000000E+00  0.00000000E+00
  0.00000000E+00  0.00000000E+00  0.00000000E+00
  0.00000000E+00  0.00000000E+00  0.00000000E+00
  0.00000000E+00  0.00000000E+00  0.00000000E+00
  0.00000000E+00  0.00000000E+00  0.00000000E+00
  0.00000000E+00  0.00000000E+00  0.00000000E+00
  0.00000000E+00  0.00000000E+00  0.00000000E+00
  0.00000000E+00  0.00000000E+00  0.00000000E+00
  0.00000000E+00  0.00000000E+00  0.00000000E+00
  0.00000000E+00  0.00000000E+00  0.00000000E+00
  0.00000000E+00  0.00000000E+00  0.00000000E+00
  0.00000000E+00  0.00000000E+00  0.00000000E+00
  0.00000000E+00  0.00000000E+00  0.00000000E+00
  0.00000000E+00  0.00000000E+00  0.00000000E+00
  0.00000000E+00  0.00000000E+00  0.00000000E+00
  0.00000000E+00  0.00000000E+00  0.00000000E+00
  0.00000000E+00  0.00000000E+00  0.00000000E+00
  0.00000000E+00  0.00000000E+00  0.00000000E+00
  0.00000000E+00  0.00000000E+00  0.00000000E+00
  0.00000000E+00  0.00000000E+00  0.00000000E+00
  0.00000000E+00  0.00000000E+00  0.00000000E+00
  0.00000000E+00  0.00000000E+00  0.00000000E+00
  0.00000000E+00  0.00000000E+00  0.00000000E+00
  0.00000000E+00  0.00000000E+00  0.00000000E+00
  0.00000000E+00  0.00000000E+00  0.00000000E+00
  0.00000000E+00  0.00000000E+00  0.00000000E+00
  0.00000000E+00  0.00000000E+00  0.00000000E+00
  0.00000000E+00  0.00000000E+00  0.00000000E+00
  0.00000000E+00  0.00000000E+00  0.00000000E+00
  0.00000000E+00  0.00000000E+00  0.00000000E+00
  0.00000000E+00  0.00000000E+00  0.00000000E+00
  0.00000000E+00  0.00000000E+00  0.00000000E+00
  0.00000000E+00  0.00000000E+00  0.00000000E+00
  0.00000000E+00  0.00000000E+00  0.00000000E+00
  0.00000000E+00  0.00000000E+00  0.00000000E+00
  0.00000000E+00  0.00000000E+00  0.00000000E+00
  0.00000000E+00  0.00000000E+00  0.00000000E+00
  0.00000000E+00  0.00000000E+00  0.00000000E+00
  0.00000000E+00  0.00000000E+00  0.00000000E+00
  0.00000000E+00  0.00000000E+00  0.00000000E+00
  0.00000000E+00  0.00000000E+00  0.00000000E+00
  0.00000000E+00  0.00000000E+00  0.00000000E+00
  0.00000000E+00  0.00000000E+00  0.00000000E+00
  0.00000000E+00  0.00000000E+00  0.00000000E+00
  0.00000000E+00  0.00000000E+00  0.00000000E+00
  0.00000000E+00  0.00000000E+00  0.00000000E+00
  0.00000000E+00  0.00000000E+00  0.00000000E+00
  0.00000000E+00  0.00000000E+00  0.00000000E+00
  0.00000000E+00  0.00000000E+00  0.00000000E+00
  0.00000000E+00  0.00000000E+00  0.00000000E+00
  0.00000000E+00  0.00000000E+00  0.00000000E+00
  0.00000000E+00  0.00000000E+00  0.00000000E+00
  0.00000000E+00  0.00000000E+00  0.00000000E+00
  0.00000000E+00  0.00000000E+00  0.00000000E+00
  0.00000000E+00  0.00000000E+00  0.00000000E+00
  0.00000000E+00  0.00000000E+00  0.00000000E+00
  0.00000000E+00  0.00000000E+00  0.00000000E+00
  0.00000000E+00  0.00000000E+00  0.00000000E+00
  0.00000000E+00  0.00000000E+00  0.00000000E+00
  0.00000000E+00  0.00000000E+00  0.00000000E+00
  0.00000000E+00  0.00000000E+00  0.00000000E+00
  0.00000000E+00  0.00000000E+00  0.00000000E+00
  0.00000000E+00  0.00000000E+00  0.00000000E+00
  0.00000000E+00  0.00000000E+00  0.00000000E+00
  0.00000000E+00  0.00000000E+00  0.00000000E+00
  0.00000000E+00  0.00000000E+00  0.00000000E+00
  0.00000000E+00  0.00000000E+00  0.00000000E+00
  0.00000000E+00  0.00000000E+00  0.00000000E+00
  0.00000000E+00  0.00000000E+00  0.00000000E+00
  0.00000000E+00  0.00000000E+00  0.00000000E+00
  0.00000000E+00  0.00000000E+00  0.00000000E+00
  0.00000000E+00  0.00000000E+00  0.00000000E+00
  0.00000000E+00  0.00000000E+00  0.00000000E+00
  0.00000000E+00  0.00000000E+00  0.00000000E+00
  0.00000000E+00  0.00000000E+00  0.00000000E+00
  0.00000000E+00  0.00000000E+00  0.00000000E+00
  0.00000000E+00  0.00000000E+00  0.00000000E+00
  0.00000000E+00  0.00000000E+00  0.00000000E+00
  0.00000000E+00  0.00000000E+00  0.00000000E+00
  0.00000000E+00  0.00000000E+00  0.00000000E+00
  0.00000000E+00  0.00000000E+00  0.00000000E+00
  0.00000000E+00  0.00000000E+00  0.00000000E+00
  0.00000000E+00  0.00000000E+00  0.00000000E+00
  0.00000000E+00  0.00000000E+00  0.00000000E+00
  0.00000000E+00  0.00000000E+00  0.00000000E+00
  0.00000000E+00  0.00000000E+00  0.00000000E+00
  0.00000000E+00  0.00000000E+00  0.00000000E+00
  0.00000000E+00  0.00000000E+00  0.00000000E+00
  0.00000000E+00  0.00000000E+00  0.00000000E+00
  0.00000000E+00  0.00000000E+00  0.00000000E+00
  0.00000000E+00  0.00000000E+00  0.00000000E+00
  0.00000000E+00  0.00000000E+00  0.00000000E+00
  0.00000000E+00  0.00000000E+00  0.00000000E+00
  0.00000000E+00  0.00000000E+00  0.00000000E+00
  0.00000000E+00  0.00000000E+00  0.00000000E+00
  0.00000000E+00  0.00000000E+00  0.00000000E+00
  0.00000000E+00  0.00000000E+00  0.00000000E+00
  0.00000000E+00  0.00000000E+00  0.00000000E+00
  0.00000000E+00  0.00000000E+00  0.00000000E+00
  0.00000000E+00  0.00000000E+00  0.00000000E+00
  0.00000000E+00  0.00000000E+00  0.00000000E+00
  0.00000000E+00  0.00000000E+00  0.00000000E+00
  0.00000000E+00  0.00000000E+00  0.00000000E+00
