Ge+Si
    1.000000000
   12.651226044    0.000000000    0.000000000
   -2.530244589   17.711715698    0.000000000
    0.000000000    0.000000000   12.615245819
Ge  Si 
84     72
Direct
    0.034514841    0.000000000    0.000000000
    0.534514844    0.999999940    0.224244535
    0.034514904    0.999999940    0.448489130
    0.463086337    0.142857149    0.000000000
    0.963086307    0.142857090    0.224244535
    0.463086486    0.142857060    0.448489130
    0.891657829    0.285714269    0.000000000
    0.391657829    0.285714239    0.224244535
    0.891657829    0.285714149    0.448489130
    0.320229173    0.428571463    0.000000000
    0.820229173    0.428571403    0.224244535
    0.320229292    0.428571373    0.448489130
    0.748800635    0.571428537    0.000000000
    0.248800755    0.571428537    0.224244535
    0.748800635    0.571428418    0.448489130
    0.177372053    0.714285731    0.000000000
    0.677372038    0.714285672    0.224244535
    0.177372217    0.714285612    0.448489130
    0.605943501    0.857142925    0.000000000
    0.105943561    0.857142925    0.224244535
    0.605943441    0.857142806    0.448489130
    0.105943441    0.107142836    0.112122275
    0.605943561    0.107142814    0.336366862
    0.105943441    0.107142732    0.560611427
    0.534514904    0.249999985    0.112122275
    0.034514904    0.249999940    0.336366862
    0.534515023    0.249999881    0.560611427
    0.963086307    0.392857134    0.112122275
    0.463086367    0.392857075    0.336366862
    0.963086486    0.392857045    0.560611427
    0.391657829    0.535714269    0.112122275
    0.891657829    0.535714269    0.336366862
    0.391657829    0.535714149    0.560611427
    0.820229173    0.678571403    0.112122275
    0.320229292    0.678571343    0.336366862
    0.820229292    0.678571284    0.560611427
    0.248800635    0.821428597    0.112122275
    0.748800635    0.821428597    0.336366862
    0.248800516    0.821428537    0.560611427
    0.677372098    0.964285791    0.112122275
    0.177372217    0.964285791    0.336366862
    0.677372098    0.964285672    0.560611427
    0.748800576    0.071428597    0.000000000
    0.248800516    0.071428552    0.224244535
    0.748800635    0.071428530    0.448489130
    0.177371994    0.214285731    0.000000000
    0.677371979    0.214285657    0.224244535
    0.177371979    0.214285627    0.448489130
    0.605943561    0.357142866    0.000000000
    0.105943561    0.357142806    0.224244535
    0.605943441    0.357142746    0.448489130
    0.034514867    0.499999970    0.000000000
    0.534514844    0.499999911    0.224244535
    0.034514904    0.499999851    0.448489130
    0.463086426    0.642857134    0.000000000
    0.963086426    0.642857075    0.224244535
    0.463086367    0.642857015    0.448489130
    0.891657829    0.785714269    0.000000000
    0.391657710    0.785714209    0.224244535
    0.891657829    0.785714149    0.448489130
    0.320229143    0.928571463    0.000000000
    0.820229113    0.928571403    0.224244535
    0.320229173    0.928571343    0.448489130
    0.391657710    0.035714302    0.112122275
    0.891657770    0.035714220    0.336366862
    0.391657829    0.035714198    0.560611427
    0.820229173    0.178571418    0.112122275
    0.320229173    0.178571388    0.336366862
    0.820229173    0.178571329    0.560611427
    0.248800635    0.321428597    0.112122275
    0.748800516    0.321428508    0.336366862
    0.248800755    0.321428478    0.560611427
    0.677372038    0.464285702    0.112122275
    0.177372098    0.464285672    0.336366862
    0.677371979    0.464285612    0.560611427
    0.105943441    0.607142866    0.112122275
    0.605943441    0.607142806    0.336366862
    0.105943680    0.607142746    0.560611427
    0.534514904    0.750000060    0.112122275
    0.034514904    0.750000000    0.336366862
    0.534514904    0.750000000    0.560611427
    0.963086367    0.892857134    0.112122275
    0.463086367    0.892857134    0.336366862
    0.963086486    0.892857015    0.560611427
    0.417884231    0.856170654    0.999999940
    0.945662618    0.995060205    0.560611427
    0.640106916    0.967282295    0.648489118
    0.334551215    0.939504385    0.736366808
    0.028995574    0.911726475    0.824244499
    0.723439932    0.883948565    0.912122309
    0.084550977    0.189504027    0.999999940
    0.612329364    0.328393579    0.560611486
    0.306773633    0.300615668    0.648489177
    0.001218004    0.272837788    0.736366808
    0.695662379    0.245059893    0.824244499
    0.390106738    0.217281938    0.912122309
    0.751217604    0.522837400    0.999999940
    0.278995991    0.661726952    0.560611486
    0.973440289    0.633949101    0.648489177
    0.667884648    0.606171191    0.736366808
    0.362328947    0.578393281    0.824244499
    0.056773305    0.550615370    0.912122309
    0.417884231    0.106170692    0.999999940
    0.945662618    0.245060235    0.560611427
    0.640106916    0.217282325    0.648489118
    0.334551275    0.189504400    0.736366808
    0.028995574    0.161726519    0.824244499
    0.723440051    0.133948609    0.912122190
    0.084550858    0.439503998    0.999999940
    0.612329304    0.578393638    0.560611427
    0.306773603    0.550615728    0.648489177
    0.001217895    0.522837818    0.736366808
    0.695662320    0.495059878    0.824244499
    0.390106678    0.467281967    0.912122309
    0.751217484    0.772837460    0.999999940
    0.278995991    0.911727011    0.560611486
    0.973440289    0.883949101    0.648489118
    0.667884588    0.856171191    0.736366808
    0.362329006    0.828393340    0.824244499
    0.056773365    0.800615311    0.912122190
    0.251217604    0.022837337    0.999999940
    0.778996050    0.161726907    0.560611427
    0.473440349    0.133948997    0.648489118
    0.167884663    0.106171086    0.736366808
    0.862329066    0.078393169    0.824244499
    0.556773424    0.050615262    0.912122309
    0.917884231    0.356170714    0.999999940
    0.445662647    0.495060295    0.560611486
    0.140106946    0.467282385    0.648489177
    0.834551215    0.439504474    0.736366808
    0.528995693    0.411726534    0.824244499
    0.223440051    0.383948594    0.912122309
    0.584550858    0.689504087    0.999999940
    0.112329304    0.828393638    0.560611427
    0.806773603    0.800615788    0.648489118
    0.501217842    0.772837877    0.736366808
    0.195662379    0.745059967    0.824244499
    0.890106678    0.717282057    0.912122309
    0.584550858    0.939504027    0.999999940
    0.112329274    0.078393571    0.560611427
    0.806773543    0.050615661    0.648489118
    0.501217902    0.022837738    0.736366808
    0.195662260    0.995059848    0.824244499
    0.890106678    0.967281938    0.912122190
    0.251217604    0.272837371    0.999999940
    0.778996050    0.411726952    0.560611427
    0.473440319    0.383949041    0.648489118
    0.167884648    0.356171131    0.736366808
    0.862329006    0.328393221    0.824244499
    0.556773365    0.300615311    0.912122190
    0.917884231    0.606170774    0.999999940
    0.445662677    0.745060384    0.560611486
    0.140106961    0.717282414    0.648489177
    0.834551334    0.689504504    0.736366808
    0.528995633    0.661726594    0.824244499
    0.223439991    0.633948624    0.912122309
