fcc Si+fcc Ge                           
   1.00000000000000     
     5.4800000000000004    0.0000000000000000    0.0000000000000000
     0.0000000000000000    5.4800000000000004    0.0000000000000000
     0.0000000000000000    0.0000000000000000   30.6499999999999986
   Si   Ge
    22    22
Direct
  0.2500000000000000  0.0000000000000000  0.0446982059999996
  0.7500000000000000  0.0000000000000000  0.1340946170000024
  0.2500000000000000  0.0000000000000000  0.2234910279999980
  0.7500000000000000  0.0000000000000000  0.3128874390000007
  0.2500000000000000  0.0000000000000000  0.4022838500000034
  0.7500000000000000  0.5000000000000000  0.0446982059999996
  0.2500000000000000  0.5000000000000000  0.1340946170000024
  0.7500000000000000  0.5000000000000000  0.2234910279999980
  0.2500000000000000  0.5000000000000000  0.3128874390000007
  0.7500000000000000  0.5000000000000000  0.4022838500000034
  0.0000000000000000  0.2500000000000000  0.0000000000000000
  0.5000000000000000  0.2500000000000000  0.0893964110000027
  0.0000000000000000  0.2500000000000000  0.1787928219999984
  0.5000000000000000  0.2500000000000000  0.2681892330000011
  0.0000000000000000  0.2500000000000000  0.3575856439999967
  0.5000000000000000  0.2500000000000000  0.4469820549999994
  0.5000000000000000  0.7500000000000000  0.0000000000000000
  0.0000000000000000  0.7500000000000000  0.0893964110000027
  0.5000000000000000  0.7500000000000000  0.1787928219999984
  0.0000000000000000  0.7500000000000000  0.2681892330000011
  0.5000000000000000  0.7500000000000000  0.3575856439999967
  0.0000000000000000  0.7500000000000000  0.4469820549999994
  0.5833333329999988  0.3333333329999988  0.5388254490000008
  0.0833333329999988  0.3333333329999988  0.6311582379999976
  0.5833333329999988  0.3333333329999988  0.7234910279999980
  0.0833333329999988  0.3333333329999988  0.8158238170000018
  0.5833333329999988  0.3333333329999988  0.9081566070000022
  0.0833333329999988  0.8333333329999988  0.5388254490000008
  0.5833333329999988  0.8333333329999988  0.6311582379999976
  0.0833333329999988  0.8333333329999988  0.7234910279999980
  0.5833333329999988  0.8333333329999988  0.8158238170000018
  0.0833333329999988  0.8333333329999988  0.9081566070000022
  0.3333333329999988  0.5833333329999988  0.4926590540000007
  0.8333333329999988  0.5833333329999988  0.5849918429999974
  0.3333333329999988  0.5833333329999988  0.6773246329999978
  0.8333333329999988  0.5833333329999988  0.7696574229999982
  0.3333333329999988  0.5833333329999988  0.8619902120000020
  0.8333333329999988  0.5833333329999988  0.9543230020000024
  0.8333333329999988  0.0833333329999988  0.4926590540000007
  0.3333333329999988  0.0833333329999988  0.5849918429999974
  0.8333333329999988  0.0833333329999988  0.6773246329999978
  0.3333333329999988  0.0833333329999988  0.7696574229999982
  0.8333333329999988  0.0833333329999988  0.8619902120000020
  0.3333333329999988  0.0833333329999988  0.9543230020000024
 
  0.00000000E+00  0.00000000E+00  0.00000000E+00
  0.00000000E+00  0.00000000E+00  0.00000000E+00
  0.00000000E+00  0.00000000E+00  0.00000000E+00
  0.00000000E+00  0.00000000E+00  0.00000000E+00
  0.00000000E+00  0.00000000E+00  0.00000000E+00
  0.00000000E+00  0.00000000E+00  0.00000000E+00
  0.00000000E+00  0.00000000E+00  0.00000000E+00
  0.00000000E+00  0.00000000E+00  0.00000000E+00
  0.00000000E+00  0.00000000E+00  0.00000000E+00
  0.00000000E+00  0.00000000E+00  0.00000000E+00
  0.00000000E+00  0.00000000E+00  0.00000000E+00
  0.00000000E+00  0.00000000E+00  0.00000000E+00
  0.00000000E+00  0.00000000E+00  0.00000000E+00
  0.00000000E+00  0.00000000E+00  0.00000000E+00
  0.00000000E+00  0.00000000E+00  0.00000000E+00
  0.00000000E+00  0.00000000E+00  0.00000000E+00
  0.00000000E+00  0.00000000E+00  0.00000000E+00
  0.00000000E+00  0.00000000E+00  0.00000000E+00
  0.00000000E+00  0.00000000E+00  0.00000000E+00
  0.00000000E+00  0.00000000E+00  0.00000000E+00
  0.00000000E+00  0.00000000E+00  0.00000000E+00
  0.00000000E+00  0.00000000E+00  0.00000000E+00
  0.00000000E+00  0.00000000E+00  0.00000000E+00
  0.00000000E+00  0.00000000E+00  0.00000000E+00
  0.00000000E+00  0.00000000E+00  0.00000000E+00
  0.00000000E+00  0.00000000E+00  0.00000000E+00
  0.00000000E+00  0.00000000E+00  0.00000000E+00
  0.00000000E+00  0.00000000E+00  0.00000000E+00
  0.00000000E+00  0.00000000E+00  0.00000000E+00
  0.00000000E+00  0.00000000E+00  0.00000000E+00
  0.00000000E+00  0.00000000E+00  0.00000000E+00
  0.00000000E+00  0.00000000E+00  0.00000000E+00
  0.00000000E+00  0.00000000E+00  0.00000000E+00
  0.00000000E+00  0.00000000E+00  0.00000000E+00
  0.00000000E+00  0.00000000E+00  0.00000000E+00
  0.00000000E+00  0.00000000E+00  0.00000000E+00
  0.00000000E+00  0.00000000E+00  0.00000000E+00
  0.00000000E+00  0.00000000E+00  0.00000000E+00
  0.00000000E+00  0.00000000E+00  0.00000000E+00
  0.00000000E+00  0.00000000E+00  0.00000000E+00
  0.00000000E+00  0.00000000E+00  0.00000000E+00
  0.00000000E+00  0.00000000E+00  0.00000000E+00
  0.00000000E+00  0.00000000E+00  0.00000000E+00
  0.00000000E+00  0.00000000E+00  0.00000000E+00
