Si+C
    1.000000000
   13.303179741    0.000000000    0.000000000
   -6.651589394   11.520891190    0.000000000
    0.000000000    0.000000000   21.679418564
Si  C  
72     308
Direct
    0.348160356    0.681493700    0.000000013
    0.681493759    0.014827132    0.144634396
    0.014827251    0.348160625    0.289268821
    0.014827028    0.014827028    0.000000014
    0.348160386    0.348160386    0.144634396
    0.681493878    0.681493878    0.289268821
    0.681493700    0.348160356    0.000000000
    0.014827132    0.681493759    0.144634381
    0.348160625    0.014827251    0.289268792
    0.014827013    0.681493759    0.036158606
    0.348160386    0.014827132    0.180793002
    0.681493878    0.348160625    0.325427443
    0.348160416    0.348160416    0.036158621
    0.681493759    0.681493819    0.180793017
    0.014827251    0.014827251    0.325427443
    0.681493759    0.014827013    0.036158606
    0.014827132    0.348160386    0.180793002
    0.348160625    0.681493878    0.325427413
    0.014827028    0.514827013    0.000000017
    0.348160416    0.848160446    0.144634411
    0.681493819    0.181493878    0.289268821
    0.681493759    0.848160386    0.000000038
    0.014827132    0.181493759    0.144634396
    0.348160625    0.514827251    0.289268821
    0.348160386    0.181493685    0.000000008
    0.681493759    0.514827073    0.144634381
    0.014827132    0.848160505    0.289268792
    0.348160416    0.848160267    0.036158569
    0.681493878    0.181493759    0.180792972
    0.014827132    0.514827013    0.325427353
    0.014827132    0.181493700    0.036158592
    0.348160505    0.514827132    0.180792972
    0.681493759    0.848160446    0.325427324
    0.681493819    0.514827073    0.036158577
    0.014827251    0.848160505    0.180793002
    0.348160625    0.181493878    0.325427383
    0.181493700    0.848160386    0.000000024
    0.514827073    0.181493759    0.144634396
    0.848160565    0.514827251    0.289268821
    0.514827013    0.514827013    0.000000014
    0.848160446    0.848160386    0.144634396
    0.181493878    0.181493878    0.289268821
    0.848160386    0.181493700    0.000000005
    0.181493759    0.514827073    0.144634381
    0.514827251    0.848160565    0.289268821
    0.181493685    0.514827013    0.036158577
    0.514827132    0.848160505    0.180793002
    0.848160446    0.181493759    0.325427353
    0.848160386    0.848160386    0.036158558
    0.181493878    0.181493878    0.180793002
    0.514827251    0.514827251    0.325427383
    0.514827073    0.181493670    0.036158577
    0.848160505    0.514827132    0.180793002
    0.181493759    0.848160446    0.325427383
    0.181493700    0.348160356    0.000000013
    0.514827073    0.681493759    0.144634396
    0.848160505    0.014827132    0.289268821
    0.848160386    0.681493759    0.000000027
    0.181493759    0.014827132    0.144634396
    0.514827251    0.348160625    0.289268821
    0.514827013    0.014827021    0.000000013
    0.848160386    0.348160416    0.144634396
    0.181493878    0.681493819    0.289268821
    0.514827013    0.681493640    0.036158621
    0.848160386    0.014827013    0.180793002
    0.181493878    0.348160505    0.325427443
    0.181493655    0.014827013    0.036158614
    0.514827013    0.348160386    0.180793002
    0.848160446    0.681493878    0.325427443
    0.848160446    0.348160386    0.036158606
    0.181493878    0.681493759    0.180793002
    0.514827251    0.014827251    0.325427413
    0.825054705    0.112757802    0.900184751
    0.777436018    0.303234369    0.425242633
    0.586959720    0.065139055    0.520231068
    0.396483481    0.827043772    0.615219474
    0.206007183    0.588948369    0.710207880
    0.015531063    0.350853145    0.805196285
    0.967911839    0.541329324    0.900184751
    0.920293152    0.731805861    0.425242662
    0.729816854    0.493710518    0.520231068
    0.539340615    0.255615234    0.615219533
    0.348864317    0.017519832    0.710207939
    0.158388093    0.779424608    0.805196345
    0.539340377    0.255614996    0.900184751
    0.491721690    0.446091533    0.425242633
    0.301245421    0.207996204    0.520231068
    0.110769182    0.969900906    0.615219474
    0.920292795    0.731805503    0.710207939
    0.729816616    0.493710339    0.805196345
    0.682197511    0.684186459    0.900184751
    0.634578824    0.874662936    0.425242633
    0.444102585    0.636567652    0.520231068
    0.253626347    0.398472369    0.615219474
    0.063150048    0.160376906    0.710207880
    0.872673810    0.922281742    0.805196345
    0.110768981    0.969900668    0.900184751
    0.063150287    0.160377264    0.425242633
    0.872673988    0.922281921    0.520231068
    0.682197750    0.684186637    0.615219474
    0.491721392    0.446091294    0.710207880
    0.301245213    0.207995996    0.805196285
    0.253626108    0.398472130    0.900184751
    0.206007421    0.588948667    0.425242633
    0.015531182    0.350853324    0.520231068
    0.825054884    0.112758040    0.615219474
    0.634578526    0.874662697    0.710207939
    0.444102347    0.636567473    0.805196285
    0.396483243    0.827043593    0.900184751
    0.348864526    0.017520070    0.425242633
    0.158388287    0.779424787    0.520231068
    0.967912018    0.541329503    0.615219474
    0.777435720    0.303234100    0.710207939
    0.586959541    0.065138817    0.805196285
    0.015531182    0.350853384    0.448989779
    0.825054944    0.112758040    0.543978214
    0.634578705    0.874662817    0.638966620
    0.444102347    0.636567414    0.733955085
    0.253626049    0.398472071    0.828943491
    0.729816914    0.493710577    0.448989749
    0.539340675    0.255615294    0.543978155
    0.348864436    0.017519951    0.638966560
    0.158388153    0.779424667    0.733955026
    0.967911780    0.541329205    0.828943491
    0.872674108    0.922282040    0.448989749
    0.682197869    0.684186757    0.543978155
    0.491721600    0.446091413    0.638966620
    0.301245332    0.207996070    0.733955026
    0.110768989    0.969900668    0.828943491
    0.301245481    0.207996264    0.448989779
    0.110769235    0.969900966    0.543978214
    0.920292974    0.731805682    0.638966620
    0.729816616    0.493710279    0.733955085
    0.539340317    0.255614936    0.828943491
    0.444102645    0.636567712    0.448989779
    0.253626406    0.398472399    0.543978214
    0.063150167    0.160377026    0.638966620
    0.872673810    0.922281742    0.733955026
    0.682197511    0.684186339    0.828943491
    0.586959779    0.065139174    0.448989779
    0.396483570    0.827043891    0.543978214
    0.206007302    0.588948607    0.638966620
    0.015531063    0.350853205    0.733955026
    0.825054646    0.112757802    0.828943491
    0.158388317    0.779424846    0.448989779
    0.967912078    0.541329503    0.543978214
    0.777435839    0.303234220    0.638966620
    0.586959541    0.065138817    0.733955085
    0.396483183    0.827043474    0.828943491
    0.039340496    0.255615056    0.900184751
    0.991721749    0.446091533    0.425242633
    0.801245511    0.207996234    0.520231068
    0.610769272    0.969900966    0.615219474
    0.420292914    0.731805503    0.710207880
    0.229816735    0.493710339    0.805196345
    0.610768974    0.969900668    0.900184751
    0.563150287    0.160377264    0.425242633
    0.372674018    0.922281921    0.520231068
    0.182197779    0.684186637    0.615219474
    0.991721451    0.446091235    0.710207939
    0.801245213    0.207995936    0.805196345
    0.753626168    0.398472130    0.900184751
    0.706007421    0.588948667    0.425242662
    0.515531182    0.350853354    0.520231068
    0.325054944    0.112758040    0.615219533
    0.134578615    0.874662697    0.710207939
    0.944102347    0.636567473    0.805196345
    0.896483243    0.827043593    0.900184751
    0.848864555    0.017520070    0.425242633
    0.658388257    0.779424787    0.520231068
    0.467912018    0.541329503    0.615219533
    0.277435720    0.303234100    0.710207939
    0.086959489    0.065138817    0.805196345
    0.325054646    0.112757802    0.900184751
    0.277435988    0.303234398    0.425242633
    0.086959705    0.065139055    0.520231068
    0.896483481    0.827043831    0.615219474
    0.706007123    0.588948369    0.710207880
    0.515530944    0.350853086    0.805196345
    0.467911780    0.541329265    0.900184751
    0.420293093    0.731805861    0.425242633
    0.229816854    0.493710518    0.520231068
    0.039340615    0.255615234    0.615219474
    0.848864257    0.017519832    0.710207939
    0.658388078    0.779424608    0.805196345
    0.182197511    0.684186399    0.900184751
    0.134578824    0.874662936    0.425242633
    0.944102526    0.636567652    0.520231068
    0.753626287    0.398472339    0.615219474
    0.563149989    0.160376906    0.710207939
    0.372673750    0.922281682    0.805196345
    0.801245570    0.207996279    0.448989749
    0.610769331    0.969900966    0.543978214
    0.420293033    0.731805682    0.638966560
    0.229816735    0.493710339    0.733955026
    0.039340496    0.255614996    0.828943491
    0.944102705    0.636567652    0.448989749
    0.753626466    0.398472369    0.543978214
    0.563150167    0.160377026    0.638966620
    0.372673899    0.922281742    0.733955026
    0.182197541    0.684186339    0.828943491
    0.515531242    0.350853413    0.448989719
    0.325054914    0.112758040    0.543978155
    0.134578690    0.874662817    0.638966560
    0.944102466    0.636567533    0.733955026
    0.753626108    0.398472190    0.828943431
    0.658388376    0.779424906    0.448989719
    0.467912078    0.541329563    0.543978155
    0.277435869    0.303234279    0.638966560
    0.086959600    0.065138936    0.733955026
    0.896483362    0.827043593    0.828943372
    0.229816914    0.493710577    0.448989749
    0.039340615    0.255615205    0.543978214
    0.848864377    0.017519951    0.638966620
    0.658388138    0.779424667    0.733955026
    0.467911839    0.541329324    0.828943431
    0.372674048    0.922282040    0.448989749
    0.182197779    0.684186697    0.543978214
    0.991721570    0.446091413    0.638966560
    0.801245272    0.207996070    0.733955026
    0.610769033    0.969900727    0.828943491
    0.086959757    0.065139174    0.448989749
    0.896483481    0.827043891    0.543978214
    0.706007183    0.588948548    0.638966560
    0.515530944    0.350853235    0.733955026
    0.325054646    0.112757921    0.828943491
    0.967911899    0.041329265    0.900184751
    0.920293152    0.231805801    0.425242662
    0.729816914    0.993710458    0.520231068
    0.539340734    0.755615234    0.615219533
    0.348864317    0.517519832    0.710207939
    0.158388138    0.279424608    0.805196345
    0.682197630    0.184186444    0.900184751
    0.634578884    0.374662995    0.425242662
    0.444102615    0.136567593    0.520231068
    0.253626376    0.898472369    0.615219533
    0.063150048    0.660377026    0.710207939
    0.872673810    0.422281802    0.805196345
    0.825054705    0.612757802    0.900184751
    0.777436018    0.803234398    0.425242633
    0.586959720    0.565139055    0.520231068
    0.396483481    0.327043772    0.615219474
    0.206007183    0.088948369    0.710207880
    0.015530944    0.850853145    0.805196285
    0.396483302    0.327043533    0.900184751
    0.348864555    0.517520070    0.425242633
    0.158388287    0.279424757    0.520231068
    0.967912018    0.041329503    0.615219474
    0.777435720    0.803234100    0.710207939
    0.586959541    0.565138876    0.805196345
    0.539340436    0.755614996    0.900184751
    0.491721690    0.946091533    0.425242633
    0.301245451    0.707996249    0.520231068
    0.110769212    0.469900906    0.615219474
    0.920292854    0.231805503    0.710207880
    0.729816675    0.993710279    0.805196285
    0.110768922    0.469900727    0.900184751
    0.063150287    0.660377204    0.425242633
    0.872673988    0.422281921    0.520231068
    0.682197750    0.184186637    0.615219474
    0.491721392    0.946091235    0.710207939
    0.301245213    0.707996011    0.805196285
    0.253626108    0.898472130    0.900184751
    0.206007391    0.088948727    0.425242633
    0.015531182    0.850853384    0.520231068
    0.825054824    0.612758100    0.615219474
    0.634578645    0.374662846    0.710207820
    0.444102347    0.136567473    0.805196345
    0.872674108    0.422281921    0.448989779
    0.682197869    0.184186623    0.543978214
    0.491721570    0.946091354    0.638966620
    0.301245302    0.707996011    0.733955085
    0.110768944    0.469900548    0.828943491
    0.015531301    0.850853443    0.448989779
    0.825054944    0.612758100    0.543978214
    0.634578705    0.374662817    0.638966620
    0.444102407    0.136567473    0.733955085
    0.253626108    0.898472071    0.828943491
    0.586959779    0.565139174    0.448989749
    0.396483511    0.327043802    0.543978214
    0.206007302    0.088948488    0.638966620
    0.015531063    0.850853264    0.733955085
    0.825054705    0.612757921    0.828943491
    0.729816973    0.993710577    0.448989749
    0.539340675    0.755615234    0.543978214
    0.348864436    0.517519951    0.638966560
    0.158388197    0.279424608    0.733955026
    0.967911899    0.041329265    0.828943431
    0.158388346    0.279424787    0.448989749
    0.967912018    0.041329384    0.543978214
    0.777435839    0.803234160    0.638966560
    0.586959541    0.565138936    0.733955026
    0.396483302    0.327043593    0.828943431
    0.301245511    0.707996309    0.448989749
    0.110769227    0.469900906    0.543978214
    0.920292974    0.231805682    0.638966560
    0.729816735    0.993710339    0.733955026
    0.539340436    0.755615056    0.828943431
    0.444102645    0.136567593    0.448989719
    0.253626347    0.898472369    0.543978155
    0.063150167    0.660377085    0.638966560
    0.872673869    0.422281742    0.733955026
    0.682197571    0.184186384    0.828943372
    0.896483362    0.327043533    0.900184751
    0.848864615    0.517520070    0.425242662
    0.658388376    0.279424787    0.520231068
    0.467912138    0.041329503    0.615219533
    0.277435809    0.803234100    0.710207939
    0.086959563    0.565138817    0.805196404
    0.039340496    0.755614996    0.900184751
    0.991721809    0.946091533    0.425242633
    0.801245511    0.707996249    0.520231068
    0.610769272    0.469900966    0.615219474
    0.420292944    0.231805548    0.710207880
    0.229816765    0.993710339    0.805196285
    0.467911780    0.041329145    0.900184751
    0.420293123    0.231805801    0.425242633
    0.229816854    0.993710458    0.520231068
    0.039340615    0.755615175    0.615219474
    0.848864257    0.517519772    0.710207880
    0.658388078    0.279424548    0.805196345
    0.610768914    0.469900668    0.900184751
    0.563150287    0.660377204    0.425242633
    0.372673988    0.422281921    0.520231068
    0.182197765    0.184186637    0.615219474
    0.991721451    0.946091235    0.710207939
    0.801245153    0.707996011    0.805196345
    0.753626168    0.898472190    0.900184751
    0.706007481    0.088948727    0.425242633
    0.515531182    0.850853384    0.520231068
    0.325054944    0.612758100    0.615219474
    0.134578630    0.374662697    0.710207880
    0.944102407    0.136567473    0.805196285
    0.182197511    0.184186384    0.900184751
    0.134578824    0.374662936    0.425242633
    0.944102526    0.136567593    0.520231068
    0.753626287    0.898472369    0.615219474
    0.563149929    0.660376966    0.710207880
    0.372673750    0.422281742    0.805196345
    0.325054705    0.612757921    0.900184751
    0.277435958    0.803234458    0.425242633
    0.086959720    0.565139115    0.520231068
    0.896483481    0.327043831    0.615219474
    0.706007123    0.088948369    0.710207880
    0.515530944    0.850853264    0.805196285
    0.658388436    0.279424876    0.448989779
    0.467912138    0.041329503    0.543978214
    0.277435929    0.803234279    0.638966620
    0.086959615    0.565138936    0.733955085
    0.896483302    0.327043533    0.828943491
    0.801245570    0.707996309    0.448989749
    0.610769331    0.469900966    0.543978155
    0.420293063    0.231805682    0.638966620
    0.229816824    0.993710339    0.733955026
    0.039340496    0.755614936    0.828943491
    0.944102705    0.136567712    0.448989749
    0.753626466    0.898472369    0.543978214
    0.563150167    0.660377085    0.638966560
    0.372673869    0.422281742    0.733955026
    0.182197541    0.184186384    0.828943491
    0.372674108    0.422281981    0.448989749
    0.182197854    0.184186697    0.543978214
    0.991721570    0.946091413    0.638966620
    0.801245272    0.707996070    0.733955085
    0.610768974    0.469900668    0.828943491
    0.515531182    0.850853384    0.448989749
    0.325054944    0.612758100    0.543978214
    0.134578705    0.374662817    0.638966620
    0.944102407    0.136567473    0.733955026
    0.753626049    0.898472011    0.828943491
    0.086959802    0.565139174    0.448989749
    0.896483541    0.327043861    0.543978214
    0.706007302    0.088948488    0.638966620
    0.515530944    0.850853205    0.733955085
    0.325054646    0.612757802    0.828943491
    0.229816943    0.993710577    0.448989749
    0.039340734    0.755615294    0.543978214
    0.848864436    0.517519951    0.638966620
    0.658388197    0.279424638    0.733955026
    0.467911839    0.041329265    0.828943491
