Si+Si
    1.000000000
    9.406767845    0.000000000    0.000000000
   -9.406768799   13.303179741    0.000000000
    0.000000000    0.000000000   19.201490402
Si 
144
Direct
    0.228517249    0.895183861    0.099999987
    0.728517234    0.728517175    0.099999987
    0.478517175    0.478517115    0.199999973
    0.228517175    0.228517056    0.299999982
    0.978517056    0.978516936    0.399999946
    0.978517056    0.645183682    0.399999946
    0.978517294    0.311850637    0.000000002
    0.728517234    0.061850566    0.099999987
    0.478517175    0.811850488    0.199999973
    0.228517175    0.561850429    0.299999982
    0.978517056    0.311850309    0.399999946
    0.728517056    0.061850250    0.500000000
    0.978517234    0.395183951    0.099999987
    0.478517294    0.145183966    0.000000000
    0.380861402    0.076171964    1.000000000
    0.130862117    0.826172471    0.500000000
    0.728517056    0.728516817    0.500000000
    0.728517175    0.145183623    0.399999946
    0.728517234    0.395183951    0.099999987
    0.978517294    0.978517294    0.000000002
    0.978517234    0.645183802    0.199999973
    0.728517175    0.395183742    0.299999952
    0.228516996    0.895183563    0.500000000
    0.478517115    0.145183623    0.399999946
    0.478517294    0.478517324    0.000000000
    0.228517249    0.228517234    0.099999987
    0.464194894    0.242838681    1.000000000
    0.214195564    0.992839098    0.500000000
    0.478517115    0.478516996    0.399999946
    0.228516996    0.228516936    0.500000000
    0.478517294    0.811850667    0.000000000
    0.228517249    0.561850607    0.099999987
    0.978517234    0.311850548    0.199999973
    0.728517175    0.061850492    0.299999952
    0.478517115    0.811850369    0.399999946
    0.228516996    0.561850250    0.500000000
    0.728517354    0.145183966    0.000000000
    0.478517294    0.895183861    0.099999979
    0.228517264    0.645183802    0.199999973
    0.978517234    0.395183682    0.299999982
    0.728517056    0.395183563    0.500000000
    0.478517115    0.895183563    0.499999970
    0.728517354    0.478517294    0.000000000
    0.478517294    0.228517219    0.099999979
    0.228517264    0.978517175    0.199999973
    0.978517234    0.728517056    0.299999982
    0.728517175    0.478516996    0.399999946
    0.478517115    0.228516877    0.499999970
    0.728517354    0.811850727    0.000000000
    0.130861402    0.576171935    1.000000000
    0.228517264    0.311850578    0.199999973
    0.978517234    0.061850484    0.299999982
    0.728517175    0.811850369    0.399999946
    0.478517115    0.561850309    0.499999970
    0.228517294    0.978517294    0.000000001
    0.978517234    0.728517175    0.099999987
    0.728517175    0.478517115    0.199999973
    0.478517234    0.228517056    0.299999952
    0.228517115    0.978516936    0.399999946
    0.978517056    0.728516936    0.500000000
    0.228517294    0.311850607    0.000000001
    0.978517234    0.061850544    0.099999987
    0.728517175    0.811850488    0.199999973
    0.478517234    0.561850429    0.299999952
    0.880862236    0.326172411    0.500000000
    0.978517056    0.061850190    0.500000000
    0.228517294    0.645184100    0.000000001
    0.978517294    0.645184040    0.000000002
    0.728517175    0.145183891    0.199999973
    0.478517234    0.895183802    0.299999952
    0.228517115    0.645183682    0.399999946
    0.978517056    0.395183623    0.500000000
    0.297528803    0.659505844    0.500000000
    0.880861998    0.576172411    0.599999964
    0.464195192    0.492839009    0.699999988
    0.047528446    0.409505606    0.799999952
    0.630861640    0.326172203    0.899999976
    0.214194655    0.242838696    1.000000000
    0.630862176    0.326172441    0.500000000
    0.214195341    0.242839023    0.599999964
    0.797528625    0.159505606    0.699999988
    0.380861819    0.076172218    0.799999952
    0.964195013    0.992838740    0.899999976
    0.547528028    0.909505308    1.000000000
    0.964195490    0.992839098    0.500000000
    0.547528625    0.909505665    0.599999964
    0.130861878    0.826172233    0.699999988
    0.714195013    0.742838800    0.799999952
    0.297528148    0.659505367    0.899999976
    0.880861282    0.576171994    1.000000000
    0.228517175    0.895183802    0.299999982
    0.714195251    0.742839098    0.599999964
    0.297528565    0.659505665    0.699999988
    0.880861759    0.576172233    0.799999952
    0.464194894    0.492838860    0.899999976
    0.047527909    0.409505367    1.000000000
    0.464195520    0.492839128    0.500000000
    0.047528677    0.409505695    0.599999964
    0.630861938    0.326172292    0.699999869
    0.214195132    0.242838889    0.799999952
    0.797528267    0.159505427    0.899999976
    0.478517175    0.145183876    0.199999973
    0.797528803    0.159505755    0.500000000
    0.380862027    0.076172329    0.599999964
    0.964195251    0.992838919    0.699999988
    0.547528505    0.909505486    0.799999952
    0.130861640    0.826172113    0.899999976
    0.714194655    0.742838621    1.000000000
    0.380862176    0.826172531    0.500000000
    0.964195371    0.742839098    0.599999964
    0.547528625    0.659505665    0.699999988
    0.130861819    0.576172292    0.799999952
    0.714194894    0.492838860    0.899999976
    0.297528148    0.409505427    1.000000000
    0.714195549    0.492839128    0.500000000
    0.297528774    0.409505725    0.599999964
    0.880861998    0.326172322    0.699999988
    0.464195192    0.242838904    0.799999952
    0.047528327    0.159505457    0.899999976
    0.630861521    0.076172039    1.000000000
    0.047528800    0.159505770    0.500000000
    0.630861998    0.076172344    0.599999964
    0.214195251    0.992838919    0.699999869
    0.797528386    0.909505486    0.799999952
    0.380861521    0.826172054    0.899999976
    0.964194775    0.742838681    1.000000000
    0.547528923    0.659505844    0.500000000
    0.130862102    0.576172411    0.599999964
    0.714195371    0.492838979    0.699999988
    0.297528565    0.409505576    0.799999952
    0.880861640    0.326172113    0.899999976
    0.978517234    0.978517175    0.199999973
    0.228517115    0.311850309    0.399999946
    0.464195400    0.242839009    0.599999964
    0.047528628    0.159505591    0.699999869
    0.630861878    0.076172173    0.799999952
    0.214194953    0.992838740    0.899999976
    0.797528148    0.909505308    1.000000000
    0.728517175    0.728517115    0.299999952
    0.797528744    0.909505665    0.599999964
    0.380861998    0.826172233    0.699999869
    0.964195132    0.742838860    0.799999952
    0.547528386    0.659505367    0.899999976
    0.478517294    0.561850667    0.099999979
