Sn+Ge
    1.000000000
   12.978400230    0.000000000    0.000000000
    0.000000000   12.978400230    0.000000000
    0.000000000    0.000000000   19.583751678
Sn  Ge 
48     60
Direct
    0.992552638    0.499999970    0.000000000
    0.742552638    0.499999970    0.165678188
    0.492552757    0.499999970    0.331356287
    0.992552638    0.000000000    0.000000000
    0.742552638    0.000000000    0.165678188
    0.492552757    0.000000000    0.331356287
    0.492552608    0.499999970    0.000000000
    0.242552638    0.499999970    0.165678188
    0.992552698    0.499999970    0.331356287
    0.492552608    0.000000000    0.000000000
    0.242552638    0.000000000    0.165678188
    0.992552698    0.000000000    0.331356287
    0.117552646    0.874999940    0.082839087
    0.867552757    0.874999940    0.248517260
    0.617552698    0.874999940    0.414195418
    0.117552646    0.374999970    0.082839087
    0.867552757    0.374999970    0.248517260
    0.617552698    0.374999970    0.414195418
    0.617552578    0.874999940    0.082839087
    0.367552698    0.874999940    0.248517260
    0.117552668    0.874999940    0.414195418
    0.617552578    0.374999970    0.082839087
    0.367552698    0.374999970    0.248517260
    0.117552668    0.374999970    0.414195418
    0.242552638    0.749999940    0.000000000
    0.992552638    0.749999940    0.165678188
    0.742552757    0.749999940    0.331356287
    0.242552638    0.249999985    0.000000000
    0.992552638    0.249999985    0.165678188
    0.742552757    0.249999985    0.331356287
    0.742552578    0.749999940    0.000000000
    0.492552608    0.749999940    0.165678188
    0.242552698    0.749999940    0.331356287
    0.742552578    0.249999985    0.000000000
    0.492552608    0.249999985    0.165678188
    0.242552698    0.249999985    0.331356287
    0.367552638    0.624999940    0.082839087
    0.117552713    0.624999940    0.248517260
    0.867552698    0.624999940    0.414195418
    0.367552638    0.124999993    0.082839087
    0.117552713    0.124999993    0.248517260
    0.867552698    0.124999993    0.414195418
    0.867552638    0.624999940    0.082839087
    0.617552757    0.624999940    0.248517260
    0.367552698    0.624999940    0.414195418
    0.867552638    0.124999993    0.082839087
    0.617552757    0.124999993    0.248517260
    0.367552698    0.124999993    0.414195418
    0.720930219    0.429863691    0.526533484
    0.720930278    0.929863691    0.670984805
    0.720930278    0.429863751    0.815436304
    0.920930207    0.029863596    0.526533484
    0.920930207    0.529863656    0.670984805
    0.920930386    0.029863596    0.815436304
    0.120930195    0.629863679    0.526533484
    0.120930195    0.129863620    0.670984805
    0.120930314    0.629863679    0.815436304
    0.320930243    0.229863644    0.526533484
    0.320930243    0.729863703    0.670984805
    0.320930481    0.229863644    0.815436304
    0.520930171    0.829863667    0.526533484
    0.520930290    0.329863548    0.670984805
    0.520930290    0.829863727    0.815436304
    0.870930195    0.379863501    0.598759174
    0.870930254    0.879863679    0.743210614
    0.870930314    0.379863739    0.887661994
    0.070930243    0.979863703    0.598759174
    0.070930243    0.479863703    0.743210614
    0.070930362    0.979863703    0.887661994
    0.270930171    0.579863608    0.598759174
    0.270930171    0.079863787    0.743210614
    0.270930290    0.579863608    0.887661994
    0.470930338    0.179863691    0.598759174
    0.470930338    0.679863751    0.743210614
    0.470930338    0.179863691    0.887661994
    0.670930386    0.779863715    0.598759174
    0.670930386    0.279863596    0.743210614
    0.670930386    0.779863656    0.887661994
    0.820930243    0.729863644    0.526533484
    0.820930302    0.229863644    0.670984805
    0.820930362    0.729863584    0.815436304
    0.020930290    0.329863548    0.526533484
    0.020930290    0.829863608    0.670984805
    0.020930409    0.329863548    0.815436304
    0.220930219    0.929863691    0.526533484
    0.220930338    0.429863632    0.670984805
    0.220930338    0.929863751    0.815436304
    0.420930147    0.529863715    0.526533484
    0.420930266    0.029863596    0.670984805
    0.420930386    0.529863656    0.815436304
    0.620930195    0.129863620    0.526533484
    0.620930195    0.629863679    0.670984805
    0.620930433    0.129863501    0.815436304
    0.770930231    0.079863667    0.598759174
    0.770930290    0.579863727    0.743210614
    0.770930350    0.079863787    0.887661994
    0.970930219    0.679863691    0.598759174
    0.970930278    0.179863691    0.743210614
    0.970930338    0.679863751    0.887661994
    0.170930147    0.279863596    0.598759174
    0.170930147    0.779863656    0.743210614
    0.170930386    0.279863596    0.887661994
    0.370930195    0.879863739    0.598759174
    0.370930195    0.379863739    0.743210614
    0.370930314    0.879863799    0.887661994
    0.570930243    0.479863703    0.598759174
    0.570930362    0.979863703    0.743210614
    0.570930481    0.479863703    0.887661994
