Ge+Sn
    1.000000000
   11.315600395    0.000000000    0.000000000
    0.000000000   17.891534805    0.000000000
    0.000000000   -0.000000320   13.867381096
Ge  Sn 
48     48
Direct
    0.945568740    0.076203801    0.000000012
    0.695568681    0.426203907    0.064509526
    0.445568681    0.776203990    0.129019037
    0.195568621    0.126204133    0.193528622
    0.945568681    0.476204157    0.258038104
    0.695568681    0.826204300    0.322547555
    0.445568740    0.076203801    0.000000012
    0.195568711    0.426203907    0.064509526
    0.945568681    0.776203990    0.129019037
    0.695568681    0.126204133    0.193528622
    0.445568681    0.476204157    0.258038104
    0.195568621    0.826204300    0.322547555
    0.070568725    0.826203942    0.000000030
    0.820568681    0.176204085    0.064509511
    0.570568681    0.526204109    0.129018992
    0.320568621    0.876204133    0.193528607
    0.070568621    0.226204157    0.258038133
    0.820568562    0.576204300    0.322547615
    0.570568740    0.826203942    0.000000030
    0.320568740    0.176204085    0.064509511
    0.070568711    0.526204109    0.129018992
    0.820568681    0.876204133    0.193528607
    0.570568681    0.226204157    0.258038133
    0.320568621    0.576204300    0.322547615
    0.945568740    0.576203823    0.000000016
    0.695568681    0.926203907    0.064509496
    0.445568681    0.276203990    0.129019052
    0.195568621    0.626204133    0.193528548
    0.945568681    0.976204157    0.258038104
    0.695568681    0.326204300    0.322547615
    0.445568740    0.576203823    0.000000016
    0.195568711    0.926203907    0.064509496
    0.945568681    0.276203990    0.129019052
    0.695568681    0.626204133    0.193528548
    0.445568681    0.976204157    0.258038104
    0.195568621    0.326204300    0.322547615
    0.070568725    0.326203823    0.000000000
    0.820568681    0.676203966    0.064509533
    0.570568681    0.026203990    0.129019037
    0.320568621    0.376204133    0.193528563
    0.070568621    0.726204157    0.258038074
    0.820568562    0.076204300    0.322547525
    0.570568740    0.326203823    0.000000000
    0.320568740    0.676203966    0.064509533
    0.070568711    0.026203990    0.129019037
    0.820568681    0.376204133    0.193528563
    0.570568681    0.726204157    0.258038074
    0.320568621    0.076204300    0.322547525
    0.057000399    0.708185434    0.422475368
    0.723666906    0.583185434    0.517994761
    0.390333623    0.458185434    0.613514006
    0.057000279    0.333185434    0.709033370
    0.723666728    0.208185434    0.804552794
    0.390333265    0.083185315    0.900072098
    0.057000399    0.208185434    0.422475368
    0.723666906    0.083185434    0.517994761
    0.390333623    0.958185375    0.613514006
    0.057000279    0.833185375    0.709033370
    0.723666728    0.708185375    0.804552794
    0.390333265    0.583185256    0.900072098
    0.307000339    0.958185434    0.422475368
    0.973666966    0.833185434    0.517994761
    0.640333593    0.708185434    0.613514066
    0.307000250    0.583185434    0.709033370
    0.973666847    0.458185405    0.804552794
    0.640333235    0.333185315    0.900072217
    0.307000339    0.458185434    0.422475368
    0.973666906    0.333185405    0.517994761
    0.640333593    0.208185434    0.613514006
    0.307000250    0.083185434    0.709033370
    0.973666847    0.958185375    0.804552674
    0.640333235    0.833185315    0.900072217
    0.057000279    0.958185434    0.422475368
    0.723666906    0.833185434    0.517994761
    0.390333623    0.708185434    0.613514006
    0.057000279    0.583185434    0.709033370
    0.723666728    0.458185375    0.804552794
    0.390333384    0.333185285    0.900072098
    0.057000399    0.458185434    0.422475368
    0.723666906    0.333185405    0.517994761
    0.390333623    0.208185434    0.613514006
    0.057000279    0.083185434    0.709033370
    0.723666847    0.958185375    0.804552794
    0.390333265    0.833185256    0.900072098
    0.307000399    0.708185434    0.422475398
    0.973666966    0.583185434    0.517994761
    0.640333593    0.458185464    0.613514006
    0.307000250    0.333185434    0.709033370
    0.973666847    0.208185434    0.804552794
    0.640333354    0.083185434    0.900072098
    0.307000369    0.208185434    0.422475368
    0.973666966    0.083185434    0.517994761
    0.640333593    0.958185375    0.613514006
    0.307000250    0.833185375    0.709033370
    0.973666847    0.708185375    0.804552794
    0.640333354    0.583185315    0.900072098
