Si+C
    1.000000000
   13.303179741    0.000000000    0.000000000
   -6.651589394   14.873406410    0.000000000
    0.000000000    0.000000000    8.390059471
Si  C  
36     84
Direct
    0.997150958    0.980056584    0.000000000
    0.963817537    0.746723175    0.144743830
    0.930484116    0.513389826    0.289487660
    0.330484211    0.313389868    0.000000000
    0.297150791    0.080056474    0.144743830
    0.263817370    0.846723080    0.289487660
    0.663817465    0.646723151    0.000000000
    0.630484045    0.413389713    0.144743830
    0.597150624    0.180056334    0.289487660
    0.313817531    0.946723342    0.072371759
    0.280484110    0.713389993    0.217115581
    0.247150689    0.480056584    0.361859351
    0.647150815    0.280056566    0.072371759
    0.613817394    0.046723194    0.217115551
    0.580483973    0.813389778    0.361859381
    0.980484426    0.613389850    0.072371788
    0.947151005    0.380056471    0.217115551
    0.913817585    0.146723092    0.361859351
    0.163817570    0.646723092    0.000000002
    0.130484164    0.413389713    0.144743830
    0.097150750    0.180056319    0.289487660
    0.497150898    0.980056643    0.000000005
    0.463817418    0.746723175    0.144743770
    0.430484056    0.513389826    0.289487600
    0.830484152    0.313389868    0.000000005
    0.797150731    0.080056526    0.144743770
    0.763817310    0.846723080    0.289487600
    0.147150904    0.280056566    0.072371773
    0.113817483    0.046723165    0.217115581
    0.080484070    0.813389778    0.361859381
    0.480484217    0.613389909    0.072371773
    0.447150826    0.380056530    0.217115551
    0.413817406    0.146723166    0.361859381
    0.813817501    0.946723282    0.072371759
    0.780484140    0.713389874    0.217115551
    0.747150719    0.480056465    0.361859381
    0.603589535    0.957750142    0.752224863
    0.403589427    0.557750225    0.562104404
    0.503589511    0.257750183    0.657164693
    0.889303863    0.100607276    0.752224863
    0.689303637    0.700607359    0.562104404
    0.789303780    0.400607318    0.657164693
    0.175018072    0.243464351    0.752224863
    0.975017965    0.843464434    0.562104404
    0.075018048    0.543464422    0.657164693
    0.460732430    0.386321604    0.752224863
    0.260732263    0.986321688    0.562104404
    0.360732347    0.686321676    0.657164693
    0.746446729    0.529178739    0.752224863
    0.546446562    0.129178852    0.562104404
    0.646446586    0.829178810    0.657164693
    0.032160997    0.672035873    0.752224863
    0.832160771    0.272035986    0.562104404
    0.932160854    0.972035944    0.657164693
    0.317875147    0.814892948    0.752224863
    0.117875099    0.414893121    0.562104404
    0.217875123    0.114893079    0.657164693
    0.582161009    0.272035956    0.799754858
    0.382160842    0.872036099    0.609634459
    0.482160926    0.572036088    0.704694629
    0.725018084    0.843464494    0.799754858
    0.525017977    0.443464577    0.609634459
    0.625018001    0.143464535    0.704694629
    0.010732412    0.986321807    0.799754858
    0.810732126    0.586321890    0.609634459
    0.910732210    0.286321819    0.704694688
    0.296446681    0.129178911    0.799754798
    0.096446514    0.729178965    0.609634459
    0.196446657    0.429178923    0.704694688
    0.867875278    0.414893031    0.799754858
    0.667875171    0.014893174    0.609634459
    0.767875195    0.714893043    0.704694629
    0.153589487    0.557750344    0.799754858
    0.953589320    0.157750443    0.609634459
    0.053589344    0.857750356    0.704694629
    0.439303637    0.700607359    0.799754858
    0.239303589    0.300607502    0.609634459
    0.339303613    0.000607491    0.704694629
    0.675018191    0.243464336    0.752224863
    0.475017935    0.843464494    0.562104404
    0.575018048    0.543464422    0.657164693
    0.532160997    0.672035873    0.752224863
    0.332160830    0.272035956    0.562104404
    0.432160914    0.972035885    0.657164693
    0.817875206    0.814892948    0.752224863
    0.617875099    0.414893091    0.562104404
    0.717875123    0.114893049    0.657164693
    0.103589535    0.957750082    0.752224863
    0.903589308    0.557750165    0.562104404
    0.003589511    0.257750154    0.657164693
    0.389303803    0.100607216    0.752224863
    0.189303637    0.700607359    0.562104404
    0.289303660    0.400607258    0.657164693
    0.960732341    0.386321604    0.752224863
    0.760732174    0.986321688    0.562104404
    0.860732317    0.686321616    0.657164693
    0.246446609    0.529178679    0.752224863
    0.046446443    0.129178822    0.562104404
    0.146446586    0.829178751    0.657164693
    0.510732412    0.986321807    0.799754858
    0.310732216    0.586321890    0.609634459
    0.410732269    0.286321819    0.704694688
    0.796446681    0.129178897    0.799754858
    0.596446514    0.729178965    0.609634459
    0.696446657    0.429178923    0.704694688
    0.082160950    0.272036016    0.799754858
    0.882160783    0.872036099    0.609634459
    0.982160866    0.572035968    0.704694688
    0.653589547    0.557750404    0.799754858
    0.453589410    0.157750487    0.609634459
    0.553589463    0.857750416    0.704694629
    0.939303815    0.700607479    0.799754798
    0.739303648    0.300607562    0.609634459
    0.839303672    0.000607491    0.704694688
    0.225018024    0.843464434    0.799754798
    0.025017738    0.443464518    0.609634459
    0.125017881    0.143464506    0.704694629
    0.367875218    0.414893031    0.799754918
    0.167875051    0.014893174    0.609634459
    0.267875075    0.714893043    0.704694688
