Sn+Si
    1.000000000
   19.467599869    0.000000000    0.000000000
    0.000000000   19.467599869    0.000000000
    0.000000000    0.000000000   19.300252914
Sn  Si 
108     156
Direct
    0.020674706    0.373673856    0.886011779
    0.905290127    0.950596988    0.886011779
    0.386059582    0.546750724    0.534267545
    0.136059344    0.796750903    0.886011779
    0.828368425    0.333333343    0.168111786
    0.661701739    0.333333343    0.336223543
    0.789905429    0.527520061    0.886011779
    0.097597800    0.989058554    0.886011779
    0.661701739    0.000000000    0.336223543
    0.328368455    0.666666687    0.000000000
    0.674520910    0.104443185    0.886011779
    0.995035112    0.666666687    0.336223543
    0.328368455    0.333333343    0.000000000
    0.482213259    0.065981627    0.886011779
    0.995035112    0.333333343    0.336223543
    0.751443982    0.719827771    0.886011779
    0.161701739    0.000000000    0.168111786
    0.995035112    0.000000000    0.336223543
    0.661701798    0.666666687    0.000000000
    0.495035112    0.666666687    0.168111786
    0.328368455    0.666666687    0.336223543
    0.661701798    0.333333343    0.000000000
    0.059136271    0.181366205    0.886011779
    0.328368455    0.333333343    0.336223543
    0.661701798    0.000000000    0.000000000
    0.443751663    0.258289337    0.886011779
    0.905290306    0.950596929    0.604616404
    0.078368433    0.916666746    0.084055893
    0.424521148    0.354443043    0.534267545
    0.770674944    0.623673797    0.534267545
    0.078368433    0.583333433    0.084055893
    0.232213408    0.315981477    0.534267545
    0.886059582    0.046750784    0.534267545
    0.828366995    0.335212380    0.886011779
    0.911701798    0.250000000    0.252167612
    0.539905727    0.777519882    0.534267545
    0.411701769    0.916666746    0.084055893
    0.245035097    0.916666746    0.252167612
    0.078368381    0.916666746    0.420279443
    0.411701769    0.583333433    0.084055893
    0.809136569    0.431366175    0.534267545
    0.078368381    0.583333433    0.420279443
    0.411701769    0.250000000    0.084055893
    0.193751872    0.508289218    0.534267545
    0.501444221    0.969827712    0.534267545
    0.174520940    0.604443133    0.886011779
    0.655290306    0.200596869    0.534267545
    0.411701798    0.916666746    0.420279443
    0.597597957    0.489058524    0.886011779
    0.578368545    0.583333433    0.252167612
    0.411701798    0.583333433    0.420279443
    0.982213199    0.565981567    0.886011779
    0.847598135    0.239058375    0.534267545
    0.411701798    0.250000000    0.420279443
    0.161701769    0.833333313    0.000000000
    0.995035052    0.833333313    0.168111786
    0.828368425    0.833333313    0.336223543
    0.251444042    0.219827890    0.886011779
    0.995035052    0.500000000    0.168111786
    0.578367293    0.585212350    0.534267545
    0.161701769    0.166666672    0.000000000
    0.943751633    0.758289278    0.886011779
    0.828368425    0.166666672    0.336223543
    0.495035112    0.833333313    0.000000000
    0.328368425    0.833333313    0.168111786
    0.161701754    0.833333313    0.336223543
    0.539905548    0.777520061    0.815662920
    0.328368425    0.500000000    0.168111786
    0.161701754    0.500000000    0.336223543
    0.495035112    0.166666672    0.000000000
    0.328368425    0.166666672    0.168111786
    0.161701754    0.166666672    0.336223543
    0.828368545    0.833333313    0.000000000
    0.661701858    0.833333313    0.168111786
    0.347598046    0.739058495    0.534267545
    0.828368545    0.500000000    0.000000000
    0.661701858    0.500000000    0.168111786
    0.732213378    0.815981507    0.534267545
    0.828368545    0.166666672    0.000000000
    0.661701858    0.166666672    0.168111786
    0.924521089    0.854443133    0.534267545
    0.245035097    0.750000060    0.084055893
    0.078368433    0.750000060    0.252167612
    0.001444221    0.469827592    0.534267545
    0.245035097    0.416666716    0.084055893
    0.078368433    0.416666716    0.252167612
    0.911701739    0.416666716    0.420279443
    0.245035097    0.083333343    0.084055893
    0.078368433    0.083333343    0.252167612
    0.911701739    0.083333343    0.420279443
    0.155290157    0.700596988    0.815662920
    0.411701858    0.750000060    0.252167612
    0.289905697    0.027519941    0.604616404
    0.578368485    0.416666716    0.084055893
    0.411701858    0.416666716    0.252167612
    0.245035127    0.416666716    0.420279443
    0.578368485    0.083333343    0.084055893
    0.411701858    0.083333343    0.252167612
    0.245035127    0.083333343    0.420279443
    0.911701739    0.750000060    0.084055893
    0.745035052    0.750000060    0.252167612
    0.578368366    0.750000060    0.420279443
    0.636059463    0.296750814    0.886011779
    0.693751872    0.008289218    0.534267545
    0.578368366    0.416666716    0.420279443
    0.911701739    0.083333343    0.084055893
    0.745035052    0.083333343    0.252167612
    0.578368366    0.083333343    0.420279443
    0.578368545    0.250000000    0.252167612
    0.732213438    0.315981507    0.674965203
    0.616828740    0.392904669    0.815662920
    0.911701739    0.750000060    0.420279443
    0.886059582    0.546750665    0.674965203
    0.770674884    0.623673856    0.815662920
    0.462982684    0.162135303    0.534267545
    0.347597986    0.239058435    0.674965203
    0.232213289    0.315981567    0.815662920
    0.616828859    0.392904580    0.534267545
    0.501444101    0.469827712    0.674965203
    0.386059433    0.546750844    0.815662920
    0.745035052    0.916666746    0.420279443
    0.655290246    0.700596929    0.674965203
    0.495035112    0.500000000    0.000000000
    0.495035201    0.166666672    0.336223543
    0.809136391    0.931366265    0.674965203
    0.693751693    0.008289337    0.815662920
    0.078367233    0.085212208    0.534267545
    0.962982535    0.162135333    0.674965203
    0.847597837    0.239058465    0.815662920
    0.911701798    0.583333433    0.252167612
    0.116828710    0.392904609    0.674965203
    0.001443982    0.469827741    0.815662920
    0.661701739    0.666666687    0.336223543
    0.270674855    0.623673856    0.674965203
    0.578368485    0.750000060    0.084055893
    0.745035052    0.250000000    0.420279443
    0.424521059    0.854443014    0.674965203
    0.309136331    0.931366146    0.815662920
    0.745035052    0.416666716    0.252167612
    0.578367174    0.085212342    0.674965203
    0.462982476    0.162135482    0.815662920
    0.155290306    0.700596869    0.534267545
    0.039905548    0.777520001    0.674965203
    0.924520910    0.854443192    0.815662920
    0.309136510    0.931366086    0.534267545
    0.193751812    0.008289099    0.674965203
    0.078366995    0.085212342    0.815662920
    0.059136391    0.181366086    0.604616404
    0.943751752    0.258289218    0.745314062
    0.078368433    0.250000000    0.084055893
    0.674521089    0.104443066    0.604616404
    0.559136391    0.181366205    0.745314062
    0.495035112    0.000000000    0.168111786
    0.828367352    0.335212231    0.604616404
    0.712982655    0.412135392    0.745314062
    0.745035172    0.583333433    0.084055893
    0.982213438    0.565981448    0.604616404
    0.866828740    0.642904639    0.745314062
    0.328368455    0.000000000    0.000000000
    0.443751901    0.258289158    0.604616404
    0.328367203    0.335212290    0.745314062
    0.212982476    0.412135422    0.886011779
    0.597598016    0.489058465    0.604616404
    0.482213318    0.565981567    0.745314062
    0.366828591    0.642904758    0.886011779
    0.751444161    0.719827652    0.604616404
    0.636059463    0.796750784    0.745314062
    0.520674706    0.873673916    0.886011779
    0.328368455    0.000000000    0.336223543
    0.789905608    0.027520061    0.745314062
    0.161701739    0.666666687    0.168111786
    0.212982625    0.412135333    0.604616404
    0.097597934    0.489058435    0.745314062
    0.745035172    0.250000000    0.084055893
    0.366828769    0.642904639    0.604616404
    0.251444072    0.719827712    0.745314062
    0.995035112    0.333333343    0.000000000
    0.520674884    0.873673797    0.604616404
    0.405290216    0.950596929    0.745314062
    0.289905488    0.027520061    0.886011779
    0.136059538    0.796750724    0.604616404
    0.020674825    0.873673916    0.745314062
    0.828368425    0.666666687    0.168111786
    0.245035127    0.750000060    0.420279443
    0.174520969    0.104443066    0.745314062
    0.495035112    0.333333343    0.168111786
    0.039905667    0.277519971    0.534267545
    0.924521029    0.354443103    0.674965203
    0.809136331    0.431366265    0.815662920
    0.578368545    0.916666746    0.252167612
    0.539905608    0.277520001    0.674965203
    0.424520910    0.354443133    0.815662920
    0.245035097    0.583333433    0.252167612
    0.693751812    0.508289278    0.674965203
    0.578367114    0.585212469    0.815662920
    0.962982714    0.662135422    0.534267545
    0.847597957    0.739058554    0.674965203
    0.732213259    0.815981686    0.815662920
    0.270674974    0.123673767    0.534267545
    0.155290276    0.200596899    0.674965203
    0.039905548    0.277520031    0.815662920
    0.911701798    0.916666746    0.252167612
    0.309136450    0.431366175    0.674965203
    0.193751723    0.508289278    0.815662920
    0.828368425    0.500000000    0.336223543
    0.462982565    0.662135482    0.674965203
    0.347597867    0.739058614    0.815662920
    0.495035201    0.500000000    0.336223543
    0.616828680    0.892904639    0.674965203
    0.501443982    0.969827771    0.815662920
    0.745035052    0.583333433    0.420279443
    0.770674884    0.123673908    0.674965203
    0.655290186    0.200597048    0.815662920
    0.245035097    0.250000000    0.252167612
    0.078367114    0.585212350    0.674965203
    0.962982476    0.662135482    0.815662920
    0.495035201    0.833333313    0.336223543
    0.232213348    0.815981627    0.674965203
    0.116828643    0.892904758    0.815662920
    0.078368381    0.250000000    0.420279443
    0.386059493    0.046750784    0.674965203
    0.270674795    0.123673908    0.815662920
    0.116828769    0.892904580    0.534267545
    0.001444101    0.969827712    0.674965203
    0.886059344    0.046750784    0.815662920
    0.866828918    0.142904535    0.604616404
    0.751444161    0.219827682    0.745314062
    0.911701739    0.416666716    0.084055893
    0.020674825    0.373673767    0.604616404
    0.905290186    0.450596929    0.745314062
    0.995035112    0.000000000    0.000000000
    0.636059642    0.296750695    0.604616404
    0.520674944    0.373673826    0.745314062
    0.405290216    0.450596988    0.886011779
    0.789905846    0.527519941    0.604616404
    0.674521148    0.604443073    0.745314062
    0.559136391    0.681366205    0.886011779
    0.943752050    0.758289218    0.604616404
    0.828367352    0.835212350    0.745314062
    0.712982595    0.912135482    0.886011779
    0.251444191    0.219827563    0.604616404
    0.136059478    0.296750695    0.745314062
    0.995035112    0.666666687    0.000000000
    0.405290365    0.450596869    0.604616404
    0.289905667    0.527520001    0.745314062
    0.745035172    0.916666746    0.084055893
    0.559136510    0.681366086    0.604616404
    0.443751812    0.758289218    0.745314062
    0.328367054    0.835212350    0.886011779
    0.712982714    0.912135422    0.604616404
    0.597598016    0.989058554    0.745314062
    0.161701739    0.333333343    0.168111786
    0.174521059    0.604443014    0.604616404
    0.059136391    0.681366146    0.745314062
    0.995035052    0.166666672    0.168111786
    0.328367233    0.835212231    0.604616404
    0.212982535    0.912135363    0.745314062
    0.828368425    0.000000000    0.168111786
    0.482213467    0.065981507    0.604616404
    0.366828769    0.142904758    0.745314062
    0.161701769    0.500000000    0.000000000
    0.097598001    0.989058375    0.604616404
    0.982213259    0.065981507    0.745314062
    0.866828561    0.142904639    0.886011779
