Si+Sn
    1.000000000
   10.862000465    0.000000000    0.000000000
    0.000000000   16.293001175    0.000000000
    0.000000000    0.000000000   18.260147095
Si  Sn 
72     72
Direct
    0.000000000    0.994067729    0.000000000
    0.000000000    0.827401042    0.148711845
    0.000000000    0.660734296    0.297423691
    0.500000000    0.994067729    0.000000000
    0.500000000    0.827401042    0.148711845
    0.500000000    0.660734296    0.297423691
    0.000000000    0.327401072    0.000000000
    0.000000000    0.160734385    0.148711845
    0.000000000    0.994067669    0.297423691
    0.500000000    0.327401072    0.000000000
    0.500000000    0.160734385    0.148711845
    0.500000000    0.994067669    0.297423691
    0.000000000    0.660734475    0.000000000
    0.000000000    0.494067729    0.148711845
    0.000000000    0.327401042    0.297423691
    0.500000000    0.660734475    0.000000000
    0.500000000    0.494067729    0.148711845
    0.500000000    0.327401042    0.297423691
    0.125000000    0.077401057    0.074355923
    0.125000000    0.910734355    0.223067775
    0.125000000    0.744067669    0.371779621
    0.625000000    0.077401057    0.074355923
    0.625000000    0.910734355    0.223067775
    0.625000000    0.744067669    0.371779621
    0.125000000    0.410734385    0.074355923
    0.125000000    0.244067669    0.223067775
    0.125000000    0.077400953    0.371779621
    0.625000000    0.410734385    0.074355923
    0.625000000    0.244067669    0.223067775
    0.625000000    0.077400953    0.371779621
    0.125000000    0.744067788    0.074355923
    0.125000000    0.577401042    0.223067775
    0.125000000    0.410734326    0.371779621
    0.625000000    0.744067788    0.074355923
    0.625000000    0.577401042    0.223067775
    0.625000000    0.410734326    0.371779621
    0.250000000    0.160734385    0.000000000
    0.250000000    0.994067669    0.148711845
    0.250000000    0.827400982    0.297423691
    0.750000060    0.160734385    0.000000000
    0.750000060    0.994067669    0.148711845
    0.750000060    0.827400982    0.297423691
    0.250000000    0.494067729    0.000000000
    0.250000000    0.327401042    0.148711845
    0.250000000    0.160734326    0.297423691
    0.750000060    0.494067729    0.000000000
    0.750000060    0.327401042    0.148711845
    0.750000060    0.160734326    0.297423691
    0.250000000    0.827401102    0.000000000
    0.250000000    0.660734415    0.148711845
    0.250000000    0.494067729    0.297423691
    0.750000060    0.827401102    0.000000000
    0.750000060    0.660734415    0.148711845
    0.750000060    0.494067729    0.297423691
    0.375000030    0.244067729    0.074355923
    0.375000030    0.077401020    0.223067775
    0.375000030    0.910734296    0.371779621
    0.875000060    0.244067729    0.074355923
    0.875000060    0.077401020    0.223067775
    0.875000060    0.910734296    0.371779621
    0.375000030    0.577401161    0.074355923
    0.375000030    0.410734475    0.223067775
    0.375000030    0.244067714    0.371779621
    0.875000060    0.577401161    0.074355923
    0.875000060    0.410734475    0.223067775
    0.875000060    0.244067714    0.371779621
    0.375000030    0.910734355    0.074355923
    0.375000030    0.744067669    0.223067775
    0.375000030    0.577400923    0.371779621
    0.875000060    0.910734355    0.074355923
    0.875000060    0.744067669    0.223067775
    0.875000060    0.577400923    0.371779621
    0.000000000    0.982020497    0.371779621
    0.999999940    0.732020378    0.497423708
    0.999999881    0.482020259    0.623067796
    0.999999821    0.232020080    0.748711824
    0.999999821    0.982020020    0.874355853
    0.999999762    0.732019901    1.000000000
    0.333333403    0.648687184    0.371779621
    0.333333373    0.398687154    0.497423708
    0.333333284    0.148687005    0.623067737
    0.333333224    0.898686886    0.748711765
    0.333333164    0.648686826    0.874355853
    0.333333224    0.398686707    0.999999940
    0.666666746    0.315353841    0.371779621
    0.666666687    0.065353788    0.497423708
    0.666666627    0.815353632    0.623067737
    0.666666627    0.565353513    0.748711765
    0.666666567    0.315353453    0.874355853
    0.666666627    0.065353334    0.999999940
    0.000000000    0.482020497    0.371779621
    0.999999940    0.232020438    0.497423708
    0.999999881    0.982020319    0.623067796
    0.999999821    0.732020140    0.748711824
    0.999999762    0.482020140    0.874355853
    0.999999762    0.232019961    0.999999940
    0.333333373    0.148687169    0.371779621
    0.333333313    0.898687124    0.497423708
    0.333333254    0.648687005    0.623067796
    0.333333254    0.398686767    0.748711765
    0.333333224    0.148686707    0.874355853
    0.333333164    0.898686647    0.999999940
    0.666666806    0.815353930    0.371779621
    0.666666746    0.565353811    0.497423708
    0.666666687    0.315353692    0.623067796
    0.666666627    0.065353565    0.748711824
    0.666666508    0.815353513    0.874355853
    0.666666508    0.565353394    0.999999940
    0.083333276    0.648687243    0.371779680
    0.083333254    0.398687243    0.497423708
    0.083333187    0.148687080    0.623067796
    0.083333157    0.898686945    0.748711765
    0.083333068    0.648686886    0.874355853
    0.083333082    0.398686767    0.999999940
    0.416666657    0.315353841    0.371779680
    0.416666627    0.065353766    0.497423708
    0.416666567    0.815353632    0.623067796
    0.416666508    0.565353513    0.748711765
    0.416666448    0.315353453    0.874355853
    0.416666478    0.065353334    0.999999940
    0.750000000    0.982020438    0.371779680
    0.750000000    0.732020378    0.497423708
    0.749999940    0.482020259    0.623067796
    0.749999821    0.232020140    0.748711765
    0.749999821    0.982020020    0.874355853
    0.749999821    0.732019901    0.999999940
    0.083333328    0.148687154    0.371779621
    0.083333291    0.898687065    0.497423708
    0.083333269    0.648686945    0.623067796
    0.083333187    0.398686826    0.748711824
    0.083333127    0.148686767    0.874355853
    0.083333090    0.898686647    0.999999940
    0.416666716    0.815353811    0.371779621
    0.416666657    0.565353692    0.497423708
    0.416666627    0.315353602    0.623067796
    0.416666597    0.065353431    0.748711824
    0.416666508    0.815353394    0.874355853
    0.416666538    0.565353274    0.999999940
    0.750000000    0.482020497    0.371779621
    0.749999940    0.232020423    0.497423708
    0.749999940    0.982020319    0.623067796
    0.749999821    0.732020140    0.748711824
    0.749999762    0.482020080    0.874355853
    0.749999762    0.232019961    0.999999940
