fcc Si+fcc Ge                           
   1.00000000000000     
     5.4800000000000004    0.0000000000000000    0.0000000000000000
    -5.4800000000000004    7.7498903219999997    0.0000000000000000
     0.0000000000000000    0.0000000000000000   24.2929238560000016
   Si   Ge
    24    24
Direct
  0.3611111109999996  0.7712765959999999  0.9053222240000025
  0.2500000000000000  0.7500000000000000  0.0797546060000016
  0.5000000000000000  0.5000000000000000  0.1595092129999998
  0.7500000000000000  0.2500000000000000  0.2392638190000014
  0.0000000000000000  0.0000000000000000  0.3190184259999995
  0.6111111109999996  0.5212765959999999  0.4934508079999986
  0.8611111109999996  0.2712765959999999  0.9053222240000025
  0.7500000000000000  0.2500000000000000  0.0797546060000016
  0.0000000000000000  0.0000000000000000  0.1595092129999998
  0.2500000000000000  0.7500000000000000  0.2392638190000014
  0.5000000000000000  0.5000000000000000  0.3190184259999995
  0.1111111109999996  0.0212765959999999  0.4934508079999986
  0.0000000000000000  0.2500000000000000  0.0000000000000000
  0.2500000000000000  0.0000000000000000  0.0797546060000016
  0.5000000000000000  0.7500000000000000  0.1595092129999998
  0.7500000000000000  0.5000000000000000  0.2392638190000014
  0.0000000000000000  0.2500000000000000  0.3190184259999995
  0.2500000000000000  0.0000000000000000  0.3987730320000011
  0.5000000000000000  0.7500000000000000  0.0000000000000000
  0.7500000000000000  0.5000000000000000  0.0797546060000016
  0.0000000000000000  0.2500000000000000  0.1595092129999998
  0.2500000000000000  0.0000000000000000  0.2392638190000014
  0.5000000000000000  0.7500000000000000  0.3190184259999995
  0.7500000000000000  0.5000000000000000  0.3987730320000011
  0.7500000000000000  0.2500000000000000  0.3987730320000011
  0.8611111109999996  0.2712765959999999  0.5758250909999987
  0.6111111109999996  0.5212765959999999  0.6581993739999987
  0.3611111109999996  0.7712765959999999  0.7405736580000024
  0.1111111109999996  0.0212765959999999  0.8229479410000025
  0.5000000000000000  0.5000000000000000  0.0000000000000000
  0.2500000000000000  0.7500000000000000  0.3987730320000011
  0.3611111109999996  0.7712765959999999  0.5758250909999987
  0.1111111109999996  0.0212765959999999  0.6581993739999987
  0.8611111109999996  0.2712765959999999  0.7405736580000024
  0.6111111109999996  0.5212765959999999  0.8229479410000025
  0.0000000000000000  0.0000000000000000  0.0000000000000000
  0.1111111109999996  0.7712765959999999  0.4934508079999986
  0.8611111109999996  0.0212765959999999  0.5758250909999987
  0.6111111109999996  0.2712765959999999  0.6581993739999987
  0.3611111109999996  0.5212765959999999  0.7405736580000024
  0.1111111109999996  0.7712765959999999  0.8229479410000025
  0.8611111109999996  0.0212765959999999  0.9053222240000025
  0.6111111109999996  0.2712765959999999  0.4934508079999986
  0.3611111109999996  0.5212765959999999  0.5758250909999987
  0.1111111109999996  0.7712765959999999  0.6581993739999987
  0.8611111109999996  0.0212765959999999  0.7405736580000024
  0.6111111109999996  0.2712765959999999  0.8229479410000025
  0.3611111109999996  0.5212765959999999  0.9053222240000025
 
  0.00000000E+00  0.00000000E+00  0.00000000E+00
  0.00000000E+00  0.00000000E+00  0.00000000E+00
  0.00000000E+00  0.00000000E+00  0.00000000E+00
  0.00000000E+00  0.00000000E+00  0.00000000E+00
  0.00000000E+00  0.00000000E+00  0.00000000E+00
  0.00000000E+00  0.00000000E+00  0.00000000E+00
  0.00000000E+00  0.00000000E+00  0.00000000E+00
  0.00000000E+00  0.00000000E+00  0.00000000E+00
  0.00000000E+00  0.00000000E+00  0.00000000E+00
  0.00000000E+00  0.00000000E+00  0.00000000E+00
  0.00000000E+00  0.00000000E+00  0.00000000E+00
  0.00000000E+00  0.00000000E+00  0.00000000E+00
  0.00000000E+00  0.00000000E+00  0.00000000E+00
  0.00000000E+00  0.00000000E+00  0.00000000E+00
  0.00000000E+00  0.00000000E+00  0.00000000E+00
  0.00000000E+00  0.00000000E+00  0.00000000E+00
  0.00000000E+00  0.00000000E+00  0.00000000E+00
  0.00000000E+00  0.00000000E+00  0.00000000E+00
  0.00000000E+00  0.00000000E+00  0.00000000E+00
  0.00000000E+00  0.00000000E+00  0.00000000E+00
  0.00000000E+00  0.00000000E+00  0.00000000E+00
  0.00000000E+00  0.00000000E+00  0.00000000E+00
  0.00000000E+00  0.00000000E+00  0.00000000E+00
  0.00000000E+00  0.00000000E+00  0.00000000E+00
  0.00000000E+00  0.00000000E+00  0.00000000E+00
  0.00000000E+00  0.00000000E+00  0.00000000E+00
  0.00000000E+00  0.00000000E+00  0.00000000E+00
  0.00000000E+00  0.00000000E+00  0.00000000E+00
  0.00000000E+00  0.00000000E+00  0.00000000E+00
  0.00000000E+00  0.00000000E+00  0.00000000E+00
  0.00000000E+00  0.00000000E+00  0.00000000E+00
  0.00000000E+00  0.00000000E+00  0.00000000E+00
  0.00000000E+00  0.00000000E+00  0.00000000E+00
  0.00000000E+00  0.00000000E+00  0.00000000E+00
  0.00000000E+00  0.00000000E+00  0.00000000E+00
  0.00000000E+00  0.00000000E+00  0.00000000E+00
  0.00000000E+00  0.00000000E+00  0.00000000E+00
  0.00000000E+00  0.00000000E+00  0.00000000E+00
  0.00000000E+00  0.00000000E+00  0.00000000E+00
  0.00000000E+00  0.00000000E+00  0.00000000E+00
  0.00000000E+00  0.00000000E+00  0.00000000E+00
  0.00000000E+00  0.00000000E+00  0.00000000E+00
  0.00000000E+00  0.00000000E+00  0.00000000E+00
  0.00000000E+00  0.00000000E+00  0.00000000E+00
  0.00000000E+00  0.00000000E+00  0.00000000E+00
  0.00000000E+00  0.00000000E+00  0.00000000E+00
  0.00000000E+00  0.00000000E+00  0.00000000E+00
  0.00000000E+00  0.00000000E+00  0.00000000E+00
