Ge+Ge
    1.000000000
    5.657800198    0.000000000    0.000000000
   -5.657800198   11.315600395    0.000000000
    0.000000000    0.000000000   14.144500732
Ge 
48
Direct
    0.017083453    0.000000000    0.000000000
    0.517083406    0.000000000    0.199999973
    0.017083406    0.000000000    0.400000006
    0.767083406    0.750000000    0.199999973
    0.017083406    0.499999970    0.199999973
    0.642083406    0.375000000    0.500000060
    0.892083406    0.124999993    0.099999987
    0.392083406    0.124999993    0.299999982
    0.892083406    0.124999993    0.500000060
    0.267083466    0.750000000    0.000000000
    0.892083347    0.624999940    0.299999982
    0.642083287    0.874999940    0.299999982
    0.142083406    0.874999940    0.099999987
    0.267083406    0.249999985    0.199999973
    0.142083406    0.874999940    0.500000060
    0.392083406    0.624999940    0.099999987
    0.517083406    0.499999970    0.000000000
    0.267083406    0.750000000    0.400000006
    0.642083466    0.375000000    0.099999987
    0.142083406    0.375000000    0.299999982
    0.517083287    0.499999970    0.400000006
    0.767083406    0.249999985    0.000000000
    0.392083406    0.624999940    0.500000060
    0.767083406    0.249999985    0.400000006
    0.517083406    0.499999970    0.500000060
    0.017083406    0.499999970    0.699999988
    0.517083287    0.499999970    0.899999976
    0.017083453    0.000000000    0.500000060
    0.517083406    0.000000000    0.699999988
    0.017083406    0.000000000    0.899999976
    0.142083406    0.874999940    0.600000024
    0.642083287    0.874999940    0.800000012
    0.142083406    0.874999940    1.000000000
    0.642083466    0.375000000    0.600000024
    0.142083406    0.375000000    0.800000012
    0.642083406    0.375000000    1.000000000
    0.267083466    0.750000000    0.500000060
    0.767083406    0.750000000    0.699999988
    0.267083406    0.750000000    0.899999976
    0.767083406    0.249999985    0.500000060
    0.267083406    0.249999985    0.699999988
    0.767083406    0.249999985    0.899999976
    0.392083406    0.624999940    0.600000024
    0.892083347    0.624999940    0.800000012
    0.392083406    0.624999940    1.000000000
    0.892083406    0.124999993    0.600000024
    0.392083406    0.124999993    0.800000012
    0.892083406    0.124999993    1.000000000
