Sn
 1.0000000000000000
    14.5102923195916347    0.0000000000000000    0.0000000000000000
     2.9020584639183271    8.7061753917549822    0.0000000000000000
     0.0000000000000000    0.0000000000000000   61.0899000000000001
 Sn 
  80
Direct
  0.0000000000000000  0.0000000000000000  0.3273863601020791
  0.6111111111111109  0.1944444444444444  0.3362383416353057
  0.0000000000000000  0.4999999999999999  0.3273863601020791
  0.6111111111111108  0.6944444444444441  0.3362383416353057
  0.7222222222222220  0.8888888888888890  0.3450903231685325
  0.3333333333333332  0.0833333333333335  0.3539423047017592
  0.7222222222222220  0.3888888888888888  0.3450903231685325
  0.3333333333333332  0.5833333333333330  0.3539423047017592
  0.4444444444444444  0.7777777777777778  0.3627942862349859
  0.0555555555555556  0.9722222222222221  0.3716462677682126
  0.4444444444444444  0.2777777777777777  0.3627942862349859
  0.0555555555555554  0.4722222222222219  0.3716462677682126
  0.1666666666666663  0.6666666666666667  0.3804982493014393
  0.7777777777777777  0.8611111111111113  0.3893502308346660
  0.1666666666666663  0.1666666666666665  0.3804982493014393
  0.7777777777777777  0.3611111111111110  0.3893502308346660
  0.8888888888888887  0.5555555555555556  0.3982022123678927
  0.4999999999999997  0.7500000000000000  0.4070541939011195
  0.8888888888888887  0.0555555555555555  0.3982022123678927
  0.4999999999999997  0.2499999999999997  0.4070541939011195
  0.6111111111111110  0.4444444444444445  0.4159061754343462
  0.2222222222222219  0.6388888888888891  0.4247581569675729
  0.6111111111111110  0.9444444444444443  0.4159061754343462
  0.2222222222222219  0.1388888888888887  0.4247581569675729
  0.3333333333333333  0.3333333333333334  0.4336101385007995
  0.9444444444444444  0.5277777777777779  0.4424621200340264
  0.3333333333333333  0.8333333333333333  0.4336101385007995
  0.9444444444444442  0.0277777777777775  0.4424621200340264
  0.0555555555555554  0.2222222222222223  0.4513141015672530
  0.6666666666666662  0.4166666666666670  0.4601660831004797
  0.0555555555555554  0.7222222222222221  0.4513141015672530
  0.6666666666666663  0.9166666666666665  0.4601660831004797
  0.7777777777777773  0.1111111111111112  0.4690180646337065
  0.3888888888888884  0.3055555555555556  0.4778700461669332
  0.7777777777777777  0.6111111111111110  0.4690180646337064
  0.3888888888888884  0.8055555555555552  0.4778700461669332
  0.5000000000000000  0.0000000000000000  0.4867220277001599
  0.1111111111111107  0.1944444444444446  0.4955740092333866
  0.4999999999999995  0.4999999999999998  0.4867220277001599
  0.1111111111111107  0.6944444444444442  0.4955740092333866
  0.2222222222222219  0.8888888888888891  0.5044259907666133
  0.8333333333333330  0.0833333333333335  0.5132779722998401
  0.2222222222222223  0.3888888888888890  0.5044259907666132
  0.8333333333333330  0.5833333333333333  0.5132779722998401
  0.9444444444444436  0.7777777777777779  0.5221299538330667
  0.5555555555555549  0.9722222222222222  0.5309819353662935
  0.9444444444444436  0.2777777777777778  0.5221299538330667
  0.5555555555555549  0.4722222222222219  0.5309819353662935
  0.6666666666666665  0.6666666666666667  0.5398339168995201
  0.2777777777777777  0.8611111111111114  0.5486858984327468
  0.6666666666666661  0.1666666666666669  0.5398339168995201
  0.2777777777777777  0.3611111111111109  0.5486858984327468
  0.3888888888888880  0.5555555555555558  0.5575378799659735
  0.0000000000000000  0.7500000000000000  0.5663898614992002
  0.3888888888888880  0.0555555555555557  0.5575378799659735
  0.0000000000000000  0.2499999999999996  0.5663898614992002
  0.1111111111111112  0.4444444444444444  0.5752418430324271
  0.7222222222222223  0.6388888888888888  0.5840938245656537
  0.1111111111111107  0.9444444444444443  0.5752418430324271
  0.7222222222222223  0.1388888888888885  0.5840938245656537
  0.8333333333333330  0.3333333333333333  0.5929458060988805
  0.4444444444444442  0.5277777777777777  0.6017977876321072
  0.8333333333333330  0.8333333333333330  0.5929458060988805
  0.4444444444444442  0.0277777777777776  0.6017977876321072
  0.5555555555555549  0.2222222222222223  0.6106497691653339
  0.1666666666666670  0.4166666666666665  0.6195017506985605
  0.5555555555555549  0.7222222222222223  0.6106497691653339
  0.1666666666666661  0.9166666666666663  0.6195017506985605
  0.2777777777777777  0.1111111111111114  0.6283537322317873
  0.8888888888888888  0.3055555555555556  0.6372057137650141
  0.2777777777777777  0.6111111111111112  0.6283537322317873
  0.8888888888888888  0.8055555555555554  0.6372057137650141
  0.9999999999999994  0.0000000000000000  0.6460576952982406
  0.6111111111111108  0.1944444444444449  0.6549096768314674
  0.9999999999999994  0.5000000000000000  0.6460576952982406
  0.6111111111111089  0.6944444444444446  0.6549096768314674
  0.7222222222222224  0.8888888888888893  0.6637616583646941
  0.3333333333333330  0.0833333333333337  0.6726136398979209
  0.7222222222222224  0.3888888888888888  0.6637616583646941
  0.3333333333333330  0.5833333333333335  0.6726136398979209
