Si+C
    1.000000000
   13.303179741    0.000000000    0.000000000
    6.651589394   14.873406410    0.000000000
    0.000000000    0.000000000    8.390059471
Si  C  
36     84
Direct
    0.982905626    0.658119500    0.000000005
    0.782905579    0.558119297    0.144743800
    0.582905412    0.458119094    0.289487600
    0.982905626    0.324786127    0.000000005
    0.782905579    0.224785969    0.144743800
    0.582905412    0.124785803    0.289487600
    0.982905626    0.991452813    0.000000005
    0.782905579    0.891452670    0.144743800
    0.582905412    0.791452527    0.289487600
    0.632905662    0.691452682    0.072371744
    0.432905585    0.591452479    0.217115551
    0.232905522    0.491452426    0.361859351
    0.632905662    0.358119428    0.072371744
    0.432905585    0.258119285    0.217115551
    0.232905522    0.158119142    0.361859351
    0.632905662    0.024786137    0.072371744
    0.432905585    0.924785972    0.217115551
    0.232905522    0.824785829    0.361859351
    0.482905626    0.658119500    0.000000000
    0.282905549    0.558119297    0.144743800
    0.082905442    0.458119094    0.289487600
    0.482905626    0.324786127    0.000000000
    0.282905549    0.224785954    0.144743800
    0.082905442    0.124785811    0.289487600
    0.482905626    0.991452813    0.000000000
    0.282905549    0.891452670    0.144743800
    0.082905442    0.791452527    0.289487600
    0.132905677    0.691452742    0.072371759
    0.932905555    0.591452479    0.217115551
    0.732905507    0.491452396    0.361859351
    0.132905677    0.358119488    0.072371759
    0.932905555    0.258119285    0.217115551
    0.732905507    0.158119127    0.361859351
    0.132905677    0.024786137    0.072371759
    0.932905555    0.924785972    0.217115551
    0.732905507    0.824785829    0.361859351
    0.428898811    0.046252668    0.562104404
    0.400327206    0.317681283    0.657164693
    0.371755600    0.589109898    0.752224922
    0.571755946    0.189109817    0.562104404
    0.543184400    0.460538417    0.657164693
    0.514612854    0.731967092    0.752224922
    0.714613080    0.331966966    0.562104404
    0.686041474    0.603395581    0.657164693
    0.657469988    0.874824286    0.752224922
    0.857470214    0.474824101    0.562104404
    0.828898668    0.746252775    0.657164693
    0.800327122    0.017681479    0.752224922
    0.000327349    0.617681265    0.562104404
    0.971755743    0.889109850    0.657164693
    0.943184197    0.160538509    0.752224922
    0.143184423    0.760538340    0.562104404
    0.114612937    0.031966995    0.657164693
    0.086041451    0.303395569    0.752224922
    0.286041737    0.903395593    0.562104404
    0.257470131    0.174824193    0.657164693
    0.228898525    0.446252763    0.752224922
    0.521755993    0.789109647    0.609634459
    0.493184417    0.060538244    0.704694688
    0.464612931    0.331966937    0.799754918
    0.664613068    0.931966901    0.609634459
    0.636041522    0.203395560    0.704694688
    0.607469976    0.474824250    0.799754918
    0.807470202    0.074824050    0.609634459
    0.778898656    0.346252739    0.704694688
    0.750327051    0.617681324    0.799754858
    0.950327337    0.217681110    0.609634459
    0.921755791    0.489109755    0.704694688
    0.893184185    0.760538280    0.799754858
    0.093184471    0.360538393    0.609634459
    0.064612865    0.631967008    0.704694688
    0.036041379    0.903395653    0.799754858
    0.236041546    0.503395498    0.609634459
    0.207470059    0.774824142    0.704694688
    0.178898573    0.046252798    0.799754918
    0.378898859    0.646252632    0.609634459
    0.350327253    0.917681277    0.704694688
    0.321755648    0.189109758    0.799754858
    0.500327349    0.617681205    0.562104404
    0.471755803    0.889109850    0.657164693
    0.443184227    0.160538509    0.752224922
    0.643184483    0.760538340    0.562104404
    0.614612937    0.031966995    0.657164693
    0.586041451    0.303395689    0.752224922
    0.786041677    0.903395474    0.562104404
    0.757470131    0.174824193    0.657164693
    0.728898525    0.446252763    0.752224863
    0.928898811    0.046252668    0.562104404
    0.900327206    0.317681283    0.657164693
    0.871755719    0.589109898    0.752224922
    0.071755886    0.189109758    0.562104404
    0.043184400    0.460538387    0.657164693
    0.014612913    0.731967032    0.752224922
    0.214613199    0.331966966    0.562104404
    0.186041594    0.603395581    0.657164693
    0.157469988    0.874824226    0.752224922
    0.357470274    0.474824071    0.562104404
    0.328898668    0.746252716    0.657164693
    0.300327063    0.017681360    0.752224922
    0.450327367    0.217681140    0.609634459
    0.421755791    0.489109755    0.704694688
    0.393184185    0.760538399    0.799754858
    0.593184531    0.360538185    0.609634459
    0.564612985    0.631966829    0.704694688
    0.536041439    0.903395414    0.799754858
    0.736041665    0.503395498    0.609634459
    0.707470059    0.774824083    0.704694688
    0.678898513    0.046252679    0.799754918
    0.878898799    0.646252573    0.609634459
    0.850327253    0.917681158    0.704694688
    0.821755707    0.189109758    0.799754918
    0.021755934    0.789109588    0.609634459
    0.993184388    0.060538244    0.704694688
    0.964612842    0.331966937    0.799754918
    0.164613008    0.931966841    0.609634459
    0.136041403    0.203395560    0.704694688
    0.107469916    0.474824011    0.799754918
    0.307470202    0.074823931    0.609634459
    0.278898597    0.346252501    0.704694688
    0.250326991    0.617681086    0.799754858
