Si+Ge                                   
   1.00000000000000     
     5.4310002329999998    0.0000000000000000    0.0000000000000000
     0.0000000000000000   16.2930011750000006    0.0000000000000000
     0.0000000000000000    0.0000000000000000   20.7248497010000001
   Si   Ge
    36    48
Direct
  0.0177968590000006  0.6666667459999971  0.0000000000000000
  0.5177968739999983  0.6666667459999971  0.1310262980000019
  0.0177968739999983  0.6666667459999971  0.2620525959999966
  0.0177968590000006  0.3333333730000021  0.0000000000000000
  0.5177968739999983  0.3333333730000021  0.1310262980000019
  0.0177968739999983  0.3333333730000021  0.2620525959999966
  0.0177968590000006  0.0000000000000000  0.0000000000000000
  0.5177968739999983  0.0000000000000000  0.1310262980000019
  0.0177968739999983  0.0000000000000000  0.2620525959999966
  0.2677968739999983  0.9166667459999971  0.0655131489999974
  0.7677969340000033  0.9166667459999971  0.1965394619999969
  0.2677969929999975  0.9166667459999971  0.3275657300000034
  0.2677968739999983  0.5833334330000000  0.0655131489999974
  0.7677969340000033  0.5833334330000000  0.1965394619999969
  0.2677969929999975  0.5833334330000000  0.3275657300000034
  0.2677968739999983  0.2500000000000000  0.0655131489999974
  0.7677969340000033  0.2500000000000000  0.1965394619999969
  0.2677969929999975  0.2500000000000000  0.3275657300000034
  0.5177968739999983  0.8333333129999971  0.0000000000000000
  0.0177968739999983  0.8333333129999971  0.1310262980000019
  0.5177969929999975  0.8333333129999971  0.2620525959999966
  0.5177968739999983  0.5000000000000000  0.0000000000000000
  0.0177968739999983  0.5000000000000000  0.1310262980000019
  0.5177969929999975  0.5000000000000000  0.2620525959999966
  0.5177968739999983  0.1666666870000029  0.0000000000000000
  0.0177968739999983  0.1666666870000029  0.1310262980000019
  0.5177969929999975  0.1666666870000029  0.2620525959999966
  0.7677969340000033  0.7500000599999979  0.0655131489999974
  0.2677968739999983  0.7500000599999979  0.1965394619999969
  0.7677969929999975  0.7500000599999979  0.3275657300000034
  0.7677969340000033  0.4166666870000029  0.0655131489999974
  0.2677968739999983  0.4166666870000029  0.1965394619999969
  0.7677969929999975  0.4166666870000029  0.3275657300000034
  0.7677969340000033  0.0833333510000003  0.0655131489999974
  0.2677968739999983  0.0833333510000003  0.1965394619999969
  0.7677969929999975  0.0833333510000003  0.3275657300000034
  0.5303725600000035  0.5424138899999988  0.4224862749999971
  0.0303726200000014  0.1674138899999988  0.5190049409999986
  0.5303725600000035  0.7924138899999988  0.6155235769999976
  0.0303723809999994  0.4174140100000017  0.7120422120000001
  0.5303726790000027  0.0424138309999975  0.8085609079999969
  0.0303726200000014  0.6674138899999988  0.9050796029999972
  0.5303725600000035  0.0424138309999975  0.4224862749999971
  0.0303726200000014  0.6674138899999988  0.5190050009999965
  0.5303725600000035  0.2924138899999988  0.6155235769999976
  0.0303723809999994  0.9174141290000009  0.7120422120000001
  0.5303726790000027  0.5424138899999988  0.8085609079999969
  0.0303726200000014  0.1674138899999988  0.9050794839999980
  0.5303725600000035  0.7924138899999988  0.4224862749999971
  0.0303726200000014  0.4174138899999988  0.5190049409999986
  0.5303725600000035  0.0424138309999975  0.6155235769999976
  0.0303723809999994  0.6674140100000017  0.7120422719999979
  0.5303726790000027  0.2924139499999967  0.8085609079999969
  0.0303726200000014  0.9174138899999988  0.9050796029999972
  0.5303725600000035  0.2924138899999988  0.4224862749999971
  0.0303726200000014  0.9174138899999988  0.5190049409999986
  0.5303725600000035  0.5424138899999988  0.6155235769999976
  0.0303723809999994  0.1674140100000017  0.7120422719999979
  0.5303726790000027  0.7924140100000017  0.8085609079999969
  0.0303726200000014  0.4174138899999988  0.9050794839999980
  0.2803726200000014  0.6674139499999967  0.4224862749999971
  0.7803725600000035  0.2924139200000013  0.5190049409999986
  0.2803726200000014  0.9174138899999988  0.6155235769999976
  0.7803724409999973  0.5424140100000017  0.7120422120000001
  0.2803726200000014  0.1674139499999967  0.8085609079999969
  0.7803724409999973  0.7924138899999988  0.9050796029999972
  0.2803726200000014  0.1674138899999988  0.4224862749999971
  0.7803725600000035  0.7924138899999988  0.5190049409999986
  0.2803726200000014  0.4174138899999988  0.6155235769999976
  0.7803724409999973  0.0424139499999967  0.7120422719999979
  0.2803726200000014  0.6674140100000017  0.8085609079999969
  0.7803724409999973  0.2924137709999997  0.9050794839999980
  0.2803726200000014  0.9174139499999967  0.4224862459999983
  0.7803725600000035  0.5424139499999967  0.5190049409999986
  0.2803726200000014  0.1674139200000013  0.6155235769999976
  0.7803724409999973  0.7924140690000030  0.7120422120000001
  0.2803726200000014  0.4174140100000017  0.8085609079999969
  0.7803724409999973  0.0424138309999975  0.9050794839999980
  0.2803726200000014  0.4174138899999988  0.4224862749999971
  0.7803725600000035  0.0424138309999975  0.5190050009999965
  0.2803726200000014  0.6674138899999988  0.6155235769999976
  0.7803724409999973  0.2924140100000017  0.7120422719999979
  0.2803726200000014  0.9174138899999988  0.8085609079999969
  0.7803724409999973  0.5424138899999988  0.9050794839999980
 
  0.00000000E+00  0.00000000E+00  0.00000000E+00
  0.00000000E+00  0.00000000E+00  0.00000000E+00
  0.00000000E+00  0.00000000E+00  0.00000000E+00
  0.00000000E+00  0.00000000E+00  0.00000000E+00
  0.00000000E+00  0.00000000E+00  0.00000000E+00
  0.00000000E+00  0.00000000E+00  0.00000000E+00
  0.00000000E+00  0.00000000E+00  0.00000000E+00
  0.00000000E+00  0.00000000E+00  0.00000000E+00
  0.00000000E+00  0.00000000E+00  0.00000000E+00
  0.00000000E+00  0.00000000E+00  0.00000000E+00
  0.00000000E+00  0.00000000E+00  0.00000000E+00
  0.00000000E+00  0.00000000E+00  0.00000000E+00
  0.00000000E+00  0.00000000E+00  0.00000000E+00
  0.00000000E+00  0.00000000E+00  0.00000000E+00
  0.00000000E+00  0.00000000E+00  0.00000000E+00
  0.00000000E+00  0.00000000E+00  0.00000000E+00
  0.00000000E+00  0.00000000E+00  0.00000000E+00
  0.00000000E+00  0.00000000E+00  0.00000000E+00
  0.00000000E+00  0.00000000E+00  0.00000000E+00
  0.00000000E+00  0.00000000E+00  0.00000000E+00
  0.00000000E+00  0.00000000E+00  0.00000000E+00
  0.00000000E+00  0.00000000E+00  0.00000000E+00
  0.00000000E+00  0.00000000E+00  0.00000000E+00
  0.00000000E+00  0.00000000E+00  0.00000000E+00
  0.00000000E+00  0.00000000E+00  0.00000000E+00
  0.00000000E+00  0.00000000E+00  0.00000000E+00
  0.00000000E+00  0.00000000E+00  0.00000000E+00
  0.00000000E+00  0.00000000E+00  0.00000000E+00
  0.00000000E+00  0.00000000E+00  0.00000000E+00
  0.00000000E+00  0.00000000E+00  0.00000000E+00
  0.00000000E+00  0.00000000E+00  0.00000000E+00
  0.00000000E+00  0.00000000E+00  0.00000000E+00
  0.00000000E+00  0.00000000E+00  0.00000000E+00
  0.00000000E+00  0.00000000E+00  0.00000000E+00
  0.00000000E+00  0.00000000E+00  0.00000000E+00
  0.00000000E+00  0.00000000E+00  0.00000000E+00
  0.00000000E+00  0.00000000E+00  0.00000000E+00
  0.00000000E+00  0.00000000E+00  0.00000000E+00
  0.00000000E+00  0.00000000E+00  0.00000000E+00
  0.00000000E+00  0.00000000E+00  0.00000000E+00
  0.00000000E+00  0.00000000E+00  0.00000000E+00
  0.00000000E+00  0.00000000E+00  0.00000000E+00
  0.00000000E+00  0.00000000E+00  0.00000000E+00
  0.00000000E+00  0.00000000E+00  0.00000000E+00
  0.00000000E+00  0.00000000E+00  0.00000000E+00
  0.00000000E+00  0.00000000E+00  0.00000000E+00
  0.00000000E+00  0.00000000E+00  0.00000000E+00
  0.00000000E+00  0.00000000E+00  0.00000000E+00
  0.00000000E+00  0.00000000E+00  0.00000000E+00
  0.00000000E+00  0.00000000E+00  0.00000000E+00
  0.00000000E+00  0.00000000E+00  0.00000000E+00
  0.00000000E+00  0.00000000E+00  0.00000000E+00
  0.00000000E+00  0.00000000E+00  0.00000000E+00
  0.00000000E+00  0.00000000E+00  0.00000000E+00
  0.00000000E+00  0.00000000E+00  0.00000000E+00
  0.00000000E+00  0.00000000E+00  0.00000000E+00
  0.00000000E+00  0.00000000E+00  0.00000000E+00
  0.00000000E+00  0.00000000E+00  0.00000000E+00
  0.00000000E+00  0.00000000E+00  0.00000000E+00
  0.00000000E+00  0.00000000E+00  0.00000000E+00
  0.00000000E+00  0.00000000E+00  0.00000000E+00
  0.00000000E+00  0.00000000E+00  0.00000000E+00
  0.00000000E+00  0.00000000E+00  0.00000000E+00
  0.00000000E+00  0.00000000E+00  0.00000000E+00
  0.00000000E+00  0.00000000E+00  0.00000000E+00
  0.00000000E+00  0.00000000E+00  0.00000000E+00
  0.00000000E+00  0.00000000E+00  0.00000000E+00
  0.00000000E+00  0.00000000E+00  0.00000000E+00
  0.00000000E+00  0.00000000E+00  0.00000000E+00
  0.00000000E+00  0.00000000E+00  0.00000000E+00
  0.00000000E+00  0.00000000E+00  0.00000000E+00
  0.00000000E+00  0.00000000E+00  0.00000000E+00
  0.00000000E+00  0.00000000E+00  0.00000000E+00
  0.00000000E+00  0.00000000E+00  0.00000000E+00
  0.00000000E+00  0.00000000E+00  0.00000000E+00
  0.00000000E+00  0.00000000E+00  0.00000000E+00
  0.00000000E+00  0.00000000E+00  0.00000000E+00
  0.00000000E+00  0.00000000E+00  0.00000000E+00
  0.00000000E+00  0.00000000E+00  0.00000000E+00
  0.00000000E+00  0.00000000E+00  0.00000000E+00
  0.00000000E+00  0.00000000E+00  0.00000000E+00
  0.00000000E+00  0.00000000E+00  0.00000000E+00
  0.00000000E+00  0.00000000E+00  0.00000000E+00
  0.00000000E+00  0.00000000E+00  0.00000000E+00
