Ge+Si
    1.000000000
    5.657800198    0.000000000    0.000000000
    0.000000000   16.973400116    0.000000000
    0.000000000    0.000000000   11.365839958
Ge  Si 
36     24
Direct
    0.000000000    0.994305491    0.000000000
    0.000000000    0.827638865    0.248894915
    0.000000000    0.660972118    0.497789860
    0.000000000    0.327638835    0.000000000
    0.000000000    0.160972148    0.248894915
    0.000000000    0.994305432    0.497789860
    0.000000000    0.660972118    0.000000000
    0.000000000    0.494305462    0.248894915
    0.000000000    0.327638775    0.497789860
    0.249999985    0.077638842    0.124447457
    0.249999985    0.910972118    0.373342425
    0.249999985    0.744305491    0.622237384
    0.249999985    0.410972118    0.124447457
    0.249999985    0.244305432    0.373342425
    0.249999985    0.077638723    0.622237384
    0.249999985    0.744305491    0.124447457
    0.249999985    0.577638745    0.373342425
    0.249999985    0.410972089    0.622237384
    0.499999970    0.160972163    0.000000000
    0.499999970    0.994305491    0.248894915
    0.499999970    0.827638805    0.497789860
    0.499999970    0.494305462    0.000000000
    0.499999970    0.327638775    0.248894915
    0.499999970    0.160972089    0.497789860
    0.499999970    0.827638865    0.000000000
    0.499999970    0.660972118    0.248894915
    0.499999970    0.494305462    0.497789860
    0.750000000    0.244305477    0.124447457
    0.750000000    0.077638790    0.373342425
    0.750000000    0.910972118    0.622237384
    0.750000000    0.577638865    0.124447457
    0.750000000    0.410972178    0.373342425
    0.750000000    0.244305462    0.622237384
    0.750000000    0.910972178    0.124447457
    0.750000000    0.744305491    0.373342425
    0.750000000    0.577638745    0.622237384
    0.108862542    0.076203801    0.622237444
    0.608862519    0.426203847    0.697789967
    0.108862400    0.776203871    0.773342431
    0.608862519    0.126204014    0.848894835
    0.108862638    0.476204157    0.924447417
    0.608862638    0.826204300    0.999999881
    0.358862519    0.826203883    0.622237384
    0.858862460    0.176203966    0.697789788
    0.358862519    0.526203871    0.773342371
    0.858862400    0.876204014    0.848894835
    0.358862638    0.226204157    0.924447298
    0.858862638    0.576204300    0.999999881
    0.108862542    0.576203823    0.622237384
    0.608862519    0.926203847    0.697789967
    0.108862400    0.276203871    0.773342431
    0.608862519    0.626204014    0.848894835
    0.108862638    0.976204038    0.924447417
    0.608862638    0.326204300    0.999999881
    0.358862519    0.326203793    0.622237444
    0.858862460    0.676203907    0.697789967
    0.358862519    0.026203871    0.773342431
    0.858862400    0.376204014    0.848894835
    0.358862638    0.726204038    0.924447417
    0.858862638    0.076204062    1.000000000
