C+Si
    1.000000000
   13.345743179    0.000000000    0.000000000
   -6.672873020   14.920996666    0.000000000
    0.000000000    0.000000000    5.029923916
C   Si 
84     36
Direct
    0.803541958    0.827111602    0.317126513
    0.174970403    0.855683148    0.000000050
    0.489256203    0.841397464    0.158563301
    0.946399033    0.684254408    0.317126602
    0.317827493    0.712826014    0.000000009
    0.632113278    0.698540211    0.158563301
    0.089256167    0.541397333    0.317126513
    0.460684687    0.569968879    0.000000050
    0.774970472    0.555683136    0.158563301
    0.232113361    0.398540169    0.317126513
    0.603541851    0.427111745    0.000000050
    0.917827666    0.412825942    0.158563301
    0.374970436    0.255683035    0.317126513
    0.746398985    0.284254611    0.000000050
    0.060684800    0.269968837    0.158563301
    0.517827630    0.112825885    0.317126513
    0.889256120    0.141397476    0.000000050
    0.203541875    0.127111688    0.158563301
    0.660684824    0.969968736    0.317126513
    0.032113254    0.998540282    0.000000031
    0.346399039    0.984254539    0.158563301
    0.353541851    0.927111626    0.396407902
    0.724970222    0.955683172    0.079281501
    0.039256096    0.941397429    0.237844795
    0.496398926    0.784254432    0.396407992
    0.867827296    0.812825978    0.079281509
    0.182113051    0.798540175    0.237844706
    0.639256239    0.641397357    0.396407992
    0.010684609    0.669968843    0.079281487
    0.324970484    0.655683160    0.237844706
    0.782113314    0.498540282    0.396407992
    0.153541684    0.527111769    0.079281487
    0.467827559    0.512826025    0.237844706
    0.924970269    0.355683059    0.396408021
    0.296398789    0.384254605    0.079281531
    0.610684574    0.369968861    0.237844720
    0.067827582    0.212825894    0.396408021
    0.439256072    0.241397485    0.079281524
    0.753541827    0.227111697    0.237844720
    0.210684776    0.069968797    0.396408021
    0.582113147    0.098540336    0.079281524
    0.896398902    0.084254570    0.237844795
    0.303542018    0.827111602    0.317126602
    0.674970448    0.855683267    0.000000000
    0.989256203    0.841397405    0.158563301
    0.446399212    0.684254408    0.317126602
    0.817827702    0.712826073    0.000000000
    0.132113338    0.698540211    0.158563301
    0.589256406    0.541397274    0.317126602
    0.960684776    0.569968939    0.000000000
    0.274970531    0.555683136    0.158563301
    0.732113421    0.398540229    0.317126602
    0.103541844    0.427111775    0.000000021
    0.417827666    0.412825972    0.158563286
    0.874970555    0.255683005    0.317126513
    0.246398970    0.284254581    0.000000025
    0.560684800    0.269968808    0.158563286
    0.017827630    0.112825878    0.317126513
    0.389256120    0.141397446    0.000000024
    0.703541934    0.127111673    0.158563286
    0.160684824    0.969968736    0.317126513
    0.532113254    0.998540342    0.000000024
    0.846399069    0.984254539    0.158563286
    0.853541791    0.927111626    0.396407992
    0.224970296    0.955683172    0.079281531
    0.539256036    0.941397369    0.237844795
    0.996398866    0.784254551    0.396407992
    0.367827386    0.812826097    0.079281531
    0.682113111    0.798540294    0.237844795
    0.139256120    0.641397357    0.396407902
    0.510684609    0.669968843    0.079281531
    0.824970424    0.655683100    0.237844795
    0.282113314    0.498540163    0.396407992
    0.653541744    0.527111709    0.079281531
    0.967827499    0.512825906    0.237844795
    0.424970388    0.355683088    0.396407992
    0.796398759    0.384254575    0.079281546
    0.110684633    0.369968832    0.237844795
    0.567827702    0.212825909    0.396408081
    0.939256072    0.241397485    0.079281524
    0.253541827    0.227111712    0.237844795
    0.710684776    0.069968820    0.396407902
    0.082113147    0.098540328    0.079281531
    0.396399021    0.084254608    0.237844795
    0.982905626    0.646723211    0.396408111
    0.782905579    0.413389742    0.637844920
    0.582905412    0.180056259    0.879281759
    0.982905626    0.313389897    0.396408111
    0.782905579    0.080056436    0.637844920
    0.582905412    0.846722960    0.879281759
    0.982905626    0.980056584    0.396408111
    0.782905579    0.746723115    0.637844920
    0.582905412    0.513389647    0.879281759
    0.632905662    0.780056596    0.517126322
    0.432905585    0.546723127    0.758563042
    0.232905522    0.313389689    1.000000000
    0.632905662    0.446723312    0.517126322
    0.432905585    0.213389829    0.758563042
    0.232905522    0.980056405    1.000000000
    0.632905662    0.113390066    0.517126322
    0.432905585    0.880056620    0.758563042
    0.232905522    0.646723151    1.000000000
    0.482905626    0.646723151    0.396408111
    0.282905549    0.413389742    0.637844920
    0.082905442    0.180056274    0.879281759
    0.482905626    0.313389897    0.396408111
    0.282905549    0.080056444    0.637844920
    0.082905442    0.846722960    0.879281759
    0.482905626    0.980056584    0.396408111
    0.282905549    0.746723115    0.637844920
    0.082905442    0.513389587    0.879281759
    0.132905677    0.780056477    0.517126322
    0.932905555    0.546723008    0.758563042
    0.732905507    0.313389570    1.000000000
    0.132905677    0.446723133    0.517126322
    0.932905555    0.213389680    0.758563042
    0.732905507    0.980056286    1.000000000
    0.132905677    0.113390066    0.517126322
    0.932905555    0.880056560    0.758563042
    0.732905507    0.646723151    1.000000000
