Si+C
    1.000000000
   13.303179741    0.000000000    0.000000000
    6.651589394   14.873406410    0.000000000
    0.000000000    0.000000000    8.192405701
Si  C  
36     84
Direct
    0.982905626    0.658119500    0.000000005
    0.782905579    0.558119297    0.148235962
    0.582905412    0.458119094    0.296471924
    0.982905626    0.324786127    0.000000005
    0.782905579    0.224785969    0.148235962
    0.582905412    0.124785803    0.296471924
    0.982905626    0.991452813    0.000000005
    0.782905579    0.891452670    0.148235962
    0.582905412    0.791452527    0.296471924
    0.632905662    0.691452682    0.074117824
    0.432905585    0.591452479    0.222353801
    0.232905522    0.491452426    0.370589733
    0.632905662    0.358119428    0.074117824
    0.432905585    0.258119285    0.222353801
    0.232905522    0.158119142    0.370589733
    0.632905662    0.024786137    0.074117824
    0.432905585    0.924785972    0.222353801
    0.232905522    0.824785829    0.370589733
    0.482905626    0.658119500    0.000000000
    0.282905549    0.558119297    0.148235962
    0.082905442    0.458119094    0.296471924
    0.482905626    0.324786127    0.000000000
    0.282905549    0.224785954    0.148235962
    0.082905442    0.124785811    0.296471924
    0.482905626    0.991452813    0.000000000
    0.282905549    0.891452670    0.148235962
    0.082905442    0.791452527    0.296471924
    0.132905677    0.691452742    0.074117839
    0.932905555    0.591452479    0.222353801
    0.732905507    0.491452396    0.370589733
    0.132905677    0.358119488    0.074117839
    0.932905555    0.258119285    0.222353801
    0.732905507    0.158119127    0.370589733
    0.132905677    0.024786137    0.074117839
    0.932905555    0.924785972    0.222353801
    0.732905507    0.824785829    0.370589733
    0.726430178    0.956741095    0.758310258
    0.069287181    0.985312760    0.563602746
    0.397858620    0.971026957    0.660956442
    0.012144327    0.813884020    0.758310258
    0.355001450    0.842455626    0.563602746
    0.683573008    0.828169823    0.660956442
    0.297858596    0.671026886    0.758310258
    0.640715718    0.699598491    0.563602746
    0.969287157    0.685312688    0.660956442
    0.583572984    0.528169751    0.758310199
    0.926430106    0.556741357    0.563602686
    0.255001545    0.542455554    0.660956442
    0.869287252    0.385312617    0.758310199
    0.212144375    0.413884223    0.563602686
    0.540715694    0.399598420    0.660956442
    0.155001521    0.242455482    0.758310199
    0.497858524    0.271027088    0.563602686
    0.826430082    0.256741315    0.660956442
    0.440715909    0.099598408    0.758310258
    0.783572912    0.128169894    0.563602686
    0.112144470    0.113884211    0.660956502
    0.176429987    0.056741118    0.806987047
    0.519287109    0.085312724    0.612279534
    0.847858548    0.071026921    0.709633291
    0.462144256    0.913883984    0.806987047
    0.805001378    0.942455590    0.612279534
    0.133572817    0.928169727    0.709633291
    0.747858524    0.771026850    0.806987107
    0.090715647    0.799598455    0.612279475
    0.419287205    0.785312653    0.709633231
    0.033572912    0.628169775    0.806986988
    0.376430035    0.656741321    0.612279475
    0.705001354    0.642455578    0.709633231
    0.319287300    0.485312700    0.806987107
    0.662144423    0.513884246    0.612279475
    0.990715742    0.499598503    0.709633172
    0.605001450    0.342455506    0.806987107
    0.947858632    0.371027082    0.612279534
    0.276430130    0.356741279    0.709633231
    0.890715837    0.199598342    0.806986988
    0.233572960    0.228169948    0.612279534
    0.562144279    0.213884160    0.709633231
    0.226430058    0.956741154    0.758310199
    0.569287181    0.985312641    0.563602686
    0.897858500    0.971026957    0.660956502
    0.512144566    0.813884020    0.758310258
    0.855001569    0.842455626    0.563602686
    0.183573008    0.828169823    0.660956442
    0.797858834    0.671026886    0.758310258
    0.140715837    0.699598491    0.563602686
    0.469287276    0.685312688    0.660956442
    0.083572984    0.528169811    0.758310258
    0.426429987    0.556741357    0.563602686
    0.755001426    0.542455614    0.660956442
    0.369287133    0.385312736    0.758310258
    0.712144375    0.413884223    0.563602686
    0.040715814    0.399598420    0.660956442
    0.655001640    0.242455512    0.758310258
    0.997858644    0.271027058    0.563602746
    0.326430082    0.256741285    0.660956502
    0.940715790    0.099598408    0.758310258
    0.283572912    0.128170013    0.563602746
    0.612144351    0.113884211    0.660956502
    0.676429987    0.056741238    0.806987047
    0.019287109    0.085312843    0.612279534
    0.347858548    0.071026921    0.709633231
    0.962144375    0.913884044    0.806987047
    0.305001497    0.942455649    0.612279534
    0.633572817    0.928169787    0.709633231
    0.247858644    0.771026850    0.806987047
    0.590715885    0.799598455    0.612279534
    0.919287324    0.785312593    0.709633231
    0.533572793    0.628169775    0.806986988
    0.876430035    0.656741261    0.612279475
    0.205001473    0.642455518    0.709633231
    0.819287300    0.485312641    0.806986988
    0.162144423    0.513884187    0.612279475
    0.490715861    0.499598444    0.709633231
    0.105001330    0.342455447    0.806987047
    0.447858572    0.371027052    0.612279475
    0.776429892    0.356741279    0.709633231
    0.390715718    0.199598432    0.806986988
    0.733572960    0.228169918    0.612279534
    0.062144279    0.213884145    0.709633231
