Si+Ge                                   
   1.00000000000000     
     5.4310002329999998    0.0000000000000000    0.0000000000000000
     0.0000000000000000   16.2930011750000006    0.0000000000000000
     0.0000000000000000    0.0000000000000000   16.7904243469999983
   Si   Ge
    36    48
Direct
  0.0177968590000006  0.6666667459999971  0.0000000000000000
  0.5177968739999983  0.6666667459999971  0.1617291120000033
  0.0177968739999983  0.6666667459999971  0.3234582250000031
  0.0177968590000006  0.3333333730000021  0.0000000000000000
  0.5177968739999983  0.3333333730000021  0.1617291120000033
  0.0177968739999983  0.3333333730000021  0.3234582250000031
  0.0177968590000006  0.0000000000000000  0.0000000000000000
  0.5177968739999983  0.0000000000000000  0.1617291120000033
  0.0177968739999983  0.0000000000000000  0.3234582250000031
  0.2677968739999983  0.9166667459999971  0.0808645560000016
  0.7677969340000033  0.9166667459999971  0.2425936910000033
  0.2677969929999975  0.9166667459999971  0.4043227430000016
  0.2677968739999983  0.5833334330000000  0.0808645560000016
  0.7677969340000033  0.5833334330000000  0.2425936910000033
  0.2677969929999975  0.5833334330000000  0.4043227430000016
  0.2677968739999983  0.2500000000000000  0.0808645560000016
  0.7677969340000033  0.2500000000000000  0.2425936910000033
  0.2677969929999975  0.2500000000000000  0.4043227430000016
  0.5177968739999983  0.8333333129999971  0.0000000000000000
  0.0177968739999983  0.8333333129999971  0.1617291120000033
  0.5177969929999975  0.8333333129999971  0.3234582250000031
  0.5177968739999983  0.5000000000000000  0.0000000000000000
  0.0177968739999983  0.5000000000000000  0.1617291120000033
  0.5177969929999975  0.5000000000000000  0.3234582250000031
  0.5177968739999983  0.1666666870000029  0.0000000000000000
  0.0177968739999983  0.1666666870000029  0.1617291120000033
  0.5177969929999975  0.1666666870000029  0.3234582250000031
  0.7677969340000033  0.7500000599999979  0.0808645560000016
  0.2677968739999983  0.7500000599999979  0.2425936910000033
  0.7677969929999975  0.7500000599999979  0.4043227430000016
  0.7677969340000033  0.4166666870000029  0.0808645560000016
  0.2677968739999983  0.4166666870000029  0.2425936910000033
  0.7677969929999975  0.4166666870000029  0.4043227430000016
  0.7677969340000033  0.0833333510000003  0.0808645560000016
  0.2677968739999983  0.0833333510000003  0.2425936910000033
  0.7677969929999975  0.0833333510000003  0.4043227430000016
  0.0586744809999971  0.4559941589999994  0.4043227729999970
  0.5586745140000033  0.0809941369999976  0.5234582419999967
  0.0586744550000020  0.7059941289999969  0.6425936219999997
  0.5586742160000000  0.3309942480000032  0.7617290020000027
  0.0586745740000012  0.9559941289999969  0.8808645009999978
  0.5586745740000012  0.5809941289999969  0.0000000000000000
  0.0586744809999971  0.9559941289999969  0.4043227729999970
  0.5586745140000033  0.5809941289999969  0.5234582419999967
  0.0586744550000020  0.2059941289999969  0.6425936219999997
  0.5586742160000000  0.8309943679999989  0.7617290020000027
  0.0586745740000012  0.4559941289999969  0.8808645009999978
  0.5586745740000012  0.0809941289999969  0.9999998810000008
  0.0586744809999971  0.7059941289999969  0.4043227729999970
  0.5586745140000033  0.3309941289999969  0.5234582419999967
  0.0586744550000020  0.9559941289999969  0.6425936219999997
  0.5586742160000000  0.5809942480000032  0.7617291210000019
  0.0586745740000012  0.2059941890000019  0.8808645009999978
  0.5586745740000012  0.8309941289999969  0.0000000000000000
  0.0586744809999971  0.2059941440000017  0.4043227729999970
  0.5586745140000033  0.8309941289999969  0.5234582419999967
  0.0586744550000020  0.4559941289999969  0.6425936219999997
  0.5586742160000000  0.0809942480000032  0.7617291210000019
  0.0586745740000012  0.7059942480000032  0.8808645009999978
  0.5586745740000012  0.3309941289999969  0.9999998810000008
  0.8086744550000020  0.5809941890000019  0.4043227729999970
  0.3086744550000020  0.2059941589999994  0.5234582419999967
  0.8086745740000012  0.8309941289999969  0.6425936219999997
  0.3086743349999992  0.4559942480000032  0.7617290020000027
  0.8086745740000012  0.0809941890000019  0.8808645009999978
  0.3086743349999992  0.7059941289999969  0.0000000000000000
  0.8086744550000020  0.0809941369999976  0.4043227729999970
  0.3086744550000020  0.7059941289999969  0.5234582419999967
  0.8086745740000012  0.3309941289999969  0.6425936219999997
  0.3086743349999992  0.9559942480000032  0.7617291210000019
  0.8086745740000012  0.5809942480000032  0.8808645009999978
  0.3086743349999992  0.2059940099999977  0.9999998810000008
  0.8086744550000020  0.8309941890000019  0.4043227729999970
  0.3086744550000020  0.4559941890000019  0.5234582419999967
  0.8086745740000012  0.0809941739999971  0.6425936219999997
  0.3086743349999992  0.7059943080000011  0.7617290020000027
  0.8086745740000012  0.3309942480000032  0.8808645009999978
  0.3086743349999992  0.9559941289999969  0.9999998810000008
  0.8086744550000020  0.3309941289999969  0.4043227729999970
  0.3086744550000020  0.9559941289999969  0.5234582419999967
  0.8086745740000012  0.5809941289999969  0.6425936219999997
  0.3086743349999992  0.2059942480000032  0.7617291210000019
  0.8086745740000012  0.8309941289999969  0.8808645009999978
  0.3086743349999992  0.4559941289999969  0.9999998810000008
 
  0.00000000E+00  0.00000000E+00  0.00000000E+00
  0.00000000E+00  0.00000000E+00  0.00000000E+00
  0.00000000E+00  0.00000000E+00  0.00000000E+00
  0.00000000E+00  0.00000000E+00  0.00000000E+00
  0.00000000E+00  0.00000000E+00  0.00000000E+00
  0.00000000E+00  0.00000000E+00  0.00000000E+00
  0.00000000E+00  0.00000000E+00  0.00000000E+00
  0.00000000E+00  0.00000000E+00  0.00000000E+00
  0.00000000E+00  0.00000000E+00  0.00000000E+00
  0.00000000E+00  0.00000000E+00  0.00000000E+00
  0.00000000E+00  0.00000000E+00  0.00000000E+00
  0.00000000E+00  0.00000000E+00  0.00000000E+00
  0.00000000E+00  0.00000000E+00  0.00000000E+00
  0.00000000E+00  0.00000000E+00  0.00000000E+00
  0.00000000E+00  0.00000000E+00  0.00000000E+00
  0.00000000E+00  0.00000000E+00  0.00000000E+00
  0.00000000E+00  0.00000000E+00  0.00000000E+00
  0.00000000E+00  0.00000000E+00  0.00000000E+00
  0.00000000E+00  0.00000000E+00  0.00000000E+00
  0.00000000E+00  0.00000000E+00  0.00000000E+00
  0.00000000E+00  0.00000000E+00  0.00000000E+00
  0.00000000E+00  0.00000000E+00  0.00000000E+00
  0.00000000E+00  0.00000000E+00  0.00000000E+00
  0.00000000E+00  0.00000000E+00  0.00000000E+00
  0.00000000E+00  0.00000000E+00  0.00000000E+00
  0.00000000E+00  0.00000000E+00  0.00000000E+00
  0.00000000E+00  0.00000000E+00  0.00000000E+00
  0.00000000E+00  0.00000000E+00  0.00000000E+00
  0.00000000E+00  0.00000000E+00  0.00000000E+00
  0.00000000E+00  0.00000000E+00  0.00000000E+00
  0.00000000E+00  0.00000000E+00  0.00000000E+00
  0.00000000E+00  0.00000000E+00  0.00000000E+00
  0.00000000E+00  0.00000000E+00  0.00000000E+00
  0.00000000E+00  0.00000000E+00  0.00000000E+00
  0.00000000E+00  0.00000000E+00  0.00000000E+00
  0.00000000E+00  0.00000000E+00  0.00000000E+00
  0.00000000E+00  0.00000000E+00  0.00000000E+00
  0.00000000E+00  0.00000000E+00  0.00000000E+00
  0.00000000E+00  0.00000000E+00  0.00000000E+00
  0.00000000E+00  0.00000000E+00  0.00000000E+00
  0.00000000E+00  0.00000000E+00  0.00000000E+00
  0.00000000E+00  0.00000000E+00  0.00000000E+00
  0.00000000E+00  0.00000000E+00  0.00000000E+00
  0.00000000E+00  0.00000000E+00  0.00000000E+00
  0.00000000E+00  0.00000000E+00  0.00000000E+00
  0.00000000E+00  0.00000000E+00  0.00000000E+00
  0.00000000E+00  0.00000000E+00  0.00000000E+00
  0.00000000E+00  0.00000000E+00  0.00000000E+00
  0.00000000E+00  0.00000000E+00  0.00000000E+00
  0.00000000E+00  0.00000000E+00  0.00000000E+00
  0.00000000E+00  0.00000000E+00  0.00000000E+00
  0.00000000E+00  0.00000000E+00  0.00000000E+00
  0.00000000E+00  0.00000000E+00  0.00000000E+00
  0.00000000E+00  0.00000000E+00  0.00000000E+00
  0.00000000E+00  0.00000000E+00  0.00000000E+00
  0.00000000E+00  0.00000000E+00  0.00000000E+00
  0.00000000E+00  0.00000000E+00  0.00000000E+00
  0.00000000E+00  0.00000000E+00  0.00000000E+00
  0.00000000E+00  0.00000000E+00  0.00000000E+00
  0.00000000E+00  0.00000000E+00  0.00000000E+00
  0.00000000E+00  0.00000000E+00  0.00000000E+00
  0.00000000E+00  0.00000000E+00  0.00000000E+00
  0.00000000E+00  0.00000000E+00  0.00000000E+00
  0.00000000E+00  0.00000000E+00  0.00000000E+00
  0.00000000E+00  0.00000000E+00  0.00000000E+00
  0.00000000E+00  0.00000000E+00  0.00000000E+00
  0.00000000E+00  0.00000000E+00  0.00000000E+00
  0.00000000E+00  0.00000000E+00  0.00000000E+00
  0.00000000E+00  0.00000000E+00  0.00000000E+00
  0.00000000E+00  0.00000000E+00  0.00000000E+00
  0.00000000E+00  0.00000000E+00  0.00000000E+00
  0.00000000E+00  0.00000000E+00  0.00000000E+00
  0.00000000E+00  0.00000000E+00  0.00000000E+00
  0.00000000E+00  0.00000000E+00  0.00000000E+00
  0.00000000E+00  0.00000000E+00  0.00000000E+00
  0.00000000E+00  0.00000000E+00  0.00000000E+00
  0.00000000E+00  0.00000000E+00  0.00000000E+00
  0.00000000E+00  0.00000000E+00  0.00000000E+00
  0.00000000E+00  0.00000000E+00  0.00000000E+00
  0.00000000E+00  0.00000000E+00  0.00000000E+00
  0.00000000E+00  0.00000000E+00  0.00000000E+00
  0.00000000E+00  0.00000000E+00  0.00000000E+00
  0.00000000E+00  0.00000000E+00  0.00000000E+00
  0.00000000E+00  0.00000000E+00  0.00000000E+00
