Si+C
    1.000000000
   13.303179741    0.000000000    0.000000000
    6.651589394   14.873406410    0.000000000
    0.000000000    0.000000000    8.390059471
Si  C  
36     84
Direct
    0.982905626    0.658119500    0.000000005
    0.782905579    0.558119297    0.144743800
    0.582905412    0.458119094    0.289487600
    0.982905626    0.324786127    0.000000005
    0.782905579    0.224785969    0.144743800
    0.582905412    0.124785803    0.289487600
    0.982905626    0.991452813    0.000000005
    0.782905579    0.891452670    0.144743800
    0.582905412    0.791452527    0.289487600
    0.632905662    0.691452682    0.072371744
    0.432905585    0.591452479    0.217115551
    0.232905522    0.491452426    0.361859351
    0.632905662    0.358119428    0.072371744
    0.432905585    0.258119285    0.217115551
    0.232905522    0.158119142    0.361859351
    0.632905662    0.024786137    0.072371744
    0.432905585    0.924785972    0.217115551
    0.232905522    0.824785829    0.361859351
    0.482905626    0.658119500    0.000000000
    0.282905549    0.558119297    0.144743800
    0.082905442    0.458119094    0.289487600
    0.482905626    0.324786127    0.000000000
    0.282905549    0.224785954    0.144743800
    0.082905442    0.124785811    0.289487600
    0.482905626    0.991452813    0.000000000
    0.282905549    0.891452670    0.144743800
    0.082905442    0.791452527    0.289487600
    0.132905677    0.691452742    0.072371759
    0.932905555    0.591452479    0.217115551
    0.732905507    0.491452396    0.361859351
    0.132905677    0.358119488    0.072371759
    0.932905555    0.258119285    0.217115551
    0.732905507    0.158119127    0.361859351
    0.132905677    0.024786137    0.072371759
    0.932905555    0.924785972    0.217115551
    0.732905507    0.824785829    0.361859351
    0.360717058    0.145018101    0.562104404
    0.332145452    0.416446716    0.657164693
    0.303573847    0.687875330    0.752224922
    0.503574133    0.287875235    0.562104404
    0.475002557    0.559303880    0.657164693
    0.446431041    0.830732524    0.752224922
    0.646431267    0.430732399    0.562104404
    0.617859721    0.702161014    0.657164693
    0.589288175    0.973589718    0.752224922
    0.789288402    0.573589563    0.562104404
    0.760716856    0.845018208    0.657164693
    0.732145309    0.116446853    0.752224922
    0.932145536    0.716446698    0.562104404
    0.903573930    0.987875283    0.657164693
    0.875002384    0.259303927    0.752224922
    0.075002670    0.859303772    0.562104404
    0.046431065    0.130732417    0.657164693
    0.017859578    0.402161002    0.752224922
    0.217859864    0.002161026    0.562104404
    0.189288378    0.273589611    0.657164693
    0.160716653    0.545018196    0.752224922
    0.453574151    0.887875080    0.609634459
    0.425002605    0.159303665    0.704694688
    0.396431118    0.430732369    0.799754918
    0.596431255    0.030732393    0.609634459
    0.567859709    0.302160978    0.704694688
    0.539288163    0.573589683    0.799754918
    0.739288449    0.173589468    0.609634459
    0.710716844    0.445018172    0.704694688
    0.682145238    0.716446757    0.799754858
    0.882145524    0.316446543    0.609634459
    0.853574038    0.587875187    0.704694688
    0.825002372    0.859303713    0.799754858
    0.025002718    0.459303826    0.609634459
    0.996431112    0.730732441    0.704694688
    0.967859566    0.002161145    0.799754858
    0.167859793    0.602160931    0.609634459
    0.139288187    0.873589575    0.704694688
    0.110716820    0.145018220    0.799754918
    0.310716987    0.745018065    0.609634459
    0.282145500    0.016446710    0.704694688
    0.253573895    0.287875175    0.799754858
    0.432145506    0.716446638    0.562104404
    0.403573990    0.987875283    0.657164693
    0.375002414    0.259303927    0.752224922
    0.575002670    0.859303772    0.562104404
    0.546431124    0.130732417    0.657164693
    0.517859638    0.402161121    0.752224922
    0.717859864    0.002160907    0.562104404
    0.689288378    0.273589611    0.657164693
    0.660716712    0.545018196    0.752224863
    0.860716999    0.145018101    0.562104404
    0.832145393    0.416446716    0.657164693
    0.803573847    0.687875330    0.752224922
    0.003574133    0.287875175    0.562104404
    0.975002587    0.559303820    0.657164693
    0.946431041    0.830732465    0.752224922
    0.146431327    0.430732399    0.562104404
    0.117859721    0.702161014    0.657164693
    0.089288235    0.973589659    0.752224922
    0.289288521    0.573589504    0.562104404
    0.260716915    0.845018148    0.657164693
    0.232145309    0.116446733    0.752224922
    0.382145554    0.316446573    0.609634459
    0.353574038    0.587875187    0.704694688
    0.325002432    0.859303832    0.799754858
    0.525002718    0.459303617    0.609634459
    0.496431172    0.730732262    0.704694688
    0.467859626    0.002160907    0.799754858
    0.667859793    0.602160931    0.609634459
    0.639288306    0.873589516    0.704694688
    0.610716701    0.145018101    0.799754918
    0.810716987    0.745018005    0.609634459
    0.782145381    0.016446590    0.704694688
    0.753573895    0.287875175    0.799754918
    0.953574061    0.887875021    0.609634459
    0.925002575    0.159303665    0.704694688
    0.896431029    0.430732369    0.799754918
    0.096431255    0.030732274    0.609634459
    0.067859650    0.302160978    0.704694688
    0.039288044    0.573589444    0.799754918
    0.239288330    0.173589349    0.609634459
    0.210716724    0.445017934    0.704694688
    0.182145119    0.716446519    0.799754858
