Si+C
    1.000000000
   13.303179741    0.000000000    0.000000000
   -6.651589394   11.520891190    0.000000000
    0.000000000    0.000000000   21.679418564
Si  C  
72     308
Direct
    0.348160356    0.681493700    0.000000013
    0.681493759    0.014827132    0.144634396
    0.014827251    0.348160625    0.289268821
    0.014827028    0.014827028    0.000000014
    0.348160386    0.348160386    0.144634396
    0.681493878    0.681493878    0.289268821
    0.681493700    0.348160356    0.000000000
    0.014827132    0.681493759    0.144634381
    0.348160625    0.014827251    0.289268792
    0.014827013    0.681493759    0.036158606
    0.348160386    0.014827132    0.180793002
    0.681493878    0.348160625    0.325427443
    0.348160416    0.348160416    0.036158621
    0.681493759    0.681493819    0.180793017
    0.014827251    0.014827251    0.325427443
    0.681493759    0.014827013    0.036158606
    0.014827132    0.348160386    0.180793002
    0.348160625    0.681493878    0.325427413
    0.014827028    0.514827013    0.000000017
    0.348160416    0.848160446    0.144634411
    0.681493819    0.181493878    0.289268821
    0.681493759    0.848160386    0.000000038
    0.014827132    0.181493759    0.144634396
    0.348160625    0.514827251    0.289268821
    0.348160386    0.181493685    0.000000008
    0.681493759    0.514827073    0.144634381
    0.014827132    0.848160505    0.289268792
    0.348160416    0.848160267    0.036158569
    0.681493878    0.181493759    0.180792972
    0.014827132    0.514827013    0.325427353
    0.014827132    0.181493700    0.036158592
    0.348160505    0.514827132    0.180792972
    0.681493759    0.848160446    0.325427324
    0.681493819    0.514827073    0.036158577
    0.014827251    0.848160505    0.180793002
    0.348160625    0.181493878    0.325427383
    0.181493700    0.848160386    0.000000024
    0.514827073    0.181493759    0.144634396
    0.848160565    0.514827251    0.289268821
    0.514827013    0.514827013    0.000000014
    0.848160446    0.848160386    0.144634396
    0.181493878    0.181493878    0.289268821
    0.848160386    0.181493700    0.000000005
    0.181493759    0.514827073    0.144634381
    0.514827251    0.848160565    0.289268821
    0.181493685    0.514827013    0.036158577
    0.514827132    0.848160505    0.180793002
    0.848160446    0.181493759    0.325427353
    0.848160386    0.848160386    0.036158558
    0.181493878    0.181493878    0.180793002
    0.514827251    0.514827251    0.325427383
    0.514827073    0.181493670    0.036158577
    0.848160505    0.514827132    0.180793002
    0.181493759    0.848160446    0.325427383
    0.181493700    0.348160356    0.000000013
    0.514827073    0.681493759    0.144634396
    0.848160505    0.014827132    0.289268821
    0.848160386    0.681493759    0.000000027
    0.181493759    0.014827132    0.144634396
    0.514827251    0.348160625    0.289268821
    0.514827013    0.014827021    0.000000013
    0.848160386    0.348160416    0.144634396
    0.181493878    0.681493819    0.289268821
    0.514827013    0.681493640    0.036158621
    0.848160386    0.014827013    0.180793002
    0.181493878    0.348160505    0.325427443
    0.181493655    0.014827013    0.036158614
    0.514827013    0.348160386    0.180793002
    0.848160446    0.681493878    0.325427443
    0.848160446    0.348160386    0.036158606
    0.181493878    0.681493759    0.180793002
    0.514827251    0.014827251    0.325427413
    0.779600143    0.135485172    0.900184751
    0.731981456    0.325961649    0.425242633
    0.541505158    0.087866306    0.520231068
    0.351028949    0.849771023    0.615219474
    0.160552621    0.611675620    0.710207880
    0.970076442    0.373580396    0.805196285
    0.922457278    0.564056575    0.900184751
    0.874838591    0.754533112    0.425242662
    0.684362292    0.516437769    0.520231068
    0.493886083    0.278342515    0.615219533
    0.303409785    0.040247202    0.710207939
    0.112933546    0.802151859    0.805196345
    0.493885845    0.278342247    0.900184751
    0.446267158    0.468818814    0.425242633
    0.255790889    0.230723470    0.520231068
    0.065314636    0.992628157    0.615219474
    0.874838233    0.754532754    0.710207939
    0.684362054    0.516437590    0.805196345
    0.636742949    0.706913710    0.900184751
    0.589124262    0.897390187    0.425242633
    0.398648053    0.659294903    0.520231068
    0.208171815    0.421199620    0.615219474
    0.017695427    0.183104277    0.710207880
    0.827219248    0.945008993    0.805196345
    0.065314434    0.992627919    0.900184751
    0.017695665    0.183104515    0.425242633
    0.827219427    0.945009172    0.520231068
    0.636743188    0.706913888    0.615219474
    0.446266860    0.468818545    0.710207880
    0.255790681    0.230723262    0.805196285
    0.208171576    0.421199381    0.900184751
    0.160552859    0.611675918    0.425242633
    0.970076561    0.373580605    0.520231068
    0.779600322    0.135485411    0.615219474
    0.589123964    0.897389948    0.710207939
    0.398647815    0.659294724    0.805196285
    0.351028711    0.849770844    0.900184751
    0.303409994    0.040247440    0.425242633
    0.112933740    0.802152038    0.520231068
    0.922457457    0.564056754    0.615219474
    0.731981158    0.325961381    0.710207939
    0.541504979    0.087866068    0.805196285
    0.970076621    0.373580635    0.448989779
    0.779600382    0.135485411    0.543978214
    0.589124143    0.897390068    0.638966620
    0.398647815    0.659294665    0.733955085
    0.208171517    0.421199322    0.828943491
    0.684362352    0.516437829    0.448989749
    0.493886143    0.278342545    0.543978155
    0.303409904    0.040247202    0.638966560
    0.112933606    0.802151918    0.733955026
    0.922457218    0.564056456    0.828943491
    0.827219546    0.945009291    0.448989749
    0.636743307    0.706914008    0.543978155
    0.446267068    0.468818694    0.638966620
    0.255790770    0.230723336    0.733955026
    0.065314442    0.992627919    0.828943491
    0.255790949    0.230723530    0.448989779
    0.065314688    0.992628217    0.543978214
    0.874838412    0.754532933    0.638966620
    0.684362054    0.516437531    0.733955085
    0.493885785    0.278342187    0.828943491
    0.398648113    0.659294963    0.448989779
    0.208171844    0.421199679    0.543978214
    0.017695665    0.183104277    0.638966620
    0.827219248    0.945008993    0.733955026
    0.636742949    0.706913590    0.828943491
    0.541505218    0.087866426    0.448989779
    0.351029038    0.849771142    0.543978214
    0.160552770    0.611675858    0.638966620
    0.970076442    0.373580456    0.733955026
    0.779600084    0.135485053    0.828943491
    0.112933770    0.802152097    0.448989779
    0.922457516    0.564056754    0.543978214
    0.731981277    0.325961500    0.638966620
    0.541504979    0.087866068    0.733955085
    0.351028651    0.849770725    0.828943491
    0.993885934    0.278342307    0.900184751
    0.946267188    0.468818814    0.425242633
    0.755790949    0.230723500    0.520231068
    0.565314710    0.992628217    0.615219474
    0.374838382    0.754532754    0.710207880
    0.184362203    0.516437590    0.805196345
    0.565314412    0.992627919    0.900184751
    0.517695725    0.183104515    0.425242633
    0.327219486    0.945009172    0.520231068
    0.136743218    0.706913888    0.615219474
    0.946266890    0.468818486    0.710207939
    0.755790651    0.230723202    0.805196345
    0.708171606    0.421199381    0.900184751
    0.660552859    0.611675978    0.425242662
    0.470076650    0.373580635    0.520231068
    0.279600412    0.135485411    0.615219533
    0.089124076    0.897389948    0.710207939
    0.898647785    0.659294724    0.805196345
    0.851028681    0.849770844    0.900184751
    0.803409994    0.040247440    0.425242633
    0.612933695    0.802152038    0.520231068
    0.422457486    0.564056754    0.615219533
    0.231981158    0.325961351    0.710207939
    0.041504942    0.087866068    0.805196345
    0.279600114    0.135485172    0.900184751
    0.231981426    0.325961649    0.425242633
    0.041505158    0.087866306    0.520231068
    0.851028919    0.849771082    0.615219474
    0.660552561    0.611675620    0.710207880
    0.470076412    0.373580337    0.805196345
    0.422457248    0.564056516    0.900184751
    0.374838561    0.754533112    0.425242633
    0.184362292    0.516437769    0.520231068
    0.993886054    0.278342485    0.615219474
    0.803409696    0.040247083    0.710207939
    0.612933517    0.802151859    0.805196345
    0.136742979    0.706913650    0.900184751
    0.089124277    0.897390187    0.425242633
    0.898647964    0.659294903    0.520231068
    0.708171725    0.421199620    0.615219474
    0.517695427    0.183104277    0.710207939
    0.327219218    0.945008934    0.805196345
    0.755791008    0.230723545    0.448989749
    0.565314770    0.992628217    0.543978214
    0.374838501    0.754532933    0.638966560
    0.184362173    0.516437590    0.733955026
    0.993885875    0.278342247    0.828943491
    0.898648143    0.659294963    0.448989749
    0.708171904    0.421199620    0.543978214
    0.517695606    0.183104277    0.638966620
    0.327219367    0.945008993    0.733955026
    0.136742994    0.706913590    0.828943491
    0.470076680    0.373580694    0.448989719
    0.279600382    0.135485411    0.543978155
    0.089124143    0.897390068    0.638966560
    0.898647904    0.659294784    0.733955026
    0.708171546    0.421199441    0.828943431
    0.612933815    0.802152157    0.448989719
    0.422457546    0.564056814    0.543978155
    0.231981337    0.325961530    0.638966560
    0.041505054    0.087866187    0.733955026
    0.851028800    0.849770844    0.828943372
    0.184362382    0.516437829    0.448989749
    0.993886054    0.278342485    0.543978214
    0.803409815    0.040247202    0.638966620
    0.612933576    0.802151918    0.733955026
    0.422457308    0.564056575    0.828943431
    0.327219516    0.945009291    0.448989749
    0.136743248    0.706913948    0.543978214
    0.946267009    0.468818665    0.638966560
    0.755790710    0.230723336    0.733955026
    0.565314472    0.992627978    0.828943491
    0.041505210    0.087866426    0.448989749
    0.851028919    0.849771142    0.543978214
    0.660552621    0.611675858    0.638966560
    0.470076412    0.373580515    0.733955026
    0.279600114    0.135485172    0.828943491
    0.922457337    0.064056635    0.900184751
    0.874838591    0.254533082    0.425242662
    0.684362352    0.016437769    0.520231068
    0.493886173    0.778342485    0.615219533
    0.303409785    0.540247083    0.710207939
    0.112933591    0.302151859    0.805196345
    0.636743069    0.206913710    0.900184751
    0.589124322    0.397390246    0.425242662
    0.398648083    0.159294844    0.520231068
    0.208171844    0.921199620    0.615219533
    0.017695546    0.683104277    0.710207939
    0.827219248    0.445009053    0.805196345
    0.779600143    0.635485053    0.900184751
    0.731981456    0.825961649    0.425242633
    0.541505158    0.587866306    0.520231068
    0.351028949    0.349771023    0.615219474
    0.160552621    0.111675739    0.710207880
    0.970076382    0.873580396    0.805196285
    0.351028770    0.349770784    0.900184751
    0.303410023    0.540247321    0.425242633
    0.112933740    0.302152038    0.520231068
    0.922457457    0.064056754    0.615219474
    0.731981158    0.825961351    0.710207939
    0.541504979    0.587866127    0.805196345
    0.493885905    0.778342247    0.900184751
    0.446267158    0.968818784    0.425242633
    0.255790889    0.730723500    0.520231068
    0.065314665    0.492628187    0.615219474
    0.874838293    0.254532784    0.710207880
    0.684362113    0.016437531    0.805196285
    0.065314375    0.492627978    0.900184751
    0.017695665    0.683104515    0.425242633
    0.827219427    0.445009172    0.520231068
    0.636743188    0.206913888    0.615219474
    0.446266860    0.968818486    0.710207939
    0.255790681    0.730723262    0.805196285
    0.208171576    0.921199381    0.900184751
    0.160552859    0.111675978    0.425242633
    0.970076561    0.873580635    0.520231068
    0.779600263    0.635485351    0.615219474
    0.589124084    0.397390127    0.710207820
    0.398647815    0.159294724    0.805196345
    0.827219546    0.445009172    0.448989779
    0.636743307    0.206913888    0.543978214
    0.446267039    0.968818605    0.638966620
    0.255790740    0.730723262    0.733955085
    0.065314397    0.492627800    0.828943491
    0.970076680    0.873580694    0.448989779
    0.779600382    0.635485411    0.543978214
    0.589124143    0.397390068    0.638966620
    0.398647875    0.159294724    0.733955085
    0.208171576    0.921199322    0.828943491
    0.541505218    0.587866426    0.448989749
    0.351028979    0.349771082    0.543978214
    0.160552770    0.111675739    0.638966620
    0.970076442    0.873580515    0.733955085
    0.779600143    0.635485172    0.828943491
    0.684362411    0.016437769    0.448989749
    0.493886113    0.778342485    0.543978214
    0.303409904    0.540247202    0.638966560
    0.112933658    0.302151889    0.733955026
    0.922457337    0.064056635    0.828943431
    0.112933807    0.302152067    0.448989749
    0.922457457    0.064056635    0.543978214
    0.731981277    0.825961411    0.638966560
    0.541504979    0.587866187    0.733955026
    0.351028770    0.349770844    0.828943431
    0.255790979    0.730723560    0.448989749
    0.065314680    0.492628187    0.543978214
    0.874838412    0.254532933    0.638966560
    0.684362173    0.016437531    0.733955026
    0.493885905    0.778342307    0.828943431
    0.398648113    0.159294844    0.448989719
    0.208171815    0.921199620    0.543978155
    0.017695546    0.683104336    0.638966560
    0.827219307    0.445008993    0.733955026
    0.636743009    0.206913650    0.828943372
    0.851028800    0.349770784    0.900184751
    0.803410053    0.540247321    0.425242662
    0.612933815    0.302152038    0.520231068
    0.422457606    0.064056754    0.615219533
    0.231981248    0.825961351    0.710207939
    0.041505016    0.587866068    0.805196404
    0.993885934    0.778342247    0.900184751
    0.946267247    0.968818784    0.425242633
    0.755790949    0.730723500    0.520231068
    0.565314710    0.492628217    0.615219474
    0.374838412    0.254532814    0.710207880
    0.184362203    0.016437531    0.805196285
    0.422457248    0.064056396    0.900184751
    0.374838591    0.254533052    0.425242633
    0.184362322    0.016437769    0.520231068
    0.993886054    0.778342426    0.615219474
    0.803409696    0.540247023    0.710207880
    0.612933517    0.302151799    0.805196345
    0.565314353    0.492627919    0.900184751
    0.517695725    0.683104515    0.425242633
    0.327219456    0.445009172    0.520231068
    0.136743218    0.206913903    0.615219474
    0.946266890    0.968818486    0.710207939
    0.755790591    0.730723262    0.805196345
    0.708171606    0.921199441    0.900184751
    0.660552919    0.111675978    0.425242633
    0.470076650    0.873580635    0.520231068
    0.279600412    0.635485411    0.615219474
    0.089124084    0.397389978    0.710207880
    0.898647845    0.159294844    0.805196285
    0.136742979    0.206913650    0.900184751
    0.089124285    0.397390217    0.425242633
    0.898647964    0.159294844    0.520231068
    0.708171725    0.921199620    0.615219474
    0.517695367    0.683104217    0.710207880
    0.327219218    0.445008993    0.805196345
    0.279600173    0.635485172    0.900184751
    0.231981426    0.825961709    0.425242633
    0.041505173    0.587866426    0.520231068
    0.851028919    0.349771112    0.615219474
    0.660552561    0.111675739    0.710207880
    0.470076412    0.873580515    0.805196285
    0.612933874    0.302152157    0.448989779
    0.422457606    0.064056873    0.543978214
    0.231981367    0.825961530    0.638966620
    0.041505069    0.587866187    0.733955085
    0.851028740    0.349770784    0.828943491
    0.755791008    0.730723560    0.448989749
    0.565314770    0.492628247    0.543978155
    0.374838531    0.254532933    0.638966620
    0.184362262    0.016437531    0.733955026
    0.993885875    0.778342187    0.828943491
    0.898648143    0.159294963    0.448989749
    0.708171904    0.921199620    0.543978214
    0.517695606    0.683104336    0.638966560
    0.327219337    0.445008993    0.733955026
    0.136743009    0.206913650    0.828943491
    0.327219576    0.445009261    0.448989749
    0.136743307    0.206913963    0.543978214
    0.946267009    0.968818665    0.638966620
    0.755790710    0.730723321    0.733955085
    0.565314412    0.492627919    0.828943491
    0.470076650    0.873580635    0.448989749
    0.279600412    0.635485411    0.543978214
    0.089124151    0.397390068    0.638966620
    0.898647845    0.159294724    0.733955026
    0.708171487    0.921199262    0.828943491
    0.041505255    0.587866426    0.448989749
    0.851028979    0.349771142    0.543978214
    0.660552740    0.111675739    0.638966620
    0.470076412    0.873580456    0.733955085
    0.279600114    0.635485053    0.828943491
    0.184362411    0.016437769    0.448989749
    0.993886113    0.778342545    0.543978214
    0.803409874    0.540247202    0.638966620
    0.612933636    0.302151918    0.733955026
    0.422457308    0.064056516    0.828943491
