Si+C
    1.000000000
   13.303179741    0.000000000    0.000000000
    6.651589394   14.873406410    0.000000000
    0.000000000    0.000000000    7.994752407
Si  C  
36     84
Direct
    0.283249497    0.641624749    0.000000047
    0.816582799    0.408291280    0.151900828
    0.349915981    0.174957767    0.303801656
    0.616582751    0.308291376    0.000000057
    0.149916053    0.074957930    0.151900828
    0.683249235    0.841624439    0.303801626
    0.949916124    0.974958062    0.000000040
    0.483249485    0.741624594    0.151900828
    0.016582668    0.508291125    0.303801626
    0.799916267    0.774958014    0.075950287
    0.333249509    0.541624546    0.227851093
    0.866582751    0.308291078    0.379751951
    0.133249685    0.441624761    0.075950302
    0.666582942    0.208291277    0.227851093
    0.199916244    0.974957764    0.379751951
    0.466582894    0.108291537    0.075950302
    0.999916136    0.874958038    0.227851093
    0.533249378    0.641624570    0.379751951
    0.783249557    0.641624749    0.000000000
    0.316582829    0.408291280    0.151900813
    0.849916041    0.174957782    0.303801656
    0.116582796    0.308291405    0.000000057
    0.649916053    0.074957952    0.151900858
    0.183249295    0.841624498    0.303801656
    0.449916124    0.974958062    0.000000057
    0.983249426    0.741624594    0.151900858
    0.516582668    0.508291125    0.303801656
    0.299916178    0.774958134    0.075950302
    0.833249450    0.541624665    0.227851152
    0.366582692    0.308291197    0.379751921
    0.633249402    0.441624731    0.075950317
    0.166582644    0.208291262    0.227851152
    0.699915946    0.974957824    0.379751891
    0.966582716    0.108291551    0.075950302
    0.499915957    0.874958038    0.227851152
    0.033249259    0.641624629    0.379751951
    0.249157429    0.888839900    0.764696479
    0.592014492    0.917411566    0.565175295
    0.920585990    0.903125763    0.664935887
    0.534871578    0.745982826    0.764696479
    0.877728820    0.774554431    0.565175295
    0.206300259    0.760268629    0.664935887
    0.820585847    0.603125691    0.764696479
    0.163442969    0.631697297    0.565175295
    0.492014438    0.617411494    0.664935887
    0.106300235    0.460268497    0.764696479
    0.449157357    0.488840103    0.565175235
    0.777728796    0.474554330    0.664935887
    0.392014533    0.317411363    0.764696479
    0.734871626    0.345982969    0.565175235
    0.063443065    0.331697196    0.664935887
    0.677728772    0.174554259    0.764696479
    0.020585895    0.203125864    0.565175235
    0.349157363    0.188840091    0.664935887
    0.963443160    0.031697154    0.764696538
    0.306300223    0.060268641    0.565175235
    0.634871721    0.045982957    0.664935887
    0.699157238    0.988839924    0.814576685
    0.042014360    0.017411470    0.615055501
    0.370585829    0.003125668    0.714816153
    0.984871507    0.845982790    0.814576685
    0.327728659    0.874554396    0.615055501
    0.656300068    0.860268533    0.714816153
    0.270585775    0.703125656    0.814576805
    0.613442957    0.731697261    0.615055442
    0.942014456    0.717411458    0.714816093
    0.556300163    0.560268581    0.814576685
    0.899157286    0.588840127    0.615055442
    0.227728724    0.574554384    0.714816153
    0.842014551    0.417411447    0.814576805
    0.184871674    0.445983022    0.615055442
    0.513442993    0.431697249    0.714816093
    0.127728701    0.274554253    0.814576805
    0.470585883    0.303125858    0.615055501
    0.799157381    0.288840055    0.714816153
    0.413443118    0.131697118    0.814576685
    0.756300211    0.160268724    0.615055501
    0.084871650    0.145982921    0.714816093
    0.749157310    0.888839960    0.764696479
    0.092014432    0.917411447    0.565175235
    0.420585781    0.903125763    0.664935946
    0.034871817    0.745982826    0.764696538
    0.377728820    0.774554431    0.565175235
    0.706300259    0.760268629    0.664935887
    0.320586115    0.603125691    0.764696538
    0.663443089    0.631697297    0.565175235
    0.992014527    0.617411494    0.664935887
    0.606300235    0.460268557    0.764696538
    0.949157357    0.488840133    0.565175235
    0.277728707    0.474554360    0.664935887
    0.892014384    0.317411482    0.764696538
    0.234871626    0.345982999    0.565175235
    0.563443065    0.331697196    0.664935887
    0.177728891    0.174554273    0.764696538
    0.520585895    0.203125834    0.565175295
    0.849157453    0.188840032    0.664935887
    0.463443071    0.031697154    0.764696538
    0.806300163    0.060268760    0.565175295
    0.134871602    0.045982957    0.664935887
    0.199157357    0.988840044    0.814576685
    0.542014480    0.017411590    0.615055501
    0.870585799    0.003125668    0.714816093
    0.484871656    0.845982850    0.814576685
    0.827728748    0.874554455    0.615055501
    0.156300187    0.860268593    0.714816093
    0.770585895    0.703125656    0.814576685
    0.113443136    0.731697261    0.615055501
    0.442014605    0.717411399    0.714816093
    0.056300044    0.560268581    0.814576626
    0.399157315    0.588840067    0.615055442
    0.727728724    0.574554324    0.714816093
    0.342014581    0.417411387    0.814576685
    0.684871733    0.445982963    0.615055442
    0.013443112    0.431697190    0.714816093
    0.627728581    0.274554223    0.814576685
    0.970585823    0.303125829    0.615055442
    0.299157172    0.288840055    0.714816093
    0.913442969    0.131697193    0.814576685
    0.256300211    0.160268694    0.615055501
    0.584871531    0.145982921    0.714816153
