Ge+Si                                   
   1.00000000000000     
     8.0013380049999991    0.0000000000000000    0.0000000000000000
     0.0000000000000000   16.0026760099999983    0.0000000000000000
     0.0000000000000000    0.0000000000000000   13.2643222810000001
   Ge   Si
    48    24
Direct
  0.0085417270000008  0.9957291480000023  0.0000000000000000
  0.2585417029999988  0.8707291480000023  0.2132713499999994
  0.5085417029999988  0.7457291480000023  0.4265427590000002
  0.5085417029999988  0.2457291190000035  0.0000000000000000
  0.7585416439999975  0.1207291329999975  0.2132713499999994
  0.0085415839999996  0.9957291480000023  0.4265427590000002
  0.0085417399999983  0.4957290890000010  0.0000000000000000
  0.2585417029999988  0.3707291190000035  0.2132713499999994
  0.5085417029999988  0.2457291190000035  0.4265427590000002
  0.5085417029999988  0.7457290890000010  0.0000000000000000
  0.7585416439999975  0.6207290890000010  0.2132713499999994
  0.0085417029999988  0.4957291190000035  0.4265427590000002
  0.0085417029999988  0.1207291560000030  0.1066356749999997
  0.2585417029999988  0.9957291480000023  0.3199070690000028
  0.5085417029999988  0.8707291480000023  0.5331784489999976
  0.5085417629999966  0.3707291190000035  0.1066356749999997
  0.7585417029999988  0.2457291480000023  0.3199070690000028
  0.0085417029999988  0.1207291329999975  0.5331784489999976
  0.0085415839999996  0.6207290890000010  0.1066356749999997
  0.2585415839999996  0.4957290890000010  0.3199070690000028
  0.5085415839999996  0.3707290589999985  0.5331784489999976
  0.5085417029999988  0.8707291480000023  0.1066356749999997
  0.7585417029999988  0.7457291480000023  0.3199070690000028
  0.0085417029999988  0.6207291480000023  0.5331784489999976
  0.5085417029999988  0.9957291480000023  0.0000000000000000
  0.7585416439999975  0.8707291480000023  0.2132713499999994
  0.0085415839999996  0.7457292080000002  0.4265427590000002
  0.0085417169999999  0.2457291329999975  0.0000000000000000
  0.2585417029999988  0.1207291329999975  0.2132713499999994
  0.5085417029999988  0.9957291480000023  0.4265427590000002
  0.5085417029999988  0.4957291480000023  0.0000000000000000
  0.7585417029999988  0.3707291480000023  0.2132713499999994
  0.0085417029999988  0.2457291630000000  0.4265427590000002
  0.0085417419999985  0.7457291480000023  0.0000000000000000
  0.2585416730000034  0.6207291480000023  0.2132713499999994
  0.5085417029999988  0.4957291480000023  0.4265427590000002
  0.5085417029999988  0.1207291329999975  0.1066356749999997
  0.7585417029999988  0.9957291480000023  0.3199070690000028
  0.0085417029999988  0.8707291480000023  0.5331784489999976
  0.0085417029999988  0.3707291190000035  0.1066356749999997
  0.2585415839999996  0.2457291190000035  0.3199070690000028
  0.5085417029999988  0.1207291110000028  0.5331784489999976
  0.5085417029999988  0.6207290890000010  0.1066356749999997
  0.7585416439999975  0.4957291190000035  0.3199070690000028
  0.0085417029999988  0.3707290890000010  0.5331784489999976
  0.0085415839999996  0.8707290890000010  0.1066356749999997
  0.2585415839999996  0.7457290890000010  0.3199070690000028
  0.5085415839999996  0.6207290890000010  0.5331784489999976
  0.1324353070000015  0.2265983819999988  0.6459554429999983
  0.3824353810000005  0.8377094270000001  0.6942089799999991
  0.6324353810000005  0.4488205310000026  0.7424625160000033
  0.8824354409999984  0.0599315170000025  0.7907159920000026
  0.1324355010000033  0.6710425619999967  0.8389695290000034
  0.3824356200000025  0.2821532489999967  0.8872228860000035
  0.8824353810000005  0.9765984419999967  0.6459554429999983
  0.1324353810000005  0.5877094270000001  0.6942089799999991
  0.3824353810000005  0.1988205910000005  0.7424624559999984
  0.6324356200000025  0.8099314569999976  0.7907159920000026
  0.8824355010000033  0.4210424420000010  0.8389694090000006
  0.1324357390000017  0.0321533680000030  0.8872229460000014
  0.3824353810000005  0.9765984419999967  0.6459554429999983
  0.6324353810000005  0.5877094270000001  0.6942089799999991
  0.8824354409999984  0.1988205910000005  0.7424624559999984
  0.1324355010000033  0.8099314569999976  0.7907159920000026
  0.3824355010000033  0.4210424420000010  0.8389694090000006
  0.6324356200000025  0.0321533680000030  0.8872229460000014
  0.6324353219999992  0.2265983819999988  0.6459554429999983
  0.8824353219999992  0.8377094270000001  0.6942089799999991
  0.1324353810000005  0.4488205310000026  0.7424625160000033
  0.3824353810000005  0.0599315170000025  0.7907159920000026
  0.6324357390000017  0.6710424420000010  0.8389694090000006
  0.8824356200000025  0.2821534870000022  0.8872228860000035
 
  0.00000000E+00  0.00000000E+00  0.00000000E+00
  0.00000000E+00  0.00000000E+00  0.00000000E+00
  0.00000000E+00  0.00000000E+00  0.00000000E+00
  0.00000000E+00  0.00000000E+00  0.00000000E+00
  0.00000000E+00  0.00000000E+00  0.00000000E+00
  0.00000000E+00  0.00000000E+00  0.00000000E+00
  0.00000000E+00  0.00000000E+00  0.00000000E+00
  0.00000000E+00  0.00000000E+00  0.00000000E+00
  0.00000000E+00  0.00000000E+00  0.00000000E+00
  0.00000000E+00  0.00000000E+00  0.00000000E+00
  0.00000000E+00  0.00000000E+00  0.00000000E+00
  0.00000000E+00  0.00000000E+00  0.00000000E+00
  0.00000000E+00  0.00000000E+00  0.00000000E+00
  0.00000000E+00  0.00000000E+00  0.00000000E+00
  0.00000000E+00  0.00000000E+00  0.00000000E+00
  0.00000000E+00  0.00000000E+00  0.00000000E+00
  0.00000000E+00  0.00000000E+00  0.00000000E+00
  0.00000000E+00  0.00000000E+00  0.00000000E+00
  0.00000000E+00  0.00000000E+00  0.00000000E+00
  0.00000000E+00  0.00000000E+00  0.00000000E+00
  0.00000000E+00  0.00000000E+00  0.00000000E+00
  0.00000000E+00  0.00000000E+00  0.00000000E+00
  0.00000000E+00  0.00000000E+00  0.00000000E+00
  0.00000000E+00  0.00000000E+00  0.00000000E+00
  0.00000000E+00  0.00000000E+00  0.00000000E+00
  0.00000000E+00  0.00000000E+00  0.00000000E+00
  0.00000000E+00  0.00000000E+00  0.00000000E+00
  0.00000000E+00  0.00000000E+00  0.00000000E+00
  0.00000000E+00  0.00000000E+00  0.00000000E+00
  0.00000000E+00  0.00000000E+00  0.00000000E+00
  0.00000000E+00  0.00000000E+00  0.00000000E+00
  0.00000000E+00  0.00000000E+00  0.00000000E+00
  0.00000000E+00  0.00000000E+00  0.00000000E+00
  0.00000000E+00  0.00000000E+00  0.00000000E+00
  0.00000000E+00  0.00000000E+00  0.00000000E+00
  0.00000000E+00  0.00000000E+00  0.00000000E+00
  0.00000000E+00  0.00000000E+00  0.00000000E+00
  0.00000000E+00  0.00000000E+00  0.00000000E+00
  0.00000000E+00  0.00000000E+00  0.00000000E+00
  0.00000000E+00  0.00000000E+00  0.00000000E+00
  0.00000000E+00  0.00000000E+00  0.00000000E+00
  0.00000000E+00  0.00000000E+00  0.00000000E+00
  0.00000000E+00  0.00000000E+00  0.00000000E+00
  0.00000000E+00  0.00000000E+00  0.00000000E+00
  0.00000000E+00  0.00000000E+00  0.00000000E+00
  0.00000000E+00  0.00000000E+00  0.00000000E+00
  0.00000000E+00  0.00000000E+00  0.00000000E+00
  0.00000000E+00  0.00000000E+00  0.00000000E+00
  0.00000000E+00  0.00000000E+00  0.00000000E+00
  0.00000000E+00  0.00000000E+00  0.00000000E+00
  0.00000000E+00  0.00000000E+00  0.00000000E+00
  0.00000000E+00  0.00000000E+00  0.00000000E+00
  0.00000000E+00  0.00000000E+00  0.00000000E+00
  0.00000000E+00  0.00000000E+00  0.00000000E+00
  0.00000000E+00  0.00000000E+00  0.00000000E+00
  0.00000000E+00  0.00000000E+00  0.00000000E+00
  0.00000000E+00  0.00000000E+00  0.00000000E+00
  0.00000000E+00  0.00000000E+00  0.00000000E+00
  0.00000000E+00  0.00000000E+00  0.00000000E+00
  0.00000000E+00  0.00000000E+00  0.00000000E+00
  0.00000000E+00  0.00000000E+00  0.00000000E+00
  0.00000000E+00  0.00000000E+00  0.00000000E+00
  0.00000000E+00  0.00000000E+00  0.00000000E+00
  0.00000000E+00  0.00000000E+00  0.00000000E+00
  0.00000000E+00  0.00000000E+00  0.00000000E+00
  0.00000000E+00  0.00000000E+00  0.00000000E+00
  0.00000000E+00  0.00000000E+00  0.00000000E+00
  0.00000000E+00  0.00000000E+00  0.00000000E+00
  0.00000000E+00  0.00000000E+00  0.00000000E+00
  0.00000000E+00  0.00000000E+00  0.00000000E+00
  0.00000000E+00  0.00000000E+00  0.00000000E+00
  0.00000000E+00  0.00000000E+00  0.00000000E+00
