Ge+Sn
    1.000000000
   11.315600395    0.000000000    0.000000000
  -11.315600395   16.002676010    0.000000000
    0.000000000    0.000000000   25.604219437
Ge  Sn 
96     72
Direct
    0.469067723    0.989689231    0.000000017
    0.094067708    0.864689231    0.078125209
    0.719067633    0.739689231    0.156250417
    0.344067693    0.614689231    0.234375581
    0.969067812    0.489689291    0.312500775
    0.594067693    0.364689231    0.390625983
    0.969067693    0.989689231    0.000000017
    0.594067693    0.864689231    0.078125209
    0.219067633    0.739689231    0.156250417
    0.844067693    0.614689231    0.234375581
    0.469067812    0.489689291    0.312500775
    0.094067693    0.364689231    0.390625983
    0.469067693    0.489689231    0.000000009
    0.094067700    0.364689231    0.078125209
    0.719067574    0.239689216    0.156250417
    0.344067693    0.114689231    0.234375581
    0.969067812    0.989689231    0.312500775
    0.594067693    0.864689231    0.390625983
    0.969067693    0.489689231    0.000000009
    0.594067693    0.364689231    0.078125209
    0.219067574    0.239689216    0.156250417
    0.844067693    0.114689231    0.234375581
    0.469067693    0.989689231    0.312500775
    0.094067574    0.864689231    0.390625983
    0.719067693    0.239689231    0.000000017
    0.344067663    0.114689231    0.078125209
    0.969067574    0.989689231    0.156250417
    0.594067693    0.864689231    0.234375581
    0.219067693    0.739689231    0.312500775
    0.844067574    0.614689231    0.390625983
    0.219067678    0.239689231    0.000000017
    0.844067693    0.114689231    0.078125209
    0.469067633    0.989689231    0.156250417
    0.094067693    0.864689231    0.234375581
    0.719067812    0.739689231    0.312500775
    0.344067693    0.614689231    0.390625983
    0.719067633    0.739689231    0.000000021
    0.344067663    0.614689231    0.078125224
    0.969067574    0.489689201    0.156250432
    0.594067633    0.364689231    0.234375611
    0.219067693    0.239689246    0.312500805
    0.844067693    0.114689231    0.390625983
    0.219067693    0.739689231    0.000000021
    0.844067693    0.614689231    0.078125224
    0.469067574    0.489689201    0.156250432
    0.094067693    0.364689231    0.234375611
    0.719067693    0.239689246    0.312500805
    0.344067574    0.114689231    0.390625983
    0.469067663    0.364689231    0.000000016
    0.094067693    0.239689231    0.078125216
    0.719067633    0.114689209    0.156250432
    0.344067693    0.989689231    0.234375611
    0.969067812    0.864689231    0.312500775
    0.594067693    0.739689231    0.390625983
    0.969067693    0.364689231    0.000000016
    0.594067693    0.239689231    0.078125216
    0.219067633    0.114689209    0.156250432
    0.844067693    0.989689231    0.234375611
    0.469067812    0.864689231    0.312500775
    0.094067693    0.739689231    0.390625983
    0.469067752    0.864689291    0.000000000
    0.094067737    0.739689291    0.078125209
    0.719067693    0.614689291    0.156250402
    0.344067693    0.489689291    0.234375581
    0.969067812    0.364689291    0.312500775
    0.594067693    0.239689291    0.390625954
    0.969067693    0.864689291    0.000000000
    0.594067574    0.739689291    0.078125209
    0.219067574    0.614689291    0.156250402
    0.844067574    0.489689291    0.234375581
    0.469067574    0.364689291    0.312500775
    0.094067693    0.239689291    0.390625954
    0.719067693    0.114689223    0.000000017
    0.344067663    0.989689231    0.078125209
    0.969067633    0.864689231    0.156250417
    0.594067693    0.739689231    0.234375611
    0.219067693    0.614689231    0.312500775
    0.844067693    0.489689231    0.390625983
    0.219067678    0.114689223    0.000000017
    0.844067693    0.989689231    0.078125209
    0.469067633    0.864689231    0.156250417
    0.094067693    0.739689231    0.234375611
    0.719067812    0.614689231    0.312500775
    0.344067693    0.489689231    0.390625983
    0.719067693    0.614689231    0.000000015
    0.344067693    0.489689231    0.078125216
    0.969067633    0.364689231    0.156250417
    0.594067693    0.239689231    0.234375611
    0.219067752    0.114689253    0.312500775
    0.844067574    0.989689231    0.390625983
    0.219067723    0.614689231    0.000000015
    0.844067693    0.489689231    0.078125216
    0.469067633    0.364689231    0.156250417
    0.094067693    0.239689231    0.234375611
    0.719067812    0.114689253    0.312500775
    0.344067693    0.989689231    0.390625983
    0.512027144    0.264133453    0.471299201
    0.762027144    0.514133453    0.560904682
    0.012027383    0.764133692    0.650510252
    0.262027621    0.014133811    0.740115762
    0.512027502    0.264133811    0.829721272
    0.762027621    0.514133930    0.919326842
    0.178693801    0.597466707    0.471299201
    0.428693831    0.847466826    0.560904741
    0.678694069    0.097466946    0.650510252
    0.928694248    0.347467065    0.740115821
    0.178694263    0.597467184    0.829721272
    0.428694367    0.847467303    0.919326842
    0.845360518    0.930800080    0.471299201
    0.095360637    0.180800200    0.560904741
    0.345360756    0.430800200    0.650510252
    0.595360994    0.680800438    0.740115762
    0.845360875    0.930800438    0.829721272
    0.095361233    0.180800676    0.919326842
    0.345360488    0.430800200    0.471299171
    0.595360458    0.680800200    0.560904682
    0.845360696    0.930800319    0.650510252
    0.095360994    0.180800438    0.740115762
    0.345360756    0.430800557    0.829721272
    0.595360994    0.680800796    0.919326842
    0.678693891    0.097466707    0.471299201
    0.928693771    0.347466826    0.560904741
    0.178694025    0.597466946    0.650510252
    0.428694248    0.847467184    0.740115762
    0.678694248    0.097467065    0.829721272
    0.928694129    0.347467303    0.919326842
    0.012027264    0.764133394    0.471299201
    0.262027383    0.014133453    0.560904741
    0.512027502    0.264133692    0.650510252
    0.762027621    0.514133811    0.740115762
    0.012027502    0.764133811    0.829721272
    0.262027860    0.014134049    0.919326842
    0.262027204    0.264133453    0.471299171
    0.512027264    0.514133453    0.560904741
    0.762027264    0.764133573    0.650510252
    0.012027502    0.014133692    0.740115762
    0.262027502    0.264133692    0.829721272
    0.512027502    0.514133930    0.919326842
    0.595360518    0.930800080    0.471299201
    0.845360518    0.180800080    0.560904741
    0.095360756    0.430800200    0.650510252
    0.345360875    0.680800319    0.740115762
    0.595360756    0.930800438    0.829721272
    0.845360875    0.180800557    0.919326842
    0.928693831    0.597466707    0.471299201
    0.178693905    0.847466826    0.560904741
    0.428694010    0.097466946    0.650510252
    0.678694248    0.347467065    0.740115821
    0.928694367    0.597467184    0.829721272
    0.178694382    0.847467184    0.919326842
    0.428693831    0.097466826    0.471299201
    0.678693891    0.347466707    0.560904741
    0.928693950    0.597466946    0.650510252
    0.178694144    0.847467065    0.740115821
    0.428694129    0.097467065    0.829721272
    0.678694248    0.347467303    0.919326782
    0.095360518    0.430800080    0.471299201
    0.345360637    0.680800200    0.560904741
    0.595360756    0.930800319    0.650510252
    0.845360994    0.180800438    0.740115821
    0.095360875    0.430800438    0.829721272
    0.345361352    0.680800796    0.919326782
    0.762027204    0.764133453    0.471299201
    0.012027144    0.014133453    0.560904741
    0.262027264    0.264133692    0.650510252
    0.512027383    0.514133692    0.740115762
    0.762027383    0.764133811    0.829721272
    0.012027383    0.014133930    0.919326842
