Sn+Ge                                   
   1.00000000000000     
    15.8952283859999994    0.0000000000000000    0.0000000000000000
   -15.8952302929999991   11.2396249770000001    0.0000000000000000
     0.0000000000000000    0.0000000000000000   21.4730720519999991
   Sn   Ge
    72    96
Direct
  0.6581405399999980  0.3674380779999993  0.0000000180000015
  0.5748071069999980  0.7007714510000014  0.1068444619999980
  0.4914736750000017  0.0341049430000027  0.2136889849999974
  0.4081402119999993  0.3674383159999977  0.3205333949999982
  0.3248068689999997  0.7007719280000018  0.4273779390000030
  0.2414733020000028  0.0341053009999968  0.5342223640000014
  0.9914737940000009  0.0341047309999993  0.0000000180000015
  0.9081403610000010  0.3674381379999971  0.1068444850000034
  0.8248069289999975  0.7007716299999984  0.2136889849999974
  0.7414735560000025  0.0341049430000027  0.3205333949999982
  0.6581400629999976  0.3674385549999997  0.4273779390000030
  0.5748066900000026  0.7007719280000018  0.5342223640000014
  0.3248071670000030  0.7007713910000035  0.0000000000000000
  0.2414737340000030  0.0341048240000035  0.1068444479999968
  0.1581403169999973  0.3674383159999977  0.2136889100000019
  0.0748068469999978  0.7007716889999998  0.3205333949999982
  0.9914734359999997  0.0341050620000019  0.4273778499999992
  0.9081400629999976  0.3674385549999997  0.5342223640000014
  0.4914738240000034  0.0341047349999997  0.0000000109999974
  0.4081403910000034  0.3674381080000018  0.1068444850000034
  0.3248069580000035  0.7007716299999984  0.2136889550000021
  0.2414735110000024  0.0341049430000027  0.3205333949999982
  0.1581401230000026  0.3674385549999997  0.4273779390000030
  0.0748066230000006  0.7007719280000018  0.5342223640000014
  0.8248071670000030  0.7007713910000035  0.0000000140000012
  0.7414737940000009  0.0341048240000035  0.1068444329999991
  0.6581403019999996  0.3674381969999985  0.2136889550000021
  0.5748069289999975  0.7007716889999998  0.3205333949999982
  0.4914734959999976  0.0341050620000019  0.4273778499999992
  0.4081399140000030  0.3674385549999997  0.5342223640000014
  0.1581404809999967  0.3674380479999968  0.0000000149999977
  0.0748070630000015  0.7007714510000014  0.1068444770000028
  0.9914735560000025  0.0341048240000035  0.2136889550000021
  0.9081401819999968  0.3674383159999977  0.3205333949999982
  0.8248067500000005  0.7007718090000026  0.4273779390000030
  0.7414733170000005  0.0341053009999968  0.5342223640000014
  0.7414737940000009  0.2841047049999972  0.0000000189999980
  0.6581404809999967  0.6174380779999993  0.1068444619999980
  0.5748069879999989  0.9507715700000006  0.2136889550000021
  0.4914735850000014  0.2841050620000019  0.3205334250000007
  0.4081401230000026  0.6174384360000005  0.4273779390000030
  0.3248066900000026  0.9507719280000018  0.5342223050000001
  0.4081405100000026  0.6174380779999993  0.0000000000000000
  0.3248070779999992  0.9507715109999992  0.1068444850000034
  0.2414736449999992  0.2841049430000027  0.2136889849999974
  0.1581403019999996  0.6174384360000005  0.3205334250000007
  0.0748068170000025  0.9507719280000018  0.4273778199999967
  0.9914733170000005  0.2841053009999968  0.5342224239999993
  0.0748071450000012  0.9507714510000014  0.0000000229999984
  0.9914736750000017  0.2841048240000035  0.1068444479999968
  0.9081403019999996  0.6174383159999977  0.2136889849999974
  0.8248069289999975  0.9507718090000026  0.3205333949999982
  0.7414735560000025  0.2841053009999968  0.4273778499999992
  0.6581401819999968  0.6174387929999980  0.5342224239999993
  0.9081404809999967  0.6174380779999993  0.0000000209999982
  0.8248070479999967  0.9507715109999992  0.1068444619999980
  0.7414736149999968  0.2841049430000027  0.2136889550000021
  0.6581401819999968  0.6174383159999977  0.3205333949999982
  0.5748067500000005  0.9507719280000018  0.4273779090000005
  0.4914732579999992  0.2841053009999968  0.5342223050000001
  0.2414738390000011  0.2841047349999997  0.0000000129999975
  0.1581404359999965  0.6174381379999971  0.1068444920000005
  0.0748070180000013  0.9507716299999984  0.2136889849999974
  0.9914736149999968  0.2841050620000019  0.3205334250000007
  0.9081401230000026  0.6174384360000005  0.4273779390000030
  0.8248066900000026  0.9507719280000018  0.5342223640000014
  0.5748071069999980  0.9507715109999992  0.0000000409999998
  0.4914736750000017  0.2841048240000035  0.1068444850000034
  0.4081402119999993  0.6174383159999977  0.2136889550000021
  0.3248068090000018  0.9507716889999998  0.3205333949999982
  0.2414734359999997  0.2841053009999968  0.4273779090000005
  0.1581399590000032  0.6174387929999980  0.5342223640000014
  0.9690676929999995  0.4793784920000022  0.5342224839999972
  0.5940676929999995  0.2293784769999974  0.6273779870000027
  0.2190676330000016  0.9793784020000018  0.7205334900000011
  0.8440676929999995  0.7293784619999997  0.8136889929999995
  0.4690678119999987  0.4793785210000010  0.9068444970000016
  0.0940676929999995  0.2293784619999997  0.9999998810000008
  0.9690676929999995  0.9793784619999997  0.5342224839999972
  0.5940676929999995  0.7293784619999997  0.6273779870000027
  0.2190676330000016  0.4793784020000018  0.7205334900000011
  0.8440676929999995  0.2293784619999997  0.8136889929999995
  0.4690678119999987  0.9793785809999989  0.9068444970000016
  0.0940676929999995  0.7293784619999997  0.9999998810000008
  0.4690677230000020  0.4793784920000022  0.5342224839999972
  0.0940677079999972  0.2293784769999974  0.6273779870000027
  0.7190676330000016  0.9793784020000018  0.7205334900000011
  0.3440677520000008  0.7293784619999997  0.8136889929999995
  0.9690678119999987  0.4793785210000010  0.9068444970000016
  0.5940676929999995  0.2293784619999997  0.9999998810000008
  0.4690676929999995  0.9793784619999997  0.5342224839999972
  0.0940676999999965  0.7293784619999997  0.6273779870000027
  0.7190676330000016  0.4793784020000018  0.7205334900000011
  0.3440676929999995  0.2293784619999997  0.8136889929999995
  0.9690678119999987  0.9793785809999989  0.9068444970000016
  0.5940676929999995  0.7293784619999997  0.9999998810000008
  0.2190677079999972  0.4793784920000022  0.5342224839999972
  0.8440676929999995  0.2293784769999974  0.6273779870000027
  0.4690676330000016  0.9793784020000018  0.7205334900000011
  0.0940676929999995  0.7293784619999997  0.8136889929999995
  0.7190678119999987  0.4793785210000010  0.9068444970000016
  0.3440676929999995  0.2293784619999997  0.9999998810000008
  0.2190676780000018  0.9793784619999997  0.5342224839999972
  0.8440676929999995  0.7293784619999997  0.6273779870000027
  0.4690676330000016  0.4793784020000018  0.7205334900000011
  0.0940676929999995  0.2293784619999997  0.8136889929999995
  0.7190678119999987  0.9793785809999989  0.9068444970000016
  0.3440676929999995  0.7293784619999997  0.9999998810000008
  0.7190676929999995  0.4793784920000022  0.5342224839999972
  0.3440677230000020  0.2293784769999974  0.6273779870000027
  0.9690676330000016  0.9793784020000018  0.7205334900000011
  0.5940676929999995  0.7293784619999997  0.8136889929999995
  0.2190677520000008  0.4793785210000010  0.9068444970000016
  0.8440676929999995  0.2293784619999997  0.9999998810000008
  0.7190676330000016  0.9793784619999997  0.5342224839999972
  0.3440676929999995  0.7293784619999997  0.6273779870000027
  0.9690676330000016  0.4793784020000018  0.7205334900000011
  0.5940676929999995  0.2293784619999997  0.8136889929999995
  0.2190678719999966  0.9793785809999989  0.9068444970000016
  0.8440676929999995  0.7293784619999997  0.9999998810000008
  0.2190677370000031  0.8543785210000010  0.5342224839999972
  0.8440676929999995  0.6043784619999997  0.6273779870000027
  0.4690676929999995  0.3543784619999997  0.7205334900000011
  0.0940677520000008  0.1043784989999992  0.8136889929999995
  0.7190678119999987  0.8543785210000010  0.9068444970000016
  0.3440676929999995  0.6043785210000010  0.9999998810000008
  0.2190676780000018  0.3543784619999997  0.5342224839999972
  0.8440676929999995  0.1043784619999997  0.6273779870000027
  0.4690676330000016  0.8543784020000018  0.7205334900000011
  0.0940676330000016  0.6043784619999997  0.8136889929999995
  0.7190676929999995  0.3543784619999997  0.9068444970000016
  0.3440675740000003  0.1043784020000018  0.9999998810000008
  0.7190677520000008  0.8543785210000010  0.5342224839999972
  0.3440676629999970  0.6043784619999997  0.6273779870000027
  0.9690676330000016  0.3543784619999997  0.7205334900000011
  0.5940676929999995  0.1043784989999992  0.8136889929999995
  0.2190678119999987  0.8543785210000010  0.9068444970000016
  0.8440676929999995  0.6043785210000010  0.9999998810000008
  0.7190676929999995  0.3543784619999997  0.5342224839999972
  0.3440676929999995  0.1043784619999997  0.6273779870000027
  0.9690676330000016  0.8543784020000018  0.7205334900000011
  0.5940676929999995  0.6043784619999997  0.8136889929999995
  0.2190677520000008  0.3543784619999997  0.9068444970000016
  0.8440675740000003  0.1043784020000018  0.9999998810000008
  0.9690676929999995  0.8543785210000010  0.5342224839999972
  0.5940676330000016  0.6043784619999997  0.6273779870000027
  0.2190676330000016  0.3543784619999997  0.7205334900000011
  0.8440675740000003  0.1043784989999992  0.8136889929999995
  0.4690678119999987  0.8543785210000010  0.9068444970000016
  0.0940676929999995  0.6043785210000010  0.9999998810000008
  0.9690676929999995  0.3543784619999997  0.5342224839999972
  0.5940676929999995  0.1043784619999997  0.6273779870000027
  0.2190676330000016  0.8543784020000018  0.7205334900000011
  0.8440676929999995  0.6043784619999997  0.8136889929999995
  0.4690676929999995  0.3543784619999997  0.9068444970000016
  0.0940676929999995  0.1043784020000018  0.9999998810000008
  0.4690677520000008  0.8543785210000010  0.5342224839999972
  0.0940676849999988  0.6043784619999997  0.6273779870000027
  0.7190676929999995  0.3543784619999997  0.7205334900000011
  0.3440677520000008  0.1043784989999992  0.8136889929999995
  0.9690678119999987  0.8543785210000010  0.9068444970000016
  0.5940678119999987  0.6043785210000010  0.9999998810000008
  0.4690676929999995  0.3543784619999997  0.5342224839999972
  0.0940676929999995  0.1043784619999997  0.6273779870000027
  0.7190676330000016  0.8543784020000018  0.7205334900000011
  0.3440676929999995  0.6043784619999997  0.8136889929999995
  0.9690676929999995  0.3543784619999997  0.9068444970000016
  0.5940676929999995  0.1043784020000018  0.9999998810000008
 
  0.00000000E+00  0.00000000E+00  0.00000000E+00
  0.00000000E+00  0.00000000E+00  0.00000000E+00
  0.00000000E+00  0.00000000E+00  0.00000000E+00
  0.00000000E+00  0.00000000E+00  0.00000000E+00
  0.00000000E+00  0.00000000E+00  0.00000000E+00
  0.00000000E+00  0.00000000E+00  0.00000000E+00
  0.00000000E+00  0.00000000E+00  0.00000000E+00
  0.00000000E+00  0.00000000E+00  0.00000000E+00
  0.00000000E+00  0.00000000E+00  0.00000000E+00
  0.00000000E+00  0.00000000E+00  0.00000000E+00
  0.00000000E+00  0.00000000E+00  0.00000000E+00
  0.00000000E+00  0.00000000E+00  0.00000000E+00
  0.00000000E+00  0.00000000E+00  0.00000000E+00
  0.00000000E+00  0.00000000E+00  0.00000000E+00
  0.00000000E+00  0.00000000E+00  0.00000000E+00
  0.00000000E+00  0.00000000E+00  0.00000000E+00
  0.00000000E+00  0.00000000E+00  0.00000000E+00
  0.00000000E+00  0.00000000E+00  0.00000000E+00
  0.00000000E+00  0.00000000E+00  0.00000000E+00
  0.00000000E+00  0.00000000E+00  0.00000000E+00
  0.00000000E+00  0.00000000E+00  0.00000000E+00
  0.00000000E+00  0.00000000E+00  0.00000000E+00
  0.00000000E+00  0.00000000E+00  0.00000000E+00
  0.00000000E+00  0.00000000E+00  0.00000000E+00
  0.00000000E+00  0.00000000E+00  0.00000000E+00
  0.00000000E+00  0.00000000E+00  0.00000000E+00
  0.00000000E+00  0.00000000E+00  0.00000000E+00
  0.00000000E+00  0.00000000E+00  0.00000000E+00
  0.00000000E+00  0.00000000E+00  0.00000000E+00
  0.00000000E+00  0.00000000E+00  0.00000000E+00
  0.00000000E+00  0.00000000E+00  0.00000000E+00
  0.00000000E+00  0.00000000E+00  0.00000000E+00
  0.00000000E+00  0.00000000E+00  0.00000000E+00
  0.00000000E+00  0.00000000E+00  0.00000000E+00
  0.00000000E+00  0.00000000E+00  0.00000000E+00
  0.00000000E+00  0.00000000E+00  0.00000000E+00
  0.00000000E+00  0.00000000E+00  0.00000000E+00
  0.00000000E+00  0.00000000E+00  0.00000000E+00
  0.00000000E+00  0.00000000E+00  0.00000000E+00
  0.00000000E+00  0.00000000E+00  0.00000000E+00
  0.00000000E+00  0.00000000E+00  0.00000000E+00
  0.00000000E+00  0.00000000E+00  0.00000000E+00
  0.00000000E+00  0.00000000E+00  0.00000000E+00
  0.00000000E+00  0.00000000E+00  0.00000000E+00
  0.00000000E+00  0.00000000E+00  0.00000000E+00
  0.00000000E+00  0.00000000E+00  0.00000000E+00
  0.00000000E+00  0.00000000E+00  0.00000000E+00
  0.00000000E+00  0.00000000E+00  0.00000000E+00
  0.00000000E+00  0.00000000E+00  0.00000000E+00
  0.00000000E+00  0.00000000E+00  0.00000000E+00
  0.00000000E+00  0.00000000E+00  0.00000000E+00
  0.00000000E+00  0.00000000E+00  0.00000000E+00
  0.00000000E+00  0.00000000E+00  0.00000000E+00
  0.00000000E+00  0.00000000E+00  0.00000000E+00
  0.00000000E+00  0.00000000E+00  0.00000000E+00
  0.00000000E+00  0.00000000E+00  0.00000000E+00
  0.00000000E+00  0.00000000E+00  0.00000000E+00
  0.00000000E+00  0.00000000E+00  0.00000000E+00
  0.00000000E+00  0.00000000E+00  0.00000000E+00
  0.00000000E+00  0.00000000E+00  0.00000000E+00
  0.00000000E+00  0.00000000E+00  0.00000000E+00
  0.00000000E+00  0.00000000E+00  0.00000000E+00
  0.00000000E+00  0.00000000E+00  0.00000000E+00
  0.00000000E+00  0.00000000E+00  0.00000000E+00
  0.00000000E+00  0.00000000E+00  0.00000000E+00
  0.00000000E+00  0.00000000E+00  0.00000000E+00
  0.00000000E+00  0.00000000E+00  0.00000000E+00
  0.00000000E+00  0.00000000E+00  0.00000000E+00
  0.00000000E+00  0.00000000E+00  0.00000000E+00
  0.00000000E+00  0.00000000E+00  0.00000000E+00
  0.00000000E+00  0.00000000E+00  0.00000000E+00
  0.00000000E+00  0.00000000E+00  0.00000000E+00
  0.00000000E+00  0.00000000E+00  0.00000000E+00
  0.00000000E+00  0.00000000E+00  0.00000000E+00
  0.00000000E+00  0.00000000E+00  0.00000000E+00
  0.00000000E+00  0.00000000E+00  0.00000000E+00
  0.00000000E+00  0.00000000E+00  0.00000000E+00
  0.00000000E+00  0.00000000E+00  0.00000000E+00
  0.00000000E+00  0.00000000E+00  0.00000000E+00
  0.00000000E+00  0.00000000E+00  0.00000000E+00
  0.00000000E+00  0.00000000E+00  0.00000000E+00
  0.00000000E+00  0.00000000E+00  0.00000000E+00
  0.00000000E+00  0.00000000E+00  0.00000000E+00
  0.00000000E+00  0.00000000E+00  0.00000000E+00
  0.00000000E+00  0.00000000E+00  0.00000000E+00
  0.00000000E+00  0.00000000E+00  0.00000000E+00
  0.00000000E+00  0.00000000E+00  0.00000000E+00
  0.00000000E+00  0.00000000E+00  0.00000000E+00
  0.00000000E+00  0.00000000E+00  0.00000000E+00
  0.00000000E+00  0.00000000E+00  0.00000000E+00
  0.00000000E+00  0.00000000E+00  0.00000000E+00
  0.00000000E+00  0.00000000E+00  0.00000000E+00
  0.00000000E+00  0.00000000E+00  0.00000000E+00
  0.00000000E+00  0.00000000E+00  0.00000000E+00
  0.00000000E+00  0.00000000E+00  0.00000000E+00
  0.00000000E+00  0.00000000E+00  0.00000000E+00
  0.00000000E+00  0.00000000E+00  0.00000000E+00
  0.00000000E+00  0.00000000E+00  0.00000000E+00
  0.00000000E+00  0.00000000E+00  0.00000000E+00
  0.00000000E+00  0.00000000E+00  0.00000000E+00
  0.00000000E+00  0.00000000E+00  0.00000000E+00
  0.00000000E+00  0.00000000E+00  0.00000000E+00
  0.00000000E+00  0.00000000E+00  0.00000000E+00
  0.00000000E+00  0.00000000E+00  0.00000000E+00
  0.00000000E+00  0.00000000E+00  0.00000000E+00
  0.00000000E+00  0.00000000E+00  0.00000000E+00
  0.00000000E+00  0.00000000E+00  0.00000000E+00
  0.00000000E+00  0.00000000E+00  0.00000000E+00
  0.00000000E+00  0.00000000E+00  0.00000000E+00
  0.00000000E+00  0.00000000E+00  0.00000000E+00
  0.00000000E+00  0.00000000E+00  0.00000000E+00
  0.00000000E+00  0.00000000E+00  0.00000000E+00
  0.00000000E+00  0.00000000E+00  0.00000000E+00
  0.00000000E+00  0.00000000E+00  0.00000000E+00
  0.00000000E+00  0.00000000E+00  0.00000000E+00
  0.00000000E+00  0.00000000E+00  0.00000000E+00
  0.00000000E+00  0.00000000E+00  0.00000000E+00
  0.00000000E+00  0.00000000E+00  0.00000000E+00
  0.00000000E+00  0.00000000E+00  0.00000000E+00
  0.00000000E+00  0.00000000E+00  0.00000000E+00
  0.00000000E+00  0.00000000E+00  0.00000000E+00
  0.00000000E+00  0.00000000E+00  0.00000000E+00
  0.00000000E+00  0.00000000E+00  0.00000000E+00
  0.00000000E+00  0.00000000E+00  0.00000000E+00
  0.00000000E+00  0.00000000E+00  0.00000000E+00
  0.00000000E+00  0.00000000E+00  0.00000000E+00
  0.00000000E+00  0.00000000E+00  0.00000000E+00
  0.00000000E+00  0.00000000E+00  0.00000000E+00
  0.00000000E+00  0.00000000E+00  0.00000000E+00
  0.00000000E+00  0.00000000E+00  0.00000000E+00
  0.00000000E+00  0.00000000E+00  0.00000000E+00
  0.00000000E+00  0.00000000E+00  0.00000000E+00
  0.00000000E+00  0.00000000E+00  0.00000000E+00
  0.00000000E+00  0.00000000E+00  0.00000000E+00
  0.00000000E+00  0.00000000E+00  0.00000000E+00
  0.00000000E+00  0.00000000E+00  0.00000000E+00
  0.00000000E+00  0.00000000E+00  0.00000000E+00
  0.00000000E+00  0.00000000E+00  0.00000000E+00
  0.00000000E+00  0.00000000E+00  0.00000000E+00
  0.00000000E+00  0.00000000E+00  0.00000000E+00
  0.00000000E+00  0.00000000E+00  0.00000000E+00
  0.00000000E+00  0.00000000E+00  0.00000000E+00
  0.00000000E+00  0.00000000E+00  0.00000000E+00
  0.00000000E+00  0.00000000E+00  0.00000000E+00
  0.00000000E+00  0.00000000E+00  0.00000000E+00
  0.00000000E+00  0.00000000E+00  0.00000000E+00
  0.00000000E+00  0.00000000E+00  0.00000000E+00
  0.00000000E+00  0.00000000E+00  0.00000000E+00
  0.00000000E+00  0.00000000E+00  0.00000000E+00
  0.00000000E+00  0.00000000E+00  0.00000000E+00
  0.00000000E+00  0.00000000E+00  0.00000000E+00
  0.00000000E+00  0.00000000E+00  0.00000000E+00
  0.00000000E+00  0.00000000E+00  0.00000000E+00
  0.00000000E+00  0.00000000E+00  0.00000000E+00
  0.00000000E+00  0.00000000E+00  0.00000000E+00
  0.00000000E+00  0.00000000E+00  0.00000000E+00
  0.00000000E+00  0.00000000E+00  0.00000000E+00
  0.00000000E+00  0.00000000E+00  0.00000000E+00
  0.00000000E+00  0.00000000E+00  0.00000000E+00
  0.00000000E+00  0.00000000E+00  0.00000000E+00
  0.00000000E+00  0.00000000E+00  0.00000000E+00
  0.00000000E+00  0.00000000E+00  0.00000000E+00
  0.00000000E+00  0.00000000E+00  0.00000000E+00
  0.00000000E+00  0.00000000E+00  0.00000000E+00
  0.00000000E+00  0.00000000E+00  0.00000000E+00
  0.00000000E+00  0.00000000E+00  0.00000000E+00
  0.00000000E+00  0.00000000E+00  0.00000000E+00
  0.00000000E+00  0.00000000E+00  0.00000000E+00
