Si+Si
    1.000000000
    5.431000233    0.000000000    0.000000000
   -5.431000233   10.862000465    0.000000000
    0.000000000    0.000000000   13.577501297
Si 
48
Direct
    0.017796859    0.000000000    0.000000000
    0.517796874    0.000000000    0.200000003
    0.017796874    0.000000000    0.400000006
    0.517796874    0.500000000    0.000000000
    0.017796874    0.500000000    0.200000003
    0.517796874    0.500000000    0.400000006
    0.892796934    0.125000000    0.100000001
    0.392796874    0.125000000    0.300000042
    0.892796993    0.125000000    0.500000000
    0.392796844    0.625000000    0.100000001
    0.892796874    0.625000000    0.300000042
    0.392796993    0.625000000    0.500000000
    0.767796874    0.250000000    0.000000000
    0.267796874    0.250000000    0.200000003
    0.767796993    0.250000000    0.400000006
    0.267796874    0.750000060    0.000000000
    0.767796934    0.750000060    0.200000003
    0.267796993    0.750000060    0.400000006
    0.642796934    0.375000030    0.100000001
    0.142796993    0.375000030    0.300000042
    0.642796993    0.375000030    0.500000000
    0.142796993    0.875000060    0.100000001
    0.642796993    0.875000060    0.300000042
    0.142796993    0.875000060    0.500000000
    0.517796874    0.500000000    0.500000000
    0.017796874    0.500000000    0.699999988
    0.517796874    0.500000000    0.899999976
    0.017796859    0.000000000    0.500000000
    0.517796874    0.000000000    0.699999988
    0.017796874    0.000000000    0.899999976
    0.142796993    0.875000060    0.600000024
    0.642796993    0.875000060    0.800000072
    0.142796993    0.875000060    1.000000000
    0.642796934    0.375000030    0.600000024
    0.142796993    0.375000030    0.800000072
    0.642796993    0.375000030    1.000000000
    0.267796874    0.750000060    0.500000000
    0.767796934    0.750000060    0.699999988
    0.267796993    0.750000060    0.899999976
    0.767796874    0.250000000    0.500000000
    0.267796874    0.250000000    0.699999988
    0.767796993    0.250000000    0.899999976
    0.392796844    0.625000000    0.600000024
    0.892796874    0.625000000    0.800000072
    0.392796993    0.625000000    1.000000000
    0.892796934    0.125000000    0.600000024
    0.392796874    0.125000000    0.800000072
    0.892796993    0.125000000    1.000000000
