Si+C                                    
   1.00000000000000     
    13.3031797409999992    0.0000000000000000    0.0000000000000000
     6.6515893940000002   14.8734064099999994    0.0000000000000000
     0.0000000000000000    0.0000000000000000    8.3900594710000007
   Si   C 
    36    84
Direct
  0.9829056259999973  0.6581194999999980  0.0000000049999969
  0.7829055790000012  0.5581192969999975  0.1447438000000005
  0.5829054120000023  0.4581190939999971  0.2894876000000011
  0.9829056259999973  0.3247861270000030  0.0000000049999969
  0.7829055790000012  0.2247859690000027  0.1447438000000005
  0.5829054120000023  0.1247858030000017  0.2894876000000011
  0.9829056259999973  0.9914528130000022  0.0000000049999969
  0.7829055790000012  0.8914526699999996  0.1447438000000005
  0.5829054120000023  0.7914525269999970  0.2894876000000011
  0.6329056619999989  0.6914526819999978  0.0723717440000016
  0.4329055850000003  0.5914524789999973  0.2171155509999991
  0.2329055220000029  0.4914524260000022  0.3618593509999997
  0.6329056619999989  0.3581194280000020  0.0723717440000016
  0.4329055850000003  0.2581192849999994  0.2171155509999991
  0.2329055220000029  0.1581191419999968  0.3618593509999997
  0.6329056619999989  0.0247861369999995  0.0723717440000016
  0.4329055850000003  0.9247859720000022  0.2171155509999991
  0.2329055220000029  0.8247858289999996  0.3618593509999997
  0.4829056259999973  0.6581194999999980  0.0000000000000000
  0.2829055489999988  0.5581192969999975  0.1447438000000005
  0.0829054419999977  0.4581190939999971  0.2894876000000011
  0.4829056259999973  0.3247861270000030  0.0000000000000000
  0.2829055489999988  0.2247859539999979  0.1447438000000005
  0.0829054419999977  0.1247858110000024  0.2894876000000011
  0.4829056259999973  0.9914528130000022  0.0000000000000000
  0.2829055489999988  0.8914526699999996  0.1447438000000005
  0.0829054419999977  0.7914525269999970  0.2894876000000011
  0.1329056769999966  0.6914527420000027  0.0723717589999993
  0.9329055549999978  0.5914524789999973  0.2171155509999991
  0.7329055069999981  0.4914523959999997  0.3618593509999997
  0.1329056769999966  0.3581194879999998  0.0723717589999993
  0.9329055549999978  0.2581192849999994  0.2171155509999991
  0.7329055069999981  0.1581191269999991  0.3618593509999997
  0.1329056769999966  0.0247861369999995  0.0723717589999993
  0.9329055549999978  0.9247859720000022  0.2171155509999991
  0.7329055069999981  0.8247858289999996  0.3618593509999997
  0.9364745620000008  0.0400798280000032  0.5621044040000029
  0.9079029560000009  0.3115084470000014  0.6571646929999986
  0.8793313500000011  0.5829370619999992  0.7522249220000035
  0.0793316359999992  0.1829369659999998  0.5621044040000029
  0.0507601500000021  0.4543655809999976  0.6571646929999986
  0.0221885440000023  0.7257942560000004  0.7522249220000035
  0.2221888300000003  0.3257941310000021  0.5621044040000029
  0.1936172249999970  0.5972227450000034  0.6571646929999986
  0.1650457380000034  0.8686514500000015  0.7522249220000035
  0.3650460240000015  0.4686512649999983  0.5621044040000029
  0.3364744189999982  0.7400799389999975  0.6571646929999986
  0.3079028129999983  0.0115085839999978  0.7522249220000035
  0.5079030990000035  0.6115084289999970  0.5621044040000029
  0.4793314929999966  0.8829370139999995  0.6571646929999986
  0.4507598880000003  0.1543656589999998  0.7522249220000035
  0.6507601739999984  0.7543655039999990  0.5621044040000029
  0.6221886869999977  0.0257941560000035  0.6571646929999986
  0.5936172010000007  0.2972227329999981  0.7522249220000035
  0.7936174869999988  0.8972227570000015  0.5621044040000029
  0.7650458809999989  0.1686513419999969  0.6571646929999986
  0.7364742760000027  0.4400799269999993  0.7522249220000035
  0.0293316839999989  0.7829368109999990  0.6096344589999987
  0.0007601980000018  0.0543654040000021  0.7046946880000036
  0.9721887110000011  0.3257941009999996  0.7997549179999979
  0.1721887590000009  0.9257940649999981  0.6096344589999987
  0.1436172720000002  0.1972227099999984  0.7046946880000036
  0.1150456669999969  0.4686514140000000  0.7997549179999979
  0.3150459530000020  0.0686512070000020  0.6096344589999987
  0.2864744660000014  0.3400799039999995  0.7046946880000036
  0.2579028609999980  0.6115084890000020  0.7997548580000000
  0.4579031470000032  0.2115082740000034  0.6096344589999987
  0.4293315410000034  0.4829369189999966  0.7046946880000036
  0.4007599350000035  0.7543654440000012  0.7997548580000000
  0.6007602210000016  0.3543655570000013  0.6096344589999987
  0.5721886159999983  0.6257941719999991  0.7046946880000036
  0.5436171289999976  0.8972228169999994  0.7997548580000000
  0.7436172959999965  0.4972226619999986  0.6096344589999987
  0.7150458099999994  0.7686513069999990  0.7046946880000036
  0.6864743229999988  0.0400799590000034  0.7997549179999979
  0.8864746089999969  0.6400797960000020  0.6096344589999987
  0.8579030040000006  0.9115084410000023  0.7046946880000036
  0.8293313980000008  0.1829369069999984  0.7997548580000000
  0.0079030990000035  0.6115083689999992  0.5621044040000029
  0.9793315530000015  0.8829370139999995  0.6571646929999986
  0.9507599470000017  0.1543656589999998  0.7522249220000035
  0.1507601739999984  0.7543655039999990  0.5621044040000029
  0.1221886869999977  0.0257941560000035  0.6571646929999986
  0.0936172010000007  0.2972228530000010  0.7522249220000035
  0.2936174869999988  0.8972226380000023  0.5621044040000029
  0.2650458809999989  0.1686513419999969  0.6571646929999986
  0.2364742760000027  0.4400799269999993  0.7522248630000021
  0.4364745620000008  0.0400798280000032  0.5621044040000029
  0.4079029560000009  0.3115084470000014  0.6571646929999986
  0.3793314699999968  0.5829370619999992  0.7522249220000035
  0.5793316359999992  0.1829369069999984  0.5621044040000029
  0.5507601500000021  0.4543655510000022  0.6571646929999986
  0.5221886630000014  0.7257941960000025  0.7522249220000035
  0.7221889500000032  0.3257941310000021  0.5621044040000029
  0.6936173440000033  0.5972227450000034  0.6571646929999986
  0.6650457380000034  0.8686513899999966  0.7522249220000035
  0.8650460240000015  0.4686512350000029  0.5621044040000029
  0.8364744189999982  0.7400798800000032  0.6571646929999986
  0.8079028129999983  0.0115084649999986  0.7522249220000035
  0.9579030869999983  0.2115083039999988  0.6096344589999987
  0.9293315410000034  0.4829369189999966  0.7046946880000036
  0.9007599349999964  0.7543655630000003  0.7997548580000000
  0.1007602210000016  0.3543653489999983  0.6096344589999987
  0.0721887349999975  0.6257939930000020  0.7046946880000036
  0.0436171289999976  0.8972225790000010  0.7997548580000000
  0.2436174150000028  0.4972226320000033  0.6096344589999987
  0.2150458099999994  0.7686512470000011  0.7046946880000036
  0.1864743229999988  0.0400798399999971  0.7997549179999979
  0.3864746089999969  0.6400797370000006  0.6096344589999987
  0.3579030040000006  0.9115083220000031  0.7046946880000036
  0.3293313980000008  0.1829369069999984  0.7997549179999979
  0.5293316839999989  0.7829367519999977  0.6096344589999987
  0.5007600779999990  0.0543654040000021  0.7046946880000036
  0.4721885920000020  0.3257941009999996  0.7997549179999979
  0.6721887590000009  0.9257940050000002  0.6096344589999987
  0.6436171530000010  0.1972227099999984  0.7046946880000036
  0.6150456669999969  0.4686511749999980  0.7997549179999979
  0.8150459530000020  0.0686510880000029  0.6096344589999987
  0.7864743470000022  0.3400796649999975  0.7046946880000036
  0.7579027410000023  0.6115082500000000  0.7997548580000000
 
  0.00000000E+00  0.00000000E+00  0.00000000E+00
  0.00000000E+00  0.00000000E+00  0.00000000E+00
  0.00000000E+00  0.00000000E+00  0.00000000E+00
  0.00000000E+00  0.00000000E+00  0.00000000E+00
  0.00000000E+00  0.00000000E+00  0.00000000E+00
  0.00000000E+00  0.00000000E+00  0.00000000E+00
  0.00000000E+00  0.00000000E+00  0.00000000E+00
  0.00000000E+00  0.00000000E+00  0.00000000E+00
  0.00000000E+00  0.00000000E+00  0.00000000E+00
  0.00000000E+00  0.00000000E+00  0.00000000E+00
  0.00000000E+00  0.00000000E+00  0.00000000E+00
  0.00000000E+00  0.00000000E+00  0.00000000E+00
  0.00000000E+00  0.00000000E+00  0.00000000E+00
  0.00000000E+00  0.00000000E+00  0.00000000E+00
  0.00000000E+00  0.00000000E+00  0.00000000E+00
  0.00000000E+00  0.00000000E+00  0.00000000E+00
  0.00000000E+00  0.00000000E+00  0.00000000E+00
  0.00000000E+00  0.00000000E+00  0.00000000E+00
  0.00000000E+00  0.00000000E+00  0.00000000E+00
  0.00000000E+00  0.00000000E+00  0.00000000E+00
  0.00000000E+00  0.00000000E+00  0.00000000E+00
  0.00000000E+00  0.00000000E+00  0.00000000E+00
  0.00000000E+00  0.00000000E+00  0.00000000E+00
  0.00000000E+00  0.00000000E+00  0.00000000E+00
  0.00000000E+00  0.00000000E+00  0.00000000E+00
  0.00000000E+00  0.00000000E+00  0.00000000E+00
  0.00000000E+00  0.00000000E+00  0.00000000E+00
  0.00000000E+00  0.00000000E+00  0.00000000E+00
  0.00000000E+00  0.00000000E+00  0.00000000E+00
  0.00000000E+00  0.00000000E+00  0.00000000E+00
  0.00000000E+00  0.00000000E+00  0.00000000E+00
  0.00000000E+00  0.00000000E+00  0.00000000E+00
  0.00000000E+00  0.00000000E+00  0.00000000E+00
  0.00000000E+00  0.00000000E+00  0.00000000E+00
  0.00000000E+00  0.00000000E+00  0.00000000E+00
  0.00000000E+00  0.00000000E+00  0.00000000E+00
  0.00000000E+00  0.00000000E+00  0.00000000E+00
  0.00000000E+00  0.00000000E+00  0.00000000E+00
  0.00000000E+00  0.00000000E+00  0.00000000E+00
  0.00000000E+00  0.00000000E+00  0.00000000E+00
  0.00000000E+00  0.00000000E+00  0.00000000E+00
  0.00000000E+00  0.00000000E+00  0.00000000E+00
  0.00000000E+00  0.00000000E+00  0.00000000E+00
  0.00000000E+00  0.00000000E+00  0.00000000E+00
  0.00000000E+00  0.00000000E+00  0.00000000E+00
  0.00000000E+00  0.00000000E+00  0.00000000E+00
  0.00000000E+00  0.00000000E+00  0.00000000E+00
  0.00000000E+00  0.00000000E+00  0.00000000E+00
  0.00000000E+00  0.00000000E+00  0.00000000E+00
  0.00000000E+00  0.00000000E+00  0.00000000E+00
  0.00000000E+00  0.00000000E+00  0.00000000E+00
  0.00000000E+00  0.00000000E+00  0.00000000E+00
  0.00000000E+00  0.00000000E+00  0.00000000E+00
  0.00000000E+00  0.00000000E+00  0.00000000E+00
  0.00000000E+00  0.00000000E+00  0.00000000E+00
  0.00000000E+00  0.00000000E+00  0.00000000E+00
  0.00000000E+00  0.00000000E+00  0.00000000E+00
  0.00000000E+00  0.00000000E+00  0.00000000E+00
  0.00000000E+00  0.00000000E+00  0.00000000E+00
  0.00000000E+00  0.00000000E+00  0.00000000E+00
  0.00000000E+00  0.00000000E+00  0.00000000E+00
  0.00000000E+00  0.00000000E+00  0.00000000E+00
  0.00000000E+00  0.00000000E+00  0.00000000E+00
  0.00000000E+00  0.00000000E+00  0.00000000E+00
  0.00000000E+00  0.00000000E+00  0.00000000E+00
  0.00000000E+00  0.00000000E+00  0.00000000E+00
  0.00000000E+00  0.00000000E+00  0.00000000E+00
  0.00000000E+00  0.00000000E+00  0.00000000E+00
  0.00000000E+00  0.00000000E+00  0.00000000E+00
  0.00000000E+00  0.00000000E+00  0.00000000E+00
  0.00000000E+00  0.00000000E+00  0.00000000E+00
  0.00000000E+00  0.00000000E+00  0.00000000E+00
  0.00000000E+00  0.00000000E+00  0.00000000E+00
  0.00000000E+00  0.00000000E+00  0.00000000E+00
  0.00000000E+00  0.00000000E+00  0.00000000E+00
  0.00000000E+00  0.00000000E+00  0.00000000E+00
  0.00000000E+00  0.00000000E+00  0.00000000E+00
  0.00000000E+00  0.00000000E+00  0.00000000E+00
  0.00000000E+00  0.00000000E+00  0.00000000E+00
  0.00000000E+00  0.00000000E+00  0.00000000E+00
  0.00000000E+00  0.00000000E+00  0.00000000E+00
  0.00000000E+00  0.00000000E+00  0.00000000E+00
  0.00000000E+00  0.00000000E+00  0.00000000E+00
  0.00000000E+00  0.00000000E+00  0.00000000E+00
  0.00000000E+00  0.00000000E+00  0.00000000E+00
  0.00000000E+00  0.00000000E+00  0.00000000E+00
  0.00000000E+00  0.00000000E+00  0.00000000E+00
  0.00000000E+00  0.00000000E+00  0.00000000E+00
  0.00000000E+00  0.00000000E+00  0.00000000E+00
  0.00000000E+00  0.00000000E+00  0.00000000E+00
  0.00000000E+00  0.00000000E+00  0.00000000E+00
  0.00000000E+00  0.00000000E+00  0.00000000E+00
  0.00000000E+00  0.00000000E+00  0.00000000E+00
  0.00000000E+00  0.00000000E+00  0.00000000E+00
  0.00000000E+00  0.00000000E+00  0.00000000E+00
  0.00000000E+00  0.00000000E+00  0.00000000E+00
  0.00000000E+00  0.00000000E+00  0.00000000E+00
  0.00000000E+00  0.00000000E+00  0.00000000E+00
  0.00000000E+00  0.00000000E+00  0.00000000E+00
  0.00000000E+00  0.00000000E+00  0.00000000E+00
  0.00000000E+00  0.00000000E+00  0.00000000E+00
  0.00000000E+00  0.00000000E+00  0.00000000E+00
  0.00000000E+00  0.00000000E+00  0.00000000E+00
  0.00000000E+00  0.00000000E+00  0.00000000E+00
  0.00000000E+00  0.00000000E+00  0.00000000E+00
  0.00000000E+00  0.00000000E+00  0.00000000E+00
  0.00000000E+00  0.00000000E+00  0.00000000E+00
  0.00000000E+00  0.00000000E+00  0.00000000E+00
  0.00000000E+00  0.00000000E+00  0.00000000E+00
  0.00000000E+00  0.00000000E+00  0.00000000E+00
  0.00000000E+00  0.00000000E+00  0.00000000E+00
  0.00000000E+00  0.00000000E+00  0.00000000E+00
  0.00000000E+00  0.00000000E+00  0.00000000E+00
  0.00000000E+00  0.00000000E+00  0.00000000E+00
  0.00000000E+00  0.00000000E+00  0.00000000E+00
  0.00000000E+00  0.00000000E+00  0.00000000E+00
  0.00000000E+00  0.00000000E+00  0.00000000E+00
  0.00000000E+00  0.00000000E+00  0.00000000E+00
  0.00000000E+00  0.00000000E+00  0.00000000E+00
  0.00000000E+00  0.00000000E+00  0.00000000E+00
