Ge+Ge
    1.000000000
   12.651226044    0.000000000    0.000000000
  -10.120981216    7.590735435    0.000000000
    0.000000000    0.000000000   11.611743927
Ge 
48
Direct
    0.344722271    0.672361135    0.000000000
    0.678055644    0.839027822    0.243624046
    0.011389017    0.005694628    0.487248123
    0.011388971    0.005694487    0.000000000
    0.344722331    0.172361225    0.243624046
    0.678055704    0.339027971    0.487248123
    0.678055644    0.339027822    0.000000000
    0.011388898    0.505694509    0.243624046
    0.344722390    0.672361314    0.487248123
    0.094722271    0.922361135    0.121812023
    0.428055644    0.089027882    0.365436077
    0.761389017    0.255694628    0.609060228
    0.428055644    0.589027882    0.121812023
    0.761389017    0.755694568    0.365436077
    0.094722390    0.922361374    0.609060228
    0.761388898    0.255694479    0.121812023
    0.094722390    0.422361225    0.365436077
    0.428055644    0.589027941    0.609060228
    0.178055570    0.839027703    0.000000000
    0.511388958    0.005694509    0.243624046
    0.844722271    0.172361135    0.487248123
    0.511388958    0.505694509    0.000000000
    0.844722271    0.672361195    0.243624046
    0.178055644    0.839027941    0.487248123
    0.844722331    0.172361180    0.000000000
    0.178055644    0.339027911    0.243624046
    0.511389017    0.505694628    0.487248123
    0.261388958    0.755694449    0.121812023
    0.594722331    0.922361195    0.365436077
    0.928055763    0.089028001    0.609060228
    0.594722331    0.422361165    0.121812023
    0.928055704    0.589027882    0.365436077
    0.261389017    0.755694628    0.609060228
    0.928055644    0.089027874    0.121812023
    0.261389017    0.255694628    0.365436077
    0.594722390    0.422361344    0.609060228
    0.290972114    0.177132368    0.703020036
    0.179860950    0.788243413    0.784228086
    0.068749785    0.399354517    0.865436137
    0.790971994    0.677132308    0.703020036
    0.679860890    0.288243353    0.784228086
    0.568749726    0.899354458    0.865436137
    0.985416412    0.982687891    0.743624091
    0.874305248    0.593798935    0.824832141
    0.763194084    0.204910040    0.906040192
    0.485416472    0.482687831    0.743624091
    0.374305308    0.093798876    0.824832141
    0.263194203    0.704909921    0.906040192
