Ge+Sn
    1.000000000
   11.315600395    0.000000000    0.000000000
  -11.315600395   16.002676010    0.000000000
    0.000000000    0.000000000   25.800939560
Ge  Sn 
96     72
Direct
    0.985331416    0.455994159    0.000000018
    0.860331416    0.080994137    0.077529535
    0.735331416    0.705994129    0.155059069
    0.610331416    0.330994248    0.232588530
    0.485331357    0.955994129    0.310118079
    0.360331357    0.580994129    0.387647629
    0.485331386    0.455994159    0.000000018
    0.360331416    0.080994137    0.077529535
    0.235331357    0.705994129    0.155059069
    0.110331379    0.330994248    0.232588530
    0.985331476    0.955994129    0.310118079
    0.860331416    0.580994129    0.387647629
    0.985331357    0.955994129    0.000000016
    0.860331416    0.580994129    0.077529542
    0.735331416    0.205994129    0.155059054
    0.610331416    0.830994368    0.232588530
    0.485331416    0.455994129    0.310118109
    0.360331357    0.080994129    0.387647599
    0.485331386    0.955994129    0.000000016
    0.360331357    0.580994129    0.077529542
    0.235331446    0.205994129    0.155059054
    0.110331491    0.830994368    0.232588530
    0.985331297    0.455994129    0.310118109
    0.860331357    0.080994129    0.387647599
    0.235331371    0.705994129    0.000000021
    0.110331371    0.330994129    0.077529535
    0.985331357    0.955994129    0.155059054
    0.860331357    0.580994248    0.232588559
    0.735331357    0.205994189    0.310118109
    0.610331297    0.830994129    0.387647629
    0.735331357    0.705994129    0.000000021
    0.610331357    0.330994129    0.077529535
    0.485331327    0.955994129    0.155059054
    0.360331357    0.580994248    0.232588559
    0.235331371    0.205994189    0.310118109
    0.110331364    0.830994129    0.387647629
    0.235331386    0.205994144    0.000000017
    0.110331394    0.830994129    0.077529535
    0.985331357    0.455994129    0.155059054
    0.860331357    0.080994248    0.232588559
    0.735331476    0.705994248    0.310118079
    0.610331357    0.330994129    0.387647599
    0.735331297    0.205994144    0.000000017
    0.610331357    0.830994129    0.077529535
    0.485331386    0.455994129    0.155059054
    0.360331297    0.080994248    0.232588559
    0.235331386    0.705994248    0.310118079
    0.110331260    0.330994129    0.387647599
    0.985331416    0.580994189    0.000000026
    0.860331416    0.205994159    0.077529535
    0.735331357    0.830994129    0.155059054
    0.610331416    0.455994248    0.232588530
    0.485331357    0.080994189    0.310118109
    0.360331357    0.705994129    0.387647629
    0.485331416    0.580994189    0.000000026
    0.360331416    0.205994159    0.077529535
    0.235331401    0.830994129    0.155059054
    0.110331431    0.455994248    0.232588530
    0.985331357    0.080994189    0.310118109
    0.860331416    0.705994129    0.387647629
    0.985331357    0.080994137    0.000000013
    0.860331416    0.705994129    0.077529535
    0.735331416    0.330994129    0.155059054
    0.610331416    0.955994248    0.232588559
    0.485331416    0.580994248    0.310118079
    0.360331357    0.205994010    0.387647599
    0.485331386    0.080994137    0.000000013
    0.360331357    0.705994129    0.077529535
    0.235331401    0.330994129    0.155059054
    0.110331446    0.955994248    0.232588559
    0.985331535    0.580994248    0.310118079
    0.860331237    0.205994010    0.387647599
    0.235331446    0.830994189    0.000000000
    0.110331416    0.455994189    0.077529535
    0.985331416    0.080994174    0.155059054
    0.860331416    0.705994308    0.232588530
    0.735331416    0.330994248    0.310118079
    0.610331416    0.955994129    0.387647569
    0.735331416    0.830994189    0.000000000
    0.610331416    0.455994189    0.077529535
    0.485331386    0.080994174    0.155059054
    0.360331416    0.705994308    0.232588530
    0.235331416    0.330994248    0.310118079
    0.110331357    0.955994129    0.387647569
    0.235331371    0.330994129    0.000000018
    0.110331379    0.955994129    0.077529542
    0.985331357    0.580994129    0.155059054
    0.860331416    0.205994248    0.232588559
    0.735331357    0.830994129    0.310118079
    0.610331416    0.455994129    0.387647599
    0.735331357    0.330994129    0.000000018
    0.610331357    0.955994129    0.077529542
    0.485331386    0.580994129    0.155059054
    0.360331416    0.205994248    0.232588559
    0.235331461    0.830994129    0.310118079
    0.110331304    0.455994129    0.387647599
    0.240949035    0.740994871    0.471518010
    0.990949035    0.490994811    0.560440361
    0.740948915    0.240994692    0.649362683
    0.490948886    0.990994573    0.738284945
    0.240948796    0.740994573    0.827207208
    0.990948796    0.490994453    0.916129589
    0.240949035    0.407661527    0.471518010
    0.990949035    0.157661483    0.560440361
    0.740948915    0.907661319    0.649362683
    0.490948886    0.657661200    0.738284945
    0.240948796    0.407661200    0.827207208
    0.990948796    0.157661080    0.916129589
    0.240949035    0.074328184    0.471518010
    0.990949035    0.824328125    0.560440361
    0.740948915    0.574327946    0.649362683
    0.490948886    0.324327826    0.738284945
    0.240948796    0.074327826    0.827207208
    0.990948796    0.824327707    0.916129589
    0.740949035    0.907661557    0.471518010
    0.490949035    0.657661438    0.560440361
    0.240948915    0.407661378    0.649362624
    0.990948915    0.157661289    0.738284945
    0.740948915    0.907661200    0.827207208
    0.490948826    0.657661080    0.916129589
    0.740949035    0.574328184    0.471518010
    0.490949035    0.324328125    0.560440361
    0.240948915    0.074328065    0.649362624
    0.990948915    0.824327886    0.738284945
    0.740948915    0.574327826    0.827207208
    0.490948826    0.324327767    0.916129589
    0.740949035    0.240994871    0.471518010
    0.490949035    0.990994811    0.560440361
    0.240948915    0.740994692    0.649362624
    0.990948915    0.490994513    0.738284945
    0.740948915    0.240994453    0.827207208
    0.490948826    0.990994334    0.916129589
    0.990949035    0.740994930    0.471518010
    0.740949035    0.490994900    0.560440421
    0.490948975    0.240994781    0.649362683
    0.240948915    0.990994632    0.738284945
    0.990948796    0.740994632    0.827207267
    0.740948796    0.490994513    0.916129589
    0.990949035    0.407661527    0.471518010
    0.740949035    0.157661468    0.560440421
    0.490948975    0.907661319    0.649362683
    0.240948915    0.657661200    0.738284945
    0.990948796    0.407661200    0.827207267
    0.740948796    0.157661080    0.916129589
    0.990949035    0.074328184    0.471518010
    0.740949035    0.824328125    0.560440421
    0.490948975    0.574328005    0.649362683
    0.240948915    0.324327886    0.738284945
    0.990948796    0.074327826    0.827207267
    0.740948796    0.824327826    0.916129589
    0.490949064    0.907661498    0.471518010
    0.240949035    0.657661438    0.560440421
    0.990948915    0.407661259    0.649362683
    0.740948796    0.157661170    0.738284945
    0.490948886    0.907661140    0.827207208
    0.240948796    0.657661021    0.916129589
    0.490949064    0.574328184    0.471518010
    0.240949035    0.324328125    0.560440421
    0.990948915    0.074328065    0.649362683
    0.740948796    0.824327886    0.738284945
    0.490948886    0.574327826    0.827207208
    0.240948796    0.324327767    0.916129589
    0.490949064    0.240994841    0.471518010
    0.240949035    0.990994811    0.560440421
    0.990948915    0.740994692    0.649362683
    0.740948796    0.490994513    0.738284945
    0.490948886    0.240994573    0.827207208
    0.240948796    0.990994334    0.916129589
