Sn+Ge
    1.000000000
   12.978400230    0.000000000    0.000000000
  -12.978400230   12.978400230    0.000000000
    0.000000000    0.000000000   19.583751678
Sn  Ge 
48     60
Direct
    0.492552608    0.000000000    0.000000000
    0.242552638    0.000000000    0.165678188
    0.992552698    0.000000000    0.331356287
    0.992552638    0.000000000    0.000000000
    0.742552638    0.000000000    0.165678188
    0.492552757    0.000000000    0.331356287
    0.492552608    0.499999970    0.000000000
    0.242552638    0.499999970    0.165678188
    0.992552698    0.499999970    0.331356287
    0.992552638    0.499999970    0.000000000
    0.742552638    0.499999970    0.165678188
    0.492552698    0.499999970    0.331356287
    0.492552608    0.124999993    0.082839087
    0.242552668    0.124999993    0.248517260
    0.992552638    0.124999993    0.414195418
    0.992552638    0.124999993    0.082839087
    0.742552757    0.124999993    0.248517260
    0.492552698    0.124999993    0.414195418
    0.492552578    0.624999940    0.082839087
    0.242552638    0.624999940    0.248517260
    0.992552638    0.624999940    0.414195418
    0.992552638    0.624999940    0.082839087
    0.742552698    0.624999940    0.248517260
    0.492552698    0.624999940    0.414195418
    0.492552638    0.249999985    0.000000000
    0.242552638    0.249999985    0.165678188
    0.992552698    0.249999985    0.331356287
    0.992552638    0.249999985    0.000000000
    0.742552638    0.249999985    0.165678188
    0.492552757    0.249999985    0.331356287
    0.492552608    0.749999940    0.000000000
    0.242552593    0.749999940    0.165678188
    0.992552698    0.749999940    0.331356287
    0.992552638    0.749999940    0.000000000
    0.742552638    0.749999940    0.165678188
    0.492552698    0.749999940    0.331356287
    0.492552608    0.374999970    0.082839087
    0.242552668    0.374999970    0.248517260
    0.992552638    0.374999970    0.414195418
    0.992552638    0.374999970    0.082839087
    0.742552757    0.374999970    0.248517260
    0.492552698    0.374999970    0.414195418
    0.492552608    0.874999940    0.082839087
    0.242552698    0.874999940    0.248517260
    0.992552638    0.874999940    0.414195418
    0.992552638    0.874999940    0.082839087
    0.742552757    0.874999940    0.248517260
    0.492552757    0.874999940    0.414195418
    0.951622069    0.427460402    0.526533484
    0.851622045    0.527460396    0.670984805
    0.751621962    0.627460480    0.815436304
    0.151622057    0.227460399    0.526533484
    0.051622033    0.327460438    0.670984805
    0.951622009    0.427460462    0.815436304
    0.751622140    0.627460480    0.526533484
    0.651622057    0.727460504    0.670984805
    0.551622033    0.827460527    0.815436304
    0.551622093    0.827460468    0.526533484
    0.451622069    0.927460492    0.670984805
    0.351622045    0.027460456    0.815436304
    0.351622075    0.027460456    0.526533484
    0.251622051    0.127460480    0.670984805
    0.151622057    0.227460489    0.815436304
    0.051622152    0.577460408    0.598759174
    0.951622069    0.677460432    0.743210614
    0.851622045    0.777460515    0.887661994
    0.251622081    0.377460420    0.598759174
    0.151622057    0.477460444    0.743210614
    0.051622033    0.577460468    0.887661994
    0.851622105    0.777460456    0.598759174
    0.751622021    0.877460539    0.743210614
    0.651621997    0.977460563    0.887661994
    0.651622117    0.977460444    0.598759174
    0.551622093    0.077460408    0.743210614
    0.451622009    0.177460551    0.887661994
    0.451622009    0.177460551    0.598759174
    0.351621985    0.277460575    0.743210614
    0.251621932    0.377460599    0.887661994
    0.551622093    0.327460408    0.526533484
    0.451622069    0.427460432    0.670984805
    0.351622045    0.527460456    0.815436304
    0.351622075    0.527460456    0.526533484
    0.251622051    0.627460480    0.670984805
    0.151621938    0.727460504    0.815436304
    0.951622069    0.927460492    0.526533484
    0.851622045    0.027460456    0.670984805
    0.751622021    0.127460480    0.815436304
    0.151622057    0.727460444    0.526533484
    0.051622033    0.827460468    0.670984805
    0.951622009    0.927460551    0.815436304
    0.751622021    0.127460480    0.526533484
    0.651621997    0.227460489    0.670984805
    0.551621914    0.327460647    0.815436304
    0.851622105    0.277460426    0.598759174
    0.751622021    0.377460480    0.743210614
    0.651621997    0.477460504    0.887661994
    0.651622057    0.477460444    0.598759174
    0.551622033    0.577460468    0.743210614
    0.451622009    0.677460492    0.887661994
    0.451622069    0.677460432    0.598759174
    0.351622015    0.777460515    0.743210614
    0.251621991    0.877460539    0.887661994
    0.051622152    0.077460527    0.598759174
    0.951622128    0.177460551    0.743210614
    0.851622105    0.277460575    0.887661994
    0.251622021    0.877460480    0.598759174
    0.151621938    0.977460504    0.743210614
    0.051621914    0.077460527    0.887661994
