Ge+Si                                   
   1.00000000000000     
    16.0026760099999983    0.0000000000000000    0.0000000000000000
     0.0000000000000000   16.0026760099999983    0.0000000000000000
     0.0000000000000000    0.0000000000000000   13.8610000610000004
   Ge   Si
    96   108
Direct
  0.9957291480000023  0.9957291480000023  0.0000000000000000
  0.8707291480000023  0.8707291480000023  0.2040906100000015
  0.7457291480000023  0.7457291480000023  0.4081812499999984
  0.9957291480000023  0.4957290890000010  0.0000000000000000
  0.8707291480000023  0.3707291190000035  0.2040906100000015
  0.7457291480000023  0.2457291190000035  0.4081812499999984
  0.2457291190000035  0.2457291190000035  0.0000000000000000
  0.1207291329999975  0.1207291329999975  0.2040906100000015
  0.9957291480000023  0.9957291480000023  0.4081812499999984
  0.4957290890000010  0.9957291480000023  0.0000000000000000
  0.3707291190000035  0.8707291480000023  0.2040906100000015
  0.2457291190000035  0.7457291480000023  0.4081812499999984
  0.2457291190000035  0.7457290890000010  0.0000000000000000
  0.1207291409999982  0.6207290890000010  0.2040906100000015
  0.9957291480000023  0.4957290890000010  0.4081812499999984
  0.4957290890000010  0.4957291190000035  0.0000000000000000
  0.3707291190000035  0.3707291480000023  0.2040906100000015
  0.2457291039999987  0.2457291190000035  0.4081812499999984
  0.7457291480000023  0.2457291480000023  0.0000000000000000
  0.6207291480000023  0.1207291710000007  0.2040906100000015
  0.4957291480000023  0.9957291480000023  0.4081812499999984
  0.7457291480000023  0.7457290890000010  0.0000000000000000
  0.6207291480000023  0.6207291480000023  0.2040906100000015
  0.4957291480000023  0.4957291190000035  0.4081812499999984
  0.1207291409999982  0.9957291480000023  0.1020453049999972
  0.9957291480000023  0.8707291480000023  0.3061359229999994
  0.8707291480000023  0.7457291480000023  0.5102266069999999
  0.1207291190000035  0.4957290890000010  0.1020453049999972
  0.9957291480000023  0.3707290890000010  0.3061359229999994
  0.8707290890000010  0.2457290890000010  0.5102266069999999
  0.3707291480000023  0.2457291480000023  0.1020453049999972
  0.2457291480000023  0.1207291480000023  0.3061359229999994
  0.1207291409999982  0.9957291480000023  0.5102266069999999
  0.6207291480000023  0.9957291480000023  0.1020453049999972
  0.4957291480000023  0.8707291480000023  0.3061359229999994
  0.3707291480000023  0.7457291480000023  0.5102266069999999
  0.3707291480000023  0.7457290890000010  0.1020453049999972
  0.2457291329999975  0.6207290890000010  0.3061359229999994
  0.1207291329999975  0.4957291190000035  0.5102266069999999
  0.6207290890000010  0.4957290890000010  0.1020453049999972
  0.4957290890000010  0.3707290589999985  0.3061359229999994
  0.3707290890000010  0.2457290740000033  0.5102266069999999
  0.8707291480000023  0.2457291329999975  0.1020453049999972
  0.7457290890000010  0.1207291110000028  0.3061359229999994
  0.6207291480000023  0.9957291480000023  0.5102266069999999
  0.8707290890000010  0.7457290890000010  0.1020453049999972
  0.7457290890000010  0.6207290890000010  0.3061359229999994
  0.6207291480000023  0.4957291190000035  0.5102266069999999
  0.9957291480000023  0.2457291329999975  0.0000000000000000
  0.8707291480000023  0.1207291329999975  0.2040906100000015
  0.7457291480000023  0.9957291480000023  0.4081812499999984
  0.2457291329999975  0.9957291480000023  0.0000000000000000
  0.1207291329999975  0.8707291480000023  0.2040906100000015
  0.9957291480000023  0.7457291480000023  0.4081812499999984
  0.9957291480000023  0.7457291480000023  0.0000000000000000
  0.8707291480000023  0.6207291480000023  0.2040906100000015
  0.7457291480000023  0.4957291480000023  0.4081812499999984
  0.2457291329999975  0.4957291190000035  0.0000000000000000
  0.1207291560000030  0.3707291480000023  0.2040906100000015
  0.9957291480000023  0.2457291480000023  0.4081812499999984
  0.4957291190000035  0.2457291329999975  0.0000000000000000
  0.3707291480000023  0.1207291630000000  0.2040906100000015
  0.2457291480000023  0.9957291480000023  0.4081812499999984
  0.7457291480000023  0.9957291480000023  0.0000000000000000
  0.6207291480000023  0.8707291480000023  0.2040906100000015
  0.4957291480000023  0.7457291480000023  0.4081812499999984
  0.4957291190000035  0.7457290890000010  0.0000000000000000
  0.3707291480000023  0.6207291480000023  0.2040906100000015
  0.2457291329999975  0.4957291190000035  0.4081812499999984
  0.7457290890000010  0.4957291190000035  0.0000000000000000
  0.6207291480000023  0.3707291480000023  0.2040906100000015
  0.4957291190000035  0.2457291329999975  0.4081812499999984
  0.1207291409999982  0.2457291190000035  0.1020453049999972
  0.9957291480000023  0.1207291329999975  0.3061359229999994
  0.8707291480000023  0.9957291480000023  0.5102266069999999
  0.3707291190000035  0.9957291480000023  0.1020453049999972
  0.2457291329999975  0.8707291480000023  0.3061359229999994
  0.1207291260000005  0.7457290890000010  0.5102266069999999
  0.1207291409999982  0.7457290890000010  0.1020453049999972
  0.9957291480000023  0.6207290890000010  0.3061359229999994
  0.8707291480000023  0.4957290890000010  0.5102266069999999
  0.3707291190000035  0.4957290890000010  0.1020453049999972
  0.2457291329999975  0.3707291190000035  0.3061359229999994
  0.1207291260000005  0.2457290890000010  0.5102266069999999
  0.6207290890000010  0.2457291190000035  0.1020453049999972
  0.4957291190000035  0.1207291190000035  0.3061359229999994
  0.3707291190000035  0.9957290890000010  0.5102266069999999
  0.8707290890000010  0.9957291480000023  0.1020453049999972
  0.7457290890000010  0.8707291480000023  0.3061359229999994
  0.6207290890000010  0.7457291480000023  0.5102266069999999
  0.6207291480000023  0.7457291480000023  0.1020453049999972
  0.4957291190000035  0.6207291480000023  0.3061359229999994
  0.3707291480000023  0.4957291480000023  0.5102266069999999
  0.8707290290000032  0.4957290589999985  0.1020453049999972
  0.7457290290000032  0.3707290290000032  0.3061359229999994
  0.6207290890000010  0.2457290740000033  0.5102266069999999
  0.9940677290000011  0.6666666870000029  0.5102266069999999
  0.8274010419999982  0.6666666870000029  0.7061359879999998
  0.6607342960000011  0.6666666870000029  0.9020454879999988
  0.9940677290000011  0.3333333429999996  0.5102266069999999
  0.8274010419999982  0.3333333429999996  0.7061359879999998
  0.6607342960000011  0.3333333429999996  0.9020454879999988
  0.9940677290000011  0.0000000000000000  0.5102266069999999
  0.8274010419999982  0.0000000000000000  0.7061359879999998
  0.6607342960000011  0.0000000000000000  0.9020454879999988
  0.3274010419999982  0.6666666870000029  0.5102266069999999
  0.1607343700000001  0.6666666870000029  0.7061359879999998
  0.9940676690000032  0.6666666870000029  0.9020454879999988
  0.3274010419999982  0.3333333429999996  0.5102266069999999
  0.1607343700000001  0.3333333429999996  0.7061359879999998
  0.9940676690000032  0.3333333429999996  0.9020454879999988
  0.3274010419999982  0.0000000000000000  0.5102266069999999
  0.1607343700000001  0.0000000000000000  0.7061359879999998
  0.9940676690000032  0.0000000000000000  0.9020454879999988
  0.6607344150000003  0.6666666870000029  0.5102266069999999
  0.4940676989999986  0.6666666870000029  0.7061359879999998
  0.3274010419999982  0.6666666870000029  0.9020454879999988
  0.6607344150000003  0.3333333429999996  0.5102266069999999
  0.4940676989999986  0.3333333429999996  0.7061359879999998
  0.3274010419999982  0.3333333429999996  0.9020454879999988
  0.6607344150000003  0.0000000000000000  0.5102266069999999
  0.4940676989999986  0.0000000000000000  0.7061359879999998
  0.3274010419999982  0.0000000000000000  0.9020454879999988
  0.0774010490000023  0.9166666870000029  0.6081812979999981
  0.9107343550000024  0.9166666870000029  0.8040906190000001
  0.7440676690000032  0.9166666870000029  0.0000000000000000
  0.0774010490000023  0.5833333730000021  0.6081812979999981
  0.9107343550000024  0.5833333730000021  0.8040906190000001
  0.7440676690000032  0.5833333730000021  0.0000000000000000
  0.0774010490000023  0.2500000000000000  0.6081812979999981
  0.9107343550000024  0.2500000000000000  0.8040906190000001
  0.7440676690000032  0.2500000000000000  0.0000000000000000
  0.4107343550000024  0.9166666870000029  0.6081812979999981
  0.2440676690000032  0.9166666870000029  0.8040906190000001
  0.0774009820000003  0.9166666870000029  0.0000000000000000
  0.4107343550000024  0.5833333730000021  0.6081812979999981
  0.2440676690000032  0.5833333730000021  0.8040906190000001
  0.0774009820000003  0.5833333730000021  0.0000000000000000
  0.4107343550000024  0.2500000000000000  0.6081812979999981
  0.2440676690000032  0.2500000000000000  0.8040906190000001
  0.0774009820000003  0.2500000000000000  0.0000000000000000
  0.7440677290000011  0.9166666870000029  0.6081812979999981
  0.5774010419999982  0.9166666870000029  0.8040906190000001
  0.4107343550000024  0.9166666870000029  0.0000000000000000
  0.7440677290000011  0.5833333730000021  0.6081812979999981
  0.5774010419999982  0.5833333730000021  0.8040906190000001
  0.4107343550000024  0.5833333730000021  0.0000000000000000
  0.7440677290000011  0.2500000000000000  0.6081812979999981
  0.5774010419999982  0.2500000000000000  0.8040906190000001
  0.4107343550000024  0.2500000000000000  0.0000000000000000
  0.1607343849999978  0.8333333129999971  0.5102266069999999
  0.9940676690000032  0.8333333129999971  0.7061359879999998
  0.8274009820000003  0.8333333129999971  0.9020454879999988
  0.1607343849999978  0.5000000000000000  0.5102266069999999
  0.9940676690000032  0.5000000000000000  0.7061359879999998
  0.8274009820000003  0.5000000000000000  0.9020454879999988
  0.1607343849999978  0.1666666719999981  0.5102266069999999
  0.9940676690000032  0.1666666719999981  0.7061359879999998
  0.8274009820000003  0.1666666719999981  0.9020454879999988
  0.4940676989999986  0.8333333129999971  0.5102266069999999
  0.3274010419999982  0.8333333129999971  0.7061359879999998
  0.1607343109999988  0.8333333129999971  0.9020454879999988
  0.4940676989999986  0.5000000000000000  0.5102266069999999
  0.3274010419999982  0.5000000000000000  0.7061359879999998
  0.1607343109999988  0.5000000000000000  0.9020454879999988
  0.4940676989999986  0.1666666719999981  0.5102266069999999
  0.3274010419999982  0.1666666719999981  0.7061359879999998
  0.1607343109999988  0.1666666719999981  0.9020454879999988
  0.8274010419999982  0.8333333129999971  0.5102266069999999
  0.6607343550000024  0.8333333129999971  0.7061359879999998
  0.4940676390000007  0.8333333129999971  0.9020454879999988
  0.8274010419999982  0.5000000000000000  0.5102266069999999
  0.6607343550000024  0.5000000000000000  0.7061359879999998
  0.4940676390000007  0.5000000000000000  0.9020454879999988
  0.8274010419999982  0.1666666719999981  0.5102266069999999
  0.6607343550000024  0.1666666719999981  0.7061359879999998
  0.4940676390000007  0.1666666719999981  0.9020454879999988
  0.2440677140000034  0.7500000000000000  0.6081812979999981
  0.0774010270000005  0.7500000000000000  0.8040906190000001
  0.9107343550000024  0.7500000000000000  0.0000000000000000
  0.2440677140000034  0.4166666870000029  0.6081812979999981
  0.0774010270000005  0.4166666870000029  0.8040906190000001
  0.9107343550000024  0.4166666870000029  0.0000000000000000
  0.2440677140000034  0.0833333429999996  0.6081812979999981
  0.0774010270000005  0.0833333429999996  0.8040906190000001
  0.9107343550000024  0.0833333429999996  0.0000000000000000
  0.5774011609999974  0.7500000000000000  0.6081812979999981
  0.4107344450000028  0.7500000000000000  0.8040906190000001
  0.2440677430000022  0.7500000000000000  0.0000000000000000
  0.5774011609999974  0.4166666870000029  0.6081812979999981
  0.4107344450000028  0.4166666870000029  0.8040906190000001
  0.2440677430000022  0.4166666870000029  0.0000000000000000
  0.5774011609999974  0.0833333429999996  0.6081812979999981
  0.4107344450000028  0.0833333429999996  0.8040906190000001
  0.2440677430000022  0.0833333429999996  0.0000000000000000
  0.9107343550000024  0.7500000000000000  0.6081812979999981
  0.7440676690000032  0.7500000000000000  0.8040906190000001
  0.5774010419999982  0.7500000000000000  0.0000000000000000
  0.9107343550000024  0.4166666870000029  0.6081812979999981
  0.7440676690000032  0.4166666870000029  0.8040906190000001
  0.5774010419999982  0.4166666870000029  0.0000000000000000
  0.9107343550000024  0.0833333429999996  0.6081812979999981
  0.7440676690000032  0.0833333429999996  0.8040906190000001
  0.5774010419999982  0.0833333429999996  0.0000000000000000
 
  0.00000000E+00  0.00000000E+00  0.00000000E+00
  0.00000000E+00  0.00000000E+00  0.00000000E+00
  0.00000000E+00  0.00000000E+00  0.00000000E+00
  0.00000000E+00  0.00000000E+00  0.00000000E+00
  0.00000000E+00  0.00000000E+00  0.00000000E+00
  0.00000000E+00  0.00000000E+00  0.00000000E+00
  0.00000000E+00  0.00000000E+00  0.00000000E+00
  0.00000000E+00  0.00000000E+00  0.00000000E+00
  0.00000000E+00  0.00000000E+00  0.00000000E+00
  0.00000000E+00  0.00000000E+00  0.00000000E+00
  0.00000000E+00  0.00000000E+00  0.00000000E+00
  0.00000000E+00  0.00000000E+00  0.00000000E+00
  0.00000000E+00  0.00000000E+00  0.00000000E+00
  0.00000000E+00  0.00000000E+00  0.00000000E+00
  0.00000000E+00  0.00000000E+00  0.00000000E+00
  0.00000000E+00  0.00000000E+00  0.00000000E+00
  0.00000000E+00  0.00000000E+00  0.00000000E+00
  0.00000000E+00  0.00000000E+00  0.00000000E+00
  0.00000000E+00  0.00000000E+00  0.00000000E+00
  0.00000000E+00  0.00000000E+00  0.00000000E+00
  0.00000000E+00  0.00000000E+00  0.00000000E+00
  0.00000000E+00  0.00000000E+00  0.00000000E+00
  0.00000000E+00  0.00000000E+00  0.00000000E+00
  0.00000000E+00  0.00000000E+00  0.00000000E+00
  0.00000000E+00  0.00000000E+00  0.00000000E+00
  0.00000000E+00  0.00000000E+00  0.00000000E+00
  0.00000000E+00  0.00000000E+00  0.00000000E+00
  0.00000000E+00  0.00000000E+00  0.00000000E+00
  0.00000000E+00  0.00000000E+00  0.00000000E+00
  0.00000000E+00  0.00000000E+00  0.00000000E+00
  0.00000000E+00  0.00000000E+00  0.00000000E+00
  0.00000000E+00  0.00000000E+00  0.00000000E+00
  0.00000000E+00  0.00000000E+00  0.00000000E+00
  0.00000000E+00  0.00000000E+00  0.00000000E+00
  0.00000000E+00  0.00000000E+00  0.00000000E+00
  0.00000000E+00  0.00000000E+00  0.00000000E+00
  0.00000000E+00  0.00000000E+00  0.00000000E+00
  0.00000000E+00  0.00000000E+00  0.00000000E+00
  0.00000000E+00  0.00000000E+00  0.00000000E+00
  0.00000000E+00  0.00000000E+00  0.00000000E+00
  0.00000000E+00  0.00000000E+00  0.00000000E+00
  0.00000000E+00  0.00000000E+00  0.00000000E+00
  0.00000000E+00  0.00000000E+00  0.00000000E+00
  0.00000000E+00  0.00000000E+00  0.00000000E+00
  0.00000000E+00  0.00000000E+00  0.00000000E+00
  0.00000000E+00  0.00000000E+00  0.00000000E+00
  0.00000000E+00  0.00000000E+00  0.00000000E+00
  0.00000000E+00  0.00000000E+00  0.00000000E+00
  0.00000000E+00  0.00000000E+00  0.00000000E+00
  0.00000000E+00  0.00000000E+00  0.00000000E+00
  0.00000000E+00  0.00000000E+00  0.00000000E+00
  0.00000000E+00  0.00000000E+00  0.00000000E+00
  0.00000000E+00  0.00000000E+00  0.00000000E+00
  0.00000000E+00  0.00000000E+00  0.00000000E+00
  0.00000000E+00  0.00000000E+00  0.00000000E+00
  0.00000000E+00  0.00000000E+00  0.00000000E+00
  0.00000000E+00  0.00000000E+00  0.00000000E+00
  0.00000000E+00  0.00000000E+00  0.00000000E+00
  0.00000000E+00  0.00000000E+00  0.00000000E+00
  0.00000000E+00  0.00000000E+00  0.00000000E+00
  0.00000000E+00  0.00000000E+00  0.00000000E+00
  0.00000000E+00  0.00000000E+00  0.00000000E+00
  0.00000000E+00  0.00000000E+00  0.00000000E+00
  0.00000000E+00  0.00000000E+00  0.00000000E+00
  0.00000000E+00  0.00000000E+00  0.00000000E+00
  0.00000000E+00  0.00000000E+00  0.00000000E+00
  0.00000000E+00  0.00000000E+00  0.00000000E+00
  0.00000000E+00  0.00000000E+00  0.00000000E+00
  0.00000000E+00  0.00000000E+00  0.00000000E+00
  0.00000000E+00  0.00000000E+00  0.00000000E+00
  0.00000000E+00  0.00000000E+00  0.00000000E+00
  0.00000000E+00  0.00000000E+00  0.00000000E+00
  0.00000000E+00  0.00000000E+00  0.00000000E+00
  0.00000000E+00  0.00000000E+00  0.00000000E+00
  0.00000000E+00  0.00000000E+00  0.00000000E+00
  0.00000000E+00  0.00000000E+00  0.00000000E+00
  0.00000000E+00  0.00000000E+00  0.00000000E+00
  0.00000000E+00  0.00000000E+00  0.00000000E+00
  0.00000000E+00  0.00000000E+00  0.00000000E+00
  0.00000000E+00  0.00000000E+00  0.00000000E+00
  0.00000000E+00  0.00000000E+00  0.00000000E+00
  0.00000000E+00  0.00000000E+00  0.00000000E+00
  0.00000000E+00  0.00000000E+00  0.00000000E+00
  0.00000000E+00  0.00000000E+00  0.00000000E+00
  0.00000000E+00  0.00000000E+00  0.00000000E+00
  0.00000000E+00  0.00000000E+00  0.00000000E+00
  0.00000000E+00  0.00000000E+00  0.00000000E+00
  0.00000000E+00  0.00000000E+00  0.00000000E+00
  0.00000000E+00  0.00000000E+00  0.00000000E+00
  0.00000000E+00  0.00000000E+00  0.00000000E+00
  0.00000000E+00  0.00000000E+00  0.00000000E+00
  0.00000000E+00  0.00000000E+00  0.00000000E+00
  0.00000000E+00  0.00000000E+00  0.00000000E+00
  0.00000000E+00  0.00000000E+00  0.00000000E+00
  0.00000000E+00  0.00000000E+00  0.00000000E+00
  0.00000000E+00  0.00000000E+00  0.00000000E+00
  0.00000000E+00  0.00000000E+00  0.00000000E+00
  0.00000000E+00  0.00000000E+00  0.00000000E+00
  0.00000000E+00  0.00000000E+00  0.00000000E+00
  0.00000000E+00  0.00000000E+00  0.00000000E+00
  0.00000000E+00  0.00000000E+00  0.00000000E+00
  0.00000000E+00  0.00000000E+00  0.00000000E+00
  0.00000000E+00  0.00000000E+00  0.00000000E+00
  0.00000000E+00  0.00000000E+00  0.00000000E+00
  0.00000000E+00  0.00000000E+00  0.00000000E+00
  0.00000000E+00  0.00000000E+00  0.00000000E+00
  0.00000000E+00  0.00000000E+00  0.00000000E+00
  0.00000000E+00  0.00000000E+00  0.00000000E+00
  0.00000000E+00  0.00000000E+00  0.00000000E+00
  0.00000000E+00  0.00000000E+00  0.00000000E+00
  0.00000000E+00  0.00000000E+00  0.00000000E+00
  0.00000000E+00  0.00000000E+00  0.00000000E+00
  0.00000000E+00  0.00000000E+00  0.00000000E+00
  0.00000000E+00  0.00000000E+00  0.00000000E+00
  0.00000000E+00  0.00000000E+00  0.00000000E+00
  0.00000000E+00  0.00000000E+00  0.00000000E+00
  0.00000000E+00  0.00000000E+00  0.00000000E+00
  0.00000000E+00  0.00000000E+00  0.00000000E+00
  0.00000000E+00  0.00000000E+00  0.00000000E+00
  0.00000000E+00  0.00000000E+00  0.00000000E+00
  0.00000000E+00  0.00000000E+00  0.00000000E+00
  0.00000000E+00  0.00000000E+00  0.00000000E+00
  0.00000000E+00  0.00000000E+00  0.00000000E+00
  0.00000000E+00  0.00000000E+00  0.00000000E+00
  0.00000000E+00  0.00000000E+00  0.00000000E+00
  0.00000000E+00  0.00000000E+00  0.00000000E+00
  0.00000000E+00  0.00000000E+00  0.00000000E+00
  0.00000000E+00  0.00000000E+00  0.00000000E+00
  0.00000000E+00  0.00000000E+00  0.00000000E+00
  0.00000000E+00  0.00000000E+00  0.00000000E+00
  0.00000000E+00  0.00000000E+00  0.00000000E+00
  0.00000000E+00  0.00000000E+00  0.00000000E+00
  0.00000000E+00  0.00000000E+00  0.00000000E+00
  0.00000000E+00  0.00000000E+00  0.00000000E+00
  0.00000000E+00  0.00000000E+00  0.00000000E+00
  0.00000000E+00  0.00000000E+00  0.00000000E+00
  0.00000000E+00  0.00000000E+00  0.00000000E+00
  0.00000000E+00  0.00000000E+00  0.00000000E+00
  0.00000000E+00  0.00000000E+00  0.00000000E+00
  0.00000000E+00  0.00000000E+00  0.00000000E+00
  0.00000000E+00  0.00000000E+00  0.00000000E+00
  0.00000000E+00  0.00000000E+00  0.00000000E+00
  0.00000000E+00  0.00000000E+00  0.00000000E+00
  0.00000000E+00  0.00000000E+00  0.00000000E+00
  0.00000000E+00  0.00000000E+00  0.00000000E+00
  0.00000000E+00  0.00000000E+00  0.00000000E+00
  0.00000000E+00  0.00000000E+00  0.00000000E+00
  0.00000000E+00  0.00000000E+00  0.00000000E+00
  0.00000000E+00  0.00000000E+00  0.00000000E+00
  0.00000000E+00  0.00000000E+00  0.00000000E+00
  0.00000000E+00  0.00000000E+00  0.00000000E+00
  0.00000000E+00  0.00000000E+00  0.00000000E+00
  0.00000000E+00  0.00000000E+00  0.00000000E+00
  0.00000000E+00  0.00000000E+00  0.00000000E+00
  0.00000000E+00  0.00000000E+00  0.00000000E+00
  0.00000000E+00  0.00000000E+00  0.00000000E+00
  0.00000000E+00  0.00000000E+00  0.00000000E+00
  0.00000000E+00  0.00000000E+00  0.00000000E+00
  0.00000000E+00  0.00000000E+00  0.00000000E+00
  0.00000000E+00  0.00000000E+00  0.00000000E+00
  0.00000000E+00  0.00000000E+00  0.00000000E+00
  0.00000000E+00  0.00000000E+00  0.00000000E+00
  0.00000000E+00  0.00000000E+00  0.00000000E+00
  0.00000000E+00  0.00000000E+00  0.00000000E+00
  0.00000000E+00  0.00000000E+00  0.00000000E+00
  0.00000000E+00  0.00000000E+00  0.00000000E+00
  0.00000000E+00  0.00000000E+00  0.00000000E+00
  0.00000000E+00  0.00000000E+00  0.00000000E+00
  0.00000000E+00  0.00000000E+00  0.00000000E+00
  0.00000000E+00  0.00000000E+00  0.00000000E+00
  0.00000000E+00  0.00000000E+00  0.00000000E+00
  0.00000000E+00  0.00000000E+00  0.00000000E+00
  0.00000000E+00  0.00000000E+00  0.00000000E+00
  0.00000000E+00  0.00000000E+00  0.00000000E+00
  0.00000000E+00  0.00000000E+00  0.00000000E+00
  0.00000000E+00  0.00000000E+00  0.00000000E+00
  0.00000000E+00  0.00000000E+00  0.00000000E+00
  0.00000000E+00  0.00000000E+00  0.00000000E+00
  0.00000000E+00  0.00000000E+00  0.00000000E+00
  0.00000000E+00  0.00000000E+00  0.00000000E+00
  0.00000000E+00  0.00000000E+00  0.00000000E+00
  0.00000000E+00  0.00000000E+00  0.00000000E+00
  0.00000000E+00  0.00000000E+00  0.00000000E+00
  0.00000000E+00  0.00000000E+00  0.00000000E+00
  0.00000000E+00  0.00000000E+00  0.00000000E+00
  0.00000000E+00  0.00000000E+00  0.00000000E+00
  0.00000000E+00  0.00000000E+00  0.00000000E+00
  0.00000000E+00  0.00000000E+00  0.00000000E+00
  0.00000000E+00  0.00000000E+00  0.00000000E+00
  0.00000000E+00  0.00000000E+00  0.00000000E+00
  0.00000000E+00  0.00000000E+00  0.00000000E+00
  0.00000000E+00  0.00000000E+00  0.00000000E+00
  0.00000000E+00  0.00000000E+00  0.00000000E+00
  0.00000000E+00  0.00000000E+00  0.00000000E+00
  0.00000000E+00  0.00000000E+00  0.00000000E+00
  0.00000000E+00  0.00000000E+00  0.00000000E+00
  0.00000000E+00  0.00000000E+00  0.00000000E+00
  0.00000000E+00  0.00000000E+00  0.00000000E+00
  0.00000000E+00  0.00000000E+00  0.00000000E+00
  0.00000000E+00  0.00000000E+00  0.00000000E+00
  0.00000000E+00  0.00000000E+00  0.00000000E+00
  0.00000000E+00  0.00000000E+00  0.00000000E+00
  0.00000000E+00  0.00000000E+00  0.00000000E+00
  0.00000000E+00  0.00000000E+00  0.00000000E+00
