Ge+Si
    1.000000000
   16.002676010    0.000000000    0.000000000
    0.000000000   16.002676010    0.000000000
    0.000000000    0.000000000   13.861000061
Ge  Si 
96     108
Direct
    0.995729148    0.995729148    0.000000000
    0.870729148    0.870729148    0.204090610
    0.745729148    0.745729148    0.408181250
    0.995729148    0.495729089    0.000000000
    0.870729148    0.370729119    0.204090610
    0.745729148    0.245729119    0.408181250
    0.245729119    0.245729119    0.000000000
    0.120729133    0.120729133    0.204090610
    0.995729148    0.995729148    0.408181250
    0.495729089    0.995729148    0.000000000
    0.370729119    0.870729148    0.204090610
    0.245729119    0.745729148    0.408181250
    0.245729119    0.745729089    0.000000000
    0.120729141    0.620729089    0.204090610
    0.995729148    0.495729089    0.408181250
    0.495729089    0.495729119    0.000000000
    0.370729119    0.370729148    0.204090610
    0.245729104    0.245729119    0.408181250
    0.745729148    0.245729148    0.000000000
    0.620729148    0.120729171    0.204090610
    0.495729148    0.995729148    0.408181250
    0.745729148    0.745729089    0.000000000
    0.620729148    0.620729148    0.204090610
    0.495729148    0.495729119    0.408181250
    0.120729141    0.995729148    0.102045305
    0.995729148    0.870729148    0.306135923
    0.870729148    0.745729148    0.510226607
    0.120729119    0.495729089    0.102045305
    0.995729148    0.370729089    0.306135923
    0.870729089    0.245729089    0.510226607
    0.370729148    0.245729148    0.102045305
    0.245729148    0.120729148    0.306135923
    0.120729141    0.995729148    0.510226607
    0.620729148    0.995729148    0.102045305
    0.495729148    0.870729148    0.306135923
    0.370729148    0.745729148    0.510226607
    0.370729148    0.745729089    0.102045305
    0.245729133    0.620729089    0.306135923
    0.120729133    0.495729119    0.510226607
    0.620729089    0.495729089    0.102045305
    0.495729089    0.370729059    0.306135923
    0.370729089    0.245729074    0.510226607
    0.870729148    0.245729133    0.102045305
    0.745729089    0.120729111    0.306135923
    0.620729148    0.995729148    0.510226607
    0.870729089    0.745729089    0.102045305
    0.745729089    0.620729089    0.306135923
    0.620729148    0.495729119    0.510226607
    0.995729148    0.245729133    0.000000000
    0.870729148    0.120729133    0.204090610
    0.745729148    0.995729148    0.408181250
    0.245729133    0.995729148    0.000000000
    0.120729133    0.870729148    0.204090610
    0.995729148    0.745729148    0.408181250
    0.995729148    0.745729148    0.000000000
    0.870729148    0.620729148    0.204090610
    0.745729148    0.495729148    0.408181250
    0.245729133    0.495729119    0.000000000
    0.120729156    0.370729148    0.204090610
    0.995729148    0.245729148    0.408181250
    0.495729119    0.245729133    0.000000000
    0.370729148    0.120729163    0.204090610
    0.245729148    0.995729148    0.408181250
    0.745729148    0.995729148    0.000000000
    0.620729148    0.870729148    0.204090610
    0.495729148    0.745729148    0.408181250
    0.495729119    0.745729089    0.000000000
    0.370729148    0.620729148    0.204090610
    0.245729133    0.495729119    0.408181250
    0.745729089    0.495729119    0.000000000
    0.620729148    0.370729148    0.204090610
    0.495729119    0.245729133    0.408181250
    0.120729141    0.245729119    0.102045305
    0.995729148    0.120729133    0.306135923
    0.870729148    0.995729148    0.510226607
    0.370729119    0.995729148    0.102045305
    0.245729133    0.870729148    0.306135923
    0.120729126    0.745729089    0.510226607
    0.120729141    0.745729089    0.102045305
    0.995729148    0.620729089    0.306135923
    0.870729148    0.495729089    0.510226607
    0.370729119    0.495729089    0.102045305
    0.245729133    0.370729119    0.306135923
    0.120729126    0.245729089    0.510226607
    0.620729089    0.245729119    0.102045305
    0.495729119    0.120729119    0.306135923
    0.370729119    0.995729089    0.510226607
    0.870729089    0.995729148    0.102045305
    0.745729089    0.870729148    0.306135923
    0.620729089    0.745729148    0.510226607
    0.620729148    0.745729148    0.102045305
    0.495729119    0.620729148    0.306135923
    0.370729148    0.495729148    0.510226607
    0.870729029    0.495729059    0.102045305
    0.745729029    0.370729029    0.306135923
    0.620729089    0.245729074    0.510226607
    0.994067729    0.666666687    0.510226607
    0.827401042    0.666666687    0.706135988
    0.660734296    0.666666687    0.902045488
    0.994067729    0.333333343    0.510226607
    0.827401042    0.333333343    0.706135988
    0.660734296    0.333333343    0.902045488
    0.994067729    0.000000000    0.510226607
    0.827401042    0.000000000    0.706135988
    0.660734296    0.000000000    0.902045488
    0.327401042    0.666666687    0.510226607
    0.160734370    0.666666687    0.706135988
    0.994067669    0.666666687    0.902045488
    0.327401042    0.333333343    0.510226607
    0.160734370    0.333333343    0.706135988
    0.994067669    0.333333343    0.902045488
    0.327401042    0.000000000    0.510226607
    0.160734370    0.000000000    0.706135988
    0.994067669    0.000000000    0.902045488
    0.660734415    0.666666687    0.510226607
    0.494067699    0.666666687    0.706135988
    0.327401042    0.666666687    0.902045488
    0.660734415    0.333333343    0.510226607
    0.494067699    0.333333343    0.706135988
    0.327401042    0.333333343    0.902045488
    0.660734415    0.000000000    0.510226607
    0.494067699    0.000000000    0.706135988
    0.327401042    0.000000000    0.902045488
    0.077401049    0.916666687    0.608181298
    0.910734355    0.916666687    0.804090619
    0.744067669    0.916666687    1.000000000
    0.077401049    0.583333373    0.608181298
    0.910734355    0.583333373    0.804090619
    0.744067669    0.583333373    1.000000000
    0.077401049    0.250000000    0.608181298
    0.910734355    0.250000000    0.804090619
    0.744067669    0.250000000    1.000000000
    0.410734355    0.916666687    0.608181298
    0.244067669    0.916666687    0.804090619
    0.077400982    0.916666687    1.000000000
    0.410734355    0.583333373    0.608181298
    0.244067669    0.583333373    0.804090619
    0.077400982    0.583333373    1.000000000
    0.410734355    0.250000000    0.608181298
    0.244067669    0.250000000    0.804090619
    0.077400982    0.250000000    1.000000000
    0.744067729    0.916666687    0.608181298
    0.577401042    0.916666687    0.804090619
    0.410734355    0.916666687    1.000000000
    0.744067729    0.583333373    0.608181298
    0.577401042    0.583333373    0.804090619
    0.410734355    0.583333373    1.000000000
    0.744067729    0.250000000    0.608181298
    0.577401042    0.250000000    0.804090619
    0.410734355    0.250000000    1.000000000
    0.160734385    0.833333313    0.510226607
    0.994067669    0.833333313    0.706135988
    0.827400982    0.833333313    0.902045488
    0.160734385    0.500000000    0.510226607
    0.994067669    0.500000000    0.706135988
    0.827400982    0.500000000    0.902045488
    0.160734385    0.166666672    0.510226607
    0.994067669    0.166666672    0.706135988
    0.827400982    0.166666672    0.902045488
    0.494067699    0.833333313    0.510226607
    0.327401042    0.833333313    0.706135988
    0.160734311    0.833333313    0.902045488
    0.494067699    0.500000000    0.510226607
    0.327401042    0.500000000    0.706135988
    0.160734311    0.500000000    0.902045488
    0.494067699    0.166666672    0.510226607
    0.327401042    0.166666672    0.706135988
    0.160734311    0.166666672    0.902045488
    0.827401042    0.833333313    0.510226607
    0.660734355    0.833333313    0.706135988
    0.494067639    0.833333313    0.902045488
    0.827401042    0.500000000    0.510226607
    0.660734355    0.500000000    0.706135988
    0.494067639    0.500000000    0.902045488
    0.827401042    0.166666672    0.510226607
    0.660734355    0.166666672    0.706135988
    0.494067639    0.166666672    0.902045488
    0.244067714    0.750000000    0.608181298
    0.077401027    0.750000000    0.804090619
    0.910734355    0.750000000    1.000000000
    0.244067714    0.416666687    0.608181298
    0.077401027    0.416666687    0.804090619
    0.910734355    0.416666687    1.000000000
    0.244067714    0.083333343    0.608181298
    0.077401027    0.083333343    0.804090619
    0.910734355    0.083333343    1.000000000
    0.577401161    0.750000000    0.608181298
    0.410734445    0.750000000    0.804090619
    0.244067743    0.750000000    1.000000000
    0.577401161    0.416666687    0.608181298
    0.410734445    0.416666687    0.804090619
    0.244067743    0.416666687    1.000000000
    0.577401161    0.083333343    0.608181298
    0.410734445    0.083333343    0.804090619
    0.244067743    0.083333343    1.000000000
    0.910734355    0.750000000    0.608181298
    0.744067669    0.750000000    0.804090619
    0.577401042    0.750000000    1.000000000
    0.910734355    0.416666687    0.608181298
    0.744067669    0.416666687    0.804090619
    0.577401042    0.416666687    1.000000000
    0.910734355    0.083333343    0.608181298
    0.744067669    0.083333343    0.804090619
    0.577401042    0.083333343    1.000000000
