Sn+Ge
    1.000000000
   12.978400230    0.000000000    0.000000000
    0.000000000   12.978400230    0.000000000
    0.000000000    0.000000000   19.583751678
Sn  Ge 
48     60
Direct
    0.992552638    0.499999970    0.000000000
    0.742552638    0.499999970    0.165678188
    0.492552757    0.499999970    0.331356287
    0.992552638    0.000000000    0.000000000
    0.742552638    0.000000000    0.165678188
    0.492552757    0.000000000    0.331356287
    0.492552608    0.499999970    0.000000000
    0.242552638    0.499999970    0.165678188
    0.992552698    0.499999970    0.331356287
    0.492552608    0.000000000    0.000000000
    0.242552638    0.000000000    0.165678188
    0.992552698    0.000000000    0.331356287
    0.117552646    0.874999940    0.082839087
    0.867552757    0.874999940    0.248517260
    0.617552698    0.874999940    0.414195418
    0.117552646    0.374999970    0.082839087
    0.867552757    0.374999970    0.248517260
    0.617552698    0.374999970    0.414195418
    0.617552578    0.874999940    0.082839087
    0.367552698    0.874999940    0.248517260
    0.117552668    0.874999940    0.414195418
    0.617552578    0.374999970    0.082839087
    0.367552698    0.374999970    0.248517260
    0.117552668    0.374999970    0.414195418
    0.242552638    0.749999940    0.000000000
    0.992552638    0.749999940    0.165678188
    0.742552757    0.749999940    0.331356287
    0.242552638    0.249999985    0.000000000
    0.992552638    0.249999985    0.165678188
    0.742552757    0.249999985    0.331356287
    0.742552578    0.749999940    0.000000000
    0.492552608    0.749999940    0.165678188
    0.242552698    0.749999940    0.331356287
    0.742552578    0.249999985    0.000000000
    0.492552608    0.249999985    0.165678188
    0.242552698    0.249999985    0.331356287
    0.367552638    0.624999940    0.082839087
    0.117552713    0.624999940    0.248517260
    0.867552698    0.624999940    0.414195418
    0.367552638    0.124999993    0.082839087
    0.117552713    0.124999993    0.248517260
    0.867552698    0.124999993    0.414195418
    0.867552638    0.624999940    0.082839087
    0.617552757    0.624999940    0.248517260
    0.367552698    0.624999940    0.414195418
    0.867552638    0.124999993    0.082839087
    0.617552757    0.124999993    0.248517260
    0.367552698    0.124999993    0.414195418
    0.817972839    0.528998077    0.526533484
    0.617972791    0.628998101    0.670984805
    0.417972744    0.728998125    0.815436304
    0.017972827    0.928998113    0.526533484
    0.817972720    0.028998017    0.670984805
    0.617972672    0.128998160    0.815436304
    0.217972875    0.328998089    0.526533484
    0.017972827    0.428998113    0.670984805
    0.817972720    0.528998137    0.815436304
    0.417972803    0.728998065    0.526533484
    0.217972755    0.828998089    0.670984805
    0.017972708    0.928998113    0.815436304
    0.617972791    0.128998041    0.526533484
    0.417972773    0.228998065    0.670984805
    0.217972755    0.328998059    0.815436304
    0.167972803    0.478998095    0.598759174
    0.967972696    0.578998089    0.743210614
    0.767972589    0.678998113    0.887661994
    0.767972827    0.678998113    0.598759174
    0.567972779    0.778998137    0.743210614
    0.367972702    0.878998160    0.887661994
    0.967972815    0.078998089    0.598759174
    0.767972767    0.178998113    0.743210614
    0.567972720    0.278998137    0.887661994
    0.367972791    0.878998041    0.598759174
    0.167972803    0.978998184    0.743210614
    0.967972636    0.078998208    0.887661994
    0.567972779    0.278998137    0.598759174
    0.367972732    0.378998131    0.743210614
    0.167972684    0.478998154    0.887661994
    0.117972732    0.628998041    0.526533484
    0.917972684    0.728998065    0.670984805
    0.717972636    0.828998089    0.815436304
    0.517972827    0.428998113    0.526533484
    0.317972779    0.528998137    0.670984805
    0.117972732    0.628998160    0.815436304
    0.717972815    0.828998089    0.526533484
    0.517972767    0.928998113    0.670984805
    0.317972720    0.028998137    0.815436304
    0.917972744    0.228998065    0.526533484
    0.717972755    0.328998178    0.670984805
    0.517972708    0.428998202    0.815436304
    0.317972839    0.028998137    0.526533484
    0.117972851    0.128998160    0.670984805
    0.917972744    0.228998184    0.815436304
    0.867972791    0.378998101    0.598759174
    0.667972744    0.478998125    0.743210614
    0.467972696    0.578998208    0.887661994
    0.067972898    0.778998137    0.598759174
    0.867972851    0.878998160    0.743210614
    0.667972803    0.978998184    0.887661994
    0.467972815    0.578998089    0.598759174
    0.267972767    0.678998113    0.743210614
    0.067972779    0.778998137    0.887661994
    0.667972803    0.978998065    0.598759174
    0.467972755    0.078998089    0.743210614
    0.267972708    0.178998113    0.887661994
    0.267972797    0.178998113    0.598759174
    0.067972779    0.278998137    0.743210614
    0.867972672    0.378998131    0.887661994
