fcc Si+fcc Ge
    1.000000000
   17.329281578    0.000000000    0.000000000
    0.000000000   17.329281578    0.000000000
    0.000000000    0.000000000   24.575000000
Si    Ge   
220     108
Direct
    0.000000000    0.000000000    0.000000000
    0.950000000    0.350000000    0.111495422
    0.900000000    0.700000000    0.222990844
    0.850000000    0.050000000    0.334486267
    0.800000000    0.400000000    0.445981689
    0.750000000    0.750000000    0.557477111
    0.100000000    0.300000000    0.000000000
    0.050000000    0.650000000    0.111495422
    0.000000000    0.000000000    0.222990844
    0.950000000    0.350000000    0.334486267
    0.900000000    0.700000000    0.445981689
    0.850000000    0.050000000    0.557477111
    0.200000000    0.600000000    0.000000000
    0.150000000    0.950000000    0.111495422
    0.100000000    0.300000000    0.222990844
    0.050000000    0.650000000    0.334486267
    0.000000000    0.000000000    0.445981689
    0.950000000    0.350000000    0.557477111
    0.300000000    0.900000000    0.000000000
    0.250000000    0.250000000    0.111495422
    0.200000000    0.600000000    0.222990844
    0.150000000    0.950000000    0.334486267
    0.100000000    0.300000000    0.445981689
    0.050000000    0.650000000    0.557477111
    0.400000000    0.200000000    0.000000000
    0.350000000    0.550000000    0.111495422
    0.300000000    0.900000000    0.222990844
    0.250000000    0.250000000    0.334486267
    0.200000000    0.600000000    0.445981689
    0.150000000    0.950000000    0.557477111
    0.500000000    0.500000000    0.000000000
    0.450000000    0.850000000    0.111495422
    0.400000000    0.200000000    0.222990844
    0.350000000    0.550000000    0.334486267
    0.300000000    0.900000000    0.445981689
    0.250000000    0.250000000    0.557477111
    0.600000000    0.800000000    0.000000000
    0.550000000    0.150000000    0.111495422
    0.500000000    0.500000000    0.222990844
    0.450000000    0.850000000    0.334486267
    0.400000000    0.200000000    0.445981689
    0.350000000    0.550000000    0.557477111
    0.700000000    0.100000000    0.000000000
    0.650000000    0.450000000    0.111495422
    0.600000000    0.800000000    0.222990844
    0.550000000    0.150000000    0.334486267
    0.500000000    0.500000000    0.445981689
    0.450000000    0.850000000    0.557477111
    0.800000000    0.400000000    0.000000000
    0.750000000    0.750000000    0.111495422
    0.700000000    0.100000000    0.222990844
    0.650000000    0.450000000    0.334486267
    0.600000000    0.800000000    0.445981689
    0.550000000    0.150000000    0.557477111
    0.900000000    0.700000000    0.000000000
    0.850000000    0.050000000    0.111495422
    0.800000000    0.400000000    0.222990844
    0.750000000    0.750000000    0.334486267
    0.700000000    0.100000000    0.445981689
    0.650000000    0.450000000    0.557477111
    0.000000000    0.500000000    0.000000000
    0.950000000    0.850000000    0.111495422
    0.900000000    0.200000000    0.222990844
    0.850000000    0.550000000    0.334486267
    0.800000000    0.900000000    0.445981689
    0.750000000    0.250000000    0.557477111
    0.100000000    0.800000000    0.000000000
    0.050000000    0.150000000    0.111495422
    0.000000000    0.500000000    0.222990844
    0.950000000    0.850000000    0.334486267
    0.900000000    0.200000000    0.445981689
    0.850000000    0.550000000    0.557477111
    0.200000000    0.100000000    0.000000000
    0.150000000    0.450000000    0.111495422
    0.100000000    0.800000000    0.222990844
    0.050000000    0.150000000    0.334486267
    0.000000000    0.500000000    0.445981689
    0.950000000    0.850000000    0.557477111
    0.300000000    0.400000000    0.000000000
    0.250000000    0.750000000    0.111495422
    0.200000000    0.100000000    0.222990844
    0.150000000    0.450000000    0.334486267
    0.100000000    0.800000000    0.445981689
    0.050000000    0.150000000    0.557477111
    0.400000000    0.700000000    0.000000000
    0.350000000    0.050000000    0.111495422
    0.300000000    0.400000000    0.222990844
    0.250000000    0.750000000    0.334486267
    0.200000000    0.100000000    0.445981689
    0.150000000    0.450000000    0.557477111
    0.500000000    0.000000000    0.000000000
    0.450000000    0.350000000    0.111495422
    0.400000000    0.700000000    0.222990844
    0.350000000    0.050000000    0.334486267
    0.300000000    0.400000000    0.445981689
    0.250000000    0.750000000    0.557477111
    0.600000000    0.300000000    0.000000000
    0.550000000    0.650000000    0.111495422
    0.500000000    0.000000000    0.222990844
    0.450000000    0.350000000    0.334486267
    0.400000000    0.700000000    0.445981689
    0.350000000    0.050000000    0.557477111
    0.700000000    0.600000000    0.000000000
    0.650000000    0.950000000    0.111495422
    0.600000000    0.300000000    0.222990844
    0.550000000    0.650000000    0.334486267
    0.500000000    0.000000000    0.445981689
    0.450000000    0.350000000    0.557477111
    0.800000000    0.900000000    0.000000000
    0.750000000    0.250000000    0.111495422
    0.700000000    0.600000000    0.222990844
    0.650000000    0.950000000    0.334486267
    0.600000000    0.300000000    0.445981689
    0.550000000    0.650000000    0.557477111
    0.900000000    0.200000000    0.000000000
    0.850000000    0.550000000    0.111495422
    0.800000000    0.900000000    0.222990844
    0.750000000    0.250000000    0.334486267
    0.700000000    0.600000000    0.445981689
    0.650000000    0.950000000    0.557477111
    0.000000000    0.750000000    0.055747711
    0.950000000    0.100000000    0.167243133
    0.900000000    0.450000000    0.278738555
    0.850000000    0.800000000    0.390233978
    0.800000000    0.150000000    0.501729400
    0.100000000    0.050000000    0.055747711
    0.050000000    0.400000000    0.167243133
    0.000000000    0.750000000    0.278738555
    0.950000000    0.100000000    0.390233978
    0.900000000    0.450000000    0.501729400
    0.200000000    0.350000000    0.055747711
    0.150000000    0.700000000    0.167243133
    0.100000000    0.050000000    0.278738555
    0.050000000    0.400000000    0.390233978
    0.000000000    0.750000000    0.501729400
    0.300000000    0.650000000    0.055747711
    0.250000000    0.000000000    0.167243133
    0.200000000    0.350000000    0.278738555
    0.150000000    0.700000000    0.390233978
    0.100000000    0.050000000    0.501729400
    0.400000000    0.950000000    0.055747711
    0.350000000    0.300000000    0.167243133
    0.300000000    0.650000000    0.278738555
    0.250000000    0.000000000    0.390233978
    0.200000000    0.350000000    0.501729400
    0.500000000    0.250000000    0.055747711
    0.450000000    0.600000000    0.167243133
    0.400000000    0.950000000    0.278738555
    0.350000000    0.300000000    0.390233978
    0.300000000    0.650000000    0.501729400
    0.600000000    0.550000000    0.055747711
    0.550000000    0.900000000    0.167243133
    0.500000000    0.250000000    0.278738555
    0.450000000    0.600000000    0.390233978
    0.400000000    0.950000000    0.501729400
    0.700000000    0.850000000    0.055747711
    0.650000000    0.200000000    0.167243133
    0.600000000    0.550000000    0.278738555
    0.550000000    0.900000000    0.390233978
    0.500000000    0.250000000    0.501729400
    0.800000000    0.150000000    0.055747711
    0.750000000    0.500000000    0.167243133
    0.700000000    0.850000000    0.278738555
    0.650000000    0.200000000    0.390233978
    0.600000000    0.550000000    0.501729400
    0.900000000    0.450000000    0.055747711
    0.850000000    0.800000000    0.167243133
    0.800000000    0.150000000    0.278738555
    0.750000000    0.500000000    0.390233978
    0.700000000    0.850000000    0.501729400
    0.000000000    0.250000000    0.055747711
    0.950000000    0.600000000    0.167243133
    0.900000000    0.950000000    0.278738555
    0.850000000    0.300000000    0.390233978
    0.800000000    0.650000000    0.501729400
    0.100000000    0.550000000    0.055747711
    0.050000000    0.900000000    0.167243133
    0.000000000    0.250000000    0.278738555
    0.950000000    0.600000000    0.390233978
    0.900000000    0.950000000    0.501729400
    0.200000000    0.850000000    0.055747711
    0.150000000    0.200000000    0.167243133
    0.100000000    0.550000000    0.278738555
    0.050000000    0.900000000    0.390233978
    0.000000000    0.250000000    0.501729400
    0.300000000    0.150000000    0.055747711
    0.250000000    0.500000000    0.167243133
    0.200000000    0.850000000    0.278738555
    0.150000000    0.200000000    0.390233978
    0.100000000    0.550000000    0.501729400
    0.400000000    0.450000000    0.055747711
    0.350000000    0.800000000    0.167243133
    0.300000000    0.150000000    0.278738555
    0.250000000    0.500000000    0.390233978
    0.200000000    0.850000000    0.501729400
    0.500000000    0.750000000    0.055747711
    0.450000000    0.100000000    0.167243133
    0.400000000    0.450000000    0.278738555
    0.350000000    0.800000000    0.390233978
    0.300000000    0.150000000    0.501729400
    0.600000000    0.050000000    0.055747711
    0.550000000    0.400000000    0.167243133
    0.500000000    0.750000000    0.278738555
    0.450000000    0.100000000    0.390233978
    0.400000000    0.450000000    0.501729400
    0.700000000    0.350000000    0.055747711
    0.650000000    0.700000000    0.167243133
    0.600000000    0.050000000    0.278738555
    0.550000000    0.400000000    0.390233978
    0.500000000    0.750000000    0.501729400
    0.800000000    0.650000000    0.055747711
    0.750000000    0.000000000    0.167243133
    0.700000000    0.350000000    0.278738555
    0.650000000    0.700000000    0.390233978
    0.600000000    0.050000000    0.501729400
    0.900000000    0.950000000    0.055747711
    0.850000000    0.300000000    0.167243133
    0.800000000    0.650000000    0.278738555
    0.750000000    0.000000000    0.390233978
    0.700000000    0.350000000    0.501729400
    0.250000000    0.250000000    0.634791455
    0.083333333    0.250000000    0.749949135
    0.916666667    0.250000000    0.865106816
    0.250000000    0.583333333    0.634791455
    0.083333333    0.583333333    0.749949135
    0.916666667    0.583333333    0.865106816
    0.250000000    0.916666667    0.634791455
    0.083333333    0.916666667    0.749949135
    0.916666667    0.916666667    0.865106816
    0.583333333    0.250000000    0.634791455
    0.416666667    0.250000000    0.749949135
    0.250000000    0.250000000    0.865106816
    0.583333333    0.583333333    0.634791455
    0.416666667    0.583333333    0.749949135
    0.250000000    0.583333333    0.865106816
    0.583333333    0.916666667    0.634791455
    0.416666667    0.916666667    0.749949135
    0.250000000    0.916666667    0.865106816
    0.916666667    0.250000000    0.634791455
    0.750000000    0.250000000    0.749949135
    0.583333333    0.250000000    0.865106816
    0.916666667    0.583333333    0.634791455
    0.750000000    0.583333333    0.749949135
    0.583333333    0.583333333    0.865106816
    0.916666667    0.916666667    0.634791455
    0.750000000    0.916666667    0.749949135
    0.583333333    0.916666667    0.865106816
    0.416666667    0.416666667    0.634791455
    0.250000000    0.416666667    0.749949135
    0.083333333    0.416666667    0.865106816
    0.416666667    0.750000000    0.634791455
    0.250000000    0.750000000    0.749949135
    0.083333333    0.750000000    0.865106816
    0.416666667    0.083333333    0.634791455
    0.250000000    0.083333333    0.749949135
    0.083333333    0.083333333    0.865106816
    0.750000000    0.416666667    0.634791455
    0.583333333    0.416666667    0.749949135
    0.416666667    0.416666667    0.865106816
    0.750000000    0.750000000    0.634791455
    0.583333333    0.750000000    0.749949135
    0.416666667    0.750000000    0.865106816
    0.750000000    0.083333333    0.634791455
    0.583333333    0.083333333    0.749949135
    0.416666667    0.083333333    0.865106816
    0.083333333    0.416666667    0.634791455
    0.916666667    0.416666667    0.749949135
    0.750000000    0.416666667    0.865106816
    0.083333333    0.750000000    0.634791455
    0.916666667    0.750000000    0.749949135
    0.750000000    0.750000000    0.865106816
    0.083333333    0.083333333    0.634791455
    0.916666667    0.083333333    0.749949135
    0.750000000    0.083333333    0.865106816
    0.333333333    0.333333333    0.692370295
    0.166666667    0.333333333    0.807527976
    1.000000000    0.333333333    0.922685656
    0.333333333    0.666666667    0.692370295
    0.166666667    0.666666667    0.807527976
    1.000000000    0.666666667    0.922685656
    0.333333333    1.000000000    0.692370295
    0.166666667    1.000000000    0.807527976
    1.000000000    1.000000000    0.922685656
    0.666666667    0.333333333    0.692370295
    0.500000000    0.333333333    0.807527976
    0.333333333    0.333333333    0.922685656
    0.666666667    0.666666667    0.692370295
    0.500000000    0.666666667    0.807527976
    0.333333333    0.666666667    0.922685656
    0.666666667    1.000000000    0.692370295
    0.500000000    1.000000000    0.807527976
    0.333333333    1.000000000    0.922685656
    1.000000000    0.333333333    0.692370295
    0.833333333    0.333333333    0.807527976
    0.666666667    0.333333333    0.922685656
    1.000000000    0.666666667    0.692370295
    0.833333333    0.666666667    0.807527976
    0.666666667    0.666666667    0.922685656
    1.000000000    1.000000000    0.692370295
    0.833333333    1.000000000    0.807527976
    0.666666667    1.000000000    0.922685656
    0.500000000    0.500000000    0.692370295
    0.333333333    0.500000000    0.807527976
    0.166666667    0.500000000    0.922685656
    0.500000000    0.833333333    0.692370295
    0.333333333    0.833333333    0.807527976
    0.166666667    0.833333333    0.922685656
    0.500000000    0.166666667    0.692370295
    0.333333333    0.166666667    0.807527976
    0.166666667    0.166666667    0.922685656
    0.833333333    0.500000000    0.692370295
    0.666666667    0.500000000    0.807527976
    0.500000000    0.500000000    0.922685656
    0.833333333    0.833333333    0.692370295
    0.666666667    0.833333333    0.807527976
    0.500000000    0.833333333    0.922685656
    0.833333333    0.166666667    0.692370295
    0.666666667    0.166666667    0.807527976
    0.500000000    0.166666667    0.922685656
    0.166666667    0.500000000    0.692370295
    1.000000000    0.500000000    0.807527976
    0.833333333    0.500000000    0.922685656
    0.166666667    0.833333333    0.692370295
    1.000000000    0.833333333    0.807527976
    0.833333333    0.833333333    0.922685656
    0.166666667    0.166666667    0.692370295
    1.000000000    0.166666667    0.807527976
    0.833333333    0.166666667    0.922685656
