Si+C                                    
   1.00000000000000     
    16.2930011750000006    0.0000000000000000    0.0000000000000000
   -10.8620004649999995   12.1440858840000008    0.0000000000000000
     0.0000000000000000    0.0000000000000000    7.0064740179999996
   Si   C 
    36    84
Direct
  0.9743584989999974  0.9829056259999973  0.0000000020000002
  0.6743584279999979  0.7829055790000012  0.1733267010000006
  0.3743584159999997  0.5829055310000015  0.3466534020000012
  0.3076917830000028  0.9829056259999973  0.0000000020000002
  0.0076917259999973  0.7829055790000012  0.1733267010000006
  0.7076916689999990  0.5829055310000015  0.3466534020000012
  0.6410250659999974  0.9829056259999973  0.0000000020000002
  0.3410250250000004  0.7829055790000012  0.1733267010000006
  0.0410249870000001  0.5829055310000015  0.3466534020000012
  0.1576919700000019  0.6329056020000010  0.0866631720000015
  0.8576919440000026  0.4329055250000025  0.2599898870000033
  0.5576919319999973  0.2329055069999981  0.4333165290000025
  0.4910252090000000  0.6329056020000010  0.0866631720000015
  0.1910251529999982  0.4329055250000025  0.2599898870000033
  0.8910251860000002  0.2329055069999981  0.4333165290000025
  0.8243584630000029  0.6329056020000010  0.0866631720000015
  0.5243583920000034  0.4329055250000025  0.2599898870000033
  0.2243584989999974  0.2329055069999981  0.4333165290000025
  0.1410251559999978  0.4829055960000019  0.0000000000000000
  0.8410251139999971  0.2829054890000009  0.1733267010000006
  0.5410251019999990  0.0829054339999971  0.3466534020000012
  0.4743584389999995  0.4829055960000019  0.0000000000000000
  0.1743583829999977  0.2829054890000009  0.1733267010000006
  0.8743583560000019  0.0829054339999971  0.3466534020000012
  0.8076916930000024  0.4829055960000019  0.0000000000000000
  0.5076916809999972  0.2829054890000009  0.1733267010000006
  0.2076916250000025  0.0829054339999971  0.3466534020000012
  0.9910252090000000  0.1329056619999989  0.0866631789999985
  0.6910251380000005  0.9329056139999992  0.2599898870000033
  0.3910251860000002  0.7329055670000031  0.4333165290000025
  0.3243584630000029  0.1329056619999989  0.0866631789999985
  0.0243584139999982  0.9329056139999992  0.2599898870000033
  0.7243584389999995  0.7329055670000031  0.4333165290000025
  0.6576916579999974  0.1329056619999989  0.0866631789999985
  0.3576916159999968  0.9329056139999992  0.2599898870000033
  0.0576916520000026  0.7329055670000031  0.4333165290000025
  0.1420987249999968  0.2069571019999970  0.5743682980000031
  0.3849559430000014  0.1783857349999991  0.6882002950000015
  0.6278131600000023  0.1498141289999992  0.8020323510000011
  0.4278129939999999  0.3498142959999981  0.5743682980000031
  0.6706702110000009  0.3212428089999975  0.6882002950000015
  0.9135274289999984  0.2926713230000004  0.8020323510000011
  0.7135272029999982  0.4926713999999990  0.5743682980000031
  0.9563844799999970  0.4640999140000019  0.6882002950000015
  0.1992417570000029  0.4355284569999966  0.8020323510000011
  0.9992415899999969  0.6355285639999977  0.5743682980000031
  0.2420988080000015  0.6069570780000006  0.6882002950000015
  0.4849561449999982  0.5783856509999978  0.8020323510000011
  0.2849558590000001  0.7783856989999975  0.5743682980000031
  0.5278130769999976  0.7498142720000018  0.6882002950000015
  0.7706702950000022  0.7212427850000012  0.8020323510000011
  0.5706701869999975  0.9212428929999987  0.5743682980000031
  0.8135274050000021  0.8926714059999981  0.6882002950000015
  0.0563846829999974  0.8640999200000010  0.8020323510000011
  0.8563843969999994  0.0641000270000021  0.5743682980000031
  0.0992416140000003  0.0355284210000022  0.6882002950000015
  0.3420988319999978  0.0069570539999972  0.8020323510000011
  0.9778128860000024  0.2998142840000000  0.6312842370000027
  0.2206702229999991  0.2712428270000018  0.7451161740000032
  0.4635274409999965  0.2426713110000023  0.8589482309999994
  0.2635270950000006  0.4426714180000033  0.6312841769999977
  0.5063843730000031  0.4140999620000017  0.7451162930000024
  0.7492415899999969  0.3855284449999985  0.8589482309999994
  0.5492414830000030  0.5855286119999974  0.6312841769999977
  0.7920987010000005  0.5569571260000004  0.7451162930000024
  0.0349559779999993  0.5283856389999997  0.8589482309999994
  0.8349558119999969  0.7283857460000007  0.6312841769999977
  0.0778131479999971  0.6998141999999987  0.7451162930000024
  0.3206703660000016  0.6712428330000009  0.8589482309999994
  0.1206699680000014  0.8712428810000006  0.6312841769999977
  0.3635272980000011  0.8426713939999999  0.7451162930000024
  0.6063843969999994  0.8140999080000029  0.8589482309999994
  0.4063844080000010  0.0141000750000018  0.6312842370000027
  0.6492416860000034  0.9855284690000019  0.7451162930000024
  0.8920989040000009  0.9569570419999991  0.8589482309999994
  0.6920985579999979  0.1569571499999967  0.6312842370000027
  0.9349557760000025  0.1283856630000031  0.7451162930000024
  0.1778130530000013  0.0998141769999989  0.8589482309999994
  0.7849559779999993  0.2783857579999989  0.5743682980000031
  0.0278130769999976  0.2498142419999994  0.6882002950000015
  0.2706704140000014  0.2212428149999965  0.8020323510000011
  0.0706703660000016  0.4212428929999987  0.5743682980000031
  0.3135274649999999  0.3926713760000027  0.6882002950000015
  0.5563845630000017  0.3640998899999985  0.8020323510000011
  0.3563844560000007  0.5641000270000021  0.5743682980000031
  0.5992416739999982  0.5355285409999979  0.6882002950000015
  0.8420988920000028  0.5069570539999972  0.8020323510000011
  0.6420986649999989  0.7069571609999983  0.5743682980000031
  0.8849559430000014  0.6783856750000012  0.6882002950000015
  0.1278132200000002  0.6498142479999984  0.8020323510000011
  0.9278129939999999  0.8498142959999981  0.5743682980000031
  0.1706702709999988  0.8212428690000024  0.6882002950000015
  0.4135273690000005  0.7926713230000004  0.8020323510000011
  0.2135272920000020  0.9926714899999993  0.5743682980000031
  0.4563845099999995  0.9641000629999965  0.6882003549999993
  0.6992418170000008  0.9355285760000029  0.8020323510000011
  0.4992415609999981  0.1355285639999977  0.5743682980000031
  0.7420987490000002  0.1069571969999998  0.6882003549999993
  0.9849560859999968  0.0783857110000028  0.8020323510000011
  0.3349558709999982  0.2283857319999996  0.6312841769999977
  0.5778131479999971  0.1998141999999987  0.7451162930000024
  0.8206704259999995  0.1712427140000017  0.8589482309999994
  0.6206700210000022  0.3712428810000006  0.6312841769999977
  0.8635272980000011  0.3426713939999999  0.7451162930000024
  0.1063845159999985  0.3140999379999982  0.8589482309999994
  0.9063842890000018  0.5140999560000026  0.6312841769999977
  0.1492416860000034  0.4855285579999986  0.7451162930000024
  0.3920989040000009  0.4569571019999970  0.8589482309999994
  0.1920984980000000  0.6569571499999967  0.6312841769999977
  0.4349558349999967  0.6283856630000031  0.7451161740000032
  0.6778130530000013  0.5998141769999989  0.8589482309999994
  0.4778129460000002  0.7998142240000021  0.6312841769999977
  0.7206702829999969  0.7712427379999980  0.7451162930000024
  0.9635275010000015  0.7426713110000023  0.8589482309999994
  0.7635272739999976  0.9426714180000033  0.6312841769999977
  0.0063846110000014  0.9140999319999992  0.7451162930000024
  0.2492418289999989  0.8855285639999977  0.8589482309999994
  0.0492414240000016  0.0855286119999974  0.6312841769999977
  0.2920987609999983  0.0569571260000004  0.7451162930000024
  0.5349559779999993  0.0283856389999997  0.8589482309999994
 
  0.00000000E+00  0.00000000E+00  0.00000000E+00
  0.00000000E+00  0.00000000E+00  0.00000000E+00
  0.00000000E+00  0.00000000E+00  0.00000000E+00
  0.00000000E+00  0.00000000E+00  0.00000000E+00
  0.00000000E+00  0.00000000E+00  0.00000000E+00
  0.00000000E+00  0.00000000E+00  0.00000000E+00
  0.00000000E+00  0.00000000E+00  0.00000000E+00
  0.00000000E+00  0.00000000E+00  0.00000000E+00
  0.00000000E+00  0.00000000E+00  0.00000000E+00
  0.00000000E+00  0.00000000E+00  0.00000000E+00
  0.00000000E+00  0.00000000E+00  0.00000000E+00
  0.00000000E+00  0.00000000E+00  0.00000000E+00
  0.00000000E+00  0.00000000E+00  0.00000000E+00
  0.00000000E+00  0.00000000E+00  0.00000000E+00
  0.00000000E+00  0.00000000E+00  0.00000000E+00
  0.00000000E+00  0.00000000E+00  0.00000000E+00
  0.00000000E+00  0.00000000E+00  0.00000000E+00
  0.00000000E+00  0.00000000E+00  0.00000000E+00
  0.00000000E+00  0.00000000E+00  0.00000000E+00
  0.00000000E+00  0.00000000E+00  0.00000000E+00
  0.00000000E+00  0.00000000E+00  0.00000000E+00
  0.00000000E+00  0.00000000E+00  0.00000000E+00
  0.00000000E+00  0.00000000E+00  0.00000000E+00
  0.00000000E+00  0.00000000E+00  0.00000000E+00
  0.00000000E+00  0.00000000E+00  0.00000000E+00
  0.00000000E+00  0.00000000E+00  0.00000000E+00
  0.00000000E+00  0.00000000E+00  0.00000000E+00
  0.00000000E+00  0.00000000E+00  0.00000000E+00
  0.00000000E+00  0.00000000E+00  0.00000000E+00
  0.00000000E+00  0.00000000E+00  0.00000000E+00
  0.00000000E+00  0.00000000E+00  0.00000000E+00
  0.00000000E+00  0.00000000E+00  0.00000000E+00
  0.00000000E+00  0.00000000E+00  0.00000000E+00
  0.00000000E+00  0.00000000E+00  0.00000000E+00
  0.00000000E+00  0.00000000E+00  0.00000000E+00
  0.00000000E+00  0.00000000E+00  0.00000000E+00
  0.00000000E+00  0.00000000E+00  0.00000000E+00
  0.00000000E+00  0.00000000E+00  0.00000000E+00
  0.00000000E+00  0.00000000E+00  0.00000000E+00
  0.00000000E+00  0.00000000E+00  0.00000000E+00
  0.00000000E+00  0.00000000E+00  0.00000000E+00
  0.00000000E+00  0.00000000E+00  0.00000000E+00
  0.00000000E+00  0.00000000E+00  0.00000000E+00
  0.00000000E+00  0.00000000E+00  0.00000000E+00
  0.00000000E+00  0.00000000E+00  0.00000000E+00
  0.00000000E+00  0.00000000E+00  0.00000000E+00
  0.00000000E+00  0.00000000E+00  0.00000000E+00
  0.00000000E+00  0.00000000E+00  0.00000000E+00
  0.00000000E+00  0.00000000E+00  0.00000000E+00
  0.00000000E+00  0.00000000E+00  0.00000000E+00
  0.00000000E+00  0.00000000E+00  0.00000000E+00
  0.00000000E+00  0.00000000E+00  0.00000000E+00
  0.00000000E+00  0.00000000E+00  0.00000000E+00
  0.00000000E+00  0.00000000E+00  0.00000000E+00
  0.00000000E+00  0.00000000E+00  0.00000000E+00
  0.00000000E+00  0.00000000E+00  0.00000000E+00
  0.00000000E+00  0.00000000E+00  0.00000000E+00
  0.00000000E+00  0.00000000E+00  0.00000000E+00
  0.00000000E+00  0.00000000E+00  0.00000000E+00
  0.00000000E+00  0.00000000E+00  0.00000000E+00
  0.00000000E+00  0.00000000E+00  0.00000000E+00
  0.00000000E+00  0.00000000E+00  0.00000000E+00
  0.00000000E+00  0.00000000E+00  0.00000000E+00
  0.00000000E+00  0.00000000E+00  0.00000000E+00
  0.00000000E+00  0.00000000E+00  0.00000000E+00
  0.00000000E+00  0.00000000E+00  0.00000000E+00
  0.00000000E+00  0.00000000E+00  0.00000000E+00
  0.00000000E+00  0.00000000E+00  0.00000000E+00
  0.00000000E+00  0.00000000E+00  0.00000000E+00
  0.00000000E+00  0.00000000E+00  0.00000000E+00
  0.00000000E+00  0.00000000E+00  0.00000000E+00
  0.00000000E+00  0.00000000E+00  0.00000000E+00
  0.00000000E+00  0.00000000E+00  0.00000000E+00
  0.00000000E+00  0.00000000E+00  0.00000000E+00
  0.00000000E+00  0.00000000E+00  0.00000000E+00
  0.00000000E+00  0.00000000E+00  0.00000000E+00
  0.00000000E+00  0.00000000E+00  0.00000000E+00
  0.00000000E+00  0.00000000E+00  0.00000000E+00
  0.00000000E+00  0.00000000E+00  0.00000000E+00
  0.00000000E+00  0.00000000E+00  0.00000000E+00
  0.00000000E+00  0.00000000E+00  0.00000000E+00
  0.00000000E+00  0.00000000E+00  0.00000000E+00
  0.00000000E+00  0.00000000E+00  0.00000000E+00
  0.00000000E+00  0.00000000E+00  0.00000000E+00
  0.00000000E+00  0.00000000E+00  0.00000000E+00
  0.00000000E+00  0.00000000E+00  0.00000000E+00
  0.00000000E+00  0.00000000E+00  0.00000000E+00
  0.00000000E+00  0.00000000E+00  0.00000000E+00
  0.00000000E+00  0.00000000E+00  0.00000000E+00
  0.00000000E+00  0.00000000E+00  0.00000000E+00
  0.00000000E+00  0.00000000E+00  0.00000000E+00
  0.00000000E+00  0.00000000E+00  0.00000000E+00
  0.00000000E+00  0.00000000E+00  0.00000000E+00
  0.00000000E+00  0.00000000E+00  0.00000000E+00
  0.00000000E+00  0.00000000E+00  0.00000000E+00
  0.00000000E+00  0.00000000E+00  0.00000000E+00
  0.00000000E+00  0.00000000E+00  0.00000000E+00
  0.00000000E+00  0.00000000E+00  0.00000000E+00
  0.00000000E+00  0.00000000E+00  0.00000000E+00
  0.00000000E+00  0.00000000E+00  0.00000000E+00
  0.00000000E+00  0.00000000E+00  0.00000000E+00
  0.00000000E+00  0.00000000E+00  0.00000000E+00
  0.00000000E+00  0.00000000E+00  0.00000000E+00
  0.00000000E+00  0.00000000E+00  0.00000000E+00
  0.00000000E+00  0.00000000E+00  0.00000000E+00
  0.00000000E+00  0.00000000E+00  0.00000000E+00
  0.00000000E+00  0.00000000E+00  0.00000000E+00
  0.00000000E+00  0.00000000E+00  0.00000000E+00
  0.00000000E+00  0.00000000E+00  0.00000000E+00
  0.00000000E+00  0.00000000E+00  0.00000000E+00
  0.00000000E+00  0.00000000E+00  0.00000000E+00
  0.00000000E+00  0.00000000E+00  0.00000000E+00
  0.00000000E+00  0.00000000E+00  0.00000000E+00
  0.00000000E+00  0.00000000E+00  0.00000000E+00
  0.00000000E+00  0.00000000E+00  0.00000000E+00
  0.00000000E+00  0.00000000E+00  0.00000000E+00
  0.00000000E+00  0.00000000E+00  0.00000000E+00
  0.00000000E+00  0.00000000E+00  0.00000000E+00
  0.00000000E+00  0.00000000E+00  0.00000000E+00
  0.00000000E+00  0.00000000E+00  0.00000000E+00
