Si+C
    1.000000000
   13.303179741    0.000000000    0.000000000
    6.651589394   11.520891190    0.000000000
    0.000000000    0.000000000   21.679414749
Si  C  
72     308
Direct
    0.000000000    0.681493819    0.289268851
    0.000000000    0.014827055    0.000000008
    0.000000000    0.348160446    0.144634441
    0.333333343    0.014827132    0.289268851
    0.333333343    0.348160386    0.000000009
    0.333333343    0.681493819    0.144634441
    0.666666687    0.348160386    0.289268821
    0.666666687    0.681493759    0.000000006
    0.666666687    0.014827132    0.144634441
    0.000000000    0.014827251    0.325427473
    0.000000000    0.348160416    0.036158621
    0.000000000    0.681493819    0.180793047
    0.333333343    0.348160505    0.325427443
    0.333333343    0.681493819    0.036158621
    0.333333343    0.014827132    0.180793032
    0.666666746    0.681493998    0.325427473
    0.666666746    0.014827132    0.036158621
    0.666666746    0.348160505    0.180793062
    0.166666672    0.848160446    0.289268821
    0.166666672    0.181493714    0.000000004
    0.166666672    0.514827132    0.144634441
    0.500000060    0.181493759    0.289268821
    0.500000000    0.514827073    0.000000001
    0.500000000    0.848160505    0.144634441
    0.833333373    0.514827251    0.289268851
    0.833333373    0.848160446    0.000000000
    0.833333373    0.181493759    0.144634411
    0.166666687    0.181493759    0.325427383
    0.166666687    0.514827073    0.036158580
    0.166666687    0.848160505    0.180793002
    0.500000000    0.514827132    0.325427383
    0.500000000    0.848160326    0.036158577
    0.500000000    0.181493759    0.180793017
    0.833333313    0.848160446    0.325427383
    0.833333313    0.181493714    0.036158577
    0.833333313    0.514827132    0.180793047
    0.000000000    0.181493759    0.289268821
    0.000000000    0.514827073    0.000000011
    0.000000000    0.848160446    0.144634441
    0.333333343    0.514827251    0.289268851
    0.333333343    0.848160505    0.000000016
    0.333333343    0.181493878    0.144634470
    0.666666687    0.848160446    0.289268821
    0.666666687    0.181493714    0.000000001
    0.666666687    0.514827132    0.144634441
    0.000000014    0.514827251    0.325427443
    0.000000014    0.848160446    0.036158580
    0.000000014    0.181493878    0.180793032
    0.333333373    0.848160446    0.325427443
    0.333333373    0.181493714    0.036158580
    0.333333373    0.514827073    0.180793002
    0.666666746    0.181493878    0.325427443
    0.666666746    0.514827073    0.036158580
    0.666666746    0.848160505    0.180793017
    0.166666672    0.348160386    0.289268821
    0.166666672    0.681493759    0.000000009
    0.166666672    0.014827132    0.144634470
    0.500000000    0.681493759    0.289268851
    0.500000000    0.014827051    0.000000009
    0.500000000    0.348160475    0.144634441
    0.833333313    0.014827132    0.289268821
    0.833333313    0.348160416    0.000000006
    0.833333313    0.681493759    0.144634426
    0.166666687    0.681493878    0.325427473
    0.166666687    0.014827132    0.036158640
    0.166666687    0.348160386    0.180793032
    0.500000000    0.014827251    0.325427473
    0.500000000    0.348160416    0.036158610
    0.500000000    0.681493759    0.180793032
    0.833333373    0.348160505    0.325427443
    0.833333373    0.681493700    0.036158621
    0.833333373    0.014827013    0.180793032
    0.163799405    0.851555586    0.900184870
    0.116180539    0.089651227    0.425242722
    0.925704300    0.042032123    0.520231128
    0.735228062    0.994412899    0.615219593
    0.544751823    0.946793795    0.710208058
    0.354275644    0.899174690    0.805196404
    0.306656539    0.137269825    0.900184870
    0.259037703    0.375365496    0.425242722
    0.068561435    0.327746332    0.520231187
    0.878085256    0.280127227    0.615219593
    0.687608957    0.232508078    0.710208058
    0.497132778    0.184888944    0.805196464
    0.449513674    0.422984093    0.900184870
    0.401894838    0.661079764    0.425242752
    0.211418584    0.613460660    0.520231187
    0.020942450    0.565841496    0.615219593
    0.830466032    0.518222332    0.710208058
    0.639989913    0.470603228    0.805196404
    0.735227942    0.994412661    0.900184870
    0.687609076    0.232508346    0.425242752
    0.497132868    0.184889197    0.520231128
    0.306656659    0.137270093    0.615219593
    0.116180420    0.089650869    0.710208058
    0.925704181    0.042031765    0.805196404
    0.592370749    0.708698273    0.900184870
    0.544751942    0.946794033    0.425242722
    0.354275733    0.899174929    0.520231128
    0.163799495    0.851555705    0.615219593
    0.973323345    0.803936601    0.710207939
    0.782847047    0.756317496    0.805196464
    0.878085077    0.280126929    0.900184870
    0.830466211    0.518222570    0.425242752
    0.639990032    0.470603466    0.520231128
    0.449513793    0.422984332    0.615219593
    0.259037614    0.375365198    0.710207999
    0.068561316    0.327746034    0.805196464
    0.020942211    0.565841198    0.900184870
    0.973323345    0.803936839    0.425242722
    0.782847106    0.756317735    0.520231128
    0.592370868    0.708698630    0.615219593
    0.401894569    0.661079526    0.710208058
    0.211418390    0.613460422    0.805196404
    0.211418644    0.613460660    0.448989779
    0.020942450    0.565841556    0.543978274
    0.830466151    0.518222451    0.638966739
    0.639989913    0.470603317    0.733955085
    0.449513555    0.422984123    0.828943610
    0.497132897    0.184889302    0.448989779
    0.306656659    0.137270153    0.543978274
    0.116180420    0.089650989    0.638966739
    0.925704181    0.042031884    0.733955085
    0.735227823    0.994412780    0.828943610
    0.354275763    0.899175048    0.448989809
    0.163799539    0.851555824    0.543978274
    0.973323345    0.803936720    0.638966739
    0.782847047    0.756317616    0.733955085
    0.592370749    0.708698392    0.828943610
    0.639990032    0.470603555    0.448989779
    0.449513823    0.422984451    0.543978274
    0.259037614    0.375365317    0.638966739
    0.068561316    0.327746153    0.733955085
    0.878085017    0.280126989    0.828943610
    0.782847166    0.756317854    0.448989809
    0.592370987    0.708698630    0.543978333
    0.401894718    0.661079526    0.638966739
    0.211418450    0.613460422    0.733955085
    0.020942211    0.565841317    0.828943610
    0.068561554    0.327746391    0.448989809
    0.878085256    0.280127287    0.543978274
    0.687609076    0.232508138    0.638966739
    0.497132778    0.184888989    0.733955085
    0.306656480    0.137269825    0.828943610
    0.925704300    0.042032123    0.448989809
    0.735228062    0.994412899    0.543978274
    0.544751763    0.946793795    0.638966739
    0.354275584    0.899174690    0.733955085
    0.163799345    0.851555586    0.828943551
    0.235227942    0.994412661    0.900184929
    0.187609121    0.232508332    0.425242752
    0.997132897    0.184889182    0.520231128
    0.806656659    0.137270063    0.615219593
    0.616180360    0.089650869    0.710208058
    0.425704181    0.042031765    0.805196464
    0.378085077    0.280126959    0.900184870
    0.330466270    0.518222630    0.425242752
    0.139990017    0.470603526    0.520231187
    0.949513793    0.422984362    0.615219593
    0.759037495    0.375365227    0.710208058
    0.568561316    0.327746123    0.805196404
    0.663799345    0.851555586    0.900184870
    0.616180539    0.089651227    0.425242752
    0.425704271    0.042032123    0.520231128
    0.235228062    0.994412899    0.615219593
    0.044751763    0.946793795    0.710208058
    0.854275584    0.899174690    0.805196404
    0.520942152    0.565841198    0.900184929
    0.473323345    0.803936839    0.425242752
    0.282847136    0.756317735    0.520231187
    0.092370868    0.708698630    0.615219593
    0.901894689    0.661079526    0.710207999
    0.711418390    0.613460302    0.805196464
    0.806656480    0.137269780    0.900184870
    0.759037673    0.375365466    0.425242722
    0.568561494    0.327746332    0.520231128
    0.378085226    0.280127198    0.615219593
    0.187609076    0.232508078    0.710207939
    0.997132778    0.184888929    0.805196404
    0.949513674    0.422984093    0.900184810
    0.901894867    0.661079764    0.425242692
    0.711418629    0.613460660    0.520231128
    0.520942390    0.565841496    0.615219593
    0.330466092    0.518222332    0.710208058
    0.139989927    0.470603228    0.805196404
    0.092370868    0.708698273    0.900184870
    0.044752002    0.946794033    0.425242722
    0.854275763    0.899174809    0.520231128
    0.663799584    0.851555705    0.615219593
    0.473323256    0.803936601    0.710208058
    0.282847077    0.756317496    0.805196404
    0.139990076    0.470603526    0.448989779
    0.949513793    0.422984421    0.543978274
    0.759037614    0.375365257    0.638966739
    0.568561375    0.327746153    0.733955085
    0.378085136    0.280126989    0.828943491
    0.282847226    0.756317854    0.448989779
    0.092370987    0.708698630    0.543978274
    0.901894748    0.661079526    0.638966739
    0.711418509    0.613460422    0.733955026
    0.520942271    0.565841317    0.828943491
    0.568561435    0.327746391    0.448989779
    0.378085226    0.280127257    0.543978274
    0.187608987    0.232508153    0.638966739
    0.997132778    0.184889019    0.733955085
    0.806656599    0.137269869    0.828943491
    0.425704330    0.042032123    0.448989809
    0.235228091    0.994413018    0.543978274
    0.044751883    0.946793914    0.638966739
    0.854275644    0.899174690    0.733955085
    0.663799405    0.851555586    0.828943551
    0.711418569    0.613460779    0.448989809
    0.520942330    0.565841615    0.543978274
    0.330466151    0.518222511    0.638966739
    0.139989898    0.470603347    0.733955085
    0.949513674    0.422984213    0.828943551
    0.997132957    0.184889287    0.448989779
    0.806656718    0.137270182    0.543978274
    0.616180539    0.089650989    0.638966739
    0.425704271    0.042031884    0.733955026
    0.235228002    0.994412780    0.828943491
    0.854275763    0.899174929    0.448989779
    0.663799524    0.851555824    0.543978274
    0.473323256    0.803936720    0.638966739
    0.282847047    0.756317496    0.733955026
    0.092370749    0.708698392    0.828943551
    0.235227942    0.494412631    0.900184870
    0.187609121    0.732508302    0.425242752
    0.997132897    0.684889197    0.520231128
    0.806656718    0.637270093    0.615219593
    0.616180360    0.589650929    0.710208058
    0.425704241    0.542031825    0.805196404
    0.520942211    0.065841198    0.900184870
    0.473323375    0.303936899    0.425242752
    0.282847166    0.256317765    0.520231128
    0.092370987    0.208698630    0.615219593
    0.901894629    0.161079466    0.710208058
    0.711418509    0.113460355    0.805196404
    0.378085077    0.780126929    0.900184870
    0.330466270    0.018222570    0.425242722
    0.139990062    0.970603466    0.520231128
    0.949513793    0.922984362    0.615219593
    0.759037614    0.875365138    0.710207939
    0.568561316    0.827746034    0.805196404
    0.663799286    0.351555437    0.900184870
    0.616180539    0.589651108    0.425242722
    0.425704271    0.542032003    0.520231128
    0.235228032    0.494412869    0.615219593
    0.044751883    0.446793765    0.710207939
    0.854275584    0.399174571    0.805196464
    0.949513555    0.922984123    0.900184870
    0.901894748    0.161079735    0.425242722
    0.711418569    0.113460615    0.520231128
    0.520942330    0.065841436    0.615219593
    0.330466151    0.018222332    0.710207939
    0.139989823    0.970603228    0.805196464
    0.806656539    0.637269855    0.900184810
    0.759037733    0.875365496    0.425242722
    0.568561435    0.827746391    0.520231128
    0.378085256    0.780127287    0.615219593
    0.187608957    0.732508063    0.710208058
    0.997132778    0.684888959    0.805196404
    0.092370749    0.208698392    0.900184870
    0.044752002    0.446794063    0.425242752
    0.854275703    0.399174929    0.520231187
    0.663799524    0.351555765    0.615219653
    0.473323196    0.303936660    0.710208058
    0.282847047    0.256317496    0.805196464
    0.282847196    0.256317854    0.448989779
    0.092370987    0.208698720    0.543978274
    0.901894748    0.161079586    0.638966739
    0.711418509    0.113460466    0.733955026
    0.520942271    0.065841317    0.828943491
    0.139990076    0.970603585    0.448989779
    0.949513793    0.922984362    0.543978274
    0.759037614    0.875365257    0.638966739
    0.568561375    0.827746153    0.733955085
    0.378085136    0.780127048    0.828943491
    0.425704360    0.542032123    0.448989779
    0.235228091    0.494413018    0.543978274
    0.044751883    0.446793884    0.638966739
    0.854275703    0.399174750    0.733955085
    0.663799405    0.351555616    0.828943491
    0.711418629    0.113460734    0.448989779
    0.520942330    0.065841556    0.543978274
    0.330466151    0.018222451    0.638966739
    0.139989913    0.970603347    0.733955085
    0.949513674    0.922984242    0.828943491
    0.568561435    0.827746391    0.448989779
    0.378085226    0.780127287    0.543978274
    0.187609002    0.732508183    0.638966739
    0.997132778    0.684888959    0.733955026
    0.806656480    0.637269855    0.828943551
    0.854275763    0.399174988    0.448989779
    0.663799465    0.351555884    0.543978274
    0.473323315    0.303936750    0.638966739
    0.282847047    0.256317616    0.733955026
    0.092370749    0.208698481    0.828943551
    0.997132778    0.684889317    0.448989809
    0.806656539    0.637270212    0.543978274
    0.616180301    0.589650989    0.638966739
    0.425704092    0.542031884    0.733955085
    0.235227853    0.494412780    0.828943491
    0.163799405    0.351555496    0.900184929
    0.116180539    0.589651167    0.425242722
    0.925704300    0.542032003    0.520231128
    0.735228121    0.494412899    0.615219593
    0.544751823    0.446793735    0.710208058
    0.354275644    0.399174631    0.805196404
    0.449513674    0.922984123    0.900184870
    0.401894838    0.161079779    0.425242722
    0.211418599    0.113460638    0.520231128
    0.020942450    0.065841556    0.615219593
    0.830466092    0.018222332    0.710208058
    0.639989853    0.970603228    0.805196404
    0.306656480    0.637269735    0.900184870
    0.259037673    0.875365376    0.425242722
    0.068561435    0.827746272    0.520231128
    0.878085196    0.780127168    0.615219593
    0.687609076    0.732507944    0.710207999
    0.497132719    0.684888840    0.805196464
    0.592370749    0.208698332    0.900184870
    0.544752002    0.446794003    0.425242722
    0.354275763    0.399174899    0.520231128
    0.163799509    0.351555735    0.615219593
    0.973323345    0.303936630    0.710207939
    0.782847047    0.256317437    0.805196404
    0.735227942    0.494412661    0.900184810
    0.687609136    0.732508302    0.425242722
    0.497132868    0.684889197    0.520231128
    0.306656659    0.637270093    0.615219593
    0.116180420    0.589650929    0.710208058
    0.925704181    0.542031765    0.805196404
    0.020942211    0.065841198    0.900184870
    0.973323345    0.303936899    0.425242722
    0.782847106    0.256317765    0.520231128
    0.592370927    0.208698645    0.615219593
    0.401894569    0.161079496    0.710208058
    0.211418420    0.113460384    0.805196464
    0.878085017    0.780126929    0.900184929
    0.830466211    0.018222570    0.425242752
    0.639989972    0.970603466    0.520231128
    0.449513733    0.922984242    0.615219653
    0.259037435    0.875365138    0.710208058
    0.068561316    0.827746034    0.805196404
    0.211418658    0.113460734    0.448989809
    0.020942450    0.065841556    0.543978274
    0.830466211    0.018222451    0.638966739
    0.639989972    0.970603347    0.733955085
    0.449513614    0.922984123    0.828943610
    0.354275823    0.399174958    0.448989779
    0.163799569    0.351555854    0.543978333
    0.973323345    0.303936720    0.638966739
    0.782847047    0.256317586    0.733955085
    0.592370749    0.208698422    0.828943610
    0.497132897    0.684889317    0.448989809
    0.306656659    0.637270212    0.543978274
    0.116180420    0.589651048    0.638966739
    0.925704181    0.542031884    0.733955085
    0.735227823    0.494412750    0.828943610
    0.782847166    0.256317854    0.448989779
    0.592370987    0.208698750    0.543978274
    0.401894748    0.161079586    0.638966739
    0.211418480    0.113460451    0.733955085
    0.020942211    0.065841317    0.828943610
    0.639990032    0.970603585    0.448989809
    0.449513793    0.922984362    0.543978333
    0.259037554    0.875365257    0.638966739
    0.068561316    0.827746153    0.733955085
    0.878085017    0.780127048    0.828943610
    0.925704300    0.542032123    0.448989809
    0.735228062    0.494413018    0.543978274
    0.544751883    0.446793824    0.638966739
    0.354275584    0.399174690    0.733955085
    0.163799256    0.351555556    0.828943610
    0.068561554    0.827746391    0.448989809
    0.878085375    0.780127287    0.543978274
    0.687609136    0.732508183    0.638966739
    0.497132838    0.684888959    0.733955085
    0.306656599    0.637269855    0.828943610
