Sn+Sn
    1.000000000
   14.510292053    0.000000000    0.000000000
  -11.608234406    8.706175804    0.000000000
    0.000000000    0.000000000   10.815333366
Sn 
48
Direct
    0.343263149    0.671631515    0.000000000
    0.676596522    0.838298321    0.300000042
    0.009929776    0.004965067    0.599999964
    0.009929808    0.004964906    0.000000000
    0.343263149    0.171631649    0.300000042
    0.676596403    0.338298351    0.599999964
    0.676596522    0.338298231    0.000000000
    0.009929776    0.504964948    0.300000042
    0.343263149    0.671631694    0.599999964
    0.093263149    0.921631575    0.149999991
    0.426596403    0.088298321    0.450000018
    0.759929776    0.254965067    0.750000060
    0.426596433    0.588298202    0.149999991
    0.759929717    0.754964948    0.450000018
    0.093263149    0.921631753    0.750000060
    0.759929776    0.254964888    0.149999991
    0.093263030    0.421631604    0.450000018
    0.426596403    0.588298321    0.750000060
    0.176596463    0.838298202    0.000000000
    0.509929776    0.004964948    0.300000042
    0.843263090    0.171631575    0.599999964
    0.509929776    0.504964888    0.000000000
    0.843263149    0.671631634    0.300000042
    0.176596403    0.838298321    0.599999964
    0.843263209    0.171631590    0.000000000
    0.176596522    0.338298321    0.300000042
    0.509929776    0.504965007    0.599999964
    0.259929746    0.754964828    0.149999991
    0.593263030    0.921631515    0.450000018
    0.926596403    0.088298321    0.750000060
    0.593263149    0.421631575    0.149999991
    0.926596403    0.588298261    0.450000018
    0.259929776    0.754965007    0.750000060
    0.926596463    0.088298284    0.149999991
    0.259929657    0.254964978    0.450000018
    0.593263149    0.421631753    0.750000060
    0.962846637    0.989384770    0.750000060
    0.573957682    0.878273606    0.850000143
    0.185068786    0.767162442    0.950000167
    0.462846577    0.489384711    0.750000060
    0.073957652    0.378273547    0.850000143
    0.685068727    0.267162383    0.950000167
    0.768402159    0.683829129    0.800000072
    0.379513264    0.572717965    0.900000215
    0.990624309    0.461606741    1.000000238
    0.268402129    0.183829159    0.800000072
    0.879513204    0.072718002    0.900000095
    0.490624189    0.961606801    1.000000238
