Sn+Ge                                   
   1.00000000000000     
    15.8952283859999994    0.0000000000000000    0.0000000000000000
   -15.8952302929999991   11.2396249770000001    0.0000000000000000
     0.0000000000000000    0.0000000000000000   25.8009433749999992
   Sn   Ge
    72    96
Direct
  0.6581405399999980  0.3674380779999993  0.0000000149999977
  0.5748071069999980  0.7007714510000014  0.0889222919999995
  0.4914736750000017  0.0341049430000027  0.1778446289999991
  0.4081402119999993  0.3674383159999977  0.2667668759999984
  0.3248068689999997  0.7007719280000018  0.3556892280000028
  0.2414733020000028  0.0341053009999968  0.4446114899999998
  0.9914737940000009  0.0341047309999993  0.0000000149999977
  0.9081403610000010  0.3674381379999971  0.0889223069999971
  0.8248069289999975  0.7007716299999984  0.1778446289999991
  0.7414735560000025  0.0341049430000027  0.2667668759999984
  0.6581400629999976  0.3674385549999997  0.3556892280000028
  0.5748066900000026  0.7007719280000018  0.4446114899999998
  0.3248071670000030  0.7007713910000035  0.0000000000000000
  0.2414737340000030  0.0341048240000035  0.0889222770000018
  0.1581403169999973  0.3674383159999977  0.1778445690000012
  0.0748068469999978  0.7007716889999998  0.2667668759999984
  0.9914734359999997  0.0341050620000019  0.3556891679999978
  0.9081400629999976  0.3674385549999997  0.4446114599999973
  0.4914738240000034  0.0341047349999997  0.0000000089999972
  0.4081403910000034  0.3674381080000018  0.0889223069999971
  0.3248069580000035  0.7007716299999984  0.1778445989999966
  0.2414735110000024  0.0341049430000027  0.2667668759999984
  0.1581401230000026  0.3674385549999997  0.3556892280000028
  0.0748066230000006  0.7007719280000018  0.4446114899999998
  0.8248071670000030  0.7007713910000035  0.0000000120000010
  0.7414737940000009  0.0341048240000035  0.0889222619999970
  0.6581403019999996  0.3674381969999985  0.1778445989999966
  0.5748069289999975  0.7007716889999998  0.2667668759999984
  0.4914734959999976  0.0341050620000019  0.3556891679999978
  0.4081399140000030  0.3674385549999997  0.4446114599999973
  0.1581404809999967  0.3674380479999968  0.0000000129999975
  0.0748070630000015  0.7007714510000014  0.0889222989999965
  0.9914735560000025  0.0341048240000035  0.1778445989999966
  0.9081401819999968  0.3674383159999977  0.2667668759999984
  0.8248067500000005  0.7007718090000026  0.3556892280000028
  0.7414733170000005  0.0341053009999968  0.4446114599999973
  0.7414737940000009  0.2841047049999972  0.0000000160000013
  0.6581404809999967  0.6174380779999993  0.0889222919999995
  0.5748069879999989  0.9507715700000006  0.1778445989999966
  0.4914735850000014  0.2841050620000019  0.2667669060000009
  0.4081401230000026  0.6174384360000005  0.3556892280000028
  0.3248066900000026  0.9507719280000018  0.4446114300000019
  0.4081405100000026  0.6174380779999993  0.0000000000000000
  0.3248070779999992  0.9507715109999992  0.0889223069999971
  0.2414736449999992  0.2841049430000027  0.1778446289999991
  0.1581403019999996  0.6174384360000005  0.2667669060000009
  0.0748068170000025  0.9507719280000018  0.3556891380000025
  0.9914733170000005  0.2841053009999968  0.4446115200000023
  0.0748071450000012  0.9507714510000014  0.0000000189999980
  0.9914736750000017  0.2841048240000035  0.0889222770000018
  0.9081403019999996  0.6174383159999977  0.1778446289999991
  0.8248069289999975  0.9507718090000026  0.2667668759999984
  0.7414735560000025  0.2841053009999968  0.3556891679999978
  0.6581401819999968  0.6174387929999980  0.4446115490000011
  0.9081404809999967  0.6174380779999993  0.0000000169999979
  0.8248070479999967  0.9507715109999992  0.0889222919999995
  0.7414736149999968  0.2841049430000027  0.1778445989999966
  0.6581401819999968  0.6174383159999977  0.2667668759999984
  0.5748067500000005  0.9507719280000018  0.3556891980000003
  0.4914732579999992  0.2841053009999968  0.4446114300000019
  0.2414738390000011  0.2841047349999997  0.0000000109999974
  0.1581404359999965  0.6174381379999971  0.0889223140000013
  0.0748070180000013  0.9507716299999984  0.1778446289999991
  0.9914736149999968  0.2841050620000019  0.2667669060000009
  0.9081401230000026  0.6174384360000005  0.3556892280000028
  0.8248066900000026  0.9507719280000018  0.4446114599999973
  0.5748071069999980  0.9507715109999992  0.0000000340000028
  0.4914736750000017  0.2841048240000035  0.0889223069999971
  0.4081402119999993  0.6174383159999977  0.1778445989999966
  0.3248068090000018  0.9507716889999998  0.2667668759999984
  0.2414734359999997  0.2841053009999968  0.3556891980000003
  0.1581399590000032  0.6174387929999980  0.4446114899999998
  0.1336246729999999  0.5463888049999994  0.5284819600000006
  0.7586246729999999  0.2963887749999969  0.6060115690000032
  0.3836246130000021  0.0463887450000016  0.6835410589999995
  0.0086246729999999  0.7963887450000016  0.7610705490000029
  0.6336247919999991  0.5463888049999994  0.8386000389999992
  0.2586246729999999  0.2963887749999969  0.9161295890000005
  0.1336246729999999  0.0463887450000016  0.5284819600000006
  0.7586246729999999  0.7963887450000016  0.6060115690000032
  0.3836246130000021  0.5463886860000002  0.6835409999999982
  0.0086246729999999  0.2963887749999969  0.7610705490000029
  0.6336247919999991  0.0463888649999973  0.8386000389999992
  0.2586246729999999  0.7963887450000016  0.9161295890000005
  0.6336246729999999  0.5463888049999994  0.5284819600000006
  0.2586246729999999  0.2963887749999969  0.6060115690000032
  0.8836246130000021  0.0463887450000016  0.6835409999999982
  0.5086247320000012  0.7963887450000016  0.7610705490000029
  0.1336247919999991  0.5463888049999994  0.8386000389999992
  0.7586246729999999  0.2963887749999969  0.9161295890000005
  0.6336246729999999  0.0463887450000016  0.5284819600000006
  0.2586246729999999  0.7963887450000016  0.6060115690000032
  0.8836246130000021  0.5463886860000002  0.6835409999999982
  0.5086246729999999  0.2963887749999969  0.7610705490000029
  0.1336247919999991  0.0463888649999973  0.8386000389999992
  0.7586246729999999  0.7963887450000016  0.9161295290000027
  0.3836246729999999  0.5463888049999994  0.5284819600000006
  0.0086246729999999  0.2963887749999969  0.6060115690000032
  0.6336246130000021  0.0463887450000016  0.6835409999999982
  0.2586246729999999  0.7963887450000016  0.7610705490000029
  0.8836247919999991  0.5463888049999994  0.8386000389999992
  0.5086246729999999  0.2963887749999969  0.9161295290000027
  0.3836246429999974  0.0463887450000016  0.5284819600000006
  0.0086246729999999  0.7963887450000016  0.6060115690000032
  0.6336246130000021  0.5463886860000002  0.6835409999999982
  0.2586246729999999  0.2963887749999969  0.7610705490000029
  0.8836247919999991  0.0463888649999973  0.8386000389999992
  0.5086246729999999  0.7963887450000016  0.9161295890000005
  0.8836246729999999  0.5463888049999994  0.5284819600000006
  0.5086246729999999  0.2963887749999969  0.6060115690000032
  0.1336245540000007  0.0463887450000016  0.6835409999999982
  0.7586246729999999  0.7963887450000016  0.7610705490000029
  0.3836247320000012  0.5463888049999994  0.8386000389999992
  0.0086246729999999  0.2963887749999969  0.9161295290000027
  0.8836246130000021  0.0463887450000016  0.5284819600000006
  0.5086246729999999  0.7963887450000016  0.6060115690000032
  0.1336245540000007  0.5463886860000002  0.6835409999999982
  0.7586246729999999  0.2963887749999969  0.7610705490000029
  0.3836248519999970  0.0463888649999973  0.8386000389999992
  0.0086246729999999  0.7963887450000016  0.9161295890000005
  0.3836247030000024  0.9213888049999994  0.5284819600000006
  0.0086246729999999  0.6713887450000016  0.6060115690000032
  0.6336246729999999  0.4213887749999969  0.6835409999999982
  0.2586247320000012  0.1713888049999994  0.7610705490000029
  0.8836247919999991  0.9213888049999994  0.8386000389999992
  0.5086246729999999  0.6713888049999994  0.9161295890000005
  0.3836246429999974  0.4213887749999969  0.5284819600000006
  0.0086246729999999  0.1713887749999969  0.6060115690000032
  0.6336246130000021  0.9213886860000002  0.6835409999999982
  0.2586246130000021  0.6713887450000016  0.7610705490000029
  0.8836246729999999  0.4213887749999969  0.8386000389999992
  0.5086245540000007  0.1713887160000027  0.9161295290000027
  0.8836247320000012  0.9213888049999994  0.5284819600000006
  0.5086246130000021  0.6713887450000016  0.6060115690000032
  0.1336245540000007  0.4213887749999969  0.6835409999999982
  0.7586246729999999  0.1713888049999994  0.7610705490000029
  0.3836247919999991  0.9213888049999994  0.8386000389999992
  0.0086246729999999  0.6713888049999994  0.9161295290000027
  0.8836246729999999  0.4213887749999969  0.5284819600000006
  0.5086246729999999  0.1713887749999969  0.6060115690000032
  0.1336245540000007  0.9213886860000002  0.6835410589999995
  0.7586246729999999  0.6713887450000016  0.7610705490000029
  0.3836247320000012  0.4213887749999969  0.8386000389999992
  0.0086245540000007  0.1713887160000027  0.9161295890000005
  0.1336246729999999  0.9213888049999994  0.5284819600000006
  0.7586246130000021  0.6713887450000016  0.6060115690000032
  0.3836246130000021  0.4213887749999969  0.6835409999999982
  0.0086245540000007  0.1713888049999994  0.7610705490000029
  0.6336247919999991  0.9213888049999994  0.8386000389999992
  0.2586246729999999  0.6713888049999994  0.9161295890000005
  0.1336246729999999  0.4213887749999969  0.5284819600000006
  0.7586246729999999  0.1713887749999969  0.6060115690000032
  0.3836246130000021  0.9213886860000002  0.6835409999999982
  0.0086246729999999  0.6713887450000016  0.7610705490000029
  0.6336246729999999  0.4213887749999969  0.8386000389999992
  0.2586246729999999  0.1713887160000027  0.9161295290000027
  0.6336247320000012  0.9213888049999994  0.5284819600000006
  0.2586246429999974  0.6713887450000016  0.6060115690000032
  0.8836246729999999  0.4213887749999969  0.6835409999999982
  0.5086247320000012  0.1713888049999994  0.7610705490000029
  0.1336247919999991  0.9213888049999994  0.8386000389999992
  0.7586247919999991  0.6713888049999994  0.9161295290000027
  0.6336246729999999  0.4213887749999969  0.5284819600000006
  0.2586246729999999  0.1713887749999969  0.6060115690000032
  0.8836246130000021  0.9213886860000002  0.6835409999999982
  0.5086246729999999  0.6713887450000016  0.7610705490000029
  0.1336246729999999  0.4213887749999969  0.8386000389999992
  0.7586246729999999  0.1713887160000027  0.9161295290000027
 
  0.00000000E+00  0.00000000E+00  0.00000000E+00
  0.00000000E+00  0.00000000E+00  0.00000000E+00
  0.00000000E+00  0.00000000E+00  0.00000000E+00
  0.00000000E+00  0.00000000E+00  0.00000000E+00
  0.00000000E+00  0.00000000E+00  0.00000000E+00
  0.00000000E+00  0.00000000E+00  0.00000000E+00
  0.00000000E+00  0.00000000E+00  0.00000000E+00
  0.00000000E+00  0.00000000E+00  0.00000000E+00
  0.00000000E+00  0.00000000E+00  0.00000000E+00
  0.00000000E+00  0.00000000E+00  0.00000000E+00
  0.00000000E+00  0.00000000E+00  0.00000000E+00
  0.00000000E+00  0.00000000E+00  0.00000000E+00
  0.00000000E+00  0.00000000E+00  0.00000000E+00
  0.00000000E+00  0.00000000E+00  0.00000000E+00
  0.00000000E+00  0.00000000E+00  0.00000000E+00
  0.00000000E+00  0.00000000E+00  0.00000000E+00
  0.00000000E+00  0.00000000E+00  0.00000000E+00
  0.00000000E+00  0.00000000E+00  0.00000000E+00
  0.00000000E+00  0.00000000E+00  0.00000000E+00
  0.00000000E+00  0.00000000E+00  0.00000000E+00
  0.00000000E+00  0.00000000E+00  0.00000000E+00
  0.00000000E+00  0.00000000E+00  0.00000000E+00
  0.00000000E+00  0.00000000E+00  0.00000000E+00
  0.00000000E+00  0.00000000E+00  0.00000000E+00
  0.00000000E+00  0.00000000E+00  0.00000000E+00
  0.00000000E+00  0.00000000E+00  0.00000000E+00
  0.00000000E+00  0.00000000E+00  0.00000000E+00
  0.00000000E+00  0.00000000E+00  0.00000000E+00
  0.00000000E+00  0.00000000E+00  0.00000000E+00
  0.00000000E+00  0.00000000E+00  0.00000000E+00
  0.00000000E+00  0.00000000E+00  0.00000000E+00
  0.00000000E+00  0.00000000E+00  0.00000000E+00
  0.00000000E+00  0.00000000E+00  0.00000000E+00
  0.00000000E+00  0.00000000E+00  0.00000000E+00
  0.00000000E+00  0.00000000E+00  0.00000000E+00
  0.00000000E+00  0.00000000E+00  0.00000000E+00
  0.00000000E+00  0.00000000E+00  0.00000000E+00
  0.00000000E+00  0.00000000E+00  0.00000000E+00
  0.00000000E+00  0.00000000E+00  0.00000000E+00
  0.00000000E+00  0.00000000E+00  0.00000000E+00
  0.00000000E+00  0.00000000E+00  0.00000000E+00
  0.00000000E+00  0.00000000E+00  0.00000000E+00
  0.00000000E+00  0.00000000E+00  0.00000000E+00
  0.00000000E+00  0.00000000E+00  0.00000000E+00
  0.00000000E+00  0.00000000E+00  0.00000000E+00
  0.00000000E+00  0.00000000E+00  0.00000000E+00
  0.00000000E+00  0.00000000E+00  0.00000000E+00
  0.00000000E+00  0.00000000E+00  0.00000000E+00
  0.00000000E+00  0.00000000E+00  0.00000000E+00
  0.00000000E+00  0.00000000E+00  0.00000000E+00
  0.00000000E+00  0.00000000E+00  0.00000000E+00
  0.00000000E+00  0.00000000E+00  0.00000000E+00
  0.00000000E+00  0.00000000E+00  0.00000000E+00
  0.00000000E+00  0.00000000E+00  0.00000000E+00
  0.00000000E+00  0.00000000E+00  0.00000000E+00
  0.00000000E+00  0.00000000E+00  0.00000000E+00
  0.00000000E+00  0.00000000E+00  0.00000000E+00
  0.00000000E+00  0.00000000E+00  0.00000000E+00
  0.00000000E+00  0.00000000E+00  0.00000000E+00
  0.00000000E+00  0.00000000E+00  0.00000000E+00
  0.00000000E+00  0.00000000E+00  0.00000000E+00
  0.00000000E+00  0.00000000E+00  0.00000000E+00
  0.00000000E+00  0.00000000E+00  0.00000000E+00
  0.00000000E+00  0.00000000E+00  0.00000000E+00
  0.00000000E+00  0.00000000E+00  0.00000000E+00
  0.00000000E+00  0.00000000E+00  0.00000000E+00
  0.00000000E+00  0.00000000E+00  0.00000000E+00
  0.00000000E+00  0.00000000E+00  0.00000000E+00
  0.00000000E+00  0.00000000E+00  0.00000000E+00
  0.00000000E+00  0.00000000E+00  0.00000000E+00
  0.00000000E+00  0.00000000E+00  0.00000000E+00
  0.00000000E+00  0.00000000E+00  0.00000000E+00
  0.00000000E+00  0.00000000E+00  0.00000000E+00
  0.00000000E+00  0.00000000E+00  0.00000000E+00
  0.00000000E+00  0.00000000E+00  0.00000000E+00
  0.00000000E+00  0.00000000E+00  0.00000000E+00
  0.00000000E+00  0.00000000E+00  0.00000000E+00
  0.00000000E+00  0.00000000E+00  0.00000000E+00
  0.00000000E+00  0.00000000E+00  0.00000000E+00
  0.00000000E+00  0.00000000E+00  0.00000000E+00
  0.00000000E+00  0.00000000E+00  0.00000000E+00
  0.00000000E+00  0.00000000E+00  0.00000000E+00
  0.00000000E+00  0.00000000E+00  0.00000000E+00
  0.00000000E+00  0.00000000E+00  0.00000000E+00
  0.00000000E+00  0.00000000E+00  0.00000000E+00
  0.00000000E+00  0.00000000E+00  0.00000000E+00
  0.00000000E+00  0.00000000E+00  0.00000000E+00
  0.00000000E+00  0.00000000E+00  0.00000000E+00
  0.00000000E+00  0.00000000E+00  0.00000000E+00
  0.00000000E+00  0.00000000E+00  0.00000000E+00
  0.00000000E+00  0.00000000E+00  0.00000000E+00
  0.00000000E+00  0.00000000E+00  0.00000000E+00
  0.00000000E+00  0.00000000E+00  0.00000000E+00
  0.00000000E+00  0.00000000E+00  0.00000000E+00
  0.00000000E+00  0.00000000E+00  0.00000000E+00
  0.00000000E+00  0.00000000E+00  0.00000000E+00
  0.00000000E+00  0.00000000E+00  0.00000000E+00
  0.00000000E+00  0.00000000E+00  0.00000000E+00
  0.00000000E+00  0.00000000E+00  0.00000000E+00
  0.00000000E+00  0.00000000E+00  0.00000000E+00
  0.00000000E+00  0.00000000E+00  0.00000000E+00
  0.00000000E+00  0.00000000E+00  0.00000000E+00
  0.00000000E+00  0.00000000E+00  0.00000000E+00
  0.00000000E+00  0.00000000E+00  0.00000000E+00
  0.00000000E+00  0.00000000E+00  0.00000000E+00
  0.00000000E+00  0.00000000E+00  0.00000000E+00
  0.00000000E+00  0.00000000E+00  0.00000000E+00
  0.00000000E+00  0.00000000E+00  0.00000000E+00
  0.00000000E+00  0.00000000E+00  0.00000000E+00
  0.00000000E+00  0.00000000E+00  0.00000000E+00
  0.00000000E+00  0.00000000E+00  0.00000000E+00
  0.00000000E+00  0.00000000E+00  0.00000000E+00
  0.00000000E+00  0.00000000E+00  0.00000000E+00
  0.00000000E+00  0.00000000E+00  0.00000000E+00
  0.00000000E+00  0.00000000E+00  0.00000000E+00
  0.00000000E+00  0.00000000E+00  0.00000000E+00
  0.00000000E+00  0.00000000E+00  0.00000000E+00
  0.00000000E+00  0.00000000E+00  0.00000000E+00
  0.00000000E+00  0.00000000E+00  0.00000000E+00
  0.00000000E+00  0.00000000E+00  0.00000000E+00
  0.00000000E+00  0.00000000E+00  0.00000000E+00
  0.00000000E+00  0.00000000E+00  0.00000000E+00
  0.00000000E+00  0.00000000E+00  0.00000000E+00
  0.00000000E+00  0.00000000E+00  0.00000000E+00
  0.00000000E+00  0.00000000E+00  0.00000000E+00
  0.00000000E+00  0.00000000E+00  0.00000000E+00
  0.00000000E+00  0.00000000E+00  0.00000000E+00
  0.00000000E+00  0.00000000E+00  0.00000000E+00
  0.00000000E+00  0.00000000E+00  0.00000000E+00
  0.00000000E+00  0.00000000E+00  0.00000000E+00
  0.00000000E+00  0.00000000E+00  0.00000000E+00
  0.00000000E+00  0.00000000E+00  0.00000000E+00
  0.00000000E+00  0.00000000E+00  0.00000000E+00
  0.00000000E+00  0.00000000E+00  0.00000000E+00
  0.00000000E+00  0.00000000E+00  0.00000000E+00
  0.00000000E+00  0.00000000E+00  0.00000000E+00
  0.00000000E+00  0.00000000E+00  0.00000000E+00
  0.00000000E+00  0.00000000E+00  0.00000000E+00
  0.00000000E+00  0.00000000E+00  0.00000000E+00
  0.00000000E+00  0.00000000E+00  0.00000000E+00
  0.00000000E+00  0.00000000E+00  0.00000000E+00
  0.00000000E+00  0.00000000E+00  0.00000000E+00
  0.00000000E+00  0.00000000E+00  0.00000000E+00
  0.00000000E+00  0.00000000E+00  0.00000000E+00
  0.00000000E+00  0.00000000E+00  0.00000000E+00
  0.00000000E+00  0.00000000E+00  0.00000000E+00
  0.00000000E+00  0.00000000E+00  0.00000000E+00
  0.00000000E+00  0.00000000E+00  0.00000000E+00
  0.00000000E+00  0.00000000E+00  0.00000000E+00
  0.00000000E+00  0.00000000E+00  0.00000000E+00
  0.00000000E+00  0.00000000E+00  0.00000000E+00
  0.00000000E+00  0.00000000E+00  0.00000000E+00
  0.00000000E+00  0.00000000E+00  0.00000000E+00
  0.00000000E+00  0.00000000E+00  0.00000000E+00
  0.00000000E+00  0.00000000E+00  0.00000000E+00
  0.00000000E+00  0.00000000E+00  0.00000000E+00
  0.00000000E+00  0.00000000E+00  0.00000000E+00
  0.00000000E+00  0.00000000E+00  0.00000000E+00
  0.00000000E+00  0.00000000E+00  0.00000000E+00
  0.00000000E+00  0.00000000E+00  0.00000000E+00
  0.00000000E+00  0.00000000E+00  0.00000000E+00
  0.00000000E+00  0.00000000E+00  0.00000000E+00
  0.00000000E+00  0.00000000E+00  0.00000000E+00
  0.00000000E+00  0.00000000E+00  0.00000000E+00
  0.00000000E+00  0.00000000E+00  0.00000000E+00
  0.00000000E+00  0.00000000E+00  0.00000000E+00
  0.00000000E+00  0.00000000E+00  0.00000000E+00
  0.00000000E+00  0.00000000E+00  0.00000000E+00
