fcc Si+fcc Ge                           
   1.00000000000000     
    13.4232037900000005    0.0000000000000000    0.0000000000000000
    -6.7116018950000003   15.0075980760000007    0.0000000000000000
     0.0000000000000000    0.0000000000000000   12.5914855049999996
   Si   Ge
    36    66
Direct
  0.0000000000000000  0.6666666670000012  0.0000000000000000
  0.2999999999999972  0.4333333330000002  0.0973169729999981
  0.6000000000000014  0.2000000000000028  0.1946339449999996
  0.0000000000000000  0.3333333329999988  0.0000000000000000
  0.2999999999999972  0.1000000000000014  0.0973169729999981
  0.6000000000000014  0.8666666669999969  0.1946339449999996
  0.0000000000000000  0.0000000000000000  0.0000000000000000
  0.2999999999999972  0.7666666670000026  0.0973169729999981
  0.6000000000000014  0.5333333330000016  0.1946339449999996
  0.5000000000000000  0.6666666670000012  0.0000000000000000
  0.7999999999999972  0.4333333330000002  0.0973169729999981
  0.1000000000000014  0.2000000000000028  0.1946339449999996
  0.5000000000000000  0.3333333329999988  0.0000000000000000
  0.7999999999999972  0.1000000000000014  0.0973169729999981
  0.1000000000000014  0.8666666669999969  0.1946339449999996
  0.5000000000000000  0.0000000000000000  0.0000000000000000
  0.7999999999999972  0.7666666670000026  0.0973169729999981
  0.1000000000000014  0.5333333330000016  0.1946339449999996
  0.1499999999999986  0.7999999999999972  0.0486584860000008
  0.4500000000000028  0.5666666669999998  0.1459754589999989
  0.7500000000000000  0.3333333329999988  0.2432924319999969
  0.1499999999999986  0.4666666669999984  0.0486584860000008
  0.4500000000000028  0.2333333329999974  0.1459754589999989
  0.7500000000000000  0.0000000000000000  0.2432924319999969
  0.1499999999999986  0.1333333330000031  0.0486584860000008
  0.4500000000000028  0.8999999999999986  0.1459754589999989
  0.7500000000000000  0.6666666670000012  0.2432924319999969
  0.6499999999999986  0.7999999999999972  0.0486584860000008
  0.9500000000000028  0.5666666669999998  0.1459754589999989
  0.2500000000000000  0.3333333329999988  0.2432924319999969
  0.6499999999999986  0.4666666669999984  0.0486584860000008
  0.9500000000000028  0.2333333329999974  0.1459754589999989
  0.2500000000000000  0.0000000000000000  0.2432924319999969
  0.6499999999999986  0.1333333330000031  0.0486584860000008
  0.9500000000000028  0.8999999999999986  0.1459754589999989
  0.2500000000000000  0.6666666670000012  0.2432924319999969
  0.5090225559999979  0.3444785280000033  0.4206191849999996
  0.3090225560000022  0.4444785279999977  0.5211327000000026
  0.1090225559999993  0.5444785279999991  0.6216462160000020
  0.9090225559999965  0.6444785280000005  0.7221597320000015
  0.7090225560000007  0.7444785280000019  0.8226732469999973
  0.8423558900000003  0.6778118610000021  0.4206191849999996
  0.6423558899999975  0.7778118610000035  0.5211327000000026
  0.4423558900000018  0.8778118609999979  0.6216462160000020
  0.2423558899999989  0.9778118609999993  0.7221597320000015
  0.0423558900000032  0.0778118610000007  0.8226732469999973
  0.1756892229999991  0.0111451940000009  0.4206191849999996
  0.9756892230000034  0.1111451940000023  0.5211327000000026
  0.7756892230000005  0.2111451939999966  0.6216462160000020
  0.5756892229999977  0.3111451939999981  0.7221597320000015
  0.3756892230000020  0.4111451939999995  0.8226732469999973
  0.6756892229999991  0.0111451940000009  0.4206191849999996
  0.4756892230000034  0.1111451940000023  0.5211327000000026
  0.2756892230000005  0.2111451939999966  0.6216462160000020
  0.0756892229999977  0.3111451939999981  0.7221597320000015
  0.8756892230000020  0.4111451939999995  0.8226732469999973
  0.0090225559999979  0.3444785280000033  0.4206191849999996
  0.8090225560000022  0.4444785279999977  0.5211327000000026
  0.6090225559999993  0.5444785279999991  0.6216462160000020
  0.4090225559999965  0.6444785280000005  0.7221597320000015
  0.2090225560000007  0.7444785280000019  0.8226732469999973
  0.3423558900000003  0.6778118610000021  0.4206191849999996
  0.1423558899999975  0.7778118610000035  0.5211327000000026
  0.9423558900000018  0.8778118609999979  0.6216462160000020
  0.7423558899999989  0.9778118609999993  0.7221597320000015
  0.5423558900000032  0.0778118610000007  0.8226732469999973
  0.8590225559999993  0.5444785279999991  0.3703624270000034
  0.6590225559999965  0.6444785280000005  0.4708759419999993
  0.4590225560000007  0.7444785280000019  0.5713894579999987
  0.2590225559999979  0.8444785280000033  0.6719029739999982
  0.0590225560000022  0.9444785279999977  0.7724164890000011
  0.8590225559999993  0.0444785279999991  0.8729300050000006
  0.1923558900000018  0.8778118609999979  0.3703624270000034
  0.9923558899999989  0.9778118609999993  0.4708759419999993
  0.7923558900000032  0.0778118610000007  0.5713894579999987
  0.5923558900000003  0.1778118610000021  0.6719029739999982
  0.3923558899999975  0.2778118610000035  0.7724164890000011
  0.1923558900000018  0.3778118609999979  0.8729300050000006
  0.5256892230000005  0.2111451939999966  0.3703624270000034
  0.3256892229999977  0.3111451939999981  0.4708759419999993
  0.1256892230000020  0.4111451939999995  0.5713894579999987
  0.9256892229999991  0.5111451940000009  0.6719029739999982
  0.7256892230000034  0.6111451940000023  0.7724164890000011
  0.5256892230000005  0.7111451939999966  0.8729300050000006
  0.0256892230000005  0.2111451939999966  0.3703624270000034
  0.8256892229999977  0.3111451939999981  0.4708759419999993
  0.6256892230000020  0.4111451939999995  0.5713894579999987
  0.4256892229999991  0.5111451940000009  0.6719029739999982
  0.2256892230000034  0.6111451940000023  0.7724164890000011
  0.0256892230000005  0.7111451939999966  0.8729300050000006
  0.3590225559999993  0.5444785279999991  0.3703624270000034
  0.1590225559999965  0.6444785280000005  0.4708759419999993
  0.9590225560000007  0.7444785280000019  0.5713894579999987
  0.7590225559999979  0.8444785280000033  0.6719029739999982
  0.5590225560000022  0.9444785279999977  0.7724164890000011
  0.3590225559999993  0.0444785279999991  0.8729300050000006
  0.6923558900000018  0.8778118609999979  0.3703624270000034
  0.4923558899999989  0.9778118609999993  0.4708759419999993
  0.2923558900000032  0.0778118610000007  0.5713894579999987
  0.0923558900000003  0.1778118610000021  0.6719029739999982
  0.8923558899999975  0.2778118610000035  0.7724164890000011
  0.6923558900000018  0.3778118609999979  0.8729300050000006
 
  0.00000000E+00  0.00000000E+00  0.00000000E+00
  0.00000000E+00  0.00000000E+00  0.00000000E+00
  0.00000000E+00  0.00000000E+00  0.00000000E+00
  0.00000000E+00  0.00000000E+00  0.00000000E+00
  0.00000000E+00  0.00000000E+00  0.00000000E+00
  0.00000000E+00  0.00000000E+00  0.00000000E+00
  0.00000000E+00  0.00000000E+00  0.00000000E+00
  0.00000000E+00  0.00000000E+00  0.00000000E+00
  0.00000000E+00  0.00000000E+00  0.00000000E+00
  0.00000000E+00  0.00000000E+00  0.00000000E+00
  0.00000000E+00  0.00000000E+00  0.00000000E+00
  0.00000000E+00  0.00000000E+00  0.00000000E+00
  0.00000000E+00  0.00000000E+00  0.00000000E+00
  0.00000000E+00  0.00000000E+00  0.00000000E+00
  0.00000000E+00  0.00000000E+00  0.00000000E+00
  0.00000000E+00  0.00000000E+00  0.00000000E+00
  0.00000000E+00  0.00000000E+00  0.00000000E+00
  0.00000000E+00  0.00000000E+00  0.00000000E+00
  0.00000000E+00  0.00000000E+00  0.00000000E+00
  0.00000000E+00  0.00000000E+00  0.00000000E+00
  0.00000000E+00  0.00000000E+00  0.00000000E+00
  0.00000000E+00  0.00000000E+00  0.00000000E+00
  0.00000000E+00  0.00000000E+00  0.00000000E+00
  0.00000000E+00  0.00000000E+00  0.00000000E+00
  0.00000000E+00  0.00000000E+00  0.00000000E+00
  0.00000000E+00  0.00000000E+00  0.00000000E+00
  0.00000000E+00  0.00000000E+00  0.00000000E+00
  0.00000000E+00  0.00000000E+00  0.00000000E+00
  0.00000000E+00  0.00000000E+00  0.00000000E+00
  0.00000000E+00  0.00000000E+00  0.00000000E+00
  0.00000000E+00  0.00000000E+00  0.00000000E+00
  0.00000000E+00  0.00000000E+00  0.00000000E+00
  0.00000000E+00  0.00000000E+00  0.00000000E+00
  0.00000000E+00  0.00000000E+00  0.00000000E+00
  0.00000000E+00  0.00000000E+00  0.00000000E+00
  0.00000000E+00  0.00000000E+00  0.00000000E+00
  0.00000000E+00  0.00000000E+00  0.00000000E+00
  0.00000000E+00  0.00000000E+00  0.00000000E+00
  0.00000000E+00  0.00000000E+00  0.00000000E+00
  0.00000000E+00  0.00000000E+00  0.00000000E+00
  0.00000000E+00  0.00000000E+00  0.00000000E+00
  0.00000000E+00  0.00000000E+00  0.00000000E+00
  0.00000000E+00  0.00000000E+00  0.00000000E+00
  0.00000000E+00  0.00000000E+00  0.00000000E+00
  0.00000000E+00  0.00000000E+00  0.00000000E+00
  0.00000000E+00  0.00000000E+00  0.00000000E+00
  0.00000000E+00  0.00000000E+00  0.00000000E+00
  0.00000000E+00  0.00000000E+00  0.00000000E+00
  0.00000000E+00  0.00000000E+00  0.00000000E+00
  0.00000000E+00  0.00000000E+00  0.00000000E+00
  0.00000000E+00  0.00000000E+00  0.00000000E+00
  0.00000000E+00  0.00000000E+00  0.00000000E+00
  0.00000000E+00  0.00000000E+00  0.00000000E+00
  0.00000000E+00  0.00000000E+00  0.00000000E+00
  0.00000000E+00  0.00000000E+00  0.00000000E+00
  0.00000000E+00  0.00000000E+00  0.00000000E+00
  0.00000000E+00  0.00000000E+00  0.00000000E+00
  0.00000000E+00  0.00000000E+00  0.00000000E+00
  0.00000000E+00  0.00000000E+00  0.00000000E+00
  0.00000000E+00  0.00000000E+00  0.00000000E+00
  0.00000000E+00  0.00000000E+00  0.00000000E+00
  0.00000000E+00  0.00000000E+00  0.00000000E+00
  0.00000000E+00  0.00000000E+00  0.00000000E+00
  0.00000000E+00  0.00000000E+00  0.00000000E+00
  0.00000000E+00  0.00000000E+00  0.00000000E+00
  0.00000000E+00  0.00000000E+00  0.00000000E+00
  0.00000000E+00  0.00000000E+00  0.00000000E+00
  0.00000000E+00  0.00000000E+00  0.00000000E+00
  0.00000000E+00  0.00000000E+00  0.00000000E+00
  0.00000000E+00  0.00000000E+00  0.00000000E+00
  0.00000000E+00  0.00000000E+00  0.00000000E+00
  0.00000000E+00  0.00000000E+00  0.00000000E+00
  0.00000000E+00  0.00000000E+00  0.00000000E+00
  0.00000000E+00  0.00000000E+00  0.00000000E+00
  0.00000000E+00  0.00000000E+00  0.00000000E+00
  0.00000000E+00  0.00000000E+00  0.00000000E+00
  0.00000000E+00  0.00000000E+00  0.00000000E+00
  0.00000000E+00  0.00000000E+00  0.00000000E+00
  0.00000000E+00  0.00000000E+00  0.00000000E+00
  0.00000000E+00  0.00000000E+00  0.00000000E+00
  0.00000000E+00  0.00000000E+00  0.00000000E+00
  0.00000000E+00  0.00000000E+00  0.00000000E+00
  0.00000000E+00  0.00000000E+00  0.00000000E+00
  0.00000000E+00  0.00000000E+00  0.00000000E+00
  0.00000000E+00  0.00000000E+00  0.00000000E+00
  0.00000000E+00  0.00000000E+00  0.00000000E+00
  0.00000000E+00  0.00000000E+00  0.00000000E+00
  0.00000000E+00  0.00000000E+00  0.00000000E+00
  0.00000000E+00  0.00000000E+00  0.00000000E+00
  0.00000000E+00  0.00000000E+00  0.00000000E+00
  0.00000000E+00  0.00000000E+00  0.00000000E+00
  0.00000000E+00  0.00000000E+00  0.00000000E+00
  0.00000000E+00  0.00000000E+00  0.00000000E+00
  0.00000000E+00  0.00000000E+00  0.00000000E+00
  0.00000000E+00  0.00000000E+00  0.00000000E+00
  0.00000000E+00  0.00000000E+00  0.00000000E+00
  0.00000000E+00  0.00000000E+00  0.00000000E+00
  0.00000000E+00  0.00000000E+00  0.00000000E+00
  0.00000000E+00  0.00000000E+00  0.00000000E+00
  0.00000000E+00  0.00000000E+00  0.00000000E+00
  0.00000000E+00  0.00000000E+00  0.00000000E+00
  0.00000000E+00  0.00000000E+00  0.00000000E+00
