Ge+Ge                                   
   1.00000000000000     
    17.8915348049999992    0.0000000000000000    0.0000000000000000
   -16.1023807529999985    7.7987394329999997    0.0000000000000000
     0.0000002790000000   -0.0000000640000000   13.6288900379999998
   Ge
    96
Direct
  0.4438667300000034  0.0561335200000030  0.4047619099999977
  0.3386030500000032  0.1613969799999992  0.1904761340000007
  0.8122870919999983  0.1877129080000017  0.0238097180000025
  0.3386029899999983  0.6613969799999992  0.1904761340000007
  0.5228132610000031  0.4771866500000002  0.4999999699999975
  0.6543926000000013  0.3456073999999987  0.3809522689999980
  0.2859717609999990  0.2140283880000027  0.3095238800000004
  0.1807081999999980  0.3192918299999974  0.0952380519999991
  0.4701818819999986  0.5298180580000036  0.1190475820000003
  0.6017609829999984  0.3982387189999983  0.0000000000000000
  0.7859715820000019  0.2140284030000004  0.3095237309999987
  0.3122873310000003  0.6877126099999984  0.4761902389999975
  0.9438664320000001  0.0561335499999984  0.4047617909999985
  0.5228132610000031  0.4771866500000002  0.0000000000000000
  0.6807081099999976  0.3192918299999974  0.0952380599999998
  0.8386029600000029  0.1613970100000017  0.1904761050000019
  0.3122870620000029  0.1877128779999993  0.0238097029999977
  0.1543926000000013  0.8456073999999987  0.3809522689999980
  0.6017612220000004  0.3982388379999975  0.4999999699999975
  0.1807081549999978  0.8192918299999974  0.0952380669999968
  0.9701818229999972  0.0298181269999986  0.1190477159999972
  0.3122874499999995  0.1877124909999992  0.4761903289999978
  0.2859715219999970  0.7140283580000002  0.3095238800000004
  0.4438663720000022  0.5561336279999978  0.4047619700000027
  0.1280766730000025  0.8719232680000033  0.2142858509999996
  0.4701818819999986  0.0298180859999988  0.1190477540000003
  0.1017609829999984  0.8982387779999996  0.9999998810000008
  0.8386029600000029  0.6613970399999971  0.1904761050000019
  0.9964977500000032  0.5035022499999968  0.2857141490000004
  0.1017612220000004  0.3982387779999996  0.4999999699999975
  0.6017614599999987  0.8982387189999983  0.4999999400000021
  0.8122872710000024  0.6877128479999968  0.0238096880000001
  0.9701821210000006  0.5298180580000036  0.1190477540000003
  0.1280769110000008  0.3719232380000008  0.2142857910000018
  0.1017612220000004  0.8982388379999975  0.4999997910000005
  0.8122874499999995  0.1877125500000005  0.4761902990000024
  0.8122875090000008  0.6877124909999992  0.4761902990000024
  0.0228133869999994  0.4771866500000002  0.0000000140000012
  0.3122870620000029  0.6877129080000017  0.0238095449999989
  0.0228133239999977  0.9771866800000026  0.0000000100000008
  0.4964978400000035  0.0035021899999990  0.2857141490000004
  0.6543926599999992  0.8456073400000008  0.3809522689999980
  0.1543926000000013  0.3456073999999987  0.3809522689999980
  0.9964978100000010  0.0035021540000031  0.2857141490000004
  0.5228132610000031  0.9771866800000026  0.0000000109999974
  0.6280767319999967  0.8719232680000033  0.2142858360000020
  0.7859715219999970  0.7140284179999981  0.3095238800000004
  0.0228133179999972  0.9771866800000026  0.4999999699999975
  0.8122872109999975  0.1877125500000005  0.9761902090000021
  0.9438663720000022  0.5561335089999986  0.4047619700000027
  0.1807081099999976  0.8192918299999974  0.5952380900000023
  0.3386029010000016  0.6613969799999992  0.6904760600000017
  0.4964976609999994  0.5035021309999976  0.7857141490000004
  0.6543924810000021  0.3456072809999995  0.8809522390000026
  0.6807081099999976  0.8192918900000024  0.0952380599999998
  0.3122870620000029  0.6877129080000017  0.5238095520000030
  0.4701818229999972  0.5298181180000014  0.6190475229999990
  0.6280766129999975  0.3719232079999983  0.7142856119999976
  0.7859714630000028  0.2140283729999979  0.8095237019999999
  0.9438662530000030  0.0561334940000009  0.9047617909999985
  0.3122870919999983  0.6877125500000005  0.9761902090000021
  0.4964978100000010  0.5035021899999990  0.2857142089999982
  0.6807080510000034  0.3192918299999974  0.5952379699999995
  0.8386028409999966  0.1613969499999968  0.6904760600000017
  0.9964976309999969  0.0035021360000016  0.7857141490000004
  0.1543923620000029  0.8456072809999995  0.8809521200000034
  0.6280767319999967  0.3719232680000033  0.2142856870000003
  0.8122870329999969  0.1877129379999971  0.5238096710000022
  0.9701817629999994  0.0298180790000018  0.6190476419999982
  0.1280766730000025  0.8719232680000033  0.7142857309999968
  0.2859714029999978  0.7140284179999981  0.8095239399999983
  0.4438662530000030  0.5561335089999986  0.9047619099999977
  0.8122872710000024  0.6877124310000013  0.9761902090000021
  0.0228133889999995  0.4771866199999977  0.4999999699999975
  0.1807081549999978  0.3192918000000020  0.5952379699999995
  0.3386029600000029  0.1613969360000027  0.6904760600000017
  0.4964977200000007  0.0035021360000016  0.7857141490000004
  0.6543925400000035  0.8456072809999995  0.8809522390000026
  0.1017609829999984  0.3982386590000004  0.0000000000000000
  0.3122870620000029  0.1877128779999993  0.5238096710000022
  0.4701818529999997  0.0298180710000011  0.6190476419999982
  0.6280766129999975  0.8719232079999983  0.7142858509999996
  0.7859714029999978  0.7140284179999981  0.8095238209999991
  0.9438661929999981  0.5561335089999986  0.9047619099999977
  0.3122872109999975  0.1877124909999992  0.9761902090000021
  0.5228132610000031  0.9771866800000026  0.4999999699999975
  0.6807080510000034  0.8192918299999974  0.5952380900000023
  0.8386028409999966  0.6613969799999992  0.6904760600000017
  0.9964975709999990  0.5035022499999968  0.7857141490000004
  0.1543923620000029  0.3456073400000008  0.8809521200000034
  0.6017612220000004  0.8982386590000004  0.0000000000000000
  0.8122873310000003  0.6877128479999968  0.5238096710000022
  0.9701820610000027  0.5298179979999986  0.6190476419999982
  0.1280769110000008  0.3719231780000030  0.7142857309999968
  0.2859716419999998  0.2140283580000002  0.8095238209999991
  0.4438664910000014  0.0561334639999984  0.9047619099999977
 
  0.00000000E+00  0.00000000E+00  0.00000000E+00
  0.00000000E+00  0.00000000E+00  0.00000000E+00
  0.00000000E+00  0.00000000E+00  0.00000000E+00
  0.00000000E+00  0.00000000E+00  0.00000000E+00
  0.00000000E+00  0.00000000E+00  0.00000000E+00
  0.00000000E+00  0.00000000E+00  0.00000000E+00
  0.00000000E+00  0.00000000E+00  0.00000000E+00
  0.00000000E+00  0.00000000E+00  0.00000000E+00
  0.00000000E+00  0.00000000E+00  0.00000000E+00
  0.00000000E+00  0.00000000E+00  0.00000000E+00
  0.00000000E+00  0.00000000E+00  0.00000000E+00
  0.00000000E+00  0.00000000E+00  0.00000000E+00
  0.00000000E+00  0.00000000E+00  0.00000000E+00
  0.00000000E+00  0.00000000E+00  0.00000000E+00
  0.00000000E+00  0.00000000E+00  0.00000000E+00
  0.00000000E+00  0.00000000E+00  0.00000000E+00
  0.00000000E+00  0.00000000E+00  0.00000000E+00
  0.00000000E+00  0.00000000E+00  0.00000000E+00
  0.00000000E+00  0.00000000E+00  0.00000000E+00
  0.00000000E+00  0.00000000E+00  0.00000000E+00
  0.00000000E+00  0.00000000E+00  0.00000000E+00
  0.00000000E+00  0.00000000E+00  0.00000000E+00
  0.00000000E+00  0.00000000E+00  0.00000000E+00
  0.00000000E+00  0.00000000E+00  0.00000000E+00
  0.00000000E+00  0.00000000E+00  0.00000000E+00
  0.00000000E+00  0.00000000E+00  0.00000000E+00
  0.00000000E+00  0.00000000E+00  0.00000000E+00
  0.00000000E+00  0.00000000E+00  0.00000000E+00
  0.00000000E+00  0.00000000E+00  0.00000000E+00
  0.00000000E+00  0.00000000E+00  0.00000000E+00
  0.00000000E+00  0.00000000E+00  0.00000000E+00
  0.00000000E+00  0.00000000E+00  0.00000000E+00
  0.00000000E+00  0.00000000E+00  0.00000000E+00
  0.00000000E+00  0.00000000E+00  0.00000000E+00
  0.00000000E+00  0.00000000E+00  0.00000000E+00
  0.00000000E+00  0.00000000E+00  0.00000000E+00
  0.00000000E+00  0.00000000E+00  0.00000000E+00
  0.00000000E+00  0.00000000E+00  0.00000000E+00
  0.00000000E+00  0.00000000E+00  0.00000000E+00
  0.00000000E+00  0.00000000E+00  0.00000000E+00
  0.00000000E+00  0.00000000E+00  0.00000000E+00
  0.00000000E+00  0.00000000E+00  0.00000000E+00
  0.00000000E+00  0.00000000E+00  0.00000000E+00
  0.00000000E+00  0.00000000E+00  0.00000000E+00
  0.00000000E+00  0.00000000E+00  0.00000000E+00
  0.00000000E+00  0.00000000E+00  0.00000000E+00
  0.00000000E+00  0.00000000E+00  0.00000000E+00
  0.00000000E+00  0.00000000E+00  0.00000000E+00
  0.00000000E+00  0.00000000E+00  0.00000000E+00
  0.00000000E+00  0.00000000E+00  0.00000000E+00
  0.00000000E+00  0.00000000E+00  0.00000000E+00
  0.00000000E+00  0.00000000E+00  0.00000000E+00
  0.00000000E+00  0.00000000E+00  0.00000000E+00
  0.00000000E+00  0.00000000E+00  0.00000000E+00
  0.00000000E+00  0.00000000E+00  0.00000000E+00
  0.00000000E+00  0.00000000E+00  0.00000000E+00
  0.00000000E+00  0.00000000E+00  0.00000000E+00
  0.00000000E+00  0.00000000E+00  0.00000000E+00
  0.00000000E+00  0.00000000E+00  0.00000000E+00
  0.00000000E+00  0.00000000E+00  0.00000000E+00
  0.00000000E+00  0.00000000E+00  0.00000000E+00
  0.00000000E+00  0.00000000E+00  0.00000000E+00
  0.00000000E+00  0.00000000E+00  0.00000000E+00
  0.00000000E+00  0.00000000E+00  0.00000000E+00
  0.00000000E+00  0.00000000E+00  0.00000000E+00
  0.00000000E+00  0.00000000E+00  0.00000000E+00
  0.00000000E+00  0.00000000E+00  0.00000000E+00
  0.00000000E+00  0.00000000E+00  0.00000000E+00
  0.00000000E+00  0.00000000E+00  0.00000000E+00
  0.00000000E+00  0.00000000E+00  0.00000000E+00
  0.00000000E+00  0.00000000E+00  0.00000000E+00
  0.00000000E+00  0.00000000E+00  0.00000000E+00
  0.00000000E+00  0.00000000E+00  0.00000000E+00
  0.00000000E+00  0.00000000E+00  0.00000000E+00
  0.00000000E+00  0.00000000E+00  0.00000000E+00
  0.00000000E+00  0.00000000E+00  0.00000000E+00
  0.00000000E+00  0.00000000E+00  0.00000000E+00
  0.00000000E+00  0.00000000E+00  0.00000000E+00
  0.00000000E+00  0.00000000E+00  0.00000000E+00
  0.00000000E+00  0.00000000E+00  0.00000000E+00
  0.00000000E+00  0.00000000E+00  0.00000000E+00
  0.00000000E+00  0.00000000E+00  0.00000000E+00
  0.00000000E+00  0.00000000E+00  0.00000000E+00
  0.00000000E+00  0.00000000E+00  0.00000000E+00
  0.00000000E+00  0.00000000E+00  0.00000000E+00
  0.00000000E+00  0.00000000E+00  0.00000000E+00
  0.00000000E+00  0.00000000E+00  0.00000000E+00
  0.00000000E+00  0.00000000E+00  0.00000000E+00
  0.00000000E+00  0.00000000E+00  0.00000000E+00
  0.00000000E+00  0.00000000E+00  0.00000000E+00
  0.00000000E+00  0.00000000E+00  0.00000000E+00
  0.00000000E+00  0.00000000E+00  0.00000000E+00
  0.00000000E+00  0.00000000E+00  0.00000000E+00
  0.00000000E+00  0.00000000E+00  0.00000000E+00
  0.00000000E+00  0.00000000E+00  0.00000000E+00
  0.00000000E+00  0.00000000E+00  0.00000000E+00
