Sn+Ge
    1.000000000
   12.978400230    0.000000000    0.000000000
  -12.978400230   12.978400230    0.000000000
    0.000000000    0.000000000   19.583751678
Sn  Ge 
48     60
Direct
    0.492552608    0.000000000    0.000000000
    0.242552638    0.000000000    0.165678188
    0.992552698    0.000000000    0.331356287
    0.992552638    0.000000000    0.000000000
    0.742552638    0.000000000    0.165678188
    0.492552757    0.000000000    0.331356287
    0.492552608    0.499999970    0.000000000
    0.242552638    0.499999970    0.165678188
    0.992552698    0.499999970    0.331356287
    0.992552638    0.499999970    0.000000000
    0.742552638    0.499999970    0.165678188
    0.492552698    0.499999970    0.331356287
    0.492552608    0.124999993    0.082839087
    0.242552668    0.124999993    0.248517260
    0.992552638    0.124999993    0.414195418
    0.992552638    0.124999993    0.082839087
    0.742552757    0.124999993    0.248517260
    0.492552698    0.124999993    0.414195418
    0.492552578    0.624999940    0.082839087
    0.242552638    0.624999940    0.248517260
    0.992552638    0.624999940    0.414195418
    0.992552638    0.624999940    0.082839087
    0.742552698    0.624999940    0.248517260
    0.492552698    0.624999940    0.414195418
    0.492552638    0.249999985    0.000000000
    0.242552638    0.249999985    0.165678188
    0.992552698    0.249999985    0.331356287
    0.992552638    0.249999985    0.000000000
    0.742552638    0.249999985    0.165678188
    0.492552757    0.249999985    0.331356287
    0.492552608    0.749999940    0.000000000
    0.242552593    0.749999940    0.165678188
    0.992552698    0.749999940    0.331356287
    0.992552638    0.749999940    0.000000000
    0.742552638    0.749999940    0.165678188
    0.492552698    0.749999940    0.331356287
    0.492552608    0.374999970    0.082839087
    0.242552668    0.374999970    0.248517260
    0.992552638    0.374999970    0.414195418
    0.992552638    0.374999970    0.082839087
    0.742552757    0.374999970    0.248517260
    0.492552698    0.374999970    0.414195418
    0.492552608    0.874999940    0.082839087
    0.242552698    0.874999940    0.248517260
    0.992552638    0.874999940    0.414195418
    0.992552638    0.874999940    0.082839087
    0.742552757    0.874999940    0.248517260
    0.492552757    0.874999940    0.414195418
    0.943870127    0.421995938    0.526533484
    0.843870103    0.521995902    0.670984805
    0.743870020    0.621995986    0.815436304
    0.143870115    0.221995920    0.526533484
    0.043870091    0.321995944    0.670984805
    0.943870068    0.421995997    0.815436304
    0.743870199    0.621995986    0.526533484
    0.643870115    0.721996009    0.670984805
    0.543870091    0.821996033    0.815436304
    0.543870151    0.821995974    0.526533484
    0.443870127    0.921995997    0.670984805
    0.343870103    0.021996021    0.815436304
    0.343870133    0.021996021    0.526533484
    0.243870109    0.121996045    0.670984805
    0.143870115    0.221996009    0.815436304
    0.043870211    0.571995974    0.598759174
    0.943870127    0.671995997    0.743210614
    0.843870103    0.771996021    0.887661994
    0.243870139    0.371995926    0.598759174
    0.143870115    0.471995980    0.743210614
    0.043870091    0.571995974    0.887661994
    0.843870163    0.771995962    0.598759174
    0.743870080    0.871996045    0.743210614
    0.643870056    0.971996069    0.887661994
    0.643870175    0.971995950    0.598759174
    0.543870151    0.071995974    0.743210614
    0.443870068    0.171996117    0.887661994
    0.443870068    0.171996117    0.598759174
    0.343870044    0.271996081    0.743210614
    0.243869990    0.371996105    0.887661994
    0.543870151    0.321995944    0.526533484
    0.443870127    0.421995968    0.670984805
    0.343870103    0.521996021    0.815436304
    0.343870133    0.521995962    0.526533484
    0.243870109    0.621995986    0.670984805
    0.143869996    0.721996009    0.815436304
    0.943870127    0.921995997    0.526533484
    0.843870103    0.021996021    0.670984805
    0.743870080    0.121996045    0.815436304
    0.143870115    0.721995950    0.526533484
    0.043870091    0.821995974    0.670984805
    0.943870068    0.921996057    0.815436304
    0.743870080    0.121996045    0.526533484
    0.643870056    0.221996009    0.670984805
    0.543869972    0.321996152    0.815436304
    0.843870163    0.271995962    0.598759174
    0.743870080    0.371995986    0.743210614
    0.643870056    0.471996039    0.887661994
    0.643870115    0.471995950    0.598759174
    0.543870091    0.571995974    0.743210614
    0.443870068    0.671995997    0.887661994
    0.443870127    0.671995997    0.598759174
    0.343870074    0.771996021    0.743210614
    0.243870050    0.871996045    0.887661994
    0.043870211    0.071995974    0.598759174
    0.943870187    0.171996117    0.743210614
    0.843870163    0.271996081    0.887661994
    0.243870080    0.871995986    0.598759174
    0.143869996    0.971996009    0.743210614
    0.043869972    0.071995974    0.887661994
