Ge+Sn                                   
   1.00000000000000     
    11.3156003950000006    0.0000000000000000    0.0000000000000000
     0.0000000000000000   17.8915348049999992    0.0000000000000000
     0.0000000000000000   -0.0000003200000000   13.8673810960000008
   Ge   Sn
    48    48
Direct
  0.9455687399999988  0.0762038009999984  0.0000000120000010
  0.6955686809999975  0.4262039070000014  0.0645095260000019
  0.4455686809999975  0.7762039899999991  0.1290190369999991
  0.1955686209999996  0.1262041330000017  0.1935286220000023
  0.9455686809999975  0.4762041569999980  0.2580381040000006
  0.6955686809999975  0.8262043000000006  0.3225475549999999
  0.4455687399999988  0.0762038009999984  0.0000000120000010
  0.1955687110000000  0.4262039070000014  0.0645095260000019
  0.9455686809999975  0.7762039899999991  0.1290190369999991
  0.6955686809999975  0.1262041330000017  0.1935286220000023
  0.4455686809999975  0.4762041569999980  0.2580381040000006
  0.1955686209999996  0.8262043000000006  0.3225475549999999
  0.0705687250000011  0.8262039419999994  0.0000000300000025
  0.8205686809999975  0.1762040850000020  0.0645095109999971
  0.5705686809999975  0.5262041089999983  0.1290189919999989
  0.3205686209999996  0.8762041330000017  0.1935286069999975
  0.0705686209999996  0.2262041569999980  0.2580381329999994
  0.8205685619999983  0.5762043000000006  0.3225476149999977
  0.5705687399999988  0.8262039419999994  0.0000000300000025
  0.3205687399999988  0.1762040850000020  0.0645095109999971
  0.0705687110000000  0.5262041089999983  0.1290189919999989
  0.8205686809999975  0.8762041330000017  0.1935286069999975
  0.5705686809999975  0.2262041569999980  0.2580381329999994
  0.3205686209999996  0.5762043000000006  0.3225476149999977
  0.9455687399999988  0.5762038230000002  0.0000000160000013
  0.6955686809999975  0.9262039070000014  0.0645094959999994
  0.4455686809999975  0.2762039899999991  0.1290190519999967
  0.1955686209999996  0.6262041330000017  0.1935285480000033
  0.9455686809999975  0.9762041569999980  0.2580381040000006
  0.6955686809999975  0.3262043000000006  0.3225476149999977
  0.4455687399999988  0.5762038230000002  0.0000000160000013
  0.1955687110000000  0.9262039070000014  0.0645094959999994
  0.9455686809999975  0.2762039899999991  0.1290190519999967
  0.6955686809999975  0.6262041330000017  0.1935285480000033
  0.4455686809999975  0.9762041569999980  0.2580381040000006
  0.1955686209999996  0.3262043000000006  0.3225476149999977
  0.0705687250000011  0.3262038230000002  0.0000000000000000
  0.8205686809999975  0.6762039660000028  0.0645095329999990
  0.5705686809999975  0.0262039899999991  0.1290190369999991
  0.3205686209999996  0.3762041330000017  0.1935285630000010
  0.0705686209999996  0.7262041569999980  0.2580380739999981
  0.8205685619999983  0.0762043000000006  0.3225475249999974
  0.5705687399999988  0.3262038230000002  0.0000000000000000
  0.3205687399999988  0.6762039660000028  0.0645095329999990
  0.0705687110000000  0.0262039899999991  0.1290190369999991
  0.8205686809999975  0.3762041330000017  0.1935285630000010
  0.5705686809999975  0.7262041569999980  0.2580380739999981
  0.3205686209999996  0.0762043000000006  0.3225475249999974
  0.0659289359999988  0.2138034110000007  0.4224753680000006
  0.7325955029999989  0.0888034110000007  0.5179947609999971
  0.3992621900000017  0.9638034110000007  0.6135140060000026
  0.0659288169999996  0.8388034110000007  0.7090333700000002
  0.7325953249999984  0.7138032909999978  0.8045527940000028
  0.3992618320000005  0.5888032909999978  0.9000720980000025
  0.0659289359999988  0.7138034110000007  0.4224753680000006
  0.7325955029999989  0.5888032909999978  0.5179947609999971
  0.3992621900000017  0.4638032909999978  0.6135140060000026
  0.0659288169999996  0.3388032909999978  0.7090333700000002
  0.7325953249999984  0.2138032909999978  0.8045527940000028
  0.3992618320000005  0.0888032909999978  0.9000720980000025
  0.3159289060000035  0.4638034110000007  0.4224753680000006
  0.9825955629999967  0.3388034110000007  0.5179947609999971
  0.6492621900000017  0.2138034110000007  0.6135140660000005
  0.3159288169999996  0.0888034110000007  0.7090333700000002
  0.9825954439999975  0.9638034110000007  0.8045527940000028
  0.6492618320000005  0.8388032909999978  0.9000722170000017
  0.3159289060000035  0.9638034110000007  0.4224753680000006
  0.9825955029999989  0.8388034110000007  0.5179947609999971
  0.6492621900000017  0.7138034110000007  0.6135140060000026
  0.3159288169999996  0.5888034110000007  0.7090333700000002
  0.9825954439999975  0.4638032909999978  0.8045526740000000
  0.6492618320000005  0.3388032909999978  0.9000722170000017
  0.0659289359999988  0.4638034110000007  0.4224753680000006
  0.7325955029999989  0.3388034110000007  0.5179947609999971
  0.3992621900000017  0.2138034110000007  0.6135140060000026
  0.0659288169999996  0.0888034110000007  0.7090333700000002
  0.7325953249999984  0.9638033510000028  0.8045527940000028
  0.3992619509999997  0.8388032909999978  0.9000720980000025
  0.0659289359999988  0.9638034110000007  0.4224753680000006
  0.7325955029999989  0.8388034110000007  0.5179947609999971
  0.3992621900000017  0.7138034110000007  0.6135140060000026
  0.0659288169999996  0.5888034110000007  0.7090333700000002
  0.7325954439999975  0.4638032909999978  0.8045527940000028
  0.3992618320000005  0.3388032909999978  0.9000720980000025
  0.3159289660000013  0.2138034110000007  0.4224753980000031
  0.9825955629999967  0.0888034110000007  0.5179947609999971
  0.6492621900000017  0.9638034110000007  0.6135140060000026
  0.3159288169999996  0.8388034110000007  0.7090333700000002
  0.9825954439999975  0.7138034110000007  0.8045527940000028
  0.6492619509999997  0.5888032909999978  0.9000720980000025
  0.3159289359999988  0.7138034110000007  0.4224753680000006
  0.9825955629999967  0.5888032909999978  0.5179947609999971
  0.6492621900000017  0.4638032909999978  0.6135140060000026
  0.3159288169999996  0.3388032909999978  0.7090333700000002
  0.9825954439999975  0.2138032909999978  0.8045527940000028
  0.6492619509999997  0.0888032909999978  0.9000720980000025
 
  0.00000000E+00  0.00000000E+00  0.00000000E+00
  0.00000000E+00  0.00000000E+00  0.00000000E+00
  0.00000000E+00  0.00000000E+00  0.00000000E+00
  0.00000000E+00  0.00000000E+00  0.00000000E+00
  0.00000000E+00  0.00000000E+00  0.00000000E+00
  0.00000000E+00  0.00000000E+00  0.00000000E+00
  0.00000000E+00  0.00000000E+00  0.00000000E+00
  0.00000000E+00  0.00000000E+00  0.00000000E+00
  0.00000000E+00  0.00000000E+00  0.00000000E+00
  0.00000000E+00  0.00000000E+00  0.00000000E+00
  0.00000000E+00  0.00000000E+00  0.00000000E+00
  0.00000000E+00  0.00000000E+00  0.00000000E+00
  0.00000000E+00  0.00000000E+00  0.00000000E+00
  0.00000000E+00  0.00000000E+00  0.00000000E+00
  0.00000000E+00  0.00000000E+00  0.00000000E+00
  0.00000000E+00  0.00000000E+00  0.00000000E+00
  0.00000000E+00  0.00000000E+00  0.00000000E+00
  0.00000000E+00  0.00000000E+00  0.00000000E+00
  0.00000000E+00  0.00000000E+00  0.00000000E+00
  0.00000000E+00  0.00000000E+00  0.00000000E+00
  0.00000000E+00  0.00000000E+00  0.00000000E+00
  0.00000000E+00  0.00000000E+00  0.00000000E+00
  0.00000000E+00  0.00000000E+00  0.00000000E+00
  0.00000000E+00  0.00000000E+00  0.00000000E+00
  0.00000000E+00  0.00000000E+00  0.00000000E+00
  0.00000000E+00  0.00000000E+00  0.00000000E+00
  0.00000000E+00  0.00000000E+00  0.00000000E+00
  0.00000000E+00  0.00000000E+00  0.00000000E+00
  0.00000000E+00  0.00000000E+00  0.00000000E+00
  0.00000000E+00  0.00000000E+00  0.00000000E+00
  0.00000000E+00  0.00000000E+00  0.00000000E+00
  0.00000000E+00  0.00000000E+00  0.00000000E+00
  0.00000000E+00  0.00000000E+00  0.00000000E+00
  0.00000000E+00  0.00000000E+00  0.00000000E+00
  0.00000000E+00  0.00000000E+00  0.00000000E+00
  0.00000000E+00  0.00000000E+00  0.00000000E+00
  0.00000000E+00  0.00000000E+00  0.00000000E+00
  0.00000000E+00  0.00000000E+00  0.00000000E+00
  0.00000000E+00  0.00000000E+00  0.00000000E+00
  0.00000000E+00  0.00000000E+00  0.00000000E+00
  0.00000000E+00  0.00000000E+00  0.00000000E+00
  0.00000000E+00  0.00000000E+00  0.00000000E+00
  0.00000000E+00  0.00000000E+00  0.00000000E+00
  0.00000000E+00  0.00000000E+00  0.00000000E+00
  0.00000000E+00  0.00000000E+00  0.00000000E+00
  0.00000000E+00  0.00000000E+00  0.00000000E+00
  0.00000000E+00  0.00000000E+00  0.00000000E+00
  0.00000000E+00  0.00000000E+00  0.00000000E+00
  0.00000000E+00  0.00000000E+00  0.00000000E+00
  0.00000000E+00  0.00000000E+00  0.00000000E+00
  0.00000000E+00  0.00000000E+00  0.00000000E+00
  0.00000000E+00  0.00000000E+00  0.00000000E+00
  0.00000000E+00  0.00000000E+00  0.00000000E+00
  0.00000000E+00  0.00000000E+00  0.00000000E+00
  0.00000000E+00  0.00000000E+00  0.00000000E+00
  0.00000000E+00  0.00000000E+00  0.00000000E+00
  0.00000000E+00  0.00000000E+00  0.00000000E+00
  0.00000000E+00  0.00000000E+00  0.00000000E+00
  0.00000000E+00  0.00000000E+00  0.00000000E+00
  0.00000000E+00  0.00000000E+00  0.00000000E+00
  0.00000000E+00  0.00000000E+00  0.00000000E+00
  0.00000000E+00  0.00000000E+00  0.00000000E+00
  0.00000000E+00  0.00000000E+00  0.00000000E+00
  0.00000000E+00  0.00000000E+00  0.00000000E+00
  0.00000000E+00  0.00000000E+00  0.00000000E+00
  0.00000000E+00  0.00000000E+00  0.00000000E+00
  0.00000000E+00  0.00000000E+00  0.00000000E+00
  0.00000000E+00  0.00000000E+00  0.00000000E+00
  0.00000000E+00  0.00000000E+00  0.00000000E+00
  0.00000000E+00  0.00000000E+00  0.00000000E+00
  0.00000000E+00  0.00000000E+00  0.00000000E+00
  0.00000000E+00  0.00000000E+00  0.00000000E+00
  0.00000000E+00  0.00000000E+00  0.00000000E+00
  0.00000000E+00  0.00000000E+00  0.00000000E+00
  0.00000000E+00  0.00000000E+00  0.00000000E+00
  0.00000000E+00  0.00000000E+00  0.00000000E+00
  0.00000000E+00  0.00000000E+00  0.00000000E+00
  0.00000000E+00  0.00000000E+00  0.00000000E+00
  0.00000000E+00  0.00000000E+00  0.00000000E+00
  0.00000000E+00  0.00000000E+00  0.00000000E+00
  0.00000000E+00  0.00000000E+00  0.00000000E+00
  0.00000000E+00  0.00000000E+00  0.00000000E+00
  0.00000000E+00  0.00000000E+00  0.00000000E+00
  0.00000000E+00  0.00000000E+00  0.00000000E+00
  0.00000000E+00  0.00000000E+00  0.00000000E+00
  0.00000000E+00  0.00000000E+00  0.00000000E+00
  0.00000000E+00  0.00000000E+00  0.00000000E+00
  0.00000000E+00  0.00000000E+00  0.00000000E+00
  0.00000000E+00  0.00000000E+00  0.00000000E+00
  0.00000000E+00  0.00000000E+00  0.00000000E+00
  0.00000000E+00  0.00000000E+00  0.00000000E+00
  0.00000000E+00  0.00000000E+00  0.00000000E+00
  0.00000000E+00  0.00000000E+00  0.00000000E+00
  0.00000000E+00  0.00000000E+00  0.00000000E+00
  0.00000000E+00  0.00000000E+00  0.00000000E+00
  0.00000000E+00  0.00000000E+00  0.00000000E+00
