Ge+Si                                   
   1.00000000000000     
    16.9734001160000005    0.0000000000000000    0.0000000000000000
     0.0000000000000000   16.9734001160000005    0.0000000000000000
     0.0000000000000000    0.0000000000000000   17.8610000609999986
   Ge   Si
   108   120
Direct
  0.9943054909999987  0.6666665670000000  0.0000000000000000
  0.8276388649999973  0.6666665670000000  0.1583841739999983
  0.6609721179999966  0.6666665670000000  0.3167683779999990
  0.9943054909999987  0.3333332839999983  0.0000000000000000
  0.8276388649999973  0.3333332839999983  0.1583841739999983
  0.6609721179999966  0.3333332839999983  0.3167683779999990
  0.9943054909999987  0.0000000000000000  0.0000000000000000
  0.8276388649999973  0.0000000000000000  0.1583841739999983
  0.6609721179999966  0.0000000000000000  0.3167683779999990
  0.3276388049999994  0.6666665670000000  0.0000000000000000
  0.1609721479999990  0.6666665670000000  0.1583841739999983
  0.9943054319999973  0.6666665670000000  0.3167683779999990
  0.3276388049999994  0.3333332839999983  0.0000000000000000
  0.1609721479999990  0.3333332839999983  0.1583841739999983
  0.9943054319999973  0.3333332839999983  0.3167683779999990
  0.3276388049999994  0.0000000000000000  0.0000000000000000
  0.1609721479999990  0.0000000000000000  0.1583841739999983
  0.9943054319999973  0.0000000000000000  0.3167683779999990
  0.6609721179999966  0.6666665670000000  0.0000000000000000
  0.4943054319999973  0.6666665670000000  0.1583841739999983
  0.3276387450000016  0.6666665670000000  0.3167683779999990
  0.6609721179999966  0.3333332839999983  0.0000000000000000
  0.4943054319999973  0.3333332839999983  0.1583841739999983
  0.3276387450000016  0.3333332839999983  0.3167683779999990
  0.6609721179999966  0.0000000000000000  0.0000000000000000
  0.4943054319999973  0.0000000000000000  0.1583841739999983
  0.3276387450000016  0.0000000000000000  0.3167683779999990
  0.0776388419999989  0.9166665670000000  0.0791920950000033
  0.9109721179999966  0.9166665670000000  0.2375762910000034
  0.7443054909999987  0.9166665670000000  0.3959604799999994
  0.0776388419999989  0.5833333129999971  0.0791920950000033
  0.9109721179999966  0.5833333129999971  0.2375762910000034
  0.7443054909999987  0.5833333129999971  0.3959604799999994
  0.0776388419999989  0.2499999549999998  0.0791920950000033
  0.9109721179999966  0.2499999549999998  0.2375762910000034
  0.7443054909999987  0.2499999549999998  0.3959604799999994
  0.4109720889999977  0.9166665670000000  0.0791920950000033
  0.2443054169999996  0.9166665670000000  0.2375762910000034
  0.0776387229999997  0.9166665670000000  0.3959604799999994
  0.4109720889999977  0.5833333129999971  0.0791920950000033
  0.2443054169999996  0.5833333129999971  0.2375762910000034
  0.0776387229999997  0.5833333129999971  0.3959604799999994
  0.4109720889999977  0.2499999549999998  0.0791920950000033
  0.2443054169999996  0.2499999549999998  0.2375762910000034
  0.0776387229999997  0.2499999549999998  0.3959604799999994
  0.7443054909999987  0.9166665670000000  0.0791920950000033
  0.5776387450000016  0.9166665670000000  0.2375762910000034
  0.4109720590000023  0.9166665670000000  0.3959604799999994
  0.7443054909999987  0.5833333129999971  0.0791920950000033
  0.5776387450000016  0.5833333129999971  0.2375762910000034
  0.4109720590000023  0.5833333129999971  0.3959604799999994
  0.7443054909999987  0.2499999549999998  0.0791920950000033
  0.5776387450000016  0.2499999549999998  0.2375762910000034
  0.4109720590000023  0.2499999549999998  0.3959604799999994
  0.1609721629999967  0.8333331939999979  0.0000000000000000
  0.9943054909999987  0.8333331939999979  0.1583841739999983
  0.8276388049999994  0.8333331939999979  0.3167683779999990
  0.1609721629999967  0.4999999110000033  0.0000000000000000
  0.9943054909999987  0.4999999110000033  0.1583841739999983
  0.8276388049999994  0.4999999110000033  0.3167683779999990
  0.1609721629999967  0.1666666420000027  0.0000000000000000
  0.9943054909999987  0.1666666420000027  0.1583841739999983
  0.8276388049999994  0.1666666420000027  0.3167683779999990
  0.4943054319999973  0.8333331939999979  0.0000000000000000
  0.3276387450000016  0.8333331939999979  0.1583841739999983
  0.1609720740000000  0.8333331939999979  0.3167683779999990
  0.4943054319999973  0.4999999110000033  0.0000000000000000
  0.3276387450000016  0.4999999110000033  0.1583841739999983
  0.1609720740000000  0.4999999110000033  0.3167683779999990
  0.4943054319999973  0.1666666420000027  0.0000000000000000
  0.3276387450000016  0.1666666420000027  0.1583841739999983
  0.1609720740000000  0.1666666420000027  0.3167683779999990
  0.8276388049999994  0.8333331939999979  0.0000000000000000
  0.6609721179999966  0.8333331939999979  0.1583841739999983
  0.4943054319999973  0.8333331939999979  0.3167683779999990
  0.8276388049999994  0.4999999110000033  0.0000000000000000
  0.6609721179999966  0.4999999110000033  0.1583841739999983
  0.4943054319999973  0.4999999110000033  0.3167683779999990
  0.8276388049999994  0.1666666420000027  0.0000000000000000
  0.6609721179999966  0.1666666420000027  0.1583841739999983
  0.4943054319999973  0.1666666420000027  0.3167683779999990
  0.2443054619999998  0.7499998810000008  0.0791920950000033
  0.0776387829999976  0.7499998810000008  0.2375762910000034
  0.9109721179999966  0.7499998810000008  0.3959604799999994
  0.2443054619999998  0.4166666269999979  0.0791920950000033
  0.0776387829999976  0.4166666269999979  0.2375762910000034
  0.9109721179999966  0.4166666269999979  0.3959604799999994
  0.2443054619999998  0.0833333280000019  0.0791920950000033
  0.0776387829999976  0.0833333280000019  0.2375762910000034
  0.9109721179999966  0.0833333280000019  0.3959604799999994
  0.5776388649999973  0.7499998810000008  0.0791920950000033
  0.4109721479999990  0.7499998810000008  0.2375762910000034
  0.2443054470000021  0.7499998810000008  0.3959604799999994
  0.5776388649999973  0.4166666269999979  0.0791920950000033
  0.4109721479999990  0.4166666269999979  0.2375762910000034
  0.2443054470000021  0.4166666269999979  0.3959604799999994
  0.5776388649999973  0.0833333280000019  0.0791920950000033
  0.4109721479999990  0.0833333280000019  0.2375762910000034
  0.2443054470000021  0.0833333280000019  0.3959604799999994
  0.9109721780000015  0.7499998810000008  0.0791920950000033
  0.7443054909999987  0.7499998810000008  0.2375762910000034
  0.5776387450000016  0.7499998810000008  0.3959604799999994
  0.9109721780000015  0.4166666269999979  0.0791920950000033
  0.7443054909999987  0.4166666269999979  0.2375762910000034
  0.5776387450000016  0.4166666269999979  0.3959604799999994
  0.9109721780000015  0.0833333280000019  0.0791920950000033
  0.7443054909999987  0.0833333280000019  0.2375762910000034
  0.5776387450000016  0.0833333280000019  0.3959604799999994
  0.7419664860000026  0.0813395979999996  0.5079362990000007
  0.6919665340000023  0.7313394549999970  0.6599714760000026
  0.6419663430000000  0.3813393410000003  0.8120067119999987
  0.8419665099999989  0.7813395860000014  0.5079362990000007
  0.7919664980000007  0.4313395320000026  0.6599714760000026
  0.7419663670000034  0.0813393589999976  0.8120067119999987
  0.9419665340000023  0.4813395440000008  0.5079362990000007
  0.8919664619999992  0.1313394760000008  0.6599714760000026
  0.8419663909999997  0.7813392879999981  0.8120067119999987
  0.0419665579999986  0.1813395320000026  0.5079362990000007
  0.9919664259999976  0.8313394779999967  0.6599714760000026
  0.9419663549999981  0.4813393060000024  0.8120067119999987
  0.1419665809999984  0.8813395499999999  0.5079362990000007
  0.0919665099999989  0.5313394670000022  0.6599714760000026
  0.0419664380000029  0.1813393239999996  0.8120067119999987
  0.2419664860000026  0.5813395380000017  0.5079362990000007
  0.1919664139999995  0.2313394840000029  0.6599714760000026
  0.1419663430000000  0.8813393120000015  0.8120067119999987
  0.3419665099999989  0.2813395259999965  0.5079362990000007
  0.2919664380000029  0.9313394429999988  0.6599714760000026
  0.2419663670000034  0.5813393000000033  0.8120067119999987
  0.4419666530000015  0.9813396329999975  0.5079362990000007
  0.3919665809999984  0.6313394900000020  0.6599714760000026
  0.3419665099999989  0.2813394069999973  0.8120067119999987
  0.5419665579999986  0.6813395619999980  0.5079362990000007
  0.4919664860000026  0.3313394779999967  0.6599714760000026
  0.4419664139999995  0.9813393350000013  0.8120067119999987
  0.6419665809999984  0.3813395800000023  0.5079362990000007
  0.5919666289999981  0.0313395259999965  0.6599714760000026
  0.5419664380000029  0.6813393239999996  0.8120067119999987
  0.7419664860000026  0.3313395380000017  0.5839539170000023
  0.6919664139999995  0.9813393949999991  0.7359890939999971
  0.6419663430000000  0.6313393120000015  0.8880242110000012
  0.8419665099999989  0.0313395259999965  0.5839539170000023
  0.7919664380000029  0.6813393830000010  0.7359890939999971
  0.7419663670000034  0.3313392700000009  0.8880242110000012
  0.9419665340000023  0.7313395139999983  0.5839539170000023
  0.8919664619999992  0.3813394310000007  0.7359890939999971
  0.8419663909999997  0.0313394069999973  0.8880242110000012
  0.0419665579999986  0.4313395020000002  0.5839539170000023
  0.9919664860000026  0.0813393589999976  0.7359890939999971
  0.9419664139999995  0.7313393350000013  0.8880242110000012
  0.1419665809999984  0.1313395199999974  0.5839539170000023
  0.0919663909999997  0.7813394069999973  0.7359890939999971
  0.0419664380000029  0.4313393529999985  0.8880242110000012
  0.2419666050000018  0.8313395380000017  0.5839539170000023
  0.1919665340000023  0.4813394549999970  0.7359890939999971
  0.1419664619999992  0.1313394009999982  0.8880242110000012
  0.3419665099999989  0.5313394670000022  0.5839539170000023
  0.2919664380000029  0.1813393680000033  0.7359890939999971
  0.2419663670000034  0.8313393000000033  0.8880242110000012
  0.4419666530000015  0.2313395440000008  0.5839539170000023
  0.3919665809999984  0.8813394310000007  0.7359890939999971
  0.3419665099999989  0.5313393469999994  0.8880242110000012
  0.5419666769999978  0.9313395619999980  0.5839539170000023
  0.4919664860000026  0.5813394190000025  0.7359890939999971
  0.4419665340000023  0.2313393649999966  0.8880242110000012
  0.6419665809999984  0.6313394900000020  0.5839539170000023
  0.5919665099999989  0.2813394069999973  0.7359890939999971
  0.5419664380000029  0.9313393239999996  0.8880242110000012
  0.7419664860000026  0.5813395380000017  0.5079362990000007
  0.6919665340000023  0.2313394840000029  0.6599714760000026
  0.6419663430000000  0.8813393120000015  0.8120067119999987
  0.8419665099999989  0.2813395259999965  0.5079362990000007
  0.7919664380000029  0.9313394429999988  0.6599714760000026
  0.7419663670000034  0.5813393000000033  0.8120067119999987
  0.9419665340000023  0.9813395139999983  0.5079362990000007
  0.8919664619999992  0.6313394310000007  0.6599714760000026
  0.8419663909999997  0.2813393180000006  0.8120067119999987
  0.0419665579999986  0.6813395020000002  0.5079362990000007
  0.9919664860000026  0.3313394779999967  0.6599714760000026
  0.9419664139999995  0.9813393350000013  0.8120067119999987
  0.1419665809999984  0.3813395499999999  0.5079362990000007
  0.0919665099999989  0.0313395259999965  0.6599714760000026
  0.0419664380000029  0.6813393239999996  0.8120067119999987
  0.2419664860000026  0.0813394779999967  0.5079362990000007
  0.1919665340000023  0.7313393949999991  0.6599714760000026
  0.1419663430000000  0.3813392819999990  0.8120067119999987
  0.3419665099999989  0.7813395259999965  0.5079362990000007
  0.2919664380000029  0.4313394730000013  0.6599714760000026
  0.2419663670000034  0.0813393589999976  0.8120067119999987
  0.4419665340000023  0.4813395139999983  0.5079362990000007
  0.3919664619999992  0.1313394310000007  0.6599714760000026
  0.3419663909999997  0.7813392879999981  0.8120067119999987
  0.5419665579999986  0.1813395020000002  0.5079362990000007
  0.4919664860000026  0.8313393589999976  0.6599714760000026
  0.4419664139999995  0.4813393060000024  0.8120067119999987
  0.6419665809999984  0.8813395499999999  0.5079362990000007
  0.5919666289999981  0.5313394670000022  0.6599714760000026
  0.5419664380000029  0.1813393529999985  0.8120067119999987
  0.7419664860000026  0.8313395979999996  0.5839539170000023
  0.6919664139999995  0.4813394840000029  0.7359890939999971
  0.6419663430000000  0.1313394160000030  0.8880242110000012
  0.8419665099999989  0.5313395259999965  0.5839539170000023
  0.7919664380000029  0.1813394429999988  0.7359890939999971
  0.7419663670000034  0.8313393589999976  0.8880242110000012
  0.9419665340000023  0.2313395290000031  0.5839539170000023
  0.8919664619999992  0.8813394310000007  0.7359890939999971
  0.8419663909999997  0.5313393469999994  0.8880242110000012
  0.0419665579999986  0.9313395619999980  0.5839539170000023
  0.9919664860000026  0.5813394190000025  0.7359890939999971
  0.9419664139999995  0.2313393649999966  0.8880242110000012
  0.1419665809999984  0.6313396099999977  0.5839539170000023
  0.0919665099999989  0.2813395259999965  0.7359890939999971
  0.0419664380000029  0.9313394429999988  0.8880242110000012
  0.2419664860000026  0.3313395079999992  0.5839539170000023
  0.1919665340000023  0.9813393949999991  0.7359890939999971
  0.1419663430000000  0.6313393120000015  0.8880242110000012
  0.3419666289999981  0.0313395259999965  0.5839539170000023
  0.2919664380000029  0.6813394429999988  0.7359890939999971
  0.2419664860000026  0.3313393890000000  0.8880242110000012
  0.4419665340000023  0.7313395740000033  0.5839539170000023
  0.3919665809999984  0.3813394610000032  0.7359890939999971
  0.3419663909999997  0.0313394069999973  0.8880242110000012
  0.5419664380000029  0.4313395020000002  0.5839539170000023
  0.4919664860000026  0.0813393589999976  0.7359890939999971
  0.4419662950000003  0.7313393350000013  0.8880242110000012
  0.6419665809999984  0.1313395049999997  0.5839539170000023
  0.5919663909999997  0.7813394069999973  0.7359890939999971
  0.5419664380000029  0.4313392939999972  0.8880242110000012
 
  0.00000000E+00  0.00000000E+00  0.00000000E+00
  0.00000000E+00  0.00000000E+00  0.00000000E+00
  0.00000000E+00  0.00000000E+00  0.00000000E+00
  0.00000000E+00  0.00000000E+00  0.00000000E+00
  0.00000000E+00  0.00000000E+00  0.00000000E+00
  0.00000000E+00  0.00000000E+00  0.00000000E+00
  0.00000000E+00  0.00000000E+00  0.00000000E+00
  0.00000000E+00  0.00000000E+00  0.00000000E+00
  0.00000000E+00  0.00000000E+00  0.00000000E+00
  0.00000000E+00  0.00000000E+00  0.00000000E+00
  0.00000000E+00  0.00000000E+00  0.00000000E+00
  0.00000000E+00  0.00000000E+00  0.00000000E+00
  0.00000000E+00  0.00000000E+00  0.00000000E+00
  0.00000000E+00  0.00000000E+00  0.00000000E+00
  0.00000000E+00  0.00000000E+00  0.00000000E+00
  0.00000000E+00  0.00000000E+00  0.00000000E+00
  0.00000000E+00  0.00000000E+00  0.00000000E+00
  0.00000000E+00  0.00000000E+00  0.00000000E+00
  0.00000000E+00  0.00000000E+00  0.00000000E+00
  0.00000000E+00  0.00000000E+00  0.00000000E+00
  0.00000000E+00  0.00000000E+00  0.00000000E+00
  0.00000000E+00  0.00000000E+00  0.00000000E+00
  0.00000000E+00  0.00000000E+00  0.00000000E+00
  0.00000000E+00  0.00000000E+00  0.00000000E+00
  0.00000000E+00  0.00000000E+00  0.00000000E+00
  0.00000000E+00  0.00000000E+00  0.00000000E+00
  0.00000000E+00  0.00000000E+00  0.00000000E+00
  0.00000000E+00  0.00000000E+00  0.00000000E+00
  0.00000000E+00  0.00000000E+00  0.00000000E+00
  0.00000000E+00  0.00000000E+00  0.00000000E+00
  0.00000000E+00  0.00000000E+00  0.00000000E+00
  0.00000000E+00  0.00000000E+00  0.00000000E+00
  0.00000000E+00  0.00000000E+00  0.00000000E+00
  0.00000000E+00  0.00000000E+00  0.00000000E+00
  0.00000000E+00  0.00000000E+00  0.00000000E+00
  0.00000000E+00  0.00000000E+00  0.00000000E+00
  0.00000000E+00  0.00000000E+00  0.00000000E+00
  0.00000000E+00  0.00000000E+00  0.00000000E+00
  0.00000000E+00  0.00000000E+00  0.00000000E+00
  0.00000000E+00  0.00000000E+00  0.00000000E+00
  0.00000000E+00  0.00000000E+00  0.00000000E+00
  0.00000000E+00  0.00000000E+00  0.00000000E+00
  0.00000000E+00  0.00000000E+00  0.00000000E+00
  0.00000000E+00  0.00000000E+00  0.00000000E+00
  0.00000000E+00  0.00000000E+00  0.00000000E+00
  0.00000000E+00  0.00000000E+00  0.00000000E+00
  0.00000000E+00  0.00000000E+00  0.00000000E+00
  0.00000000E+00  0.00000000E+00  0.00000000E+00
  0.00000000E+00  0.00000000E+00  0.00000000E+00
  0.00000000E+00  0.00000000E+00  0.00000000E+00
  0.00000000E+00  0.00000000E+00  0.00000000E+00
  0.00000000E+00  0.00000000E+00  0.00000000E+00
  0.00000000E+00  0.00000000E+00  0.00000000E+00
  0.00000000E+00  0.00000000E+00  0.00000000E+00
  0.00000000E+00  0.00000000E+00  0.00000000E+00
  0.00000000E+00  0.00000000E+00  0.00000000E+00
  0.00000000E+00  0.00000000E+00  0.00000000E+00
  0.00000000E+00  0.00000000E+00  0.00000000E+00
  0.00000000E+00  0.00000000E+00  0.00000000E+00
  0.00000000E+00  0.00000000E+00  0.00000000E+00
  0.00000000E+00  0.00000000E+00  0.00000000E+00
  0.00000000E+00  0.00000000E+00  0.00000000E+00
  0.00000000E+00  0.00000000E+00  0.00000000E+00
  0.00000000E+00  0.00000000E+00  0.00000000E+00
  0.00000000E+00  0.00000000E+00  0.00000000E+00
  0.00000000E+00  0.00000000E+00  0.00000000E+00
  0.00000000E+00  0.00000000E+00  0.00000000E+00
  0.00000000E+00  0.00000000E+00  0.00000000E+00
  0.00000000E+00  0.00000000E+00  0.00000000E+00
  0.00000000E+00  0.00000000E+00  0.00000000E+00
  0.00000000E+00  0.00000000E+00  0.00000000E+00
  0.00000000E+00  0.00000000E+00  0.00000000E+00
  0.00000000E+00  0.00000000E+00  0.00000000E+00
  0.00000000E+00  0.00000000E+00  0.00000000E+00
  0.00000000E+00  0.00000000E+00  0.00000000E+00
  0.00000000E+00  0.00000000E+00  0.00000000E+00
  0.00000000E+00  0.00000000E+00  0.00000000E+00
  0.00000000E+00  0.00000000E+00  0.00000000E+00
  0.00000000E+00  0.00000000E+00  0.00000000E+00
  0.00000000E+00  0.00000000E+00  0.00000000E+00
  0.00000000E+00  0.00000000E+00  0.00000000E+00
  0.00000000E+00  0.00000000E+00  0.00000000E+00
  0.00000000E+00  0.00000000E+00  0.00000000E+00
  0.00000000E+00  0.00000000E+00  0.00000000E+00
  0.00000000E+00  0.00000000E+00  0.00000000E+00
  0.00000000E+00  0.00000000E+00  0.00000000E+00
  0.00000000E+00  0.00000000E+00  0.00000000E+00
  0.00000000E+00  0.00000000E+00  0.00000000E+00
  0.00000000E+00  0.00000000E+00  0.00000000E+00
  0.00000000E+00  0.00000000E+00  0.00000000E+00
  0.00000000E+00  0.00000000E+00  0.00000000E+00
  0.00000000E+00  0.00000000E+00  0.00000000E+00
  0.00000000E+00  0.00000000E+00  0.00000000E+00
  0.00000000E+00  0.00000000E+00  0.00000000E+00
  0.00000000E+00  0.00000000E+00  0.00000000E+00
  0.00000000E+00  0.00000000E+00  0.00000000E+00
  0.00000000E+00  0.00000000E+00  0.00000000E+00
  0.00000000E+00  0.00000000E+00  0.00000000E+00
  0.00000000E+00  0.00000000E+00  0.00000000E+00
  0.00000000E+00  0.00000000E+00  0.00000000E+00
  0.00000000E+00  0.00000000E+00  0.00000000E+00
  0.00000000E+00  0.00000000E+00  0.00000000E+00
  0.00000000E+00  0.00000000E+00  0.00000000E+00
  0.00000000E+00  0.00000000E+00  0.00000000E+00
  0.00000000E+00  0.00000000E+00  0.00000000E+00
  0.00000000E+00  0.00000000E+00  0.00000000E+00
  0.00000000E+00  0.00000000E+00  0.00000000E+00
  0.00000000E+00  0.00000000E+00  0.00000000E+00
  0.00000000E+00  0.00000000E+00  0.00000000E+00
  0.00000000E+00  0.00000000E+00  0.00000000E+00
  0.00000000E+00  0.00000000E+00  0.00000000E+00
  0.00000000E+00  0.00000000E+00  0.00000000E+00
  0.00000000E+00  0.00000000E+00  0.00000000E+00
  0.00000000E+00  0.00000000E+00  0.00000000E+00
  0.00000000E+00  0.00000000E+00  0.00000000E+00
  0.00000000E+00  0.00000000E+00  0.00000000E+00
  0.00000000E+00  0.00000000E+00  0.00000000E+00
  0.00000000E+00  0.00000000E+00  0.00000000E+00
  0.00000000E+00  0.00000000E+00  0.00000000E+00
  0.00000000E+00  0.00000000E+00  0.00000000E+00
  0.00000000E+00  0.00000000E+00  0.00000000E+00
  0.00000000E+00  0.00000000E+00  0.00000000E+00
  0.00000000E+00  0.00000000E+00  0.00000000E+00
  0.00000000E+00  0.00000000E+00  0.00000000E+00
  0.00000000E+00  0.00000000E+00  0.00000000E+00
  0.00000000E+00  0.00000000E+00  0.00000000E+00
  0.00000000E+00  0.00000000E+00  0.00000000E+00
  0.00000000E+00  0.00000000E+00  0.00000000E+00
  0.00000000E+00  0.00000000E+00  0.00000000E+00
  0.00000000E+00  0.00000000E+00  0.00000000E+00
  0.00000000E+00  0.00000000E+00  0.00000000E+00
  0.00000000E+00  0.00000000E+00  0.00000000E+00
  0.00000000E+00  0.00000000E+00  0.00000000E+00
  0.00000000E+00  0.00000000E+00  0.00000000E+00
  0.00000000E+00  0.00000000E+00  0.00000000E+00
  0.00000000E+00  0.00000000E+00  0.00000000E+00
  0.00000000E+00  0.00000000E+00  0.00000000E+00
  0.00000000E+00  0.00000000E+00  0.00000000E+00
  0.00000000E+00  0.00000000E+00  0.00000000E+00
  0.00000000E+00  0.00000000E+00  0.00000000E+00
  0.00000000E+00  0.00000000E+00  0.00000000E+00
  0.00000000E+00  0.00000000E+00  0.00000000E+00
  0.00000000E+00  0.00000000E+00  0.00000000E+00
  0.00000000E+00  0.00000000E+00  0.00000000E+00
  0.00000000E+00  0.00000000E+00  0.00000000E+00
  0.00000000E+00  0.00000000E+00  0.00000000E+00
  0.00000000E+00  0.00000000E+00  0.00000000E+00
  0.00000000E+00  0.00000000E+00  0.00000000E+00
  0.00000000E+00  0.00000000E+00  0.00000000E+00
  0.00000000E+00  0.00000000E+00  0.00000000E+00
  0.00000000E+00  0.00000000E+00  0.00000000E+00
  0.00000000E+00  0.00000000E+00  0.00000000E+00
  0.00000000E+00  0.00000000E+00  0.00000000E+00
  0.00000000E+00  0.00000000E+00  0.00000000E+00
  0.00000000E+00  0.00000000E+00  0.00000000E+00
  0.00000000E+00  0.00000000E+00  0.00000000E+00
  0.00000000E+00  0.00000000E+00  0.00000000E+00
  0.00000000E+00  0.00000000E+00  0.00000000E+00
  0.00000000E+00  0.00000000E+00  0.00000000E+00
  0.00000000E+00  0.00000000E+00  0.00000000E+00
  0.00000000E+00  0.00000000E+00  0.00000000E+00
  0.00000000E+00  0.00000000E+00  0.00000000E+00
  0.00000000E+00  0.00000000E+00  0.00000000E+00
  0.00000000E+00  0.00000000E+00  0.00000000E+00
  0.00000000E+00  0.00000000E+00  0.00000000E+00
  0.00000000E+00  0.00000000E+00  0.00000000E+00
  0.00000000E+00  0.00000000E+00  0.00000000E+00
  0.00000000E+00  0.00000000E+00  0.00000000E+00
  0.00000000E+00  0.00000000E+00  0.00000000E+00
  0.00000000E+00  0.00000000E+00  0.00000000E+00
  0.00000000E+00  0.00000000E+00  0.00000000E+00
  0.00000000E+00  0.00000000E+00  0.00000000E+00
  0.00000000E+00  0.00000000E+00  0.00000000E+00
  0.00000000E+00  0.00000000E+00  0.00000000E+00
  0.00000000E+00  0.00000000E+00  0.00000000E+00
  0.00000000E+00  0.00000000E+00  0.00000000E+00
  0.00000000E+00  0.00000000E+00  0.00000000E+00
  0.00000000E+00  0.00000000E+00  0.00000000E+00
  0.00000000E+00  0.00000000E+00  0.00000000E+00
  0.00000000E+00  0.00000000E+00  0.00000000E+00
  0.00000000E+00  0.00000000E+00  0.00000000E+00
  0.00000000E+00  0.00000000E+00  0.00000000E+00
  0.00000000E+00  0.00000000E+00  0.00000000E+00
  0.00000000E+00  0.00000000E+00  0.00000000E+00
  0.00000000E+00  0.00000000E+00  0.00000000E+00
  0.00000000E+00  0.00000000E+00  0.00000000E+00
  0.00000000E+00  0.00000000E+00  0.00000000E+00
  0.00000000E+00  0.00000000E+00  0.00000000E+00
  0.00000000E+00  0.00000000E+00  0.00000000E+00
  0.00000000E+00  0.00000000E+00  0.00000000E+00
  0.00000000E+00  0.00000000E+00  0.00000000E+00
  0.00000000E+00  0.00000000E+00  0.00000000E+00
  0.00000000E+00  0.00000000E+00  0.00000000E+00
  0.00000000E+00  0.00000000E+00  0.00000000E+00
  0.00000000E+00  0.00000000E+00  0.00000000E+00
  0.00000000E+00  0.00000000E+00  0.00000000E+00
  0.00000000E+00  0.00000000E+00  0.00000000E+00
  0.00000000E+00  0.00000000E+00  0.00000000E+00
  0.00000000E+00  0.00000000E+00  0.00000000E+00
  0.00000000E+00  0.00000000E+00  0.00000000E+00
  0.00000000E+00  0.00000000E+00  0.00000000E+00
  0.00000000E+00  0.00000000E+00  0.00000000E+00
  0.00000000E+00  0.00000000E+00  0.00000000E+00
  0.00000000E+00  0.00000000E+00  0.00000000E+00
  0.00000000E+00  0.00000000E+00  0.00000000E+00
  0.00000000E+00  0.00000000E+00  0.00000000E+00
  0.00000000E+00  0.00000000E+00  0.00000000E+00
  0.00000000E+00  0.00000000E+00  0.00000000E+00
  0.00000000E+00  0.00000000E+00  0.00000000E+00
  0.00000000E+00  0.00000000E+00  0.00000000E+00
  0.00000000E+00  0.00000000E+00  0.00000000E+00
  0.00000000E+00  0.00000000E+00  0.00000000E+00
  0.00000000E+00  0.00000000E+00  0.00000000E+00
  0.00000000E+00  0.00000000E+00  0.00000000E+00
  0.00000000E+00  0.00000000E+00  0.00000000E+00
  0.00000000E+00  0.00000000E+00  0.00000000E+00
  0.00000000E+00  0.00000000E+00  0.00000000E+00
  0.00000000E+00  0.00000000E+00  0.00000000E+00
  0.00000000E+00  0.00000000E+00  0.00000000E+00
  0.00000000E+00  0.00000000E+00  0.00000000E+00
  0.00000000E+00  0.00000000E+00  0.00000000E+00
  0.00000000E+00  0.00000000E+00  0.00000000E+00
  0.00000000E+00  0.00000000E+00  0.00000000E+00
  0.00000000E+00  0.00000000E+00  0.00000000E+00
  0.00000000E+00  0.00000000E+00  0.00000000E+00
  0.00000000E+00  0.00000000E+00  0.00000000E+00
  0.00000000E+00  0.00000000E+00  0.00000000E+00
  0.00000000E+00  0.00000000E+00  0.00000000E+00
