Ge+Ge                                   
   1.00000000000000     
     5.6578001980000003    0.0000000000000000    0.0000000000000000
     0.0000000000000000    5.6578001980000003    0.0000000000000000
     0.0000000000000000    0.0000000000000000   16.9444999689999989
   Ge
    24
Direct
  0.2313691379999980  0.7142856720000026  0.9173774120000004
  0.5170834059999976  0.0000000000000000  0.1669509259999984
  0.0170834059999976  0.0000000000000000  0.3339018819999993
  0.2670834360000001  0.7500000000000000  0.0834754629999992
  0.7670834059999976  0.7500000000000000  0.2504263820000006
  0.9813691379999980  0.9642856720000026  0.5000000599999979
  0.5170834059999976  0.4999999699999975  0.0000000000000000
  0.0170832869999984  0.4999999699999975  0.1669509259999984
  0.4813691680000005  0.4642857019999980  0.5000000599999979
  0.7313691379999980  0.2142857309999968  0.9173774120000004
  0.2670834059999976  0.2499999850000023  0.2504263820000006
  0.7670834059999976  0.2499999850000023  0.4173773529999991
  0.5170832869999984  0.4999999699999975  0.3339018819999993
  0.9813691379999980  0.4642857019999980  0.6669509410000032
  0.4813691080000027  0.4642857019999980  0.8339018819999993
  0.7313691379999980  0.2142857309999968  0.5834755300000012
  0.2313691379999980  0.2142857309999968  0.7504264120000030
  0.7670834059999976  0.2499999850000023  0.0834754629999992
  0.2670834059999976  0.7500000000000000  0.4173773529999991
  0.4813689890000035  0.9642856720000026  0.6669509410000032
  0.9813690189999988  0.9642856720000026  0.8339018819999993
  0.2313691379999980  0.7142856720000026  0.5834755300000012
  0.7313691379999980  0.7142856720000026  0.7504264120000030
  0.0170834529999979  0.0000000000000000  0.0000000000000000
 
  0.00000000E+00  0.00000000E+00  0.00000000E+00
  0.00000000E+00  0.00000000E+00  0.00000000E+00
  0.00000000E+00  0.00000000E+00  0.00000000E+00
  0.00000000E+00  0.00000000E+00  0.00000000E+00
  0.00000000E+00  0.00000000E+00  0.00000000E+00
  0.00000000E+00  0.00000000E+00  0.00000000E+00
  0.00000000E+00  0.00000000E+00  0.00000000E+00
  0.00000000E+00  0.00000000E+00  0.00000000E+00
  0.00000000E+00  0.00000000E+00  0.00000000E+00
  0.00000000E+00  0.00000000E+00  0.00000000E+00
  0.00000000E+00  0.00000000E+00  0.00000000E+00
  0.00000000E+00  0.00000000E+00  0.00000000E+00
  0.00000000E+00  0.00000000E+00  0.00000000E+00
  0.00000000E+00  0.00000000E+00  0.00000000E+00
  0.00000000E+00  0.00000000E+00  0.00000000E+00
  0.00000000E+00  0.00000000E+00  0.00000000E+00
  0.00000000E+00  0.00000000E+00  0.00000000E+00
  0.00000000E+00  0.00000000E+00  0.00000000E+00
  0.00000000E+00  0.00000000E+00  0.00000000E+00
  0.00000000E+00  0.00000000E+00  0.00000000E+00
  0.00000000E+00  0.00000000E+00  0.00000000E+00
  0.00000000E+00  0.00000000E+00  0.00000000E+00
  0.00000000E+00  0.00000000E+00  0.00000000E+00
  0.00000000E+00  0.00000000E+00  0.00000000E+00
