Ge+Sn
    1.000000000
   11.315600395    0.000000000    0.000000000
  -11.315600395   16.002676010    0.000000000
    0.000000000    0.000000000   25.800939560
Ge  Sn 
96     72
Direct
    0.985331416    0.455994159    0.000000018
    0.860331416    0.080994137    0.077529535
    0.735331416    0.705994129    0.155059069
    0.610331416    0.330994248    0.232588530
    0.485331357    0.955994129    0.310118079
    0.360331357    0.580994129    0.387647629
    0.485331386    0.455994159    0.000000018
    0.360331416    0.080994137    0.077529535
    0.235331357    0.705994129    0.155059069
    0.110331379    0.330994248    0.232588530
    0.985331476    0.955994129    0.310118079
    0.860331416    0.580994129    0.387647629
    0.985331357    0.955994129    0.000000016
    0.860331416    0.580994129    0.077529542
    0.735331416    0.205994129    0.155059054
    0.610331416    0.830994368    0.232588530
    0.485331416    0.455994129    0.310118109
    0.360331357    0.080994129    0.387647599
    0.485331386    0.955994129    0.000000016
    0.360331357    0.580994129    0.077529542
    0.235331446    0.205994129    0.155059054
    0.110331491    0.830994368    0.232588530
    0.985331297    0.455994129    0.310118109
    0.860331357    0.080994129    0.387647599
    0.235331371    0.705994129    0.000000021
    0.110331371    0.330994129    0.077529535
    0.985331357    0.955994129    0.155059054
    0.860331357    0.580994248    0.232588559
    0.735331357    0.205994189    0.310118109
    0.610331297    0.830994129    0.387647629
    0.735331357    0.705994129    0.000000021
    0.610331357    0.330994129    0.077529535
    0.485331327    0.955994129    0.155059054
    0.360331357    0.580994248    0.232588559
    0.235331371    0.205994189    0.310118109
    0.110331364    0.830994129    0.387647629
    0.235331386    0.205994144    0.000000017
    0.110331394    0.830994129    0.077529535
    0.985331357    0.455994129    0.155059054
    0.860331357    0.080994248    0.232588559
    0.735331476    0.705994248    0.310118079
    0.610331357    0.330994129    0.387647599
    0.735331297    0.205994144    0.000000017
    0.610331357    0.830994129    0.077529535
    0.485331386    0.455994129    0.155059054
    0.360331297    0.080994248    0.232588559
    0.235331386    0.705994248    0.310118079
    0.110331260    0.330994129    0.387647599
    0.985331416    0.580994189    0.000000026
    0.860331416    0.205994159    0.077529535
    0.735331357    0.830994129    0.155059054
    0.610331416    0.455994248    0.232588530
    0.485331357    0.080994189    0.310118109
    0.360331357    0.705994129    0.387647629
    0.485331416    0.580994189    0.000000026
    0.360331416    0.205994159    0.077529535
    0.235331401    0.830994129    0.155059054
    0.110331431    0.455994248    0.232588530
    0.985331357    0.080994189    0.310118109
    0.860331416    0.705994129    0.387647629
    0.985331357    0.080994137    0.000000013
    0.860331416    0.705994129    0.077529535
    0.735331416    0.330994129    0.155059054
    0.610331416    0.955994248    0.232588559
    0.485331416    0.580994248    0.310118079
    0.360331357    0.205994010    0.387647599
    0.485331386    0.080994137    0.000000013
    0.360331357    0.705994129    0.077529535
    0.235331401    0.330994129    0.155059054
    0.110331446    0.955994248    0.232588559
    0.985331535    0.580994248    0.310118079
    0.860331237    0.205994010    0.387647599
    0.235331446    0.830994189    0.000000000
    0.110331416    0.455994189    0.077529535
    0.985331416    0.080994174    0.155059054
    0.860331416    0.705994308    0.232588530
    0.735331416    0.330994248    0.310118079
    0.610331416    0.955994129    0.387647569
    0.735331416    0.830994189    0.000000000
    0.610331416    0.455994189    0.077529535
    0.485331386    0.080994174    0.155059054
    0.360331416    0.705994308    0.232588530
    0.235331416    0.330994248    0.310118079
    0.110331357    0.955994129    0.387647569
    0.235331371    0.330994129    0.000000018
    0.110331379    0.955994129    0.077529542
    0.985331357    0.580994129    0.155059054
    0.860331416    0.205994248    0.232588559
    0.735331357    0.830994129    0.310118079
    0.610331416    0.455994129    0.387647599
    0.735331357    0.330994129    0.000000018
    0.610331357    0.955994129    0.077529542
    0.485331386    0.580994129    0.155059054
    0.360331416    0.205994248    0.232588559
    0.235331461    0.830994129    0.310118079
    0.110331304    0.455994129    0.387647599
    0.232020497    0.735866666    0.471518010
    0.982020497    0.485866606    0.560440361
    0.732020378    0.235866487    0.649362683
    0.482020319    0.985866368    0.738284945
    0.232020259    0.735866368    0.827207208
    0.982020259    0.485866249    0.916129589
    0.232020497    0.402533323    0.471518010
    0.982020497    0.152533278    0.560440361
    0.732020378    0.902533114    0.649362683
    0.482020319    0.652532995    0.738284945
    0.232020259    0.402532995    0.827207208
    0.982020259    0.152532876    0.916129589
    0.232020497    0.069200039    0.471518010
    0.982020497    0.819199920    0.560440361
    0.732020378    0.569199741    0.649362683
    0.482020319    0.319199622    0.738284945
    0.232020259    0.069199681    0.827207208
    0.982020259    0.819199502    0.916129589
    0.732020497    0.902533352    0.471518010
    0.482020497    0.652533233    0.560440361
    0.232020378    0.402533174    0.649362624
    0.982020378    0.152533084    0.738284945
    0.732020319    0.902532995    0.827207208
    0.482020259    0.652532876    0.916129589
    0.732020497    0.569199979    0.471518010
    0.482020497    0.319199920    0.560440361
    0.232020378    0.069199800    0.649362624
    0.982020378    0.819199681    0.738284945
    0.732020319    0.569199622    0.827207208
    0.482020259    0.319199562    0.916129589
    0.732020497    0.235866666    0.471518010
    0.482020497    0.985866606    0.560440361
    0.232020378    0.735866487    0.649362624
    0.982020378    0.485866308    0.738284945
    0.732020319    0.235866249    0.827207208
    0.482020259    0.985866129    0.916129589
    0.982020497    0.735866725    0.471518010
    0.732020497    0.485866696    0.560440421
    0.482020378    0.235866576    0.649362683
    0.232020378    0.985866427    0.738284945
    0.982020259    0.735866427    0.827207267
    0.732020259    0.485866308    0.916129589
    0.982020497    0.402533323    0.471518010
    0.732020497    0.152533263    0.560440421
    0.482020378    0.902533114    0.649362683
    0.232020378    0.652532995    0.738284945
    0.982020259    0.402532995    0.827207267
    0.732020259    0.152532876    0.916129589
    0.982020497    0.069200039    0.471518010
    0.732020497    0.819199920    0.560440421
    0.482020378    0.569199800    0.649362683
    0.232020378    0.319199681    0.738284945
    0.982020259    0.069199681    0.827207267
    0.732020259    0.819199622    0.916129589
    0.482020497    0.902533293    0.471518010
    0.232020497    0.652533233    0.560440421
    0.982020378    0.402533054    0.649362683
    0.732020259    0.152532965    0.738284945
    0.482020319    0.902532935    0.827207208
    0.232020259    0.652532816    0.916129589
    0.482020497    0.569199979    0.471518010
    0.232020497    0.319199920    0.560440421
    0.982020378    0.069199800    0.649362683
    0.732020259    0.819199681    0.738284945
    0.482020319    0.569199622    0.827207208
    0.232020259    0.319199562    0.916129589
    0.482020497    0.235866636    0.471518010
    0.232020497    0.985866606    0.560440421
    0.982020378    0.735866487    0.649362683
    0.732020259    0.485866308    0.738284945
    0.482020319    0.235866368    0.827207208
    0.232020259    0.985866129    0.916129589
