C+Si
    1.000000000
   16.345130920    0.000000000    0.000000000
  -10.896755219   12.182942390    0.000000000
    0.000000000    0.000000000    5.029922962
C   Si 
84     36
Direct
    0.615538597    0.710903406    0.317126453
    0.844110012    0.768046021    0.000000000
    0.729824305    0.239474773    0.158563271
    0.472681403    0.425189137    0.317126453
    0.701252878    0.482331723    0.000000004
    0.586967111    0.953760505    0.158563256
    0.329824239    0.139474869    0.317126453
    0.558395684    0.196617484    0.000000010
    0.444109917    0.668046236    0.158563271
    0.186967164    0.853760600    0.317126453
    0.415538609    0.910903156    0.000000033
    0.301252872    0.382331967    0.158563271
    0.044110037    0.568046331    0.317126453
    0.272681475    0.625188887    0.000000036
    0.158395737    0.096617699    0.158563271
    0.901252866    0.282332063    0.317126453
    0.129824311    0.339474618    0.000000037
    0.015538570    0.810903370    0.158563301
    0.758395791    0.996617734    0.317126453
    0.986967206    0.053760353    0.000000038
    0.872681499    0.525189102    0.158563256
    0.665538669    0.160903454    0.396407992
    0.894110084    0.218045950    0.079281531
    0.779824436    0.689474821    0.237844765
    0.522681475    0.875189185    0.396407932
    0.751252830    0.932331800    0.079281531
    0.636967123    0.403760433    0.237844765
    0.379824400    0.589474440    0.396407932
    0.608395755    0.646617174    0.079281531
    0.494110107    0.118045926    0.237844765
    0.236967221    0.303760409    0.396407992
    0.465538621    0.360903025    0.079281531
    0.351252884    0.832331717    0.237844765
    0.094110020    0.018046141    0.396407992
    0.322681487    0.075188875    0.079281516
    0.208395705    0.546617508    0.237844810
    0.951252997    0.732332110    0.396407902
    0.179824427    0.789474726    0.079281509
    0.065538712    0.260903358    0.237844765
    0.808395743    0.446617365    0.396407992
    0.036967218    0.503760099    0.079281501
    0.922681451    0.975188792    0.237844780
    0.686967075    0.353760600    0.317126483
    0.915538609    0.410903215    0.000000049
    0.801252782    0.882331908    0.158563271
    0.544109881    0.068046331    0.317126483
    0.772681355    0.125188932    0.000000058
    0.658395588    0.596617639    0.158563301
    0.401252806    0.782331944    0.317126483
    0.629824281    0.839474559    0.000000025
    0.515538573    0.310903430    0.158563271
    0.258395672    0.496617675    0.317126513
    0.486967176    0.553760350    0.000000022
    0.372681409    0.025189042    0.158563271
    0.115538605    0.210903525    0.317126513
    0.344110042    0.268046051    0.000000022
    0.229824275    0.739474773    0.158563271
    0.972681403    0.925189018    0.317126483
    0.201252878    0.982331693    0.000000062
    0.086967200    0.453760505    0.158563271
    0.829824328    0.639474750    0.317126483
    0.058395743    0.696617424    0.000000062
    0.944110155    0.168046355    0.158563271
    0.736967206    0.803760409    0.396407902
    0.965538681    0.860903084    0.079281501
    0.851252913    0.332331657    0.237844765
    0.594110072    0.518046379    0.396407932
    0.822681367    0.575188816    0.079281479
    0.708395720    0.046617627    0.237844720
    0.451252908    0.232331634    0.396407932
    0.679824293    0.289474279    0.079281457
    0.565538585    0.760902941    0.237844720
    0.308395773    0.946617484    0.396407932
    0.536967218    0.003760099    0.079281509
    0.422681540    0.475188851    0.237844765
    0.165538624    0.660903335    0.396407932
    0.394110084    0.718045950    0.079281509
    0.279824376    0.189474583    0.237844720
    0.022681480    0.375189185    0.396407932
    0.251252919    0.432331830    0.079281509
    0.136967212    0.903760552    0.237844765
    0.879824460    0.089474678    0.396407992
    0.108395860    0.146617174    0.079281494
    0.994110227    0.618046045    0.237844616
    0.974358499    0.982905626    0.396407962
    0.674358428    0.782905579    0.637844861
    0.374358416    0.582905531    0.879281819
    0.307691783    0.982905626    0.396407962
    0.007691726    0.782905579    0.637844861
    0.707691669    0.582905531    0.879281819
    0.641025066    0.982905626    0.396407962
    0.341025025    0.782905579    0.637844861
    0.041024987    0.582905531    0.879281819
    0.157691970    0.632905602    0.517126143
    0.857691944    0.432905525    0.758563101
    0.557691932    0.232905507    0.999999940
    0.491025209    0.632905602    0.517126143
    0.191025153    0.432905525    0.758563101
    0.891025186    0.232905507    0.999999940
    0.824358463    0.632905602    0.517126143
    0.524358392    0.432905525    0.758563101
    0.224358499    0.232905507    0.999999940
    0.141025156    0.482905596    0.396407962
    0.841025114    0.282905489    0.637844861
    0.541025102    0.082905434    0.879281819
    0.474358439    0.482905596    0.396407962
    0.174358383    0.282905489    0.637844861
    0.874358356    0.082905434    0.879281819
    0.807691693    0.482905596    0.396407962
    0.507691681    0.282905489    0.637844861
    0.207691625    0.082905434    0.879281819
    0.991025209    0.132905662    0.517126143
    0.691025138    0.932905614    0.758563101
    0.391025186    0.732905567    0.999999940
    0.324358463    0.132905662    0.517126143
    0.024358414    0.932905614    0.758563101
    0.724358439    0.732905567    0.999999940
    0.657691658    0.132905662    0.517126143
    0.357691616    0.932905614    0.758563101
    0.057691652    0.732905567    0.999999940
