Si+Ge                                   
   1.00000000000000     
     7.6805944439999996    0.0000000000000000    0.0000000000000000
     0.0000000000000000   16.2929992679999991    0.0000000000000000
     0.0000000000000000    0.0000000000000000   20.8041400910000007
   Si   Ge
    72    48
Direct
  0.9785172939999995  0.9856781960000021  0.0000000009999965
  0.7285172340000017  0.8190114499999979  0.0922964740000012
  0.4785171750000003  0.6523447630000021  0.1845929469999987
  0.2285172340000017  0.4856781359999971  0.2768893840000004
  0.9785171750000003  0.3190113900000000  0.3691858649999986
  0.7285171750000003  0.1523447040000008  0.4614823459999968
  0.9785172939999995  0.3190115390000017  0.0000000009999965
  0.7285172340000017  0.1523448530000024  0.0922964740000012
  0.4785171750000003  0.9856781359999971  0.1845929469999987
  0.2285172340000017  0.8190115089999992  0.2768893840000004
  0.9785171750000003  0.6523447630000021  0.3691858649999986
  0.7285171750000003  0.4856780770000029  0.4614823459999968
  0.9785172939999995  0.6523449419999992  0.0000000009999965
  0.7285172340000017  0.4856781960000021  0.0922964740000012
  0.4785171750000003  0.3190115089999992  0.1845929469999987
  0.2285172340000017  0.1523448680000001  0.2768893840000004
  0.9785171750000003  0.9856781359999971  0.3691858649999986
  0.7285171750000003  0.8190113900000000  0.4614823459999968
  0.4785172939999995  0.9856781960000021  0.0000000000000000
  0.2285172489999994  0.8190114499999979  0.0922964740000012
  0.9785172340000017  0.6523447630000021  0.1845929469999987
  0.7285172939999995  0.4856781359999971  0.2768893539999979
  0.4785171750000003  0.3190113900000000  0.3691858649999986
  0.2285171150000025  0.1523447040000008  0.4614823459999968
  0.4785172939999995  0.3190115390000017  0.0000000000000000
  0.2285172489999994  0.1523448530000024  0.0922964740000012
  0.9785172340000017  0.9856781359999971  0.1845929469999987
  0.7285172939999995  0.8190115089999992  0.2768893539999979
  0.4785171750000003  0.6523447630000021  0.3691858649999986
  0.2285171150000025  0.4856780770000029  0.4614823459999968
  0.4785172939999995  0.6523449419999992  0.0000000000000000
  0.2285172489999994  0.4856781960000021  0.0922964740000012
  0.9785172340000017  0.3190115089999992  0.1845929469999987
  0.7285172939999995  0.1523448680000001  0.2768893539999979
  0.4785171750000003  0.9856781359999971  0.3691858649999986
  0.2285171150000025  0.8190113900000000  0.4614823459999968
  0.7285173539999974  0.2356781960000021  0.0000000000000000
  0.4785172939999995  0.0690114869999974  0.0922964660000005
  0.2285172639999971  0.9023447630000021  0.1845929469999987
  0.9785172939999995  0.7356781359999971  0.2768893840000004
  0.7285172340000017  0.5690114499999979  0.3691858649999986
  0.4785172340000017  0.4023446440000029  0.4614822859999990
  0.7285173539999974  0.5690116290000020  0.0000000000000000
  0.4785172939999995  0.4023448820000013  0.0922964660000005
  0.2285172639999971  0.2356781960000021  0.1845929469999987
  0.9785172939999995  0.0690115390000017  0.2768893840000004
  0.7285172340000017  0.9023448230000000  0.3691858649999986
  0.4785172340000017  0.7356780770000029  0.4614822859999990
  0.7285173539999974  0.9023449419999992  0.0000000000000000
  0.4785172939999995  0.7356781960000021  0.0922964660000005
  0.2285172639999971  0.5690115089999992  0.1845929469999987
  0.9785172939999995  0.4023448530000024  0.2768893840000004
  0.7285172340000017  0.2356781209999994  0.3691858649999986
  0.4785172340000017  0.0690113830000030  0.4614822859999990
  0.2285172939999995  0.2356781960000021  0.0000000009999965
  0.9785172340000017  0.0690114869999974  0.0922964740000012
  0.7285171750000003  0.9023447630000021  0.1845929469999987
  0.4785172939999995  0.7356781359999971  0.2768893539999979
  0.2285171750000003  0.5690114499999979  0.3691858649999986
  0.9785170560000012  0.4023446440000029  0.4614823459999968
  0.2285172939999995  0.5690116290000020  0.0000000009999965
  0.9785172340000017  0.4023448820000013  0.0922964740000012
  0.7285171750000003  0.2356781960000021  0.1845929469999987
  0.4785172939999995  0.0690115390000017  0.2768893539999979
  0.2285171750000003  0.9023448230000000  0.3691858649999986
  0.9785170560000012  0.7356780770000029  0.4614823459999968
  0.2285172939999995  0.9023449419999992  0.0000000009999965
  0.9785172340000017  0.7356781960000021  0.0922964740000012
  0.7285171750000003  0.5690115089999992  0.1845929469999987
  0.4785172939999995  0.4023448530000024  0.2768893539999979
  0.2285171750000003  0.2356781209999994  0.3691858649999986
  0.9785170560000012  0.0690113830000030  0.4614823459999968
  0.8643214700000001  0.6963360310000013  0.5607690809999966
  0.6143214700000001  0.3213360909999992  0.6967467670000005
  0.3643214700000001  0.9463361500000005  0.8327245119999986
  0.3643214700000001  0.9463360310000013  0.5607690809999966
  0.1143214700000001  0.5713360909999992  0.6967467670000005
  0.8643214700000001  0.1963361500000005  0.8327245119999986
  0.8643214700000001  0.1963361500000005  0.5607690809999966
  0.6143214700000001  0.8213361500000005  0.6967467670000005
  0.3643214700000001  0.4463360909999992  0.8327245119999986
  0.3643214700000001  0.4463360609999967  0.5607690809999966
  0.1143214700000001  0.0713361500000005  0.6967467670000005
  0.8643214700000001  0.6963360909999992  0.8327245119999986
  0.1143214700000001  0.6963360310000013  0.6287578940000031
  0.8643214700000001  0.3213360909999992  0.7647356989999992
  0.6143214700000001  0.9463360310000013  0.9007133839999995
  0.6143214700000001  0.9463360310000013  0.6287578940000031
  0.3643214700000001  0.5713360909999992  0.7647356989999992
  0.1143214700000001  0.1963360310000013  0.9007133839999995
  0.1143214700000001  0.1963361500000005  0.6287578940000031
  0.8643214700000001  0.8213361500000005  0.7647356989999992
  0.6143214700000001  0.4463360909999992  0.9007133839999995
  0.6143214700000001  0.4463360609999967  0.6287578940000031
  0.3643214700000001  0.0713361500000005  0.7647356989999992
  0.1143214700000001  0.6963360909999992  0.9007133839999995
  0.8643214700000001  0.9463360909999992  0.5607690809999966
  0.6143215889999993  0.5713361500000005  0.6967467670000005
  0.3643214700000001  0.1963361500000005  0.8327245119999986
  0.8643214700000001  0.4463360909999992  0.5607690809999966
  0.6143214700000001  0.0713361500000005  0.6967467670000005
  0.3643214700000001  0.6963360909999992  0.8327245119999986
  0.3643214700000001  0.6963360909999992  0.5607690809999966
  0.1143214700000001  0.3213361500000005  0.6967467670000005
  0.8643214700000001  0.9463361500000005  0.8327245119999986
  0.3643214700000001  0.1963361500000005  0.5607690809999966
  0.1143214700000001  0.8213360909999992  0.6967467670000005
  0.8643214700000001  0.4463361500000005  0.8327245119999986
  0.1143215889999993  0.9463360909999992  0.6287578940000031
  0.8643214700000001  0.5713361500000005  0.7647356989999992
  0.6143214700000001  0.1963361500000005  0.9007133839999995
  0.1143214700000001  0.4463360909999992  0.6287578940000031
  0.8643214700000001  0.0713361500000005  0.7647356989999992
  0.6143214700000001  0.6963360909999992  0.9007133839999995
  0.6143214700000001  0.6963360310000013  0.6287578940000031
  0.3643214700000001  0.3213360609999967  0.7647356989999992
  0.1143214700000001  0.9463360310000013  0.9007133839999995
  0.6143214700000001  0.1963361500000005  0.6287578940000031
  0.3643214700000001  0.8213361500000005  0.7647356989999992
  0.1143214700000001  0.4463360909999992  0.9007133839999995
 
  0.00000000E+00  0.00000000E+00  0.00000000E+00
  0.00000000E+00  0.00000000E+00  0.00000000E+00
  0.00000000E+00  0.00000000E+00  0.00000000E+00
  0.00000000E+00  0.00000000E+00  0.00000000E+00
  0.00000000E+00  0.00000000E+00  0.00000000E+00
  0.00000000E+00  0.00000000E+00  0.00000000E+00
  0.00000000E+00  0.00000000E+00  0.00000000E+00
  0.00000000E+00  0.00000000E+00  0.00000000E+00
  0.00000000E+00  0.00000000E+00  0.00000000E+00
  0.00000000E+00  0.00000000E+00  0.00000000E+00
  0.00000000E+00  0.00000000E+00  0.00000000E+00
  0.00000000E+00  0.00000000E+00  0.00000000E+00
  0.00000000E+00  0.00000000E+00  0.00000000E+00
  0.00000000E+00  0.00000000E+00  0.00000000E+00
  0.00000000E+00  0.00000000E+00  0.00000000E+00
  0.00000000E+00  0.00000000E+00  0.00000000E+00
  0.00000000E+00  0.00000000E+00  0.00000000E+00
  0.00000000E+00  0.00000000E+00  0.00000000E+00
  0.00000000E+00  0.00000000E+00  0.00000000E+00
  0.00000000E+00  0.00000000E+00  0.00000000E+00
  0.00000000E+00  0.00000000E+00  0.00000000E+00
  0.00000000E+00  0.00000000E+00  0.00000000E+00
  0.00000000E+00  0.00000000E+00  0.00000000E+00
  0.00000000E+00  0.00000000E+00  0.00000000E+00
  0.00000000E+00  0.00000000E+00  0.00000000E+00
  0.00000000E+00  0.00000000E+00  0.00000000E+00
  0.00000000E+00  0.00000000E+00  0.00000000E+00
  0.00000000E+00  0.00000000E+00  0.00000000E+00
  0.00000000E+00  0.00000000E+00  0.00000000E+00
  0.00000000E+00  0.00000000E+00  0.00000000E+00
  0.00000000E+00  0.00000000E+00  0.00000000E+00
  0.00000000E+00  0.00000000E+00  0.00000000E+00
  0.00000000E+00  0.00000000E+00  0.00000000E+00
  0.00000000E+00  0.00000000E+00  0.00000000E+00
  0.00000000E+00  0.00000000E+00  0.00000000E+00
  0.00000000E+00  0.00000000E+00  0.00000000E+00
  0.00000000E+00  0.00000000E+00  0.00000000E+00
  0.00000000E+00  0.00000000E+00  0.00000000E+00
  0.00000000E+00  0.00000000E+00  0.00000000E+00
  0.00000000E+00  0.00000000E+00  0.00000000E+00
  0.00000000E+00  0.00000000E+00  0.00000000E+00
  0.00000000E+00  0.00000000E+00  0.00000000E+00
  0.00000000E+00  0.00000000E+00  0.00000000E+00
  0.00000000E+00  0.00000000E+00  0.00000000E+00
  0.00000000E+00  0.00000000E+00  0.00000000E+00
  0.00000000E+00  0.00000000E+00  0.00000000E+00
  0.00000000E+00  0.00000000E+00  0.00000000E+00
  0.00000000E+00  0.00000000E+00  0.00000000E+00
  0.00000000E+00  0.00000000E+00  0.00000000E+00
  0.00000000E+00  0.00000000E+00  0.00000000E+00
  0.00000000E+00  0.00000000E+00  0.00000000E+00
  0.00000000E+00  0.00000000E+00  0.00000000E+00
  0.00000000E+00  0.00000000E+00  0.00000000E+00
  0.00000000E+00  0.00000000E+00  0.00000000E+00
  0.00000000E+00  0.00000000E+00  0.00000000E+00
  0.00000000E+00  0.00000000E+00  0.00000000E+00
  0.00000000E+00  0.00000000E+00  0.00000000E+00
  0.00000000E+00  0.00000000E+00  0.00000000E+00
  0.00000000E+00  0.00000000E+00  0.00000000E+00
  0.00000000E+00  0.00000000E+00  0.00000000E+00
  0.00000000E+00  0.00000000E+00  0.00000000E+00
  0.00000000E+00  0.00000000E+00  0.00000000E+00
  0.00000000E+00  0.00000000E+00  0.00000000E+00
  0.00000000E+00  0.00000000E+00  0.00000000E+00
  0.00000000E+00  0.00000000E+00  0.00000000E+00
  0.00000000E+00  0.00000000E+00  0.00000000E+00
  0.00000000E+00  0.00000000E+00  0.00000000E+00
  0.00000000E+00  0.00000000E+00  0.00000000E+00
  0.00000000E+00  0.00000000E+00  0.00000000E+00
  0.00000000E+00  0.00000000E+00  0.00000000E+00
  0.00000000E+00  0.00000000E+00  0.00000000E+00
  0.00000000E+00  0.00000000E+00  0.00000000E+00
  0.00000000E+00  0.00000000E+00  0.00000000E+00
  0.00000000E+00  0.00000000E+00  0.00000000E+00
  0.00000000E+00  0.00000000E+00  0.00000000E+00
  0.00000000E+00  0.00000000E+00  0.00000000E+00
  0.00000000E+00  0.00000000E+00  0.00000000E+00
  0.00000000E+00  0.00000000E+00  0.00000000E+00
  0.00000000E+00  0.00000000E+00  0.00000000E+00
  0.00000000E+00  0.00000000E+00  0.00000000E+00
  0.00000000E+00  0.00000000E+00  0.00000000E+00
  0.00000000E+00  0.00000000E+00  0.00000000E+00
  0.00000000E+00  0.00000000E+00  0.00000000E+00
  0.00000000E+00  0.00000000E+00  0.00000000E+00
  0.00000000E+00  0.00000000E+00  0.00000000E+00
  0.00000000E+00  0.00000000E+00  0.00000000E+00
  0.00000000E+00  0.00000000E+00  0.00000000E+00
  0.00000000E+00  0.00000000E+00  0.00000000E+00
  0.00000000E+00  0.00000000E+00  0.00000000E+00
  0.00000000E+00  0.00000000E+00  0.00000000E+00
  0.00000000E+00  0.00000000E+00  0.00000000E+00
  0.00000000E+00  0.00000000E+00  0.00000000E+00
  0.00000000E+00  0.00000000E+00  0.00000000E+00
  0.00000000E+00  0.00000000E+00  0.00000000E+00
  0.00000000E+00  0.00000000E+00  0.00000000E+00
  0.00000000E+00  0.00000000E+00  0.00000000E+00
  0.00000000E+00  0.00000000E+00  0.00000000E+00
  0.00000000E+00  0.00000000E+00  0.00000000E+00
  0.00000000E+00  0.00000000E+00  0.00000000E+00
  0.00000000E+00  0.00000000E+00  0.00000000E+00
  0.00000000E+00  0.00000000E+00  0.00000000E+00
  0.00000000E+00  0.00000000E+00  0.00000000E+00
  0.00000000E+00  0.00000000E+00  0.00000000E+00
  0.00000000E+00  0.00000000E+00  0.00000000E+00
  0.00000000E+00  0.00000000E+00  0.00000000E+00
  0.00000000E+00  0.00000000E+00  0.00000000E+00
  0.00000000E+00  0.00000000E+00  0.00000000E+00
  0.00000000E+00  0.00000000E+00  0.00000000E+00
  0.00000000E+00  0.00000000E+00  0.00000000E+00
  0.00000000E+00  0.00000000E+00  0.00000000E+00
  0.00000000E+00  0.00000000E+00  0.00000000E+00
  0.00000000E+00  0.00000000E+00  0.00000000E+00
  0.00000000E+00  0.00000000E+00  0.00000000E+00
  0.00000000E+00  0.00000000E+00  0.00000000E+00
  0.00000000E+00  0.00000000E+00  0.00000000E+00
  0.00000000E+00  0.00000000E+00  0.00000000E+00
  0.00000000E+00  0.00000000E+00  0.00000000E+00
  0.00000000E+00  0.00000000E+00  0.00000000E+00
  0.00000000E+00  0.00000000E+00  0.00000000E+00
  0.00000000E+00  0.00000000E+00  0.00000000E+00
