Si+Ge
    1.000000000
    7.680594444    0.000000000    0.000000000
    0.000000000   16.292999268    0.000000000
    0.000000000    0.000000000   20.804140091
Si  Ge 
72     48
Direct
    0.351163596    0.196336031    0.900713384
    0.851163685    0.946336031    0.900713384
    0.478517175    0.652344763    0.184592947
    0.228517234    0.485678136    0.276889384
    0.101163626    0.446336091    0.560769081
    0.728517175    0.152344704    0.461482346
    0.351163596    0.446336091    0.900713384
    0.728517234    0.152344853    0.092296474
    0.478517175    0.985678136    0.184592947
    0.228517234    0.819011509    0.276889384
    0.978517175    0.652344763    0.369185865
    0.728517175    0.485678077    0.461482346
    0.851163626    0.446336091    0.900713384
    0.728517234    0.485678196    0.092296474
    0.478517175    0.319011509    0.184592947
    0.351163596    0.696336031    0.628757894
    0.978517175    0.985678136    0.369185865
    0.601163566    0.446336061    0.560769081
    0.478517294    0.985678196    0.000000000
    0.228517249    0.819011450    0.092296474
    0.101163626    0.196336150    0.832724512
    0.728517294    0.485678136    0.276889354
    0.478517175    0.319011390    0.369185865
    0.101163626    0.946336091    0.560769081
    0.351163566    0.946336031    0.900713384
    0.228517249    0.152344853    0.092296474
    0.978517234    0.985678136    0.184592947
    0.728517294    0.819011509    0.276889354
    0.478517175    0.652344763    0.369185865
    0.601163626    0.696336091    0.560769081
    0.478517294    0.652344942    0.000000000
    0.228517249    0.485678196    0.092296474
    0.978517234    0.319011509    0.184592947
    0.728517294    0.152344868    0.276889354
    0.478517175    0.985678136    0.369185865
    0.601163626    0.946336031    0.560769081
    0.728517354    0.235678196    0.000000000
    0.478517294    0.069011487    0.092296466
    0.228517264    0.902344763    0.184592947
    0.978517294    0.735678136    0.276889384
    0.728517234    0.569011450    0.369185865
    0.478517234    0.402344644    0.461482286
    0.728517354    0.569011629    0.000000000
    0.478517294    0.402344882    0.092296466
    0.228517264    0.235678196    0.184592947
    0.978517294    0.069011539    0.276889384
    0.728517234    0.902344823    0.369185865
    0.478517234    0.735678077    0.461482286
    0.728517354    0.902344942    0.000000000
    0.478517294    0.735678196    0.092296466
    0.228517264    0.569011509    0.184592947
    0.978517294    0.402344853    0.276889384
    0.728517234    0.235678121    0.369185865
    0.478517234    0.069011383    0.461482286
    0.228517294    0.235678196    0.000000001
    0.978517234    0.069011487    0.092296474
    0.728517175    0.902344763    0.184592947
    0.478517294    0.735678136    0.276889354
    0.228517175    0.569011450    0.369185865
    0.978517056    0.402344644    0.461482346
    0.228517294    0.569011629    0.000000001
    0.978517234    0.402344882    0.092296474
    0.728517175    0.235678196    0.184592947
    0.478517294    0.069011539    0.276889354
    0.228517175    0.902344823    0.369185865
    0.978517056    0.735678077    0.461482346
    0.228517294    0.902344942    0.000000001
    0.978517234    0.735678196    0.092296474
    0.728517175    0.569011509    0.184592947
    0.478517294    0.402344853    0.276889354
    0.228517175    0.235678121    0.369185865
    0.978517056    0.069011383    0.461482346
    0.101163626    0.696336031    0.560769081
    0.851163685    0.321336091    0.696746767
    0.601163685    0.946336150    0.832724512
    0.228517115    0.819011390    0.461482346
    0.351163626    0.571336091    0.696746767
    0.978517234    0.652344763    0.184592947
    0.101163626    0.196336150    0.560769081
    0.851163685    0.821336150    0.696746767
    0.601163685    0.446336091    0.832724512
    0.728517175    0.819011390    0.461482346
    0.351163626    0.071336150    0.696746767
    0.101163626    0.696336091    0.832724512
    0.228517234    0.152344868    0.276889384
    0.101163626    0.321336091    0.764735699
    0.728517234    0.819011450    0.092296474
    0.851163626    0.946336031    0.628757894
    0.601163626    0.571336091    0.764735699
    0.978517294    0.985678196    0.000000001
    0.351163656    0.196336150    0.628757894
    0.101163626    0.821336150    0.764735699
    0.978517294    0.652344942    0.000000001
    0.851163566    0.446336061    0.628757894
    0.601163626    0.071336150    0.764735699
    0.351163626    0.696336091    0.900713384
    0.228517115    0.152344704    0.461482346
    0.851163745    0.571336150    0.696746767
    0.601163685    0.196336150    0.832724512
    0.978517175    0.319011390    0.369185865
    0.851163685    0.071336150    0.696746767
    0.601163685    0.696336091    0.832724512
    0.228517115    0.485678077    0.461482346
    0.351163656    0.321336150    0.696746767
    0.101163626    0.946336150    0.832724512
    0.601163626    0.196336150    0.560769081
    0.351163626    0.821336091    0.696746767
    0.101163626    0.446336150    0.832724512
    0.351163685    0.946336091    0.628757894
    0.101163626    0.571336150    0.764735699
    0.851163626    0.196336150    0.900713384
    0.351163626    0.446336091    0.628757894
    0.101163626    0.071336150    0.764735699
    0.851163626    0.696336091    0.900713384
    0.851163626    0.696336031    0.628757894
    0.601163626    0.321336061    0.764735699
    0.478517294    0.319011539    0.000000000
    0.851163626    0.196336150    0.628757894
    0.601163626    0.821336150    0.764735699
    0.978517294    0.319011539    0.000000001
