Ge+Ge
    1.000000000
    8.001338005    0.000000000    0.000000000
   -4.000669003   12.002006531    0.000000000
    0.000000000    0.000000000    9.429668427
Ge 
48
Direct
    0.005694489    0.994305491    0.000000000
    0.172361195    0.827638865    0.299999923
    0.339027911    0.660972118    0.599999905
    0.672361076    0.327638805    0.000000000
    0.839027762    0.160972118    0.299999923
    0.005694509    0.994305432    0.599999905
    0.339027762    0.660972118    0.000000000
    0.505694449    0.494305402    0.299999923
    0.672361195    0.327638745    0.599999905
    0.089027837    0.160972148    0.149999961
    0.255694568    0.994305432    0.449999899
    0.422361284    0.827638745    0.749999940
    0.755694389    0.494305462    0.149999961
    0.922361195    0.327638805    0.449999899
    0.089027882    0.160972089    0.749999940
    0.422361046    0.827638805    0.149999961
    0.589027822    0.660972178    0.449999899
    0.755694509    0.494305462    0.749999940
    0.505694449    0.994305491    0.000000000
    0.672361135    0.827638865    0.299999923
    0.839027882    0.660972118    0.599999905
    0.172361121    0.327638805    0.000000000
    0.339027852    0.160972133    0.299999923
    0.505694568    0.994305432    0.599999905
    0.839027762    0.660972118    0.000000000
    0.005694509    0.494305432    0.299999923
    0.172361135    0.327638745    0.599999905
    0.589027822    0.160972148    0.149999961
    0.755694568    0.994305491    0.449999899
    0.922361314    0.827638805    0.749999940
    0.255694479    0.494305491    0.149999961
    0.422361255    0.327638835    0.449999899
    0.589028001    0.160972118    0.749999940
    0.922361076    0.827638865    0.149999961
    0.089027762    0.660972118    0.449999899
    0.255694509    0.494305432    0.749999940
    0.989384770    0.026538117    0.749999881
    0.878273606    0.304315925    0.849999905
    0.767162442    0.582093716    0.949999928
    0.489384711    0.026538121    0.749999881
    0.378273576    0.304315925    0.849999905
    0.267162412    0.582093716    0.949999928
    0.683829069    0.915426910    0.799999833
    0.572717965    0.193204761    0.899999976
    0.461606711    0.470982552    1.000000000
    0.183829099    0.915426970    0.799999952
    0.072718032    0.193204761    0.899999976
    0.961606860    0.470982552    1.000000000
