fcc Si+fcc Ge
    1.000000000
   17.329281578    0.000000000    0.000000000
    0.000000000   17.329281578    0.000000000
    0.000000000    0.000000000   21.574622889
Si    Ge   
220     72
Direct
    0.125000000    0.625000000    0.063500531
    0.175000000    0.475000000    0.190501592
    0.225000000    0.325000000    0.317502653
    0.275000000    0.175000000    0.444503714
    0.325000000    0.025000000    0.571504775
    0.425000000    0.725000000    0.063500531
    0.475000000    0.575000000    0.190501592
    0.525000000    0.425000000    0.317502653
    0.575000000    0.275000000    0.444503714
    0.625000000    0.125000000    0.571504775
    0.725000000    0.825000000    0.063500531
    0.775000000    0.675000000    0.190501592
    0.825000000    0.525000000    0.317502653
    0.875000000    0.375000000    0.444503714
    0.925000000    0.225000000    0.571504775
    0.225000000    0.325000000    0.063500531
    0.275000000    0.175000000    0.190501592
    0.325000000    0.025000000    0.317502653
    0.375000000    0.875000000    0.444503714
    0.425000000    0.725000000    0.571504775
    0.525000000    0.425000000    0.063500531
    0.575000000    0.275000000    0.190501592
    0.625000000    0.125000000    0.317502653
    0.675000000    0.975000000    0.444503714
    0.725000000    0.825000000    0.571504775
    0.825000000    0.525000000    0.063500531
    0.875000000    0.375000000    0.190501592
    0.925000000    0.225000000    0.317502653
    0.975000000    0.075000000    0.444503714
    0.025000000    0.925000000    0.571504775
    0.025000000    0.925000000    0.063500531
    0.075000000    0.775000000    0.190501592
    0.125000000    0.625000000    0.317502653
    0.175000000    0.475000000    0.444503714
    0.225000000    0.325000000    0.571504775
    0.325000000    0.025000000    0.063500531
    0.375000000    0.875000000    0.190501592
    0.425000000    0.725000000    0.317502653
    0.475000000    0.575000000    0.444503714
    0.525000000    0.425000000    0.571504775
    0.625000000    0.125000000    0.063500531
    0.675000000    0.975000000    0.190501592
    0.725000000    0.825000000    0.317502653
    0.775000000    0.675000000    0.444503714
    0.825000000    0.525000000    0.571504775
    0.925000000    0.225000000    0.063500531
    0.975000000    0.075000000    0.190501592
    0.025000000    0.925000000    0.317502653
    0.075000000    0.775000000    0.444503714
    0.125000000    0.625000000    0.571504775
    0.225000000    0.825000000    0.063500531
    0.275000000    0.675000000    0.190501592
    0.325000000    0.525000000    0.317502653
    0.375000000    0.375000000    0.444503714
    0.425000000    0.225000000    0.571504775
    0.025000000    0.425000000    0.063500531
    0.075000000    0.275000000    0.190501592
    0.125000000    0.125000000    0.317502653
    0.175000000    0.975000000    0.444503714
    0.225000000    0.825000000    0.571504775
    0.325000000    0.525000000    0.063500531
    0.375000000    0.375000000    0.190501592
    0.425000000    0.225000000    0.317502653
    0.475000000    0.075000000    0.444503714
    0.525000000    0.925000000    0.571504775
    0.625000000    0.625000000    0.063500531
    0.675000000    0.475000000    0.190501592
    0.725000000    0.325000000    0.317502653
    0.775000000    0.175000000    0.444503714
    0.825000000    0.025000000    0.571504775
    0.925000000    0.725000000    0.063500531
    0.975000000    0.575000000    0.190501592
    0.025000000    0.425000000    0.317502653
    0.075000000    0.275000000    0.444503714
    0.125000000    0.125000000    0.571504775
    0.125000000    0.125000000    0.063500531
    0.175000000    0.975000000    0.190501592
    0.225000000    0.825000000    0.317502653
    0.275000000    0.675000000    0.444503714
    0.325000000    0.525000000    0.571504775
    0.425000000    0.225000000    0.063500531
    0.475000000    0.075000000    0.190501592
    0.525000000    0.925000000    0.317502653
    0.575000000    0.775000000    0.444503714
    0.625000000    0.625000000    0.571504775
    0.725000000    0.325000000    0.063500531
    0.775000000    0.175000000    0.190501592
    0.825000000    0.025000000    0.317502653
    0.875000000    0.875000000    0.444503714
    0.925000000    0.725000000    0.571504775
    0.525000000    0.925000000    0.063500531
    0.575000000    0.775000000    0.190501592
    0.625000000    0.625000000    0.317502653
    0.675000000    0.475000000    0.444503714
    0.725000000    0.325000000    0.571504775
    0.825000000    0.025000000    0.063500531
    0.875000000    0.875000000    0.190501592
    0.925000000    0.725000000    0.317502653
    0.975000000    0.575000000    0.444503714
    0.025000000    0.425000000    0.571504775
    0.075000000    0.025000000    0.000000000
    0.125000000    0.875000000    0.127001061
    0.175000000    0.725000000    0.254002122
    0.225000000    0.575000000    0.381003183
    0.275000000    0.425000000    0.508004244
    0.325000000    0.275000000    0.635005306
    0.175000000    0.725000000    0.000000000
    0.225000000    0.575000000    0.127001061
    0.275000000    0.425000000    0.254002122
    0.325000000    0.275000000    0.381003183
    0.375000000    0.125000000    0.508004244
    0.425000000    0.975000000    0.635005306
    0.475000000    0.825000000    0.000000000
    0.525000000    0.675000000    0.127001061
    0.575000000    0.525000000    0.254002122
    0.625000000    0.375000000    0.381003183
    0.675000000    0.225000000    0.508004244
    0.725000000    0.075000000    0.635005306
    0.775000000    0.925000000    0.000000000
    0.825000000    0.775000000    0.127001061
    0.875000000    0.625000000    0.254002122
    0.925000000    0.475000000    0.381003183
    0.975000000    0.325000000    0.508004244
    0.025000000    0.175000000    0.635005306
    0.975000000    0.325000000    0.000000000
    0.025000000    0.175000000    0.127001061
    0.075000000    0.025000000    0.254002122
    0.125000000    0.875000000    0.381003183
    0.175000000    0.725000000    0.508004244
    0.225000000    0.575000000    0.635005306
    0.275000000    0.425000000    0.000000000
    0.325000000    0.275000000    0.127001061
    0.375000000    0.125000000    0.254002122
    0.425000000    0.975000000    0.381003183
    0.475000000    0.825000000    0.508004244
    0.525000000    0.675000000    0.635005306
    0.575000000    0.525000000    0.000000000
    0.625000000    0.375000000    0.127001061
    0.675000000    0.225000000    0.254002122
    0.725000000    0.075000000    0.381003183
    0.775000000    0.925000000    0.508004244
    0.825000000    0.775000000    0.635005306
    0.875000000    0.625000000    0.000000000
    0.925000000    0.475000000    0.127001061
    0.975000000    0.325000000    0.254002122
    0.025000000    0.175000000    0.381003183
    0.075000000    0.025000000    0.508004244
    0.125000000    0.875000000    0.635005306
    0.375000000    0.125000000    0.000000000
    0.425000000    0.975000000    0.127001061
    0.475000000    0.825000000    0.254002122
    0.525000000    0.675000000    0.381003183
    0.575000000    0.525000000    0.508004244
    0.625000000    0.375000000    0.635005306
    0.675000000    0.225000000    0.000000000
    0.725000000    0.075000000    0.127001061
    0.775000000    0.925000000    0.254002122
    0.825000000    0.775000000    0.381003183
    0.875000000    0.625000000    0.508004244
    0.925000000    0.475000000    0.635005306
    0.975000000    0.825000000    0.000000000
    0.025000000    0.675000000    0.127001061
    0.075000000    0.525000000    0.254002122
    0.125000000    0.375000000    0.381003183
    0.175000000    0.225000000    0.508004244
    0.225000000    0.075000000    0.635005306
    0.275000000    0.925000000    0.000000000
    0.325000000    0.775000000    0.127001061
    0.375000000    0.625000000    0.254002122
    0.425000000    0.475000000    0.381003183
    0.475000000    0.325000000    0.508004244
    0.525000000    0.175000000    0.635005306
    0.575000000    0.025000000    0.000000000
    0.625000000    0.875000000    0.127001061
    0.675000000    0.725000000    0.254002122
    0.725000000    0.575000000    0.381003183
    0.775000000    0.425000000    0.508004244
    0.825000000    0.275000000    0.635005306
    0.075000000    0.525000000    0.000000000
    0.125000000    0.375000000    0.127001061
    0.175000000    0.225000000    0.254002122
    0.225000000    0.075000000    0.381003183
    0.275000000    0.925000000    0.508004244
    0.325000000    0.775000000    0.635005306
    0.375000000    0.625000000    0.000000000
    0.425000000    0.475000000    0.127001061
    0.475000000    0.325000000    0.254002122
    0.525000000    0.175000000    0.381003183
    0.575000000    0.025000000    0.508004244
    0.625000000    0.875000000    0.635005306
    0.675000000    0.725000000    0.000000000
    0.725000000    0.575000000    0.127001061
    0.775000000    0.425000000    0.254002122
    0.825000000    0.275000000    0.381003183
    0.875000000    0.125000000    0.508004244
    0.925000000    0.975000000    0.635005306
    0.175000000    0.225000000    0.000000000
    0.225000000    0.075000000    0.127001061
    0.275000000    0.925000000    0.254002122
    0.325000000    0.775000000    0.381003183
    0.375000000    0.625000000    0.508004244
    0.425000000    0.475000000    0.635005306
    0.475000000    0.325000000    0.000000000
    0.525000000    0.175000000    0.127001061
    0.575000000    0.025000000    0.254002122
    0.625000000    0.875000000    0.381003183
    0.675000000    0.725000000    0.508004244
    0.725000000    0.575000000    0.635005306
    0.775000000    0.425000000    0.000000000
    0.825000000    0.275000000    0.127001061
    0.875000000    0.125000000    0.254002122
    0.925000000    0.975000000    0.381003183
    0.975000000    0.825000000    0.508004244
    0.025000000    0.675000000    0.635005306
    0.875000000    0.125000000    0.000000000
    0.925000000    0.975000000    0.127001061
    0.975000000    0.825000000    0.254002122
    0.025000000    0.675000000    0.381003183
    0.075000000    0.525000000    0.508004244
    0.125000000    0.375000000    0.635005306
    0.323643411    0.779069767    0.921203721
    0.156976744    0.529069767    0.713801584
    0.990310078    0.379069767    0.755282012
    0.823643411    0.229069767    0.796762439
    0.656976744    0.079069767    0.838242866
    0.490310078    0.929069767    0.879723294
    0.656976744    0.779069767    0.921203721
    0.490310078    0.529069767    0.713801584
    0.323643411    0.379069767    0.755282012
    0.156976744    0.229069767    0.796762439
    0.990310078    0.079069767    0.838242866
    0.823643411    0.929069767    0.879723294
    0.990310078    0.779069767    0.921203721
    0.823643411    0.529069767    0.713801584
    0.656976744    0.379069767    0.755282012
    0.490310078    0.229069767    0.796762439
    0.323643411    0.079069767    0.838242866
    0.156976744    0.929069767    0.879723294
    0.323643411    0.279069767    0.921203721
    0.156976744    0.029069767    0.713801584
    0.990310078    0.879069767    0.755282012
    0.823643411    0.729069767    0.796762439
    0.656976744    0.579069767    0.838242866
    0.490310078    0.429069767    0.879723294
    0.656976744    0.279069767    0.921203721
    0.490310078    0.029069767    0.713801584
    0.323643411    0.879069767    0.755282012
    0.156976744    0.729069767    0.796762439
    0.990310078    0.579069767    0.838242866
    0.823643411    0.429069767    0.879723294
    0.990310078    0.279069767    0.921203721
    0.823643411    0.029069767    0.713801584
    0.656976744    0.879069767    0.755282012
    0.490310078    0.729069767    0.796762439
    0.323643411    0.579069767    0.838242866
    0.156976744    0.429069767    0.879723294
    0.406976744    0.529069767    0.921203721
    0.240310078    0.279069767    0.713801584
    0.073643411    0.129069767    0.755282012
    0.906976744    0.979069767    0.796762439
    0.740310078    0.829069767    0.838242866
    0.573643411    0.679069767    0.879723294
    0.740310078    0.529069767    0.921203721
    0.573643411    0.279069767    0.713801584
    0.406976744    0.129069767    0.755282012
    0.240310078    0.979069767    0.796762439
    0.073643411    0.829069767    0.838242866
    0.906976744    0.679069767    0.879723294
    0.073643411    0.529069767    0.921203721
    0.906976744    0.279069767    0.713801584
    0.740310078    0.129069767    0.755282012
    0.573643411    0.979069767    0.796762439
    0.406976744    0.829069767    0.838242866
    0.240310078    0.679069767    0.879723294
    0.406976744    0.029069767    0.921203721
    0.240310078    0.779069767    0.713801584
    0.073643411    0.629069767    0.755282012
    0.906976744    0.479069767    0.796762439
    0.740310078    0.329069767    0.838242866
    0.573643411    0.179069767    0.879723294
    0.740310078    0.029069767    0.921203721
    0.573643411    0.779069767    0.713801584
    0.406976744    0.629069767    0.755282012
    0.240310078    0.479069767    0.796762439
    0.073643411    0.329069767    0.838242866
    0.906976744    0.179069767    0.879723294
    0.073643411    0.029069767    0.921203721
    0.906976744    0.779069767    0.713801584
    0.740310078    0.629069767    0.755282012
    0.573643411    0.479069767    0.796762439
    0.406976744    0.329069767    0.838242866
    0.240310078    0.179069767    0.879723294
