Automatic KPOINTS generated
0
Gamma
2 2 4
0 0 0
