Si+Si                                   
   1.00000000000000     
     5.4310002329999998    0.0000000000000000    0.0000000000000000
    -5.4310002329999998   10.8620004649999995    0.0000000000000000
     0.0000000000000000    0.0000000000000000   13.5775012969999995
   Si
    48
Direct
  0.0177968590000006  0.0000000000000000  0.0000000000000000
  0.5177968739999983  0.0000000000000000  0.2000000029999995
  0.0177968739999983  0.0000000000000000  0.4000000059999991
  0.1427969929999975  0.8750000599999979  0.1000000009999980
  0.2677968739999983  0.7500000599999979  0.5000000000000000
  0.6427969929999975  0.3750000300000025  0.5000000000000000
  0.8927969340000033  0.1250000000000000  0.1000000009999980
  0.6427969929999975  0.3750000300000025  0.0000000000000000
  0.8927969929999975  0.1250000000000000  0.5000000000000000
  0.2677968739999983  0.7500000599999979  0.0000000000000000
  0.8927968739999983  0.6250000000000000  0.3000000420000006
  0.7677969929999975  0.2500000000000000  0.4000000059999991
  0.7677968739999983  0.2500000000000000  0.0000000000000000
  0.2677968739999983  0.2500000000000000  0.2000000029999995
  0.3927969929999975  0.6250000000000000  0.5000000000000000
  0.3927968440000029  0.6250000000000000  0.1000000009999980
  0.7677969340000033  0.7500000599999979  0.2000000029999995
  0.2677969929999975  0.7500000599999979  0.4000000059999991
  0.6427969340000033  0.3750000300000025  0.1000000009999980
  0.1427969929999975  0.3750000300000025  0.3000000420000006
  0.5177968739999983  0.5000000000000000  0.4000000059999991
  0.5177968739999983  0.5000000000000000  0.0000000000000000
  0.6427969929999975  0.8750000599999979  0.3000000420000006
  0.1427969929999975  0.8750000599999979  0.5000000000000000
  0.5177968739999983  0.5000000000000000  0.5000000000000000
  0.0177968739999983  0.5000000000000000  0.6999999880000018
  0.5177968739999983  0.5000000000000000  0.8999999759999966
  0.0177968590000006  0.0000000000000000  0.5000000000000000
  0.5177968739999983  0.0000000000000000  0.6999999880000018
  0.0177968739999983  0.0000000000000000  0.8999999759999966
  0.1427969929999975  0.8750000599999979  0.6000000240000034
  0.6427969929999975  0.8750000599999979  0.8000000720000031
  0.1427969929999975  0.8750000599999979  0.0000000000000000
  0.6427969340000033  0.3750000300000025  0.6000000240000034
  0.1427969929999975  0.3750000300000025  0.8000000720000031
  0.3927968739999983  0.1250000000000000  0.3000000420000006
  0.0177968739999983  0.5000000000000000  0.2000000029999995
  0.7677969340000033  0.7500000599999979  0.6999999880000018
  0.2677969929999975  0.7500000599999979  0.8999999759999966
  0.7677968739999983  0.2500000000000000  0.5000000000000000
  0.2677968739999983  0.2500000000000000  0.6999999880000018
  0.7677969929999975  0.2500000000000000  0.8999999759999966
  0.3927968440000029  0.6250000000000000  0.6000000240000034
  0.8927968739999983  0.6250000000000000  0.8000000720000031
  0.3927969929999975  0.6250000000000000  0.0000000000000000
  0.8927969340000033  0.1250000000000000  0.6000000240000034
  0.3927968739999983  0.1250000000000000  0.8000000720000031
  0.8927969929999975  0.1250000000000000  0.0000000000000000
 
  0.00000000E+00  0.00000000E+00  0.00000000E+00
  0.00000000E+00  0.00000000E+00  0.00000000E+00
  0.00000000E+00  0.00000000E+00  0.00000000E+00
  0.00000000E+00  0.00000000E+00  0.00000000E+00
  0.00000000E+00  0.00000000E+00  0.00000000E+00
  0.00000000E+00  0.00000000E+00  0.00000000E+00
  0.00000000E+00  0.00000000E+00  0.00000000E+00
  0.00000000E+00  0.00000000E+00  0.00000000E+00
  0.00000000E+00  0.00000000E+00  0.00000000E+00
  0.00000000E+00  0.00000000E+00  0.00000000E+00
  0.00000000E+00  0.00000000E+00  0.00000000E+00
  0.00000000E+00  0.00000000E+00  0.00000000E+00
  0.00000000E+00  0.00000000E+00  0.00000000E+00
  0.00000000E+00  0.00000000E+00  0.00000000E+00
  0.00000000E+00  0.00000000E+00  0.00000000E+00
  0.00000000E+00  0.00000000E+00  0.00000000E+00
  0.00000000E+00  0.00000000E+00  0.00000000E+00
  0.00000000E+00  0.00000000E+00  0.00000000E+00
  0.00000000E+00  0.00000000E+00  0.00000000E+00
  0.00000000E+00  0.00000000E+00  0.00000000E+00
  0.00000000E+00  0.00000000E+00  0.00000000E+00
  0.00000000E+00  0.00000000E+00  0.00000000E+00
  0.00000000E+00  0.00000000E+00  0.00000000E+00
  0.00000000E+00  0.00000000E+00  0.00000000E+00
  0.00000000E+00  0.00000000E+00  0.00000000E+00
  0.00000000E+00  0.00000000E+00  0.00000000E+00
  0.00000000E+00  0.00000000E+00  0.00000000E+00
  0.00000000E+00  0.00000000E+00  0.00000000E+00
  0.00000000E+00  0.00000000E+00  0.00000000E+00
  0.00000000E+00  0.00000000E+00  0.00000000E+00
  0.00000000E+00  0.00000000E+00  0.00000000E+00
  0.00000000E+00  0.00000000E+00  0.00000000E+00
  0.00000000E+00  0.00000000E+00  0.00000000E+00
  0.00000000E+00  0.00000000E+00  0.00000000E+00
  0.00000000E+00  0.00000000E+00  0.00000000E+00
  0.00000000E+00  0.00000000E+00  0.00000000E+00
  0.00000000E+00  0.00000000E+00  0.00000000E+00
  0.00000000E+00  0.00000000E+00  0.00000000E+00
  0.00000000E+00  0.00000000E+00  0.00000000E+00
  0.00000000E+00  0.00000000E+00  0.00000000E+00
  0.00000000E+00  0.00000000E+00  0.00000000E+00
  0.00000000E+00  0.00000000E+00  0.00000000E+00
  0.00000000E+00  0.00000000E+00  0.00000000E+00
  0.00000000E+00  0.00000000E+00  0.00000000E+00
  0.00000000E+00  0.00000000E+00  0.00000000E+00
  0.00000000E+00  0.00000000E+00  0.00000000E+00
  0.00000000E+00  0.00000000E+00  0.00000000E+00
  0.00000000E+00  0.00000000E+00  0.00000000E+00
