Ge+Sn
    1.000000000
   16.002676010    0.000000000    0.000000000
    8.001338005   13.858724594    0.000000000
    0.000000000    0.000000000   20.304012299
Ge  Sn 
96     72
Direct
    0.310883224    0.310883164    0.321762353
    0.977550030    0.977550030    0.000000025
    0.644216537    0.644216597    0.160881206
    0.810883164    0.310883164    0.321762353
    0.477550000    0.977550030    0.000000033
    0.144216582    0.644216597    0.160881206
    0.310883164    0.810883164    0.321762353
    0.977550030    0.477550000    0.000000031
    0.644216597    0.144216582    0.160881206
    0.810883164    0.810883164    0.321762353
    0.477550000    0.477550000    0.000000000
    0.144216567    0.144216567    0.160881177
    0.477549791    0.477549732    0.361982673
    0.144216686    0.144216612    0.040220331
    0.810883284    0.810883224    0.201101482
    0.977549791    0.477549672    0.361982673
    0.644216657    0.144216627    0.040220331
    0.310883284    0.810883224    0.201101482
    0.477549672    0.977549791    0.361982673
    0.144216627    0.644216657    0.040220331
    0.810883224    0.310883284    0.201101482
    0.977549672    0.977549791    0.361982644
    0.644216597    0.644216657    0.040220331
    0.310883164    0.310883254    0.201101452
    0.560883164    0.560883164    0.321762383
    0.227550015    0.227550015    0.000000035
    0.894216597    0.894216597    0.160881177
    0.060883213    0.560883164    0.321762413
    0.727550030    0.227550045    0.000000035
    0.394216597    0.894216597    0.160881206
    0.560883164    0.060883176    0.321762353
    0.227550015    0.727549970    0.000000012
    0.894216537    0.394216597    0.160881177
    0.060883190    0.060883105    0.321762353
    0.727550030    0.727549911    0.000000023
    0.394216627    0.394216567    0.160881206
    0.727549791    0.727549791    0.361982644
    0.394216627    0.394216627    0.040220268
    0.060883194    0.060883190    0.201101452
    0.227549791    0.727549791    0.361982644
    0.894216597    0.394216627    0.040220287
    0.560883164    0.060883190    0.201101452
    0.727549791    0.227549851    0.361982644
    0.394216627    0.894216657    0.040220287
    0.060883202    0.560883284    0.201101452
    0.227549851    0.227549851    0.361982644
    0.894216716    0.894216657    0.040220276
    0.560883284    0.560883284    0.201101452
    0.310883164    0.560883164    0.321762353
    0.977550030    0.227550015    0.000000020
    0.644216537    0.894216597    0.160881206
    0.810883164    0.560883164    0.321762383
    0.477550030    0.227550015    0.000000027
    0.144216597    0.894216597    0.160881206
    0.310883164    0.060883176    0.321762353
    0.977550030    0.727549970    0.000000027
    0.644216597    0.394216597    0.160881206
    0.810883164    0.060883090    0.321762353
    0.477550000    0.727549911    0.000000023
    0.144216612    0.394216537    0.160881177
    0.477549791    0.727549791    0.361982644
    0.144216612    0.394216597    0.040220287
    0.810883164    0.060883190    0.201101452
    0.977549732    0.727549791    0.361982644
    0.644216597    0.394216627    0.040220287
    0.310883164    0.060883190    0.201101452
    0.477549732    0.227549851    0.361982614
    0.144216627    0.894216657    0.040220276
    0.810883164    0.560883284    0.201101452
    0.977549791    0.227549851    0.361982614
    0.644216657    0.894216657    0.040220268
    0.310883224    0.560883284    0.201101452
    0.560883105    0.310883164    0.321762353
    0.227550015    0.977550030    0.000000022
    0.894216597    0.644216597    0.160881206
    0.060883183    0.310883164    0.321762383
    0.727549970    0.977550030    0.000000029
    0.394216627    0.644216597    0.160881206
    0.560883164    0.810883164    0.321762383
    0.227550000    0.477550000    0.000000031
    0.894216597    0.144216582    0.160881206
    0.060883179    0.810883105    0.321762353
    0.727549970    0.477549940    0.000000014
    0.394216597    0.144216537    0.160881177
    0.727549791    0.477549851    0.361982673
    0.394216686    0.144216716    0.040220316
    0.060883284    0.810883343    0.201101482
    0.227549672    0.477549851    0.361982673
    0.894216657    0.144216731    0.040220324
    0.560883284    0.810883343    0.201101452
    0.727549791    0.977549851    0.361982644
    0.394216686    0.644216716    0.040220331
    0.060883276    0.310883373    0.201101482
    0.227549732    0.977549791    0.361982673
    0.894216657    0.644216657    0.040220316
    0.560883284    0.310883284    0.201101452
    0.138364777    0.396395802    0.842448294
    0.138364777    0.063062429    0.473403871
    0.138364777    0.729729116    0.657926083
    0.471698105    0.729729176    0.842448235
    0.471698105    0.396395832    0.473403871
    0.471698105    0.063062429    0.657926083
    0.805031478    0.063062429    0.842448294
    0.805031478    0.729729176    0.473403871
    0.805031478    0.396395832    0.657926083
    0.471698105    0.396395862    0.888578892
    0.471698105    0.063062429    0.519534409
    0.471698105    0.729729116    0.704056621
    0.138364777    0.063062429    0.888578892
    0.138364777    0.729729116    0.519534409
    0.138364777    0.396395773    0.704056621
    0.805031538    0.729729116    0.888578892
    0.805031538    0.396395773    0.519534409
    0.805031538    0.063062429    0.704056621
    0.638364732    0.396395802    0.842448235
    0.638364732    0.063062429    0.473403871
    0.638364732    0.729729116    0.657926083
    0.305031449    0.063062429    0.842448235
    0.305031478    0.729729176    0.473403841
    0.305031478    0.396395832    0.657926083
    0.971698165    0.729729176    0.842448294
    0.971698165    0.396395862    0.473403871
    0.971698165    0.063062429    0.657926142
    0.305031419    0.729729235    0.888578892
    0.305031449    0.396395832    0.519534409
    0.305031449    0.063062429    0.704056621
    0.971698165    0.396395862    0.888578832
    0.971698165    0.063062429    0.519534349
    0.971698165    0.729729116    0.704056561
    0.638364792    0.063062429    0.888578892
    0.638364792    0.729729116    0.519534349
    0.638364792    0.396395802    0.704056561
    0.305031449    0.563062489    0.842448294
    0.305031449    0.229729176    0.473403871
    0.305031449    0.896395802    0.657926083
    0.638364732    0.896395802    0.842448294
    0.638364732    0.563062489    0.473403871
    0.638364732    0.229729116    0.657926083
    0.971698046    0.229729205    0.842448235
    0.971698046    0.896395922    0.473403811
    0.971698046    0.563062608    0.657926023
    0.638364732    0.563062549    0.888578892
    0.638364732    0.229729146    0.519534409
    0.638364732    0.896395802    0.704056621
    0.305031419    0.229729205    0.888578832
    0.305031419    0.896395862    0.519534349
    0.305031419    0.563062549    0.704056561
    0.971698165    0.896395802    0.888578892
    0.971698165    0.563062429    0.519534409
    0.971698165    0.229729101    0.704056621
    0.138364777    0.896395802    0.842448294
    0.138364777    0.563062429    0.473403871
    0.138364777    0.229729116    0.657926083
    0.805031478    0.563062489    0.842448235
    0.805031478    0.229729161    0.473403871
    0.805031478    0.896395802    0.657926083
    0.471698105    0.229729041    0.842448294
    0.471698105    0.896395743    0.473403871
    0.471698105    0.563062429    0.657926023
    0.138364777    0.563062549    0.888578892
    0.138364777    0.229729205    0.519534409
    0.138364777    0.896395862    0.704056621
    0.471698105    0.896395862    0.888578892
    0.471698105    0.563062549    0.519534409
    0.471698105    0.229729190    0.704056621
    0.805031478    0.229729250    0.888578892
    0.805031478    0.896395862    0.519534469
    0.805031478    0.563062549    0.704056621
