Si+Si                                   
   1.00000000000000     
     9.4067678449999992    0.0000000000000000    0.0000000000000000
    -9.4067687990000000   13.3031797409999992    0.0000000000000000
     0.0000000000000000    0.0000000000000000   19.2014904020000010
   Si
   144
Direct
  0.2285172489999994  0.8951838609999996  0.0999999869999968
  0.7285172340000017  0.7285171750000003  0.0999999869999968
  0.4785171750000003  0.4785171150000025  0.1999999729999971
  0.2285171750000003  0.2285170560000012  0.2999999820000028
  0.9785170560000012  0.9785169359999983  0.3999999460000012
  0.9785170560000012  0.6451836820000025  0.3999999460000012
  0.9785172939999995  0.3118506369999992  0.0000000020000002
  0.7285172340000017  0.0618505659999968  0.0999999869999968
  0.4785171750000003  0.8118504879999975  0.1999999729999971
  0.2285171750000003  0.5618504290000033  0.2999999820000028
  0.9785170560000012  0.3118503090000004  0.3999999460000012
  0.7285170560000012  0.0618502499999991  0.5000000000000000
  0.9785172340000017  0.3951839509999999  0.0999999869999968
  0.4785172939999995  0.1451839659999976  0.0000000000000000
  0.3808614020000007  0.0761719639999967  0.0000000000000000
  0.1308621169999995  0.8261724709999996  0.5000000000000000
  0.7285170560000012  0.7285168169999992  0.5000000000000000
  0.7285171750000003  0.1451836230000012  0.3999999460000012
  0.7285172340000017  0.3951839509999999  0.0999999869999968
  0.9785172939999995  0.9785172939999995  0.0000000020000002
  0.9785172340000017  0.6451838019999983  0.1999999729999971
  0.7285171750000003  0.3951837420000004  0.2999999520000003
  0.2285169960000033  0.8951835630000033  0.5000000000000000
  0.4785171150000025  0.1451836230000012  0.3999999460000012
  0.4785172939999995  0.4785173240000020  0.0000000000000000
  0.2285172489999994  0.2285172340000017  0.0999999869999968
  0.4641948940000020  0.2428386810000021  0.0000000000000000
  0.2141955640000006  0.9928390979999975  0.5000000000000000
  0.4785171150000025  0.4785169960000033  0.3999999460000012
  0.2285169960000033  0.2285169359999983  0.5000000000000000
  0.4785172939999995  0.8118506670000016  0.0000000000000000
  0.2285172489999994  0.5618506069999967  0.0999999869999968
  0.9785172340000017  0.3118505480000024  0.1999999729999971
  0.7285171750000003  0.0618504919999978  0.2999999520000003
  0.4785171150000025  0.8118503689999983  0.3999999460000012
  0.2285169960000033  0.5618502499999991  0.5000000000000000
  0.7285173539999974  0.1451839659999976  0.0000000000000000
  0.4785172939999995  0.8951838609999996  0.0999999790000032
  0.2285172639999971  0.6451838019999983  0.1999999729999971
  0.9785172340000017  0.3951836820000025  0.2999999820000028
  0.7285170560000012  0.3951835630000033  0.5000000000000000
  0.4785171150000025  0.8951835630000033  0.4999999699999975
  0.7285173539999974  0.4785172939999995  0.0000000000000000
  0.4785172939999995  0.2285172189999969  0.0999999790000032
  0.2285172639999971  0.9785171750000003  0.1999999729999971
  0.9785172340000017  0.7285170560000012  0.2999999820000028
  0.7285171750000003  0.4785169960000033  0.3999999460000012
  0.4785171150000025  0.2285168769999970  0.4999999699999975
  0.7285173539999974  0.8118507269999995  0.0000000000000000
  0.1308614020000007  0.5761719349999979  0.0000000000000000
  0.2285172639999971  0.3118505779999978  0.1999999729999971
  0.9785172340000017  0.0618504839999972  0.2999999820000028
  0.7285171750000003  0.8118503689999983  0.3999999460000012
  0.4785171150000025  0.5618503090000004  0.4999999699999975
  0.2285172939999995  0.9785172939999995  0.0000000009999965
  0.9785172340000017  0.7285171750000003  0.0999999869999968
  0.7285171750000003  0.4785171150000025  0.1999999729999971
  0.4785172340000017  0.2285170560000012  0.2999999520000003
  0.2285171150000025  0.9785169359999983  0.3999999460000012
  0.9785170560000012  0.7285169359999983  0.5000000000000000
  0.2285172939999995  0.3118506069999967  0.0000000009999965
  0.9785172340000017  0.0618505440000021  0.0999999869999968
  0.7285171750000003  0.8118504879999975  0.1999999729999971
  0.4785172340000017  0.5618504290000033  0.2999999520000003
  0.8808622359999987  0.3261724110000017  0.5000000000000000
  0.9785170560000012  0.0618501900000012  0.5000000000000000
  0.2285172939999995  0.6451841000000016  0.0000000009999965
  0.9785172939999995  0.6451840399999966  0.0000000020000002
  0.7285171750000003  0.1451838910000021  0.1999999729999971
  0.4785172340000017  0.8951838019999983  0.2999999520000003
  0.2285171150000025  0.6451836820000025  0.3999999460000012
  0.9785170560000012  0.3951836230000012  0.5000000000000000
  0.2975288029999987  0.6595058440000017  0.5000000000000000
  0.8808619980000003  0.5761724110000017  0.5999999639999984
  0.4641951919999983  0.4928390090000008  0.6999999880000018
  0.0475284460000012  0.4095056060000033  0.7999999520000003
  0.6308616399999991  0.3261722029999987  0.8999999759999966
  0.2141946550000000  0.2428386959999997  0.0000000000000000
  0.6308621760000008  0.3261724409999971  0.5000000000000000
  0.2141953409999999  0.2428390230000019  0.5999999639999984
  0.7975286249999982  0.1595056060000033  0.6999999880000018
  0.3808618190000033  0.0761722180000035  0.7999999520000003
  0.9641950130000012  0.9928387400000034  0.8999999759999966
  0.5475280280000021  0.9095053080000000  0.0000000000000000
  0.9641954900000016  0.9928390979999975  0.5000000000000000
  0.5475286249999982  0.9095056649999975  0.5999999639999984
  0.1308618779999975  0.8261722330000012  0.6999999880000018
  0.7141950130000012  0.7428388000000012  0.7999999520000003
  0.2975281479999978  0.6595053670000013  0.8999999759999966
  0.8808612819999979  0.5761719939999992  0.0000000000000000
  0.2285171750000003  0.8951838019999983  0.2999999820000028
  0.7141952509999996  0.7428390979999975  0.5999999639999984
  0.2975285650000004  0.6595056649999975  0.6999999880000018
  0.8808617589999983  0.5761722330000012  0.7999999520000003
  0.4641948940000020  0.4928388599999991  0.8999999759999966
  0.0475279090000029  0.4095053670000013  0.0000000000000000
  0.4641955199999970  0.4928391280000000  0.5000000000000000
  0.0475286770000025  0.4095056950000000  0.5999999639999984
  0.6308619380000025  0.3261722920000025  0.6999998690000027
  0.2141951320000004  0.2428388889999979  0.7999999520000003
  0.7975282669999970  0.1595054269999991  0.8999999759999966
  0.4785171750000003  0.1451838759999973  0.1999999729999971
  0.7975288029999987  0.1595057549999979  0.5000000000000000
  0.3808620269999992  0.0761723290000020  0.5999999639999984
  0.9641952509999996  0.9928389190000004  0.6999999880000018
  0.5475285050000025  0.9095054860000005  0.7999999520000003
  0.1308616399999991  0.8261721129999984  0.8999999759999966
  0.7141946550000000  0.7428386209999971  0.0000000000000000
  0.3808621760000008  0.8261725309999974  0.5000000000000000
  0.9641953710000024  0.7428390979999975  0.5999999639999984
  0.5475286249999982  0.6595056649999975  0.6999999880000018
  0.1308618190000033  0.5761722920000025  0.7999999520000003
  0.7141948940000020  0.4928388599999991  0.8999999759999966
  0.2975281479999978  0.4095054269999991  0.0000000000000000
  0.7141955490000029  0.4928391280000000  0.5000000000000000
  0.2975287739999999  0.4095057250000025  0.5999999639999984
  0.8808619980000003  0.3261723219999979  0.6999999880000018
  0.4641951919999983  0.2428389040000027  0.7999999520000003
  0.0475283270000020  0.1595054570000016  0.8999999759999966
  0.6308615209999999  0.0761720389999994  0.0000000000000000
  0.0475288000000020  0.1595057700000027  0.5000000000000000
  0.6308619980000003  0.0761723439999997  0.5999999639999984
  0.2141952509999996  0.9928389190000004  0.6999998690000027
  0.7975283860000033  0.9095054860000005  0.7999999520000003
  0.3808615209999999  0.8261720539999970  0.8999999759999966
  0.9641947750000028  0.7428386810000021  0.0000000000000000
  0.5475289230000016  0.6595058440000017  0.5000000000000000
  0.1308621020000018  0.5761724110000017  0.5999999639999984
  0.7141953710000024  0.4928389789999983  0.6999999880000018
  0.2975285650000004  0.4095055760000008  0.7999999520000003
  0.8808616399999991  0.3261721129999984  0.8999999759999966
  0.9785172340000017  0.9785171750000003  0.1999999729999971
  0.2285171150000025  0.3118503090000004  0.3999999460000012
  0.4641954000000013  0.2428390090000008  0.5999999639999984
  0.0475286280000020  0.1595055909999985  0.6999998690000027
  0.6308618779999975  0.0761721730000033  0.7999999520000003
  0.2141949530000034  0.9928387400000034  0.8999999759999966
  0.7975281479999978  0.9095053080000000  0.0000000000000000
  0.7285171750000003  0.7285171150000025  0.2999999520000003
  0.7975287439999974  0.9095056649999975  0.5999999639999984
  0.3808619980000003  0.8261722330000012  0.6999998690000027
  0.9641951320000004  0.7428388599999991  0.7999999520000003
  0.5475283860000033  0.6595053670000013  0.8999999759999966
  0.4785172939999995  0.5618506670000016  0.0999999790000032
 
  0.00000000E+00  0.00000000E+00  0.00000000E+00
  0.00000000E+00  0.00000000E+00  0.00000000E+00
  0.00000000E+00  0.00000000E+00  0.00000000E+00
  0.00000000E+00  0.00000000E+00  0.00000000E+00
  0.00000000E+00  0.00000000E+00  0.00000000E+00
  0.00000000E+00  0.00000000E+00  0.00000000E+00
  0.00000000E+00  0.00000000E+00  0.00000000E+00
  0.00000000E+00  0.00000000E+00  0.00000000E+00
  0.00000000E+00  0.00000000E+00  0.00000000E+00
  0.00000000E+00  0.00000000E+00  0.00000000E+00
  0.00000000E+00  0.00000000E+00  0.00000000E+00
  0.00000000E+00  0.00000000E+00  0.00000000E+00
  0.00000000E+00  0.00000000E+00  0.00000000E+00
  0.00000000E+00  0.00000000E+00  0.00000000E+00
  0.00000000E+00  0.00000000E+00  0.00000000E+00
  0.00000000E+00  0.00000000E+00  0.00000000E+00
  0.00000000E+00  0.00000000E+00  0.00000000E+00
  0.00000000E+00  0.00000000E+00  0.00000000E+00
  0.00000000E+00  0.00000000E+00  0.00000000E+00
  0.00000000E+00  0.00000000E+00  0.00000000E+00
  0.00000000E+00  0.00000000E+00  0.00000000E+00
  0.00000000E+00  0.00000000E+00  0.00000000E+00
  0.00000000E+00  0.00000000E+00  0.00000000E+00
  0.00000000E+00  0.00000000E+00  0.00000000E+00
  0.00000000E+00  0.00000000E+00  0.00000000E+00
  0.00000000E+00  0.00000000E+00  0.00000000E+00
  0.00000000E+00  0.00000000E+00  0.00000000E+00
  0.00000000E+00  0.00000000E+00  0.00000000E+00
  0.00000000E+00  0.00000000E+00  0.00000000E+00
  0.00000000E+00  0.00000000E+00  0.00000000E+00
  0.00000000E+00  0.00000000E+00  0.00000000E+00
  0.00000000E+00  0.00000000E+00  0.00000000E+00
  0.00000000E+00  0.00000000E+00  0.00000000E+00
  0.00000000E+00  0.00000000E+00  0.00000000E+00
  0.00000000E+00  0.00000000E+00  0.00000000E+00
  0.00000000E+00  0.00000000E+00  0.00000000E+00
  0.00000000E+00  0.00000000E+00  0.00000000E+00
  0.00000000E+00  0.00000000E+00  0.00000000E+00
  0.00000000E+00  0.00000000E+00  0.00000000E+00
  0.00000000E+00  0.00000000E+00  0.00000000E+00
  0.00000000E+00  0.00000000E+00  0.00000000E+00
  0.00000000E+00  0.00000000E+00  0.00000000E+00
  0.00000000E+00  0.00000000E+00  0.00000000E+00
  0.00000000E+00  0.00000000E+00  0.00000000E+00
  0.00000000E+00  0.00000000E+00  0.00000000E+00
  0.00000000E+00  0.00000000E+00  0.00000000E+00
  0.00000000E+00  0.00000000E+00  0.00000000E+00
  0.00000000E+00  0.00000000E+00  0.00000000E+00
  0.00000000E+00  0.00000000E+00  0.00000000E+00
  0.00000000E+00  0.00000000E+00  0.00000000E+00
  0.00000000E+00  0.00000000E+00  0.00000000E+00
  0.00000000E+00  0.00000000E+00  0.00000000E+00
  0.00000000E+00  0.00000000E+00  0.00000000E+00
  0.00000000E+00  0.00000000E+00  0.00000000E+00
  0.00000000E+00  0.00000000E+00  0.00000000E+00
  0.00000000E+00  0.00000000E+00  0.00000000E+00
  0.00000000E+00  0.00000000E+00  0.00000000E+00
  0.00000000E+00  0.00000000E+00  0.00000000E+00
  0.00000000E+00  0.00000000E+00  0.00000000E+00
  0.00000000E+00  0.00000000E+00  0.00000000E+00
  0.00000000E+00  0.00000000E+00  0.00000000E+00
  0.00000000E+00  0.00000000E+00  0.00000000E+00
  0.00000000E+00  0.00000000E+00  0.00000000E+00
  0.00000000E+00  0.00000000E+00  0.00000000E+00
  0.00000000E+00  0.00000000E+00  0.00000000E+00
  0.00000000E+00  0.00000000E+00  0.00000000E+00
  0.00000000E+00  0.00000000E+00  0.00000000E+00
  0.00000000E+00  0.00000000E+00  0.00000000E+00
  0.00000000E+00  0.00000000E+00  0.00000000E+00
  0.00000000E+00  0.00000000E+00  0.00000000E+00
  0.00000000E+00  0.00000000E+00  0.00000000E+00
  0.00000000E+00  0.00000000E+00  0.00000000E+00
  0.00000000E+00  0.00000000E+00  0.00000000E+00
  0.00000000E+00  0.00000000E+00  0.00000000E+00
  0.00000000E+00  0.00000000E+00  0.00000000E+00
  0.00000000E+00  0.00000000E+00  0.00000000E+00
  0.00000000E+00  0.00000000E+00  0.00000000E+00
  0.00000000E+00  0.00000000E+00  0.00000000E+00
  0.00000000E+00  0.00000000E+00  0.00000000E+00
  0.00000000E+00  0.00000000E+00  0.00000000E+00
  0.00000000E+00  0.00000000E+00  0.00000000E+00
  0.00000000E+00  0.00000000E+00  0.00000000E+00
  0.00000000E+00  0.00000000E+00  0.00000000E+00
  0.00000000E+00  0.00000000E+00  0.00000000E+00
  0.00000000E+00  0.00000000E+00  0.00000000E+00
  0.00000000E+00  0.00000000E+00  0.00000000E+00
  0.00000000E+00  0.00000000E+00  0.00000000E+00
  0.00000000E+00  0.00000000E+00  0.00000000E+00
  0.00000000E+00  0.00000000E+00  0.00000000E+00
  0.00000000E+00  0.00000000E+00  0.00000000E+00
  0.00000000E+00  0.00000000E+00  0.00000000E+00
  0.00000000E+00  0.00000000E+00  0.00000000E+00
  0.00000000E+00  0.00000000E+00  0.00000000E+00
  0.00000000E+00  0.00000000E+00  0.00000000E+00
  0.00000000E+00  0.00000000E+00  0.00000000E+00
  0.00000000E+00  0.00000000E+00  0.00000000E+00
  0.00000000E+00  0.00000000E+00  0.00000000E+00
  0.00000000E+00  0.00000000E+00  0.00000000E+00
  0.00000000E+00  0.00000000E+00  0.00000000E+00
  0.00000000E+00  0.00000000E+00  0.00000000E+00
  0.00000000E+00  0.00000000E+00  0.00000000E+00
  0.00000000E+00  0.00000000E+00  0.00000000E+00
  0.00000000E+00  0.00000000E+00  0.00000000E+00
  0.00000000E+00  0.00000000E+00  0.00000000E+00
  0.00000000E+00  0.00000000E+00  0.00000000E+00
  0.00000000E+00  0.00000000E+00  0.00000000E+00
  0.00000000E+00  0.00000000E+00  0.00000000E+00
  0.00000000E+00  0.00000000E+00  0.00000000E+00
  0.00000000E+00  0.00000000E+00  0.00000000E+00
  0.00000000E+00  0.00000000E+00  0.00000000E+00
  0.00000000E+00  0.00000000E+00  0.00000000E+00
  0.00000000E+00  0.00000000E+00  0.00000000E+00
  0.00000000E+00  0.00000000E+00  0.00000000E+00
  0.00000000E+00  0.00000000E+00  0.00000000E+00
  0.00000000E+00  0.00000000E+00  0.00000000E+00
  0.00000000E+00  0.00000000E+00  0.00000000E+00
  0.00000000E+00  0.00000000E+00  0.00000000E+00
  0.00000000E+00  0.00000000E+00  0.00000000E+00
  0.00000000E+00  0.00000000E+00  0.00000000E+00
  0.00000000E+00  0.00000000E+00  0.00000000E+00
  0.00000000E+00  0.00000000E+00  0.00000000E+00
  0.00000000E+00  0.00000000E+00  0.00000000E+00
  0.00000000E+00  0.00000000E+00  0.00000000E+00
  0.00000000E+00  0.00000000E+00  0.00000000E+00
  0.00000000E+00  0.00000000E+00  0.00000000E+00
  0.00000000E+00  0.00000000E+00  0.00000000E+00
  0.00000000E+00  0.00000000E+00  0.00000000E+00
  0.00000000E+00  0.00000000E+00  0.00000000E+00
  0.00000000E+00  0.00000000E+00  0.00000000E+00
  0.00000000E+00  0.00000000E+00  0.00000000E+00
  0.00000000E+00  0.00000000E+00  0.00000000E+00
  0.00000000E+00  0.00000000E+00  0.00000000E+00
  0.00000000E+00  0.00000000E+00  0.00000000E+00
  0.00000000E+00  0.00000000E+00  0.00000000E+00
  0.00000000E+00  0.00000000E+00  0.00000000E+00
  0.00000000E+00  0.00000000E+00  0.00000000E+00
  0.00000000E+00  0.00000000E+00  0.00000000E+00
  0.00000000E+00  0.00000000E+00  0.00000000E+00
  0.00000000E+00  0.00000000E+00  0.00000000E+00
  0.00000000E+00  0.00000000E+00  0.00000000E+00
  0.00000000E+00  0.00000000E+00  0.00000000E+00
  0.00000000E+00  0.00000000E+00  0.00000000E+00
  0.00000000E+00  0.00000000E+00  0.00000000E+00
  0.00000000E+00  0.00000000E+00  0.00000000E+00
