Ge+Ge
    1.000000000
   12.651226044    0.000000000    0.000000000
  -10.120981216    7.590735435    0.000000000
    0.000000000    0.000000000    9.429668427
Ge 
48
Direct
    0.344722271    0.672361135    0.000000000
    0.678055644    0.839027822    0.299999952
    0.011389017    0.005694628    0.599999964
    0.011388971    0.005694487    0.000000000
    0.344722331    0.172361225    0.299999952
    0.678055704    0.339027971    0.599999964
    0.678055644    0.339027822    0.000000000
    0.011388898    0.505694509    0.299999952
    0.344722390    0.672361314    0.599999964
    0.094722271    0.922361135    0.149999976
    0.428055644    0.089027882    0.449999899
    0.761389017    0.255694628    0.749999940
    0.428055644    0.589027882    0.149999976
    0.761389017    0.755694568    0.449999899
    0.094722390    0.922361374    0.749999940
    0.761388898    0.255694479    0.149999976
    0.094722390    0.422361225    0.449999899
    0.428055644    0.589027941    0.749999940
    0.178055570    0.839027703    0.000000000
    0.511388958    0.005694509    0.299999952
    0.844722271    0.172361135    0.599999964
    0.511388958    0.505694509    0.000000000
    0.844722271    0.672361195    0.299999952
    0.178055644    0.839027941    0.599999964
    0.844722331    0.172361180    0.000000000
    0.178055644    0.339027911    0.299999952
    0.511389017    0.505694628    0.599999964
    0.261388958    0.755694449    0.149999976
    0.594722331    0.922361195    0.449999899
    0.928055763    0.089028001    0.749999940
    0.594722331    0.422361165    0.149999976
    0.928055704    0.589027882    0.449999899
    0.261389017    0.755694628    0.749999940
    0.928055644    0.089027874    0.149999976
    0.261389017    0.255694628    0.449999899
    0.594722390    0.422361344    0.749999940
    0.962846637    0.989384770    0.749999881
    0.573957682    0.878273606    0.849999905
    0.185068727    0.767162442    0.949999928
    0.462846637    0.489384741    0.749999881
    0.073957674    0.378273606    0.849999905
    0.685068727    0.267162442    0.949999928
    0.768402100    0.683829188    0.799999833
    0.379513144    0.572718024    0.899999976
    0.990624189    0.461606801    1.000000000
    0.268402159    0.183829173    0.799999833
    0.879513204    0.072718009    0.899999976
    0.490624189    0.961606801    1.000000000
