Sn+Si
    1.000000000
   19.467599869    0.000000000    0.000000000
    0.000000000   19.467599869    0.000000000
    0.000000000    0.000000000   19.300252914
Sn  Si 
108     156
Direct
    0.355726242    0.373673856    0.886011779
    0.240341663    0.950596988    0.886011779
    0.721111119    0.546750724    0.534267545
    0.471110880    0.796750903    0.886011779
    0.828368425    0.333333343    0.168111786
    0.661701739    0.333333343    0.336223543
    0.124956965    0.527520061    0.886011779
    0.432649344    0.989058554    0.886011779
    0.661701739    0.000000000    0.336223543
    0.328368455    0.666666687    0.000000000
    0.009572506    0.104443185    0.886011779
    0.995035112    0.666666687    0.336223543
    0.328368455    0.333333343    0.000000000
    0.817264795    0.065981627    0.886011779
    0.995035112    0.333333343    0.336223543
    0.086495519    0.719827771    0.886011779
    0.161701739    0.000000000    0.168111786
    0.995035112    0.000000000    0.336223543
    0.661701798    0.666666687    0.000000000
    0.495035112    0.666666687    0.168111786
    0.328368455    0.666666687    0.336223543
    0.661701798    0.333333343    0.000000000
    0.394187808    0.181366205    0.886011779
    0.328368455    0.333333343    0.336223543
    0.661701798    0.000000000    0.000000000
    0.778803229    0.258289337    0.886011779
    0.240341902    0.950596929    0.604616404
    0.078368433    0.916666746    0.084055893
    0.759572685    0.354443043    0.534267545
    0.105726480    0.623673797    0.534267545
    0.078368433    0.583333433    0.084055893
    0.567264915    0.315981477    0.534267545
    0.221111059    0.046750784    0.534267545
    0.163418531    0.335212380    0.886011779
    0.911701798    0.250000000    0.252167612
    0.874957323    0.777519882    0.534267545
    0.411701769    0.916666746    0.084055893
    0.245035097    0.916666746    0.252167612
    0.078368381    0.916666746    0.420279443
    0.411701769    0.583333433    0.084055893
    0.144188166    0.431366175    0.534267545
    0.078368381    0.583333433    0.420279443
    0.411701769    0.250000000    0.084055893
    0.528803408    0.508289218    0.534267545
    0.836495757    0.969827712    0.534267545
    0.509572506    0.604443133    0.886011779
    0.990341842    0.200596869    0.534267545
    0.411701798    0.916666746    0.420279443
    0.932649493    0.489058524    0.886011779
    0.578368545    0.583333433    0.252167612
    0.411701798    0.583333433    0.420279443
    0.317264795    0.565981567    0.886011779
    0.182649612    0.239058375    0.534267545
    0.411701798    0.250000000    0.420279443
    0.161701769    0.833333313    0.000000000
    0.995035052    0.833333313    0.168111786
    0.828368425    0.833333313    0.336223543
    0.586495578    0.219827890    0.886011779
    0.995035052    0.500000000    0.168111786
    0.913418829    0.585212350    0.534267545
    0.161701769    0.166666672    0.000000000
    0.278803110    0.758289278    0.886011779
    0.828368425    0.166666672    0.336223543
    0.495035112    0.833333313    0.000000000
    0.328368425    0.833333313    0.168111786
    0.161701754    0.833333313    0.336223543
    0.874957085    0.777520061    0.815662920
    0.328368425    0.500000000    0.168111786
    0.161701754    0.500000000    0.336223543
    0.495035112    0.166666672    0.000000000
    0.328368425    0.166666672    0.168111786
    0.161701754    0.166666672    0.336223543
    0.828368545    0.833333313    0.000000000
    0.661701858    0.833333313    0.168111786
    0.682649612    0.739058495    0.534267545
    0.828368545    0.500000000    0.000000000
    0.661701858    0.500000000    0.168111786
    0.067264915    0.815981507    0.534267545
    0.828368545    0.166666672    0.000000000
    0.661701858    0.166666672    0.168111786
    0.259572625    0.854443133    0.534267545
    0.245035097    0.750000060    0.084055893
    0.078368433    0.750000060    0.252167612
    0.336495876    0.469827592    0.534267545
    0.245035097    0.416666716    0.084055893
    0.078368433    0.416666716    0.252167612
    0.911701739    0.416666716    0.420279443
    0.245035097    0.083333343    0.084055893
    0.078368433    0.083333343    0.252167612
    0.911701739    0.083333343    0.420279443
    0.490341693    0.700596988    0.815662920
    0.411701858    0.750000060    0.252167612
    0.624957263    0.027519941    0.604616404
    0.578368485    0.416666716    0.084055893
    0.411701858    0.416666716    0.252167612
    0.245035127    0.416666716    0.420279443
    0.578368485    0.083333343    0.084055893
    0.411701858    0.083333343    0.252167612
    0.245035127    0.083333343    0.420279443
    0.911701739    0.750000060    0.084055893
    0.745035052    0.750000060    0.252167612
    0.578368366    0.750000060    0.420279443
    0.971111000    0.296750814    0.886011779
    0.028803349    0.008289218    0.534267545
    0.578368366    0.416666716    0.420279443
    0.911701739    0.083333343    0.084055893
    0.745035052    0.083333343    0.252167612
    0.578368366    0.083333343    0.420279443
    0.578368545    0.250000000    0.252167612
    0.067265034    0.315981507    0.674965203
    0.951880276    0.392904669    0.815662920
    0.911701739    0.750000060    0.420279443
    0.221111059    0.546750665    0.674965203
    0.105726480    0.623673856    0.815662920
    0.798034191    0.162135303    0.534267545
    0.682649493    0.239058435    0.674965203
    0.567264795    0.315981567    0.815662920
    0.951880395    0.392904580    0.534267545
    0.836495638    0.469827712    0.674965203
    0.721110940    0.546750844    0.815662920
    0.745035052    0.916666746    0.420279443
    0.990341783    0.700596929    0.674965203
    0.495035112    0.500000000    0.000000000
    0.495035201    0.166666672    0.336223543
    0.144187927    0.931366265    0.674965203
    0.028803229    0.008289337    0.815662920
    0.413418770    0.085212208    0.534267545
    0.298034072    0.162135333    0.674965203
    0.182649374    0.239058465    0.815662920
    0.911701798    0.583333433    0.252167612
    0.451880246    0.392904609    0.674965203
    0.336495519    0.469827741    0.815662920
    0.661701739    0.666666687    0.336223543
    0.605726421    0.623673856    0.674965203
    0.578368485    0.750000060    0.084055893
    0.745035052    0.250000000    0.420279443
    0.759572625    0.854443014    0.674965203
    0.644187868    0.931366146    0.815662920
    0.745035052    0.416666716    0.252167612
    0.913418710    0.085212342    0.674965203
    0.798034012    0.162135482    0.815662920
    0.490341842    0.700596869    0.534267545
    0.374957085    0.777520001    0.674965203
    0.259572506    0.854443192    0.815662920
    0.644188046    0.931366086    0.534267545
    0.528803349    0.008289099    0.674965203
    0.413418531    0.085212342    0.815662920
    0.394187927    0.181366086    0.604616404
    0.278803349    0.258289218    0.745314062
    0.078368433    0.250000000    0.084055893
    0.009572625    0.104443066    0.604616404
    0.894187927    0.181366205    0.745314062
    0.495035112    0.000000000    0.168111786
    0.163418889    0.335212231    0.604616404
    0.048034191    0.412135392    0.745314062
    0.745035172    0.583333433    0.084055893
    0.317265034    0.565981448    0.604616404
    0.201880217    0.642904639    0.745314062
    0.328368455    0.000000000    0.000000000
    0.778803468    0.258289158    0.604616404
    0.663418770    0.335212290    0.745314062
    0.548034012    0.412135422    0.886011779
    0.932649553    0.489058465    0.604616404
    0.817264855    0.565981567    0.745314062
    0.701880097    0.642904758    0.886011779
    0.086495638    0.719827652    0.604616404
    0.971111000    0.796750784    0.745314062
    0.855726242    0.873673916    0.886011779
    0.328368455    0.000000000    0.336223543
    0.124957085    0.027520061    0.745314062
    0.161701739    0.666666687    0.168111786
    0.548034191    0.412135333    0.604616404
    0.432649463    0.489058435    0.745314062
    0.745035172    0.250000000    0.084055893
    0.701880336    0.642904639    0.604616404
    0.586495638    0.719827712    0.745314062
    0.995035112    0.333333343    0.000000000
    0.855726480    0.873673797    0.604616404
    0.740341783    0.950596929    0.745314062
    0.624957025    0.027520061    0.886011779
    0.471111089    0.796750724    0.604616404
    0.355726361    0.873673916    0.745314062
    0.828368425    0.666666687    0.168111786
    0.245035127    0.750000060    0.420279443
    0.509572506    0.104443066    0.745314062
    0.495035112    0.333333343    0.168111786
    0.374957323    0.277519971    0.534267545
    0.259572506    0.354443103    0.674965203
    0.144187927    0.431366265    0.815662920
    0.578368545    0.916666746    0.252167612
    0.874957144    0.277520001    0.674965203
    0.759572446    0.354443133    0.815662920
    0.245035097    0.583333433    0.252167612
    0.028803349    0.508289278    0.674965203
    0.913418651    0.585212469    0.815662920
    0.298034191    0.662135422    0.534267545
    0.182649493    0.739058554    0.674965203
    0.067264795    0.815981686    0.815662920
    0.605726480    0.123673767    0.534267545
    0.490341812    0.200596899    0.674965203
    0.374957085    0.277520031    0.815662920
    0.911701798    0.916666746    0.252167612
    0.644187987    0.431366175    0.674965203
    0.528803289    0.508289278    0.815662920
    0.828368425    0.500000000    0.336223543
    0.798034072    0.662135482    0.674965203
    0.682649374    0.739058614    0.815662920
    0.495035201    0.500000000    0.336223543
    0.951880217    0.892904639    0.674965203
    0.836495519    0.969827771    0.815662920
    0.745035052    0.583333433    0.420279443
    0.105726480    0.123673908    0.674965203
    0.990341723    0.200597048    0.815662920
    0.245035097    0.250000000    0.252167612
    0.413418770    0.585212350    0.674965203
    0.298033953    0.662135482    0.815662920
    0.495035201    0.833333313    0.336223543
    0.567264915    0.815981627    0.674965203
    0.451880187    0.892904758    0.815662920
    0.078368381    0.250000000    0.420279443
    0.721111059    0.046750784    0.674965203
    0.605726361    0.123673908    0.815662920
    0.451880306    0.892904580    0.534267545
    0.336495638    0.969827712    0.674965203
    0.221110821    0.046750784    0.815662920
    0.201880455    0.142904535    0.604616404
    0.086495638    0.219827682    0.745314062
    0.911701739    0.416666716    0.084055893
    0.355726480    0.373673767    0.604616404
    0.240341663    0.450596929    0.745314062
    0.995035112    0.000000000    0.000000000
    0.971111178    0.296750695    0.604616404
    0.855726480    0.373673826    0.745314062
    0.740341783    0.450596988    0.886011779
    0.124957323    0.527519941    0.604616404
    0.009572744    0.604443073    0.745314062
    0.894187927    0.681366205    0.886011779
    0.278803587    0.758289218    0.604616404
    0.163418889    0.835212350    0.745314062
    0.048034191    0.912135482    0.886011779
    0.586495757    0.219827563    0.604616404
    0.471111029    0.296750695    0.745314062
    0.995035112    0.666666687    0.000000000
    0.740341902    0.450596869    0.604616404
    0.624957204    0.527520001    0.745314062
    0.745035172    0.916666746    0.084055893
    0.894188046    0.681366086    0.604616404
    0.778803349    0.758289218    0.745314062
    0.663418591    0.835212350    0.886011779
    0.048034191    0.912135422    0.604616404
    0.932649553    0.989058554    0.745314062
    0.161701739    0.333333343    0.168111786
    0.509572625    0.604443014    0.604616404
    0.394187927    0.681366146    0.745314062
    0.995035052    0.166666672    0.168111786
    0.663418770    0.835212231    0.604616404
    0.548034072    0.912135363    0.745314062
    0.828368425    0.000000000    0.168111786
    0.817265034    0.065981507    0.604616404
    0.701880336    0.142904758    0.745314062
    0.161701769    0.500000000    0.000000000
    0.432649553    0.989058375    0.604616404
    0.317264795    0.065981507    0.745314062
    0.201880097    0.142904639    0.886011779
