Ge+Sn
    1.000000000
   19.599195480    0.000000000    0.000000000
   -6.533064842   18.478298187    0.000000000
    0.000000000    0.000000000   25.604219437
Ge  Sn 
192     144
Direct
    0.984533846    0.494844645    0.000000015
    0.797033846    0.432344615    0.078125201
    0.609533787    0.369844615    0.156250432
    0.422033846    0.307344615    0.234375596
    0.234533906    0.244844630    0.312500775
    0.047033846    0.182344645    0.390625983
    0.234533846    0.744844615    0.000000015
    0.047033850    0.682344615    0.078125201
    0.859533787    0.619844615    0.156250432
    0.672033846    0.557344615    0.234375596
    0.484533906    0.494844615    0.312500775
    0.297033846    0.432344645    0.390625983
    0.984533846    0.994844615    0.000000019
    0.797033846    0.932344615    0.078125209
    0.609533787    0.869844615    0.156250417
    0.422033846    0.807344615    0.234375596
    0.234533906    0.744844675    0.312500745
    0.047033846    0.682344615    0.390625983
    0.234533861    0.244844630    0.000000019
    0.047033854    0.182344630    0.078125209
    0.859533787    0.119844601    0.156250417
    0.672033906    0.057344597    0.234375596
    0.484533906    0.994844615    0.312500745
    0.297033846    0.932344615    0.390625983
    0.484533846    0.494844615    0.000000019
    0.297033846    0.432344615    0.078125209
    0.109533817    0.369844615    0.156250417
    0.922033846    0.307344615    0.234375596
    0.734533906    0.244844615    0.312500745
    0.547033846    0.182344615    0.390625983
    0.734533846    0.744844615    0.000000019
    0.547033846    0.682344615    0.078125209
    0.359533787    0.619844615    0.156250417
    0.172033831    0.557344615    0.234375596
    0.984533846    0.494844645    0.312500775
    0.797033846    0.432344615    0.390625983
    0.484533876    0.994844615    0.000000009
    0.297033876    0.932344615    0.078125201
    0.109533831    0.869844615    0.156250417
    0.922033846    0.807344615    0.234375596
    0.734533906    0.744844675    0.312500775
    0.547033846    0.682344615    0.390625954
    0.734533846    0.244844615    0.000000008
    0.547033846    0.182344645    0.078125201
    0.359533817    0.119844623    0.156250417
    0.172033846    0.057344630    0.234375596
    0.984533846    0.994844615    0.312500775
    0.797033846    0.932344615    0.390625983
    0.109533846    0.869844615    0.000000003
    0.922033846    0.807344615    0.078125201
    0.734533787    0.744844615    0.156250402
    0.547033846    0.682344615    0.234375566
    0.359533906    0.619844615    0.312500745
    0.172033846    0.557344615    0.390625983
    0.109533854    0.369844645    0.000000020
    0.922033846    0.307344615    0.078125216
    0.734533787    0.244844615    0.156250417
    0.547033846    0.182344615    0.234375596
    0.359533906    0.119844623    0.312500775
    0.172033846    0.057344612    0.390625954
    0.359533846    0.619844615    0.000000020
    0.172033831    0.557344615    0.078125216
    0.984533787    0.494844645    0.156250417
    0.797033846    0.432344615    0.234375596
    0.609533906    0.369844615    0.312500745
    0.422033846    0.307344615    0.390625954
    0.609533846    0.869844615    0.000000021
    0.422033846    0.807344615    0.078125224
    0.234533802    0.744844556    0.156250432
    0.047033843    0.682344615    0.234375596
    0.859533906    0.619844615    0.312500775
    0.672033846    0.557344556    0.390625983
    0.359533846    0.119844638    0.000000017
    0.172033861    0.057344627    0.078125209
    0.984533787    0.994844615    0.156250417
    0.797033846    0.932344615    0.234375596
    0.609533906    0.869844675    0.312500775
    0.422033846    0.807344615    0.390625954
    0.609533846    0.369844615    0.000000017
    0.422033846    0.307344615    0.078125209
    0.234533846    0.244844586    0.156250417
    0.047033876    0.182344601    0.234375596
    0.859533906    0.119844601    0.312500745
    0.672033906    0.057344589    0.390625983
    0.859533846    0.619844615    0.000000017
    0.672033846    0.557344615    0.078125209
    0.484533846    0.494844586    0.156250417
    0.297033876    0.432344586    0.234375596
    0.109533899    0.369844586    0.312500745
    0.922033846    0.307344586    0.390625983
    0.859533846    0.119844563    0.000000022
    0.672033846    0.057344586    0.078125224
    0.484533846    0.994844556    0.156250417
    0.297033906    0.932344556    0.234375596
    0.109533928    0.869844556    0.312500805
    0.922033906    0.807344556    0.390625983
    0.109533869    0.744844675    0.000000009
    0.922033846    0.682344615    0.078125209
    0.734533846    0.619844615    0.156250417
    0.547033906    0.557344615    0.234375596
    0.359533906    0.494844645    0.312500745
    0.172033846    0.432344645    0.390625983
    0.109533839    0.244844615    0.000000019
    0.922033846    0.182344615    0.078125201
    0.734533787    0.119844608    0.156250417
    0.547033787    0.057344612    0.234375596
    0.359533846    0.994844615    0.312500775
    0.172033787    0.932344615    0.390625954
    0.359533846    0.494844615    0.000000019
    0.172033802    0.432344586    0.078125216
    0.984533787    0.369844586    0.156250417
    0.797033787    0.307344586    0.234375596
    0.609533846    0.244844601    0.312500775
    0.422033846    0.182344586    0.390625954
    0.609533846    0.744844615    0.000000020
    0.422033846    0.682344615    0.078125209
    0.234533831    0.619844615    0.156250417
    0.047033835    0.557344615    0.234375596
    0.859533906    0.494844615    0.312500775
    0.672033846    0.432344615    0.390625983
    0.359533846    0.994844615    0.000000016
    0.172033846    0.932344615    0.078125209
    0.984533846    0.869844615    0.156250432
    0.797033846    0.807344615    0.234375596
    0.609533906    0.744844615    0.312500775
    0.422033787    0.682344556    0.390625983
    0.609533846    0.244844645    0.000000016
    0.422033846    0.182344615    0.078125209
    0.234533831    0.119844623    0.156250432
    0.047033869    0.057344630    0.234375596
    0.859533906    0.994844615    0.312500775
    0.672033906    0.932344675    0.390625983
    0.859533846    0.494844615    0.000000017
    0.672033846    0.432344615    0.078125209
    0.484533846    0.369844586    0.156250432
    0.297033876    0.307344586    0.234375596
    0.109533891    0.244844586    0.312500775
    0.922033846    0.182344586    0.390625983
    0.859533906    0.994844615    0.000000000
    0.672033846    0.932344615    0.078125201
    0.484533846    0.869844615    0.156250387
    0.297033876    0.807344615    0.234375566
    0.109533943    0.744844556    0.312500775
    0.922033906    0.682344615    0.390625954
    0.984533846    0.869844675    0.000000024
    0.797033787    0.807344615    0.078125224
    0.609533787    0.744844615    0.156250417
    0.422033787    0.682344675    0.234375626
    0.234533906    0.619844675    0.312500805
    0.047033846    0.557344615    0.390625983
    0.984533846    0.369844615    0.000000007
    0.797033846    0.307344615    0.078125209
    0.609533787    0.244844601    0.156250417
    0.422033846    0.182344586    0.234375596
    0.234533846    0.119844586    0.312500745
    0.047033846    0.057344574    0.390625954
    0.234533876    0.619844615    0.000000007
    0.047033843    0.557344615    0.078125209
    0.859533846    0.494844615    0.156250417
    0.672033906    0.432344615    0.234375596
    0.484533906    0.369844615    0.312500745
    0.297033906    0.307344615    0.390625954
    0.484533846    0.869844615    0.000000007
    0.297033846    0.807344615    0.078125209
    0.109533831    0.744844615    0.156250417
    0.922033846    0.682344615    0.234375596
    0.734533906    0.619844615    0.312500745
    0.547033906    0.557344615    0.390625954
    0.234533846    0.119844615    0.000000017
    0.047033846    0.057344612    0.078125209
    0.859533787    0.994844615    0.156250402
    0.672033846    0.932344615    0.234375596
    0.484533846    0.869844615    0.312500775
    0.297033846    0.807344556    0.390625954
    0.484533876    0.369844645    0.000000017
    0.297033846    0.307344615    0.078125209
    0.109533839    0.244844630    0.156250402
    0.922033846    0.182344630    0.234375596
    0.734533906    0.119844630    0.312500775
    0.547033906    0.057344627    0.390625954
    0.734533846    0.619844615    0.000000017
    0.547033846    0.557344615    0.078125209
    0.359533817    0.494844645    0.156250417
    0.172033846    0.432344615    0.234375596
    0.984533846    0.369844615    0.312500745
    0.797033846    0.307344615    0.390625983
    0.734533846    0.119844615    0.000000014
    0.547033787    0.057344597    0.078125216
    0.359533787    0.994844556    0.156250417
    0.172033817    0.932344615    0.234375596
    0.984533846    0.869844615    0.312500775
    0.797033846    0.807344556    0.390625954
    0.381186187    0.743683517    0.471299171
    0.422852933    0.368683457    0.560904741
    0.464519739    0.993683457    0.650510252
    0.506186366    0.618683457    0.740115702
    0.547853172    0.243683338    0.829721272
    0.589519918    0.868683457    0.919326723
    0.714519501    0.743683517    0.471299171
    0.756186247    0.368683457    0.560904741
    0.797852993    0.993683457    0.650510252
    0.839519799    0.618683457    0.740115702
    0.881186545    0.243683338    0.829721272
    0.922853231    0.868683457    0.919326723
    0.047852874    0.743683517    0.471299171
    0.089519620    0.368683457    0.560904741
    0.131186366    0.993683457    0.650510252
    0.172853112    0.618683457    0.740115702
    0.214519814    0.243683338    0.829721272
    0.256186664    0.868683457    0.919326723
    0.214519516    0.243683457    0.471299171
    0.256186247    0.868683457    0.560904741
    0.297853023    0.493683428    0.650510252
    0.339519709    0.118683457    0.740115702
    0.381186485    0.743683338    0.829721272
    0.422853291    0.368683308    0.919326782
    0.547852874    0.243683457    0.471299171
    0.589519680    0.868683457    0.560904741
    0.631186366    0.493683428    0.650510252
    0.672853053    0.118683457    0.740115702
    0.714519799    0.743683338    0.829721272
    0.756186604    0.368683308    0.919326782
    0.881186128    0.243683457    0.471299171
    0.922853053    0.868683457    0.560904741
    0.964519620    0.493683428    0.650510252
    0.006186485    0.118683457    0.740115702
    0.047853231    0.743683338    0.829721272
    0.089519978    0.368683308    0.919326782
    0.464519501    0.993683457    0.471299201
    0.506186247    0.618683457    0.560904741
    0.547852993    0.243683457    0.650510252
    0.589519739    0.868683457    0.740115702
    0.631186485    0.493683368    0.829721272
    0.672853291    0.118683338    0.919326782
    0.797852933    0.993683457    0.471299201
    0.839519680    0.618683457    0.560904741
    0.881186366    0.243683457    0.650510252
    0.922853053    0.868683457    0.740115702
    0.964519858    0.493683368    0.829721272
    0.006186604    0.118683338    0.919326782
    0.131186128    0.993683457    0.471299201
    0.172853112    0.618683457    0.560904741
    0.214519575    0.243683457    0.650510252
    0.256186545    0.868683457    0.740115702
    0.297853172    0.493683368    0.829721272
    0.339519918    0.118683338    0.919326782
    0.297852844    0.493683487    0.471299171
    0.339519590    0.118683457    0.560904741
    0.381186366    0.743683457    0.650510252
    0.422853053    0.368683428    0.740115702
    0.464519799    0.993683338    0.829721272
    0.506186604    0.618683457    0.919326723
    0.631186247    0.493683487    0.471299171
    0.672852993    0.118683457    0.560904741
    0.714519739    0.743683457    0.650510252
    0.756186426    0.368683428    0.740115702
    0.797853172    0.993683338    0.829721272
    0.839519918    0.618683457    0.919326723
    0.964519501    0.493683487    0.471299171
    0.006186366    0.118683457    0.560904741
    0.047852993    0.743683457    0.650510252
    0.089519858    0.368683428    0.740115702
    0.131186485    0.993683338    0.829721272
    0.172853351    0.618683457    0.919326723
    0.339519501    0.868683457    0.471299171
    0.381186247    0.493683457    0.560904741
    0.422852993    0.118683457    0.650510252
    0.464519739    0.743683457    0.740115702
    0.506186485    0.368683249    0.829721272
    0.547853231    0.993683338    0.919326782
    0.672852874    0.868683457    0.471299171
    0.714519620    0.493683457    0.560904741
    0.756186366    0.118683457    0.650510252
    0.797853112    0.743683457    0.740115702
    0.839519858    0.368683249    0.829721272
    0.881186604    0.993683338    0.919326782
    0.006186247    0.868683457    0.471299171
    0.047853112    0.493683457    0.560904741
    0.089519858    0.118683457    0.650510252
    0.131186485    0.743683457    0.740115702
    0.172853231    0.368683249    0.829721272
    0.214520052    0.993683338    0.919326782
    0.506186247    0.368683487    0.471299171
    0.547852933    0.993683457    0.560904741
    0.589519680    0.618683457    0.650510252
    0.631186485    0.243683457    0.740115702
    0.672853231    0.868683338    0.829721272
    0.714519858    0.493683308    0.919326782
    0.839519560    0.368683487    0.471299171
    0.881186247    0.993683457    0.560904741
    0.922853053    0.618683457    0.650510252
    0.964519858    0.243683457    0.740115702
    0.006186604    0.868683338    0.829721272
    0.047853231    0.493683308    0.919326782
    0.172852993    0.368683487    0.471299171
    0.214519694    0.993683457    0.560904741
    0.256186426    0.618683457    0.650510252
    0.297853172    0.243683457    0.740115702
    0.339519918    0.868683338    0.829721272
    0.381186545    0.493683308    0.919326782
    0.422852844    0.118683577    0.471299201
    0.464519560    0.743683457    0.560904741
    0.506186366    0.368683457    0.650510252
    0.547853053    0.993683457    0.740115702
    0.589519799    0.618683338    0.829721272
    0.631186604    0.243683338    0.919326723
    0.756186187    0.118683577    0.471299201
    0.797852874    0.743683457    0.560904741
    0.839519620    0.368683457    0.650510252
    0.881186366    0.993683457    0.740115702
    0.922853172    0.618683338    0.829721272
    0.964519858    0.243683338    0.919326723
    0.089519501    0.118683577    0.471299201
    0.131186247    0.743683457    0.560904741
    0.172852993    0.368683457    0.650510252
    0.214519814    0.993683457    0.740115702
    0.256186545    0.618683338    0.829721272
    0.297853172    0.243683338    0.919326723
    0.256186157    0.618683457    0.471299171
    0.297852904    0.243683457    0.560904741
    0.339519680    0.868683457    0.650510252
    0.381186396    0.493683428    0.740115702
    0.422853112    0.118683338    0.829721212
    0.464519858    0.743683338    0.919326782
    0.589519560    0.618683457    0.471299171
    0.631186306    0.243683457    0.560904741
    0.672853053    0.868683457    0.650510252
    0.714519739    0.493683428    0.740115702
    0.756186426    0.118683338    0.829721212
    0.797853231    0.743683338    0.919326782
    0.922852874    0.618683457    0.471299171
    0.964519680    0.243683457    0.560904741
    0.006186366    0.868683457    0.650510252
    0.047853112    0.493683428    0.740115702
    0.089519978    0.118683338    0.829721212
    0.131186604    0.743683338    0.919326782
