Si+C
    1.000000000
   16.293001175    0.000000000    0.000000000
  -10.862000465   12.144085884    0.000000000
    0.000000000    0.000000000    7.994749546
Si  C  
36     84
Direct
    0.982905626    0.641025126    0.000000002
    0.782905579    0.341025025    0.151900828
    0.582905412    0.041024935    0.303801656
    0.982905626    0.307691783    0.000000002
    0.782905579    0.007691715    0.151900828
    0.582905412    0.707691669    0.303801656
    0.982905626    0.974358499    0.000000002
    0.782905579    0.674358368    0.151900828
    0.582905412    0.374358296    0.303801656
    0.632905662    0.657691717    0.075950257
    0.432905585    0.357691616    0.227851093
    0.232905522    0.057691578    0.379751921
    0.632905662    0.324358463    0.075950257
    0.432905585    0.024358369    0.227851093
    0.232905522    0.724358320    0.379751921
    0.632905662    0.991025209    0.075950257
    0.432905585    0.691025138    0.227851093
    0.232905522    0.391025066    0.379751921
    0.482905626    0.807691753    0.000000000
    0.282905549    0.507691622    0.151900828
    0.082905442    0.207691610    0.303801656
    0.482905626    0.474358439    0.000000000
    0.282905549    0.174358353    0.151900828
    0.082905442    0.874358296    0.303801656
    0.482905626    0.141025141    0.000000000
    0.282905549    0.841025054    0.151900828
    0.082905442    0.541024983    0.303801656
    0.132905677    0.824358523    0.075950272
    0.932905555    0.524358392    0.227851093
    0.732905507    0.224358380    0.379751921
    0.132905677    0.491025209    0.075950272
    0.932905555    0.191025108    0.227851093
    0.732905507    0.891025126    0.379751921
    0.132905677    0.157691956    0.075950272
    0.932905555    0.857691884    0.227851093
    0.732905507    0.557691932    0.379751921
    0.765555501    0.095846057    0.565175176
    0.008412719    0.067274570    0.664935827
    0.251269937    0.038703084    0.764696479
    0.051269770    0.238703191    0.565175176
    0.294126987    0.210131705    0.664935827
    0.536984205    0.181560233    0.764696479
    0.336983919    0.381560296    0.565175176
    0.579841256    0.352988809    0.664935827
    0.822698534    0.324417353    0.764696479
    0.622698307    0.524417520    0.565175176
    0.865555584    0.495846003    0.664935827
    0.108412981    0.467274547    0.764696479
    0.908412635    0.667274594    0.565175176
    0.151269913    0.638703167    0.664935827
    0.394127131    0.610131681    0.764696479
    0.194126964    0.810131788    0.565175176
    0.436984181    0.781560302    0.664935827
    0.679841399    0.752988815    0.764696479
    0.479841232    0.952988923    0.565175176
    0.722698450    0.924417377    0.664935827
    0.965555608    0.895845950    0.764696479
    0.601269722    0.188703194    0.615055442
    0.844126999    0.160131723    0.714816093
    0.086984158    0.131560206    0.814576626
    0.886983871    0.331560314    0.615055442
    0.129841089    0.302988857    0.714816093
    0.372698307    0.274417341    0.814576745
    0.172698259    0.474417508    0.615055442
    0.415555477    0.445846021    0.714816093
    0.658412695    0.417274535    0.814576745
    0.458412647    0.617274642    0.615055442
    0.701269865    0.588703156    0.714816093
    0.944127142    0.560131729    0.814576745
    0.744126737    0.760131776    0.615055442
    0.986984074    0.731560290    0.714816093
    0.229841232    0.702988803    0.814576745
    0.029841185    0.902988911    0.615055442
    0.272698402    0.874417365    0.714816093
    0.515555620    0.845845938    0.814576626
    0.315555334    0.045845985    0.615055442
    0.558412552    0.017274618    0.714816093
    0.801269829    0.988703072    0.814576626
    0.408412695    0.167274639    0.565175176
    0.651269913    0.138703138    0.664935827
    0.894127190    0.110131711    0.764696479
    0.694127083    0.310131788    0.565175176
    0.936984241    0.281560272    0.664935827
    0.179841280    0.252988786    0.764696479
    0.979841232    0.452988923    0.565175176
    0.222698450    0.424417436    0.664935827
    0.465555668    0.395845950    0.764696479
    0.265555382    0.595846057    0.565175176
    0.508412719    0.567274570    0.664935827
    0.751269996    0.538703084    0.764696479
    0.551269770    0.738703191    0.565175176
    0.794127047    0.710131764    0.664935827
    0.036984205    0.681560218    0.764696479
    0.836984038    0.881560385    0.565175176
    0.079841256    0.852988958    0.664935827
    0.322698593    0.824417472    0.764696479
    0.122698307    0.024417520    0.565175176
    0.365555525    0.995846093    0.664935827
    0.608412862    0.967274606    0.764696479
    0.958412647    0.117274627    0.615055442
    0.201269865    0.088703156    0.714816093
    0.444127202    0.060131669    0.814576745
    0.244126797    0.260131776    0.615055442
    0.486984015    0.231560275    0.714816093
    0.729841232    0.202988833    0.814576626
    0.529841065    0.402988881    0.615055442
    0.772698462    0.374417454    0.714816093
    0.015555620    0.345845997    0.814576626
    0.815555274    0.545846045    0.615055442
    0.058412552    0.517274618    0.714816093
    0.301269770    0.488703072    0.814576626
    0.101269722    0.688703120    0.615055442
    0.344127059    0.660131633    0.714816093
    0.586984277    0.631560206    0.814576745
    0.386984110    0.831560314    0.615055442
    0.629841328    0.802988827    0.714816093
    0.872698605    0.774417460    0.814576745
    0.672698259    0.974417448    0.615055442
    0.915555537    0.945846021    0.714816093
    0.158412695    0.917274535    0.814576745
