fcc Si+fcc Ge
    1.000000000
   12.253652517    0.000000000    0.000000000
    2.450730503   18.009117691    0.000000000
    0.000000000    0.000000000   23.943001579
Si    Ge   
72     154
Direct
    0.666666667    0.666666667    0.000000000
    0.027777778    0.361111111    0.046719302
    0.388888889    0.055555556    0.093438604
    0.750000000    0.750000000    0.140157905
    0.111111111    0.444444444    0.186877207
    0.472222222    0.138888889    0.233596509
    0.333333333    0.333333333    0.000000000
    0.694444444    0.027777778    0.046719302
    0.055555556    0.722222222    0.093438604
    0.416666667    0.416666667    0.140157905
    0.777777778    0.111111111    0.186877207
    0.138888889    0.805555556    0.233596509
    0.000000000    0.000000000    0.000000000
    0.361111111    0.694444444    0.046719302
    0.722222222    0.388888889    0.093438604
    0.083333333    0.083333333    0.140157905
    0.444444444    0.777777778    0.186877207
    0.805555556    0.472222222    0.233596509
    0.833333333    0.833333333    0.000000000
    0.194444444    0.527777778    0.046719302
    0.555555556    0.222222222    0.093438604
    0.916666667    0.916666667    0.140157905
    0.277777778    0.611111111    0.186877207
    0.638888889    0.305555556    0.233596509
    0.500000000    0.500000000    0.000000000
    0.861111111    0.194444444    0.046719302
    0.222222222    0.888888889    0.093438604
    0.583333333    0.583333333    0.140157905
    0.944444444    0.277777778    0.186877207
    0.305555556    0.972222222    0.233596509
    0.166666667    0.166666667    0.000000000
    0.527777778    0.861111111    0.046719302
    0.888888889    0.555555556    0.093438604
    0.250000000    0.250000000    0.140157905
    0.611111111    0.944444444    0.186877207
    0.972222222    0.638888889    0.233596509
    0.000000000    0.750000000    0.000000000
    0.361111111    0.444444444    0.046719302
    0.722222222    0.138888889    0.093438604
    0.083333333    0.833333333    0.140157905
    0.444444444    0.527777778    0.186877207
    0.805555556    0.222222222    0.233596509
    0.666666667    0.416666667    0.000000000
    0.027777778    0.111111111    0.046719302
    0.388888889    0.805555556    0.093438604
    0.750000000    0.500000000    0.140157905
    0.111111111    0.194444444    0.186877207
    0.472222222    0.888888889    0.233596509
    0.333333333    0.083333333    0.000000000
    0.694444444    0.777777778    0.046719302
    0.055555556    0.472222222    0.093438604
    0.416666667    0.166666667    0.140157905
    0.777777778    0.861111111    0.186877207
    0.138888889    0.555555556    0.233596509
    0.166666667    0.916666667    0.000000000
    0.527777778    0.611111111    0.046719302
    0.888888889    0.305555556    0.093438604
    0.250000000    0.000000000    0.140157905
    0.611111111    0.694444444    0.186877207
    0.972222222    0.388888889    0.233596509
    0.833333333    0.583333333    0.000000000
    0.194444444    0.277777778    0.046719302
    0.555555556    0.972222222    0.093438604
    0.916666667    0.666666667    0.140157905
    0.277777778    0.361111111    0.186877207
    0.638888889    0.055555556    0.233596509
    0.500000000    0.250000000    0.000000000
    0.861111111    0.944444444    0.046719302
    0.222222222    0.638888889    0.093438604
    0.583333333    0.333333333    0.140157905
    0.944444444    0.027777778    0.186877207
    0.305555556    0.722222222    0.233596509
    0.538056206    0.217245462    0.380403499
    0.323770492    0.288674033    0.498600877
    0.109484778    0.360102605    0.616798254
    0.895199063    0.431531176    0.734995632
    0.680913349    0.502959747    0.853193010
    0.680913349    0.502959747    0.380403499
    0.466627635    0.574388319    0.498600877
    0.252341920    0.645816890    0.616798254
    0.038056206    0.717245462    0.734995632
    0.823770492    0.788674033    0.853193010
    0.823770492    0.788674033    0.380403499
    0.609484778    0.860102605    0.498600877
    0.395199063    0.931531176    0.616798254
    0.180913349    0.002959747    0.734995632
    0.966627635    0.074388319    0.853193010
    0.966627635    0.074388319    0.380403499
    0.752341920    0.145816890    0.498600877
    0.538056206    0.217245462    0.616798254
    0.323770492    0.288674033    0.734995632
    0.109484778    0.360102605    0.853193010
    0.109484778    0.360102605    0.380403499
    0.895199063    0.431531176    0.498600877
    0.680913349    0.502959747    0.616798254
    0.466627635    0.574388319    0.734995632
    0.252341920    0.645816890    0.853193010
    0.252341920    0.645816890    0.380403499
    0.038056206    0.717245462    0.498600877
    0.823770492    0.788674033    0.616798254
    0.609484778    0.860102605    0.734995632
    0.395199063    0.931531176    0.853193010
    0.395199063    0.931531176    0.380403499
    0.180913349    0.002959747    0.498600877
    0.966627635    0.074388319    0.616798254
    0.752341920    0.145816890    0.734995632
    0.538056206    0.217245462    0.853193010
    0.823770492    0.288674033    0.380403499
    0.609484778    0.360102605    0.498600877
    0.395199063    0.431531176    0.616798254
    0.180913349    0.502959747    0.734995632
    0.966627635    0.574388319    0.853193010
    0.252341920    0.145816890    0.380403499
    0.038056206    0.217245462    0.498600877
    0.823770492    0.288674033    0.616798254
    0.609484778    0.360102605    0.734995632
    0.395199063    0.431531176    0.853193010
    0.395199063    0.431531176    0.380403499
    0.180913349    0.502959747    0.498600877
    0.966627635    0.574388319    0.616798254
    0.752341920    0.645816890    0.734995632
    0.538056206    0.717245462    0.853193010
    0.538056206    0.717245462    0.380403499
    0.323770492    0.788674033    0.498600877
    0.109484778    0.860102605    0.616798254
    0.895199063    0.931531176    0.734995632
    0.680913349    0.002959747    0.853193010
    0.680913349    0.002959747    0.380403499
    0.466627635    0.074388319    0.498600877
    0.252341920    0.145816890    0.616798254
    0.038056206    0.217245462    0.734995632
    0.823770492    0.288674033    0.853193010
    0.966627635    0.574388319    0.380403499
    0.752341920    0.645816890    0.498600877
    0.538056206    0.717245462    0.616798254
    0.323770492    0.788674033    0.734995632
    0.109484778    0.860102605    0.853193010
    0.109484778    0.860102605    0.380403499
    0.895199063    0.931531176    0.498600877
    0.680913349    0.002959747    0.616798254
    0.466627635    0.074388319    0.734995632
    0.252341920    0.145816890    0.853193010
    0.109484778    0.110102605    0.321304810
    0.895199063    0.181531176    0.439502188
    0.680913349    0.252959747    0.557699566
    0.466627635    0.324388319    0.675896943
    0.252341920    0.395816890    0.794094321
    0.038056206    0.467245462    0.912291699
    0.680913349    0.252959747    0.321304810
    0.466627635    0.324388319    0.439502188
    0.252341920    0.395816890    0.557699566
    0.038056206    0.467245462    0.675896943
    0.823770492    0.538674033    0.794094321
    0.609484778    0.610102605    0.912291699
    0.823770492    0.538674033    0.321304810
    0.609484778    0.610102605    0.439502188
    0.395199063    0.681531176    0.557699566
    0.180913349    0.752959747    0.675896943
    0.966627635    0.824388319    0.794094321
    0.752341920    0.895816890    0.912291699
    0.966627635    0.824388319    0.321304810
    0.752341920    0.895816890    0.439502188
    0.538056206    0.967245462    0.557699566
    0.323770492    0.038674033    0.675896943
    0.109484778    0.110102605    0.794094321
    0.895199063    0.181531176    0.912291699
    0.252341920    0.395816890    0.321304810
    0.038056206    0.467245462    0.439502188
    0.823770492    0.538674033    0.557699566
    0.609484778    0.610102605    0.675896943
    0.395199063    0.681531176    0.794094321
    0.180913349    0.752959747    0.912291699
    0.395199063    0.681531176    0.321304810
    0.180913349    0.752959747    0.439502188
    0.966627635    0.824388319    0.557699566
    0.752341920    0.895816890    0.675896943
    0.538056206    0.967245462    0.794094321
    0.323770492    0.038674033    0.912291699
    0.538056206    0.967245462    0.321304810
    0.323770492    0.038674033    0.439502188
    0.109484778    0.110102605    0.557699566
    0.895199063    0.181531176    0.675896943
    0.680913349    0.252959747    0.794094321
    0.466627635    0.324388319    0.912291699
    0.823770492    0.038674033    0.321304810
    0.609484778    0.110102605    0.439502188
    0.395199063    0.181531176    0.557699566
    0.180913349    0.252959747    0.675896943
    0.966627635    0.324388319    0.794094321
    0.752341920    0.395816890    0.912291699
    0.966627635    0.324388319    0.321304810
    0.752341920    0.395816890    0.439502188
    0.538056206    0.467245462    0.557699566
    0.323770492    0.538674033    0.675896943
    0.109484778    0.610102605    0.794094321
    0.895199063    0.681531176    0.912291699
    0.109484778    0.610102605    0.321304810
    0.895199063    0.681531176    0.439502188
    0.680913349    0.752959747    0.557699566
    0.466627635    0.824388319    0.675896943
    0.252341920    0.895816890    0.794094321
    0.038056206    0.967245462    0.912291699
    0.395199063    0.181531176    0.321304810
    0.180913349    0.252959747    0.439502188
    0.966627635    0.324388319    0.557699566
    0.752341920    0.395816890    0.675896943
    0.538056206    0.467245462    0.794094321
    0.323770492    0.538674033    0.912291699
    0.538056206    0.467245462    0.321304810
    0.323770492    0.538674033    0.439502188
    0.109484778    0.610102605    0.557699566
    0.895199063    0.681531176    0.675896943
    0.680913349    0.752959747    0.794094321
    0.466627635    0.824388319    0.912291699
    0.680913349    0.752959747    0.321304810
    0.466627635    0.824388319    0.439502188
    0.252341920    0.895816890    0.557699566
    0.038056206    0.967245462    0.675896943
    0.823770492    0.038674033    0.794094321
    0.609484778    0.110102605    0.912291699
    0.252341920    0.895816890    0.321304810
    0.038056206    0.967245462    0.439502188
    0.823770492    0.038674033    0.557699566
    0.609484778    0.110102605    0.675896943
    0.395199063    0.181531176    0.794094321
    0.180913349    0.252959747    0.912291699
