Si+Ge
    1.000000000
    7.680594444    0.000000000    0.000000000
    0.000000000   16.292999268    0.000000000
    0.000000000    0.000000000   10.272501945
Si  Ge 
24     48
Direct
    0.943514049    0.912132978    0.000000008
    0.693513989    0.523244023    0.062307116
    0.443513989    0.134355128    0.124614269
    0.193513930    0.745466113    0.186921343
    0.943513870    0.356577158    0.249228522
    0.693513751    0.967687845    0.311535567
    0.193514079    0.662133038    0.000000000
    0.943514049    0.273244023    0.062307116
    0.693514049    0.884355128    0.124614231
    0.443513870    0.495466053    0.186921373
    0.193513811    0.106577039    0.249228463
    0.943513751    0.717687964    0.311535686
    0.693514168    0.662133038    0.000000000
    0.443514049    0.273243994    0.062307104
    0.193514034    0.884355068    0.124614231
    0.943513989    0.495466053    0.186921373
    0.693513870    0.106577039    0.249228463
    0.443513811    0.717687964    0.311535656
    0.443514079    0.912132978    0.000000005
    0.193513989    0.523244023    0.062307142
    0.943513989    0.134355128    0.124614269
    0.693513989    0.745466113    0.186921343
    0.443513930    0.356577039    0.249228522
    0.193513691    0.967688084    0.311535686
    0.991458297    0.995729148    0.311535716
    0.741458297    0.870729148    0.586921394
    0.491458297    0.745729148    0.862307072
    0.991458237    0.495729089    0.311535716
    0.741458297    0.370729119    0.586921394
    0.491458297    0.245729119    0.862307072
    0.491458237    0.245729119    0.311535716
    0.241458267    0.120729133    0.586921394
    0.991458297    0.995729148    0.862307072
    0.491458237    0.745729089    0.311535716
    0.241458282    0.620729089    0.586921394
    0.991458237    0.495729089    0.862307072
    0.241458282    0.995729148    0.449228525
    0.991458297    0.870729148    0.724614203
    0.741458297    0.745729148    1.000000000
    0.241458237    0.495729089    0.449228525
    0.991458237    0.370729089    0.724614203
    0.741458237    0.245729089    1.000000000
    0.741458297    0.245729148    0.449228525
    0.491458297    0.120729148    0.724614203
    0.241458282    0.995729148    1.000000000
    0.741458297    0.745729089    0.449228525
    0.491458267    0.620729089    0.724614203
    0.241458267    0.495729119    1.000000000
    0.991458297    0.245729133    0.311535716
    0.741458297    0.120729133    0.586921394
    0.491458297    0.995729148    0.862307072
    0.491458267    0.995729148    0.311535716
    0.241458267    0.870729148    0.586921394
    0.991458297    0.745729148    0.862307072
    0.991458237    0.745729148    0.311535716
    0.741458297    0.620729148    0.586921394
    0.491458297    0.495729148    0.862307072
    0.491458267    0.495729119    0.311535716
    0.241458312    0.370729148    0.586921394
    0.991458297    0.245729148    0.862307072
    0.241458282    0.245729119    0.449228525
    0.991458297    0.120729133    0.724614203
    0.741458297    0.995729148    1.000000000
    0.741458237    0.995729148    0.449228525
    0.491458267    0.870729148    0.724614203
    0.241458252    0.745729089    1.000000000
    0.241458282    0.745729089    0.449228525
    0.991458297    0.620729089    0.724614203
    0.741458297    0.495729089    1.000000000
    0.741458237    0.495729089    0.449228525
    0.491458267    0.370729119    0.724614203
    0.241458252    0.245729089    1.000000000
