Si+C
    1.000000000
   13.303179741    0.000000000    0.000000000
    6.651589394   14.873406410    0.000000000
    0.000000000    0.000000000    5.029924870
Si  C  
36     84
Direct
    0.283249497    0.641624749    0.000000074
    0.816582799    0.408291280    0.241436899
    0.349915981    0.174957767    0.482873797
    0.616582751    0.308291376    0.000000090
    0.149916053    0.074957930    0.241436899
    0.683249235    0.841624439    0.482873768
    0.949916124    0.974958062    0.000000063
    0.483249485    0.741624594    0.241436899
    0.016582668    0.508291125    0.482873768
    0.799916267    0.774958014    0.120718256
    0.333249509    0.541624546    0.362155139
    0.866582751    0.308291078    0.603592038
    0.133249685    0.441624761    0.120718278
    0.666582942    0.208291277    0.362155139
    0.199916244    0.974957764    0.603592038
    0.466582894    0.108291537    0.120718278
    0.999916136    0.874958038    0.362155139
    0.533249378    0.641624570    0.603592038
    0.783249557    0.641624749    0.000000000
    0.316582829    0.408291280    0.241436884
    0.849916041    0.174957782    0.482873797
    0.116582796    0.308291405    0.000000090
    0.649916053    0.074957952    0.241436943
    0.183249295    0.841624498    0.482873797
    0.449916124    0.974958062    0.000000090
    0.983249426    0.741624594    0.241436943
    0.516582668    0.508291125    0.482873797
    0.299916178    0.774958134    0.120718278
    0.833249450    0.541624665    0.362155199
    0.366582692    0.308291197    0.603591979
    0.633249402    0.441624731    0.120718308
    0.166582644    0.208291262    0.362155199
    0.699915946    0.974957824    0.603591919
    0.966582716    0.108291551    0.120718278
    0.499915957    0.874958038    0.362155199
    0.033249259    0.641624629    0.603592038
    0.997080624    0.027734149    0.603592038
    0.968509018    0.299162775    0.762155414
    0.939937472    0.570591390    0.920718551
    0.139937744    0.170591295    0.603592038
    0.111366190    0.442019910    0.762155414
    0.082794659    0.713448584    0.920718551
    0.282794893    0.313448459    0.603592038
    0.254223317    0.584877074    0.762155414
    0.225651801    0.856305778    0.920718670
    0.425652027    0.456305593    0.603592038
    0.397080481    0.727734268    0.762155414
    0.368508935    0.999162912    0.920718670
    0.568509161    0.599162757    0.603592038
    0.539937556    0.870591342    0.762155414
    0.511366010    0.142019987    0.920718670
    0.711366296    0.742019832    0.603592038
    0.682794750    0.013448477    0.762155414
    0.654223204    0.284877062    0.920718551
    0.854223490    0.884877086    0.603592038
    0.825651944    0.156305671    0.762155414
    0.797080278    0.427734256    0.920718670
    0.089937784    0.770591140    0.682873607
    0.061366241    0.042019725    0.841436863
    0.032794744    0.313448429    1.000000000
    0.232794881    0.913448393    0.682873607
    0.204223335    0.184877038    0.841436744
    0.175651774    0.456305742    1.000000000
    0.375652045    0.056305528    0.682873607
    0.347080469    0.327734232    0.841436744
    0.318508863    0.599162817    1.000000000
    0.518509150    0.199162588    0.682873607
    0.489937633    0.470591247    0.841436863
    0.461365998    0.742019773    1.000000000
    0.661366284    0.342019886    0.682873607
    0.632794738    0.613448501    0.841436863
    0.604223192    0.884877145    1.000000000
    0.804223418    0.484876990    0.682873607
    0.775651872    0.756305635    0.841436863
    0.747080386    0.027734280    1.000000000
    0.947080612    0.627734125    0.682873607
    0.918509126    0.899162769    0.841436863
    0.889937460    0.170591235    1.000000000
    0.068509139    0.599162698    0.603592038
    0.039937619    0.870591342    0.762155414
    0.011366037    0.142019987    0.920718551
    0.211366281    0.742019832    0.603592038
    0.182794750    0.013448477    0.762155414
    0.154223263    0.284877181    0.920718670
    0.354223490    0.884876966    0.603592038
    0.325651973    0.156305671    0.762155414
    0.297080338    0.427734256    0.920718551
    0.497080624    0.027734149    0.603592038
    0.468509018    0.299162775    0.762155414
    0.439937502    0.570591390    0.920718670
    0.639937758    0.170591235    0.603592038
    0.611366212    0.442019880    0.762155414
    0.582794666    0.713448524    0.920718670
    0.782794952    0.313448459    0.603592038
    0.754223347    0.584877074    0.762155414
    0.725651860    0.856305718    0.920718670
    0.925652087    0.456305563    0.603592038
    0.897080481    0.727734208    0.762155414
    0.868508935    0.999162793    0.920718670
    0.018509172    0.199162617    0.682873607
    0.989937663    0.470591247    0.841436744
    0.961366057    0.742019892    1.000000000
    0.161366329    0.342019677    0.682873607
    0.132794783    0.613448322    0.841436863
    0.104223244    0.884876907    1.000000000
    0.304223448    0.484876961    0.682873607
    0.275651902    0.756305575    0.841436863
    0.247080326    0.027734160    1.000000000
    0.447080612    0.627734065    0.682873607
    0.418509036    0.899162650    0.841436744
    0.389937520    0.170591235    1.000000000
    0.589937687    0.770591080    0.682873607
    0.561366200    0.042019725    0.841436744
    0.532794654    0.313448429    1.000000000
    0.732794821    0.913448334    0.682873607
    0.704223275    0.184877038    0.841436863
    0.675651729    0.456305504    1.000000000
    0.875652015    0.056305408    0.682873607
    0.847080410    0.327733994    0.841436744
    0.818508804    0.599162579    1.000000000
