Sn+Ge
    1.000000000
   19.467599869    0.000000000    0.000000000
    6.489200115   18.354230881    0.000000000
    0.000000000    0.000000000   21.473072052
Sn  Ge 
144     192
Direct
    0.991010249    0.991010249    0.000000017
    0.866010189    0.866010129    0.106844500
    0.741010189    0.741009951    0.213688970
    0.616010189    0.616009831    0.320533425
    0.491010129    0.491009712    0.427377969
    0.366010129    0.366009593    0.534222484
    0.991010249    0.324343592    0.000000017
    0.866010189    0.199343473    0.106844500
    0.741010189    0.074343339    0.213688970
    0.616010189    0.949343204    0.320533425
    0.491010129    0.824343085    0.427377969
    0.366010129    0.699342966    0.534222484
    0.991010249    0.657676935    0.000000017
    0.866010189    0.532676816    0.106844500
    0.741010189    0.407676697    0.213688970
    0.616010189    0.282676548    0.320533425
    0.491010129    0.157676399    0.427377969
    0.366010129    0.032676294    0.534222484
    0.491010249    0.157676876    0.000000016
    0.366010219    0.032676764    0.106844500
    0.241010219    0.907676637    0.213688970
    0.116010167    0.782676458    0.320533454
    0.991010129    0.657676339    0.427377969
    0.866010129    0.532676280    0.534222424
    0.491010249    0.491010368    0.000000016
    0.366010219    0.366010189    0.106844500
    0.241010219    0.241010040    0.213688970
    0.116010167    0.116009913    0.320533454
    0.991010129    0.991009772    0.427377969
    0.866010129    0.866009712    0.534222424
    0.491010249    0.824343622    0.000000016
    0.366010219    0.699343503    0.106844500
    0.241010219    0.574343324    0.213688970
    0.116010167    0.449343175    0.320533454
    0.991010129    0.324343055    0.427377969
    0.866010129    0.199342936    0.534222424
    0.241010249    0.241010264    0.000000012
    0.116010226    0.116010129    0.106844500
    0.991010189    0.991010010    0.213688970
    0.866010189    0.866009831    0.320533425
    0.741010129    0.741009712    0.427377969
    0.616010129    0.616009593    0.534222484
    0.241010249    0.574343681    0.000000012
    0.116010226    0.449343532    0.106844500
    0.991010189    0.324343383    0.213688970
    0.866010189    0.199343234    0.320533425
    0.741010129    0.074343123    0.427377969
    0.616010129    0.949343026    0.534222484
    0.241010249    0.907676935    0.000000012
    0.116010226    0.782676756    0.106844500
    0.991010189    0.657676637    0.213688970
    0.866010189    0.532676518    0.320533425
    0.741010129    0.407676429    0.427377969
    0.616010129    0.282676280    0.534222484
    0.741010249    0.074343577    0.000000006
    0.616010249    0.949343443    0.106844500
    0.491010219    0.824343324    0.213688970
    0.366010159    0.699343204    0.320533454
    0.241010144    0.574343085    0.427377969
    0.116010129    0.449342906    0.534222424
    0.741010249    0.407676876    0.000000006
    0.616010249    0.282676727    0.106844500
    0.491010219    0.157676622    0.213688970
    0.366010159    0.032676473    0.320533454
    0.241010144    0.907676339    0.427377969
    0.116010129    0.782676220    0.534222424
    0.741010249    0.741010249    0.000000006
    0.616010249    0.616010129    0.106844500
    0.491010219    0.491010010    0.213688970
    0.366010159    0.366009861    0.320533454
    0.241010144    0.241009742    0.427377969
    0.116010129    0.116009608    0.534222424
    0.366010249    0.116010241    0.000000022
    0.241010219    0.991010129    0.106844500
    0.116010211    0.866009951    0.213688970
    0.991010129    0.741009831    0.320533454
    0.866010129    0.616009712    0.427377969
    0.741010129    0.491009593    0.534222424
    0.366010249    0.449343652    0.000000022
    0.241010219    0.324343443    0.106844500
    0.116010211    0.199343339    0.213688970
    0.991010129    0.074343182    0.320533454
    0.866010129    0.949343085    0.427377969
    0.741010129    0.824342906    0.534222424
    0.366010249    0.782676995    0.000000022
    0.241010219    0.657676816    0.106844500
    0.116010211    0.532676697    0.213688970
    0.991010129    0.407676578    0.320533454
    0.866010129    0.282676458    0.427377969
    0.741010129    0.157676324    0.534222424
    0.866010308    0.282676965    0.000000000
    0.741010249    0.157676771    0.106844492
    0.616010249    0.032676667    0.213688970
    0.491010189    0.907676518    0.320533454
    0.366010189    0.782676399    0.427377969
    0.241010174    0.657676220    0.534222424
    0.866010308    0.616010368    0.000000000
    0.741010249    0.491010159    0.106844492
    0.616010249    0.366010010    0.213688970
    0.491010189    0.241009891    0.320533454
    0.366010189    0.116009764    0.427377969
    0.241010174    0.991009653    0.534222424
    0.866010308    0.949343622    0.000000000
    0.741010249    0.824343622    0.106844492
    0.616010249    0.699343443    0.213688970
    0.491010189    0.574343264    0.320533454
    0.366010189    0.449343115    0.427377969
    0.241010174    0.324343026    0.534222424
    0.116010241    0.199343547    0.000000017
    0.991010249    0.074343421    0.106844500
    0.866010189    0.949343324    0.213688970
    0.741010129    0.824343145    0.320533454
    0.616010129    0.699343026    0.427377969
    0.491010129    0.574342966    0.534222424
    0.116010241    0.532676935    0.000000017
    0.991010249    0.407676727    0.106844500
    0.866010189    0.282676637    0.213688970
    0.741010129    0.157676473    0.320533454
    0.616010129    0.032676354    0.427377969
    0.491010129    0.907676220    0.534222424
    0.116010241    0.866010368    0.000000017
    0.991010249    0.741010189    0.106844500
    0.866010189    0.616010070    0.213688970
    0.741010129    0.491009891    0.320533454
    0.616010129    0.366009802    0.427377969
    0.491010129    0.241009653    0.534222424
    0.616010249    0.032676876    0.000000027
    0.491010219    0.907676756    0.106844500
    0.366010219    0.782676637    0.213688970
    0.241010159    0.657676458    0.320533454
    0.116010137    0.532676339    0.427377969
    0.991010129    0.407676280    0.534222424
    0.616010249    0.366010308    0.000000027
    0.491010219    0.241010129    0.106844500
    0.366010219    0.116010010    0.213688970
    0.241010159    0.991009831    0.320533454
    0.116010137    0.866009712    0.427377969
    0.991010129    0.741009593    0.534222424
    0.616010249    0.699343562    0.000000027
    0.491010219    0.574343324    0.106844500
    0.366010219    0.449343294    0.213688970
    0.241010159    0.324343145    0.320533454
    0.116010137    0.199343026    0.427377969
    0.991010129    0.074342884    0.534222424
    0.974913299    0.941464424    0.534222484
    0.787413359    0.503964424    0.627377987
    0.599913359    0.066464484    0.720533490
    0.412413359    0.628964424    0.813688934
    0.224913359    0.191464543    0.906844497
    0.037413299    0.753964424    0.999999881
    0.974913359    0.441464454    0.534222484
    0.787413299    0.003964464    0.627377987
    0.599913359    0.566464424    0.720533490
    0.412413359    0.128964484    0.813688934
    0.224913359    0.691464543    0.906844497
    0.037413239    0.253964424    1.000000000
    0.224913329    0.191464439    0.534222484
    0.037413333    0.753964424    0.627377987
    0.849913359    0.316464424    0.720533490
    0.662413359    0.878964424    0.813688934
    0.474913359    0.441464543    0.906844497
    0.287413299    0.003964305    1.000000000
    0.474913329    0.941464484    0.534222484
    0.287413329    0.503964424    0.627377987
    0.099913359    0.066464424    0.720533490
    0.912413299    0.628964543    0.813688934
    0.724913418    0.191464543    0.906844497
    0.537413239    0.753964424    1.000000000
    0.224913329    0.691464484    0.534222484
    0.037413336    0.253964484    0.627377987
    0.849913359    0.816464484    0.720533490
    0.662413359    0.378964484    0.813688934
    0.474913299    0.941464543    0.906844497
    0.287413239    0.503964305    1.000000000
    0.474913329    0.441464454    0.534222484
    0.287413329    0.003964469    0.627377987
    0.099913344    0.566464424    0.720533490
    0.912413359    0.128964484    0.813688934
    0.724913359    0.691464543    0.906844497
    0.537413239    0.253964305    1.000000000
    0.724913359    0.191464454    0.534222484
    0.537413359    0.753964484    0.627377987
    0.349913299    0.316464543    0.720533490
    0.162413314    0.878964543    0.813688934
    0.974913359    0.441464424    0.906844497
    0.787413239    0.003964424    1.000000000
    0.724913359    0.691464484    0.534222484
    0.537413299    0.253964484    0.627377927
    0.349913329    0.816464424    0.720533490
    0.162413299    0.378964484    0.813688934
    0.974913299    0.941464543    0.906844497
    0.787413239    0.503964305    1.000000000
    0.099913329    0.066464439    0.534222484
    0.912413359    0.628964424    0.627377987
    0.724913359    0.191464484    0.720533490
    0.537413359    0.753964424    0.813688934
    0.349913299    0.316464543    0.906844497
    0.162413299    0.878964424    1.000000000
    0.099913321    0.566464484    0.534222484
    0.912413299    0.128964454    0.627377987
    0.724913359    0.691464424    0.720533490
    0.537413359    0.253964484    0.813688934
    0.349913299    0.816464543    0.906844497
    0.162413239    0.378964305    1.000000000
    0.349913329    0.316464454    0.534222484
    0.162413329    0.878964424    0.627377987
    0.974913359    0.441464484    0.720533490
    0.787413359    0.003964484    0.813688934
    0.599913359    0.566464543    0.906844497
    0.412413239    0.128964305    1.000000000
    0.599913359    0.066464446    0.534222484
    0.412413329    0.628964424    0.627377987
    0.224913359    0.191464484    0.720533490
    0.037413307    0.753964543    0.813688934
    0.849913359    0.316464424    0.906844497
    0.662413239    0.878964424    1.000000000
    0.349913359    0.816464484    0.534222484
    0.162413359    0.378964514    0.627377987
    0.974913359    0.941464484    0.720533490
    0.787413359    0.503964543    0.813688934
    0.599913359    0.066464543    0.906844497
    0.412413239    0.628964424    1.000000000
    0.599913359    0.566464484    0.534222484
    0.412413388    0.128964469    0.627377987
    0.224913374    0.691464484    0.720533490
    0.037413377    0.253964484    0.813688934
    0.849913359    0.816464543    0.906844497
    0.662413239    0.378964305    1.000000000
    0.849913418    0.316464454    0.534222484
    0.662413418    0.878964424    0.627377987
    0.474913418    0.441464484    0.720533490
    0.287413418    0.003964484    0.813688934
    0.099913411    0.566464424    0.906844497
    0.912413239    0.128964305    1.000000000
    0.849913359    0.816464484    0.534222484
    0.662413418    0.378964514    0.627377987
    0.474913388    0.941464484    0.720533490
    0.287413388    0.503964543    0.813688934
    0.099913426    0.066464484    0.906844497
    0.912413299    0.628964305    1.000000000
    0.099913329    0.191464439    0.534222484
    0.912413359    0.753964424    0.627377987
    0.724913359    0.316464484    0.720533490
    0.537413359    0.878964424    0.813688993
    0.349913299    0.441464424    0.906844497
    0.162413239    0.003964305    1.000000000
    0.349913329    0.941464424    0.534222484
    0.162413329    0.503964424    0.627377987
    0.974913359    0.066464484    0.720533490
    0.787413359    0.628964424    0.813688993
    0.599913299    0.191464543    0.906844497
    0.412413180    0.753964424    1.000000000
    0.099913351    0.691464484    0.534222484
    0.912413359    0.253964484    0.627377987
    0.724913359    0.816464484    0.720533490
    0.537413359    0.378964484    0.813688934
    0.349913359    0.941464543    0.906844497
    0.162413299    0.503964424    1.000000000
    0.349913299    0.441464424    0.534222484
    0.162413314    0.003964434    0.627377987
    0.974913299    0.566464424    0.720533490
    0.787413299    0.128964424    0.813688934
    0.599913359    0.691464424    0.906844497
    0.412413299    0.253964305    0.999999881
    0.599913359    0.191464469    0.534222484
    0.412413329    0.753964484    0.627377987
    0.224913374    0.316464484    0.720533490
    0.037413388    0.878964424    0.813688934
    0.849913359    0.441464543    0.906844497
    0.662413239    0.003964424    1.000000000
    0.849913418    0.941464424    0.534222484
    0.662413418    0.503964424    0.627377987
    0.474913418    0.066464484    0.720533490
    0.287413329    0.628964543    0.813688934
    0.099913388    0.191464543    0.906844497
    0.912413359    0.753964424    1.000000000
    0.599913359    0.691464484    0.534222484
    0.412413329    0.253964454    0.627377987
    0.224913344    0.816464484    0.720533490
    0.037413370    0.378964484    0.813688934
    0.849913359    0.941464424    0.906844497
    0.662413239    0.503964305    1.000000000
    0.849913359    0.441464424    0.534222484
    0.662413418    0.003964434    0.627377987
    0.474913388    0.566464424    0.720533490
    0.287413388    0.128964484    0.813688934
    0.099913403    0.691464424    0.906844497
    0.912413299    0.253964305    1.000000000
    0.974913299    0.066464439    0.534222484
    0.787413299    0.628964424    0.627377987
    0.599913359    0.191464424    0.720533490
    0.412413359    0.753964424    0.813688993
    0.224913418    0.316464543    0.906844437
    0.037413239    0.878964424    1.000000000
    0.974913359    0.566464484    0.534222484
    0.787413299    0.128964469    0.627377987
    0.599913359    0.691464484    0.720533490
    0.412413359    0.253964484    0.813688934
    0.224913359    0.816464543    0.906844497
    0.037413299    0.378964424    0.999999881
    0.224913344    0.316464454    0.534222484
    0.037413336    0.878964484    0.627377987
    0.849913359    0.441464484    0.720533490
    0.662413359    0.003964484    0.813688934
    0.474913359    0.566464424    0.906844497
    0.287413299    0.128964424    0.999999881
    0.474913329    0.066464461    0.534222484
    0.287413329    0.628964424    0.627377987
    0.099913344    0.191464484    0.720533490
    0.912413418    0.753964424    0.813688934
    0.724913359    0.316464543    0.906844497
    0.537413239    0.878964424    0.999999881
    0.224913329    0.816464484    0.534222484
    0.037413310    0.378964454    0.627377987
    0.849913299    0.941464484    0.720533490
    0.662413359    0.503964484    0.813688934
    0.474913299    0.066464484    0.906844497
    0.287413299    0.628964305    1.000000000
    0.474913329    0.566464424    0.534222484
    0.287413329    0.128964454    0.627377987
    0.099913336    0.691464424    0.720533490
    0.912413359    0.253964484    0.813688934
    0.724913359    0.816464424    0.906844497
    0.537413299    0.378964305    1.000000000
    0.724913359    0.316464454    0.534222484
    0.537413299    0.878964424    0.627377987
    0.349913329    0.441464484    0.720533490
    0.162413359    0.003964484    0.813688934
    0.974913299    0.566464543    0.906844497
    0.787413239    0.128964424    1.000000000
    0.724913299    0.816464424    0.534222543
    0.537413299    0.378964454    0.627377987
    0.349913299    0.941464424    0.720533490
    0.162413299    0.503964484    0.813688934
    0.974913299    0.066464424    0.906844497
    0.787413239    0.628964305    1.000000000
