C+Si
    1.000000000
   13.345744133    0.000000000    0.000000000
    6.672872066   11.557753563    0.000000000
    0.000000511   -0.000000295   21.729436874
C   Si 
308     72
Direct
    0.317878604    0.317878962    0.473848909
    0.984545767    0.984545767    0.000000047
    0.651212335    0.651212394    0.094769828
    0.317878902    0.317879021    0.189539596
    0.984545350    0.984545469    0.284309447
    0.651211977    0.651212096    0.379079193
    0.603592873    0.460736036    0.473848939
    0.270260096    0.127402917    0.000000051
    0.936926663    0.794069529    0.094769835
    0.603593230    0.460736156    0.189539611
    0.270259619    0.127402604    0.284309417
    0.936926246    0.794069290    0.379079163
    0.460735798    0.889307380    0.473848939
    0.127402931    0.555974305    0.000000044
    0.794069529    0.222640932    0.094769813
    0.460736096    0.889307559    0.189539582
    0.127402425    0.555974007    0.284309417
    0.794069171    0.222640693    0.379079193
    0.889307261    0.603593111    0.473848939
    0.555974364    0.270260066    0.000000061
    0.222640932    0.936926663    0.094769835
    0.889307499    0.603593290    0.189539611
    0.555973887    0.270259738    0.284309447
    0.222640574    0.936926365    0.379079223
    0.746449947    0.032164514    0.473848939
    0.413117230    0.698831499    0.000000027
    0.079783782    0.365498126    0.094769806
    0.746450305    0.032164693    0.189539582
    0.413116932    0.698831320    0.284309357
    0.079783380    0.365497768    0.379079193
    0.175021410    0.746450186    0.473848939
    0.841688573    0.413117200    0.000000027
    0.508355200    0.079783812    0.094769806
    0.175021753    0.746450424    0.189539582
    0.841688395    0.413117051    0.284309357
    0.508354783    0.079783499    0.379079193
    0.032164276    0.175021648    0.473848939
    0.698831439    0.841688573    0.000000048
    0.365498036    0.508355200    0.094769813
    0.032164611    0.175021812    0.189539582
    0.698831022    0.841688275    0.284309417
    0.365497649    0.508354962    0.379079163
    0.079783827    0.365498096    0.023692500
    0.746450424    0.032164700    0.118462272
    0.413116992    0.698831320    0.213232040
    0.079783440    0.365497887    0.308001816
    0.746449947    0.032164395    0.402771682
    0.508355260    0.079783827    0.023692494
    0.175021827    0.746450424    0.118462265
    0.841688395    0.413117111    0.213232026
    0.508354902    0.079783618    0.308001846
    0.175021350    0.746450067    0.402771711
    0.365498096    0.508355200    0.023692477
    0.032164671    0.175021842    0.118462250
    0.698831201    0.841688454    0.213232026
    0.365497708    0.508355021    0.308001846
    0.032164216    0.175021589    0.402771652
    0.794069469    0.222640947    0.023692477
    0.460736096    0.889307559    0.118462272
    0.127402633    0.555974185    0.213232040
    0.794069111    0.222640693    0.308001846
    0.460735619    0.889307261    0.402771652
    0.222640961    0.936926723    0.023692487
    0.889307499    0.603593290    0.118462265
    0.555974126    0.270259917    0.213232055
    0.222640574    0.936926365    0.308001876
    0.889307141    0.603592992    0.402771652
    0.651212454    0.651212394    0.023692477
    0.317879021    0.317878991    0.118462279
    0.984545588    0.984545588    0.213232040
    0.651212096    0.651212096    0.308001876
    0.317878544    0.317878664    0.402771682
    0.936926723    0.794069529    0.023692450
    0.603593230    0.460736126    0.118462242
    0.270259857    0.127402753    0.213232026
    0.936926365    0.794069350    0.308001816
    0.603592873    0.460735857    0.402771652
    0.532164335    0.675021648    0.473848909
    0.198831484    0.341688633    0.000000046
    0.865498066    0.008355225    0.094769813
    0.532164633    0.675021827    0.189539596
    0.198831022    0.341688275    0.284309417
    0.865497708    0.008355021    0.379079163
    0.960735798    0.389307380    0.473848909
    0.627402961    0.055974353    0.000000025
    0.294069469    0.722640991    0.094769806
    0.960736036    0.389307618    0.189539582
    0.627402425    0.055974007    0.284309417
    0.294069111    0.722640753    0.379079163
    0.389307141    0.103593051    0.473848939
    0.055974375    0.770260036    0.000000042
    0.722640991    0.436926663    0.094769813
    0.389307499    0.103593223    0.189539596
    0.055974126    0.770259917    0.284309387
    0.722640634    0.436926365    0.379079193
    0.817878604    0.817878842    0.473848939
    0.484545797    0.484545767    0.000000042
    0.151212350    0.151212379    0.094769813
    0.817878842    0.817878962    0.189539596
    0.484545529    0.484545588    0.284309387
    0.151211977    0.151212096    0.379079163
    0.246450007    0.532164454    0.473848939
    0.913117170    0.198831514    0.000000000
    0.579783797    0.865498126    0.094769791
    0.246450335    0.532164693    0.189539582
    0.913116932    0.198831379    0.284309357
    0.579783320    0.865497828    0.379079193
    0.675021410    0.246450305    0.473848939
    0.341688663    0.913117230    0.000000055
    0.008355177    0.579783797    0.094769843
    0.675021768    0.246450439    0.189539596
    0.341688156    0.913116872    0.284309417
    0.008354843    0.579783559    0.379079163
    0.103592932    0.960736036    0.473848939
    0.770260096    0.627402902    0.000000088
    0.436926633    0.294069499    0.094769843
    0.103593230    0.960736156    0.189539611
    0.770259619    0.627402544    0.284309447
    0.436926246    0.294069290    0.379079193
    0.151212394    0.151212409    0.023692464
    0.817878962    0.817878962    0.118462250
    0.484545529    0.484545648    0.213232011
    0.151212037    0.151212215    0.308001816
    0.817878604    0.817878723    0.402771682
    0.008355271    0.579783797    0.023692466
    0.675021768    0.246450394    0.118462250
    0.341688454    0.913117051    0.213232011
    0.008354902    0.579783618    0.308001816
    0.675021529    0.246450126    0.402771622
    0.436926693    0.294069529    0.023692466
    0.103593215    0.960736096    0.118462242
    0.770259798    0.627402782    0.213232011
    0.436926305    0.294069350    0.308001816
    0.103592753    0.960735917    0.402771622
    0.865498006    0.008355216    0.023692466
    0.532164633    0.675021827    0.118462242
    0.198831230    0.341688454    0.213232011
    0.865497768    0.008355021    0.308001816
    0.532164276    0.675021529    0.402771622
    0.294069558    0.722640991    0.023692448
    0.960736096    0.389307529    0.118462242
    0.627402663    0.055974133    0.213232011
    0.294069231    0.722640753    0.308001816
    0.960735679    0.389307261    0.402771652
    0.722641051    0.436926693    0.023692448
    0.389307559    0.103593230    0.118462279
    0.055974148    0.770259857    0.213232040
    0.722640693    0.436926425    0.308001846
    0.389307201    0.103592932    0.402771682
    0.579783797    0.865498066    0.023692472
    0.246450350    0.532164633    0.118462265
    0.913116932    0.198831216    0.213232026
    0.579783440    0.865497828    0.308001846
    0.246450007    0.532164395    0.402771652
    0.460735798    0.389307380    0.473848969
    0.127402917    0.055974346    0.000000051
    0.794069469    0.722640991    0.094769828
    0.460736096    0.389307618    0.189539596
    0.127402484    0.055974066    0.284309417
    0.794069052    0.722640634    0.379079193
    0.317878723    0.817878842    0.473848939
    0.984545827    0.484545767    0.000000046
    0.651212335    0.151212364    0.094769828
    0.317878962    0.817878962    0.189539611
    0.984545350    0.484545410    0.284309417
    0.651211977    0.151212156    0.379079193
    0.746450067    0.532164574    0.473848939
    0.413117230    0.198831499    0.000000042
    0.079783797    0.865498126    0.094769828
    0.746450365    0.532164693    0.189539596
    0.413116753    0.198831141    0.284309417
    0.079783440    0.865497828    0.379079193
    0.603592873    0.960735917    0.473848969
    0.270260066    0.627402961    0.000000033
    0.936926603    0.294069588    0.094769798
    0.603593171    0.960736156    0.189539582
    0.270259798    0.627402842    0.284309357
    0.936926246    0.294069231    0.379079193
    0.032164335    0.675021648    0.473848939
    0.698831499    0.341688663    0.000000017
    0.365498096    0.008355270    0.094769791
    0.032164644    0.675021827    0.189539582
    0.698831260    0.341688514    0.284309357
    0.365497708    0.008354962    0.379079193
    0.889307141    0.103593111    0.473848909
    0.555974364    0.770260036    0.000000055
    0.222640917    0.436926663    0.094769828
    0.889307499    0.103593290    0.189539596
    0.555973887    0.770259738    0.284309417
    0.222640574    0.436926425    0.379079163
    0.175021470    0.246450186    0.473848939
    0.841688633    0.913117170    0.000000051
    0.508355200    0.579783797    0.094769813
    0.175021768    0.246450424    0.189539596
    0.841688156    0.913116872    0.284309417
    0.508354843    0.579783559    0.379079163
    0.365498096    0.008355243    0.023692477
    0.032164611    0.675021827    0.118462272
    0.698831201    0.341688454    0.213232040
    0.365497708    0.008355081    0.308001816
    0.032164216    0.675021529    0.402771682
    0.222641021    0.436926633    0.023692485
    0.889307559    0.103593238    0.118462250
    0.555974126    0.770259857    0.213232011
    0.222640634    0.436926425    0.308001816
    0.889307141    0.103593051    0.402771622
    0.651212394    0.151212379    0.023692485
    0.317878962    0.817878962    0.118462265
    0.984545529    0.484545648    0.213232026
    0.651212037    0.151212156    0.308001816
    0.317878604    0.817878723    0.402771652
    0.079783864    0.865498126    0.023692481
    0.746450365    0.532164693    0.118462279
    0.413116992    0.198831320    0.213232040
    0.079783499    0.865497947    0.308001846
    0.746449947    0.532164454    0.402771682
    0.508355260    0.579783797    0.023692448
    0.175021783    0.246450379    0.118462227
    0.841688335    0.913116992    0.213231996
    0.508354902    0.579783559    0.308001786
    0.175021410    0.246450126    0.402771652
    0.936926782    0.294069529    0.023692466
    0.603593349    0.960736096    0.118462250
    0.270259917    0.627402723    0.213232026
    0.936926365    0.294069290    0.308001816
    0.603592873    0.960735917    0.402771622
    0.794069588    0.722640991    0.023692477
    0.460736096    0.389307529    0.118462272
    0.127402708    0.055974159    0.213232040
    0.794069171    0.722640753    0.308001816
    0.460735738    0.389307320    0.402771652
    0.389307380    0.603593111    0.473848939
    0.055974361    0.270260066    0.000000042
    0.722640872    0.936926663    0.094769813
    0.389307499    0.603593290    0.189539596
    0.055973887    0.270259738    0.284309417
    0.722640514    0.936926484    0.379079163
    0.817878604    0.317878842    0.473848909
    0.484545767    0.984545767    0.000000042
    0.151212320    0.651212394    0.094769813
    0.817878902    0.317879021    0.189539596
    0.484545290    0.984545469    0.284309417
    0.151211917    0.651212215    0.379079133
    0.675021410    0.746450305    0.473848939
    0.341688633    0.413117200    0.000000044
    0.008355197    0.079783849    0.094769806
    0.675021768    0.746450424    0.189539596
    0.341688335    0.413117111    0.284309357
    0.008354783    0.079783559    0.379079193
    0.103592813    0.460735917    0.473848969
    0.770259976    0.127402887    0.000000040
    0.436926603    0.794069529    0.094769798
    0.103593118    0.460736096    0.189539596
    0.770259738    0.127402782    0.284309357
    0.436926186    0.794069290    0.379079163
    0.532164216    0.175021648    0.473848939
    0.198831499    0.841688573    0.000000053
    0.865498066    0.508355200    0.094769835
    0.532164693    0.175021812    0.189539582
    0.198831022    0.841688275    0.284309417
    0.865497589    0.508354902    0.379079193
    0.960735798    0.889307380    0.473848879
    0.627402961    0.555974364    0.000000027
    0.294069499    0.222640947    0.094769791
    0.960736096    0.889307559    0.189539567
    0.627402484    0.555974007    0.284309387
    0.294069111    0.222640693    0.379079163
    0.246450007    0.032164514    0.473848939
    0.913117170    0.698831439    0.000000048
    0.579783797    0.365498036    0.094769850
    0.246450335    0.032164663    0.189539596
    0.913116753    0.698831081    0.284309417
    0.579783440    0.365497828    0.379079193
    0.008355283    0.079783902    0.023692491
    0.675021887    0.746450543    0.118462265
    0.341688395    0.413117111    0.213232040
    0.008354902    0.079783678    0.308001846
    0.675021410    0.746450186    0.402771682
    0.294069588    0.222641021    0.023692505
    0.960736156    0.889307618    0.118462272
    0.627402663    0.555974245    0.213232040
    0.294069171    0.222640753    0.308001846
    0.960735679    0.889307380    0.402771682
    0.151212469    0.651212394    0.023692485
    0.817879021    0.317879051    0.118462265
    0.484545588    0.984545648    0.213232026
    0.151212037    0.651212215    0.308001846
    0.817878604    0.317878723    0.402771682
    0.579783857    0.365498155    0.023692485
    0.246450409    0.032164771    0.118462265
    0.913116992    0.698831379    0.213232040
    0.579783440    0.365497887    0.308001846
    0.246449947    0.032164454    0.402771682
    0.436926663    0.794069529    0.023692477
    0.103593215    0.460736156    0.118462242
    0.770259798    0.127402768    0.213232011
    0.436926246    0.794069290    0.308001846
    0.103592753    0.460735798    0.402771652
    0.865498066    0.508355200    0.023692470
    0.532164633    0.175021827    0.118462272
    0.198831201    0.841688454    0.213232040
    0.865497649    0.508354962    0.308001876
    0.532164156    0.175021529    0.402771652
    0.722640991    0.936926782    0.023692524
    0.389307559    0.603593409    0.118462294
    0.055974152    0.270260036    0.213232040
    0.722640634    0.936926484    0.308001876
    0.389307141    0.603593111    0.402771682
    0.696645260    0.681818187    0.574585259
    0.029978648    0.681818187    0.718886733
    0.363312006    0.681818187    0.863188267
    0.363311887    0.348484874    0.574585259
    0.696645260    0.348484874    0.718886733
    0.029978767    0.348484874    0.863188267
    0.029978544    0.015151516    0.574585259
    0.363311887    0.015151516    0.718886733
    0.696645379    0.015151516    0.863188267
    0.029978529    0.681818187    0.610660672
    0.363312006    0.681818187    0.754962146
    0.696645379    0.681818187    0.899263620
    0.696645200    0.348484874    0.610660672
    0.029978648    0.348484874    0.754962087
    0.363312125    0.348484874    0.899263620
    0.363311946    0.015151516    0.610660672
    0.696645260    0.015151516    0.754962146
    0.029978767    0.015151516    0.899263680
    0.363311946    0.848484814    0.574585319
    0.696645260    0.848484814    0.718886733
    0.029978767    0.848484814    0.863188267
    0.029978544    0.515151501    0.574585259
    0.363311946    0.515151501    0.718886733
    0.696645319    0.515151501    0.863188267
    0.696645260    0.181818172    0.574585259
    0.029978529    0.181818172    0.718886733
    0.363312006    0.181818172    0.863188267
    0.696645260    0.848484814    0.610660672
    0.029978529    0.848484814    0.754962087
    0.363312006    0.848484814    0.899263620
    0.363311946    0.515151501    0.610660672
    0.696645379    0.515151501    0.754962146
    0.029978767    0.515151501    0.899263620
    0.029978529    0.181818157    0.610660672
    0.363311887    0.181818157    0.754962087
    0.696645379    0.181818157    0.899263620
    0.196645200    0.681818187    0.574585259
    0.529978573    0.681818187    0.718886733
    0.863312066    0.681818187    0.863188267
    0.863311946    0.348484874    0.574585259
    0.196645275    0.348484874    0.718886733
    0.529978633    0.348484874    0.863188207
    0.529978514    0.015151516    0.574585259
    0.863311946    0.015151516    0.718886733
    0.196645394    0.015151516    0.863188267
    0.529978514    0.681818247    0.610660613
    0.863312006    0.681818247    0.754962087
    0.196645394    0.681818247    0.899263561
    0.196645170    0.348484814    0.610660672
    0.529978573    0.348484814    0.754962087
    0.863311946    0.348484814    0.899263561
    0.863311887    0.015151501    0.610660613
    0.196645394    0.015151501    0.754962087
    0.529978752    0.015151501    0.899263561
    0.863311946    0.848484874    0.574585319
    0.196645275    0.848484874    0.718886733
    0.529978752    0.848484874    0.863188207
    0.529978573    0.515151501    0.574585259
    0.863311887    0.515151501    0.718886733
    0.196645394    0.515151501    0.863188267
    0.196645215    0.181818187    0.574585259
    0.529978573    0.181818187    0.718886733
    0.863312006    0.181818187    0.863188267
    0.196645170    0.848484933    0.610660672
    0.529978514    0.848484933    0.754962087
    0.863311946    0.848484933    0.899263680
    0.863311887    0.515151560    0.610660672
    0.196645275    0.515151560    0.754962087
    0.529978752    0.515151560    0.899263620
    0.529978514    0.181818172    0.610660672
    0.863311887    0.181818172    0.754962087
    0.196645394    0.181818172    0.899263680
