fcc Si+fcc Ge
    1.000000000
   17.329281578    0.000000000    0.000000000
    0.000000000   17.329281578    0.000000000
    0.000000000    0.000000000   21.574622889
Si    Ge   
220     72
Direct
    0.100000000    0.700000000    0.000000000
    0.150000000    0.550000000    0.127001061
    0.200000000    0.400000000    0.254002122
    0.250000000    0.250000000    0.381003183
    0.300000000    0.100000000    0.508004244
    0.350000000    0.950000000    0.635005306
    0.400000000    0.800000000    0.000000000
    0.450000000    0.650000000    0.127001061
    0.500000000    0.500000000    0.254002122
    0.550000000    0.350000000    0.381003183
    0.600000000    0.200000000    0.508004244
    0.650000000    0.050000000    0.635005306
    0.700000000    0.900000000    0.000000000
    0.750000000    0.750000000    0.127001061
    0.800000000    0.600000000    0.254002122
    0.850000000    0.450000000    0.381003183
    0.900000000    0.300000000    0.508004244
    0.950000000    0.150000000    0.635005306
    0.200000000    0.400000000    0.000000000
    0.250000000    0.250000000    0.127001061
    0.300000000    0.100000000    0.254002122
    0.350000000    0.950000000    0.381003183
    0.400000000    0.800000000    0.508004244
    0.450000000    0.650000000    0.635005306
    0.500000000    0.500000000    0.000000000
    0.550000000    0.350000000    0.127001061
    0.600000000    0.200000000    0.254002122
    0.650000000    0.050000000    0.381003183
    0.700000000    0.900000000    0.508004244
    0.750000000    0.750000000    0.635005306
    0.800000000    0.600000000    0.000000000
    0.850000000    0.450000000    0.127001061
    0.900000000    0.300000000    0.254002122
    0.950000000    0.150000000    0.381003183
    0.000000000    0.000000000    0.508004244
    0.050000000    0.850000000    0.635005306
    0.000000000    0.000000000    0.000000000
    0.050000000    0.850000000    0.127001061
    0.100000000    0.700000000    0.254002122
    0.150000000    0.550000000    0.381003183
    0.200000000    0.400000000    0.508004244
    0.250000000    0.250000000    0.635005306
    0.300000000    0.100000000    0.000000000
    0.350000000    0.950000000    0.127001061
    0.400000000    0.800000000    0.254002122
    0.450000000    0.650000000    0.381003183
    0.500000000    0.500000000    0.508004244
    0.550000000    0.350000000    0.635005306
    0.600000000    0.200000000    0.000000000
    0.650000000    0.050000000    0.127001061
    0.700000000    0.900000000    0.254002122
    0.750000000    0.750000000    0.381003183
    0.800000000    0.600000000    0.508004244
    0.850000000    0.450000000    0.635005306
    0.900000000    0.300000000    0.000000000
    0.950000000    0.150000000    0.127001061
    0.000000000    0.000000000    0.254002122
    0.050000000    0.850000000    0.381003183
    0.100000000    0.700000000    0.508004244
    0.150000000    0.550000000    0.635005306
    0.200000000    0.900000000    0.000000000
    0.250000000    0.750000000    0.127001061
    0.300000000    0.600000000    0.254002122
    0.350000000    0.450000000    0.381003183
    0.400000000    0.300000000    0.508004244
    0.450000000    0.150000000    0.635005306
    0.000000000    0.500000000    0.000000000
    0.050000000    0.350000000    0.127001061
    0.100000000    0.200000000    0.254002122
    0.150000000    0.050000000    0.381003183
    0.200000000    0.900000000    0.508004244
    0.250000000    0.750000000    0.635005306
    0.300000000    0.600000000    0.000000000
    0.350000000    0.450000000    0.127001061
    0.400000000    0.300000000    0.254002122
    0.450000000    0.150000000    0.381003183
    0.500000000    0.000000000    0.508004244
    0.550000000    0.850000000    0.635005306
    0.600000000    0.700000000    0.000000000
    0.650000000    0.550000000    0.127001061
    0.700000000    0.400000000    0.254002122
    0.750000000    0.250000000    0.381003183
    0.800000000    0.100000000    0.508004244
    0.850000000    0.950000000    0.635005306
    0.900000000    0.800000000    0.000000000
    0.950000000    0.650000000    0.127001061
    0.000000000    0.500000000    0.254002122
    0.050000000    0.350000000    0.381003183
    0.100000000    0.200000000    0.508004244
    0.150000000    0.050000000    0.635005306
    0.100000000    0.200000000    0.000000000
    0.150000000    0.050000000    0.127001061
    0.200000000    0.900000000    0.254002122
    0.250000000    0.750000000    0.381003183
    0.300000000    0.600000000    0.508004244
    0.350000000    0.450000000    0.635005306
    0.400000000    0.300000000    0.000000000
    0.450000000    0.150000000    0.127001061
    0.500000000    0.000000000    0.254002122
    0.550000000    0.850000000    0.381003183
    0.600000000    0.700000000    0.508004244
    0.650000000    0.550000000    0.635005306
    0.700000000    0.400000000    0.000000000
    0.750000000    0.250000000    0.127001061
    0.800000000    0.100000000    0.254002122
    0.850000000    0.950000000    0.381003183
    0.900000000    0.800000000    0.508004244
    0.950000000    0.650000000    0.635005306
    0.500000000    0.000000000    0.000000000
    0.550000000    0.850000000    0.127001061
    0.600000000    0.700000000    0.254002122
    0.650000000    0.550000000    0.381003183
    0.700000000    0.400000000    0.508004244
    0.750000000    0.250000000    0.635005306
    0.800000000    0.100000000    0.000000000
    0.850000000    0.950000000    0.127001061
    0.900000000    0.800000000    0.254002122
    0.950000000    0.650000000    0.381003183
    0.000000000    0.500000000    0.508004244
    0.050000000    0.350000000    0.635005306
    0.100000000    0.950000000    0.063500531
    0.150000000    0.800000000    0.190501592
    0.200000000    0.650000000    0.317502653
    0.250000000    0.500000000    0.444503714
    0.300000000    0.350000000    0.571504775
    0.200000000    0.650000000    0.063500531
    0.250000000    0.500000000    0.190501592
    0.300000000    0.350000000    0.317502653
    0.350000000    0.200000000    0.444503714
    0.400000000    0.050000000    0.571504775
    0.500000000    0.750000000    0.063500531
    0.550000000    0.600000000    0.190501592
    0.600000000    0.450000000    0.317502653
    0.650000000    0.300000000    0.444503714
    0.700000000    0.150000000    0.571504775
    0.800000000    0.850000000    0.063500531
    0.850000000    0.700000000    0.190501592
    0.900000000    0.550000000    0.317502653
    0.950000000    0.400000000    0.444503714
    0.000000000    0.250000000    0.571504775
    0.000000000    0.250000000    0.063500531
    0.050000000    0.100000000    0.190501592
    0.100000000    0.950000000    0.317502653
    0.150000000    0.800000000    0.444503714
    0.200000000    0.650000000    0.571504775
    0.300000000    0.350000000    0.063500531
    0.350000000    0.200000000    0.190501592
    0.400000000    0.050000000    0.317502653
    0.450000000    0.900000000    0.444503714
    0.500000000    0.750000000    0.571504775
    0.600000000    0.450000000    0.063500531
    0.650000000    0.300000000    0.190501592
    0.700000000    0.150000000    0.317502653
    0.750000000    0.000000000    0.444503714
    0.800000000    0.850000000    0.571504775
    0.900000000    0.550000000    0.063500531
    0.950000000    0.400000000    0.190501592
    0.000000000    0.250000000    0.317502653
    0.050000000    0.100000000    0.444503714
    0.100000000    0.950000000    0.571504775
    0.400000000    0.050000000    0.063500531
    0.450000000    0.900000000    0.190501592
    0.500000000    0.750000000    0.317502653
    0.550000000    0.600000000    0.444503714
    0.600000000    0.450000000    0.571504775
    0.700000000    0.150000000    0.063500531
    0.750000000    0.000000000    0.190501592
    0.800000000    0.850000000    0.317502653
    0.850000000    0.700000000    0.444503714
    0.900000000    0.550000000    0.571504775
    0.000000000    0.750000000    0.063500531
    0.050000000    0.600000000    0.190501592
    0.100000000    0.450000000    0.317502653
    0.150000000    0.300000000    0.444503714
    0.200000000    0.150000000    0.571504775
    0.300000000    0.850000000    0.063500531
    0.350000000    0.700000000    0.190501592
    0.400000000    0.550000000    0.317502653
    0.450000000    0.400000000    0.444503714
    0.500000000    0.250000000    0.571504775
    0.600000000    0.950000000    0.063500531
    0.650000000    0.800000000    0.190501592
    0.700000000    0.650000000    0.317502653
    0.750000000    0.500000000    0.444503714
    0.800000000    0.350000000    0.571504775
    0.100000000    0.450000000    0.063500531
    0.150000000    0.300000000    0.190501592
    0.200000000    0.150000000    0.317502653
    0.250000000    0.000000000    0.444503714
    0.300000000    0.850000000    0.571504775
    0.400000000    0.550000000    0.063500531
    0.450000000    0.400000000    0.190501592
    0.500000000    0.250000000    0.317502653
    0.550000000    0.100000000    0.444503714
    0.600000000    0.950000000    0.571504775
    0.700000000    0.650000000    0.063500531
    0.750000000    0.500000000    0.190501592
    0.800000000    0.350000000    0.317502653
    0.850000000    0.200000000    0.444503714
    0.900000000    0.050000000    0.571504775
    0.200000000    0.150000000    0.063500531
    0.250000000    0.000000000    0.190501592
    0.300000000    0.850000000    0.317502653
    0.350000000    0.700000000    0.444503714
    0.400000000    0.550000000    0.571504775
    0.500000000    0.250000000    0.063500531
    0.550000000    0.100000000    0.190501592
    0.600000000    0.950000000    0.317502653
    0.650000000    0.800000000    0.444503714
    0.700000000    0.650000000    0.571504775
    0.800000000    0.350000000    0.063500531
    0.850000000    0.200000000    0.190501592
    0.900000000    0.050000000    0.317502653
    0.950000000    0.900000000    0.444503714
    0.000000000    0.750000000    0.571504775
    0.900000000    0.050000000    0.063500531
    0.950000000    0.900000000    0.190501592
    0.000000000    0.750000000    0.317502653
    0.050000000    0.600000000    0.444503714
    0.100000000    0.450000000    0.571504775
    0.230620155    0.802325581    0.921203721
    0.063953488    0.552325581    0.713801584
    0.897286822    0.402325581    0.755282012
    0.730620155    0.252325581    0.796762439
    0.563953488    0.102325581    0.838242866
    0.397286822    0.952325581    0.879723294
    0.563953488    0.802325581    0.921203721
    0.397286822    0.552325581    0.713801584
    0.230620155    0.402325581    0.755282012
    0.063953488    0.252325581    0.796762439
    0.897286822    0.102325581    0.838242866
    0.730620155    0.952325581    0.879723294
    0.897286822    0.802325581    0.921203721
    0.730620155    0.552325581    0.713801584
    0.563953488    0.402325581    0.755282012
    0.397286822    0.252325581    0.796762439
    0.230620155    0.102325581    0.838242866
    0.063953488    0.952325581    0.879723294
    0.230620155    0.302325581    0.921203721
    0.063953488    0.052325581    0.713801584
    0.897286822    0.902325581    0.755282012
    0.730620155    0.752325581    0.796762439
    0.563953488    0.602325581    0.838242866
    0.397286822    0.452325581    0.879723294
    0.563953488    0.302325581    0.921203721
    0.397286822    0.052325581    0.713801584
    0.230620155    0.902325581    0.755282012
    0.063953488    0.752325581    0.796762439
    0.897286822    0.602325581    0.838242866
    0.730620155    0.452325581    0.879723294
    0.897286822    0.302325581    0.921203721
    0.730620155    0.052325581    0.713801584
    0.563953488    0.902325581    0.755282012
    0.397286822    0.752325581    0.796762439
    0.230620155    0.602325581    0.838242866
    0.063953488    0.452325581    0.879723294
    0.313953488    0.552325581    0.921203721
    0.147286822    0.302325581    0.713801584
    0.980620155    0.152325581    0.755282012
    0.813953488    0.002325581    0.796762439
    0.647286822    0.852325581    0.838242866
    0.480620155    0.702325581    0.879723294
    0.647286822    0.552325581    0.921203721
    0.480620155    0.302325581    0.713801584
    0.313953488    0.152325581    0.755282012
    0.147286822    0.002325581    0.796762439
    0.980620155    0.852325581    0.838242866
    0.813953488    0.702325581    0.879723294
    0.980620155    0.552325581    0.921203721
    0.813953488    0.302325581    0.713801584
    0.647286822    0.152325581    0.755282012
    0.480620155    0.002325581    0.796762439
    0.313953488    0.852325581    0.838242866
    0.147286822    0.702325581    0.879723294
    0.313953488    0.052325581    0.921203721
    0.147286822    0.802325581    0.713801584
    0.980620155    0.652325581    0.755282012
    0.813953488    0.502325581    0.796762439
    0.647286822    0.352325581    0.838242866
    0.480620155    0.202325581    0.879723294
    0.647286822    0.052325581    0.921203721
    0.480620155    0.802325581    0.713801584
    0.313953488    0.652325581    0.755282012
    0.147286822    0.502325581    0.796762439
    0.980620155    0.352325581    0.838242866
    0.813953488    0.202325581    0.879723294
    0.980620155    0.052325581    0.921203721
    0.813953488    0.802325581    0.713801584
    0.647286822    0.652325581    0.755282012
    0.480620155    0.502325581    0.796762439
    0.313953488    0.352325581    0.838242866
    0.147286822    0.202325581    0.879723294
