Sn+Sn
    1.000000000
    9.177114487    0.000000000    0.000000000
    4.588557720   13.765672684    0.000000000
    0.000000000    0.000000000   10.815335274
Sn 
48
Direct
    0.995035112    0.995035112    0.000000000
    0.828368425    0.828368425    0.299999952
    0.661701798    0.661701798    0.599999785
    0.328368455    0.328368425    0.000000000
    0.161701769    0.161701739    0.299999952
    0.995035112    0.995035112    0.599999785
    0.661701798    0.661701798    0.000000000
    0.495035142    0.495035112    0.299999952
    0.328368485    0.328368455    0.599999785
    0.245035097    0.995035112    0.149999946
    0.078368470    0.828368425    0.449999869
    0.911701739    0.661701739    0.749999762
    0.578368485    0.328368425    0.149999946
    0.411701828    0.161701784    0.449999869
    0.245035127    0.995035052    0.749999762
    0.911701739    0.661701739    0.149999946
    0.745035112    0.495035052    0.449999869
    0.578368425    0.328368366    0.749999762
    0.495035052    0.995035112    0.000000000
    0.328368396    0.828368425    0.299999952
    0.161701739    0.661701798    0.599999785
    0.161701724    0.661701739    0.000000000
    0.995035052    0.495035052    0.299999952
    0.828368425    0.328368425    0.599999785
    0.828368485    0.328368455    0.000000000
    0.661701798    0.161701769    0.299999952
    0.495035142    0.995035112    0.599999785
    0.078368410    0.328368425    0.149999946
    0.911701798    0.161701769    0.449999869
    0.745035052    0.995035052    0.749999762
    0.745035112    0.995035112    0.149999946
    0.578368485    0.828368425    0.449999869
    0.411701739    0.661701739    0.749999762
    0.411701739    0.661701739    0.149999946
    0.245035127    0.495035112    0.449999869
    0.078368396    0.328368396    0.749999762
    0.989384770    0.973461866    0.749999762
    0.878273547    0.695683956    0.849999785
    0.767162383    0.417906106    0.949999809
    0.489384770    0.973461866    0.749999762
    0.378273576    0.695683956    0.849999785
    0.267162412    0.417906106    0.949999809
    0.683829188    0.084572956    0.799999833
    0.572718024    0.806795061    0.899999857
    0.461606771    0.529017150    0.999999881
    0.183829173    0.084572956    0.799999833
    0.072717980    0.806795120    0.899999857
    0.961606741    0.529017091    0.999999881
