Ge+Si                                   
   1.00000000000000     
    16.9734001160000005    0.0000000000000000    0.0000000000000000
     0.0000000000000000   16.9734001160000005    0.0000000000000000
     0.0000000000000000    0.0000000000000000   17.8610000609999986
   Ge   Si
   108   120
Direct
  0.9943054909999987  0.6666665670000000  0.0000000000000000
  0.8276388649999973  0.6666665670000000  0.1583841739999983
  0.6609721179999966  0.6666665670000000  0.3167683779999990
  0.9943054909999987  0.3333332839999983  0.0000000000000000
  0.8276388649999973  0.3333332839999983  0.1583841739999983
  0.6609721179999966  0.3333332839999983  0.3167683779999990
  0.9943054909999987  0.0000000000000000  0.0000000000000000
  0.8276388649999973  0.0000000000000000  0.1583841739999983
  0.6609721179999966  0.0000000000000000  0.3167683779999990
  0.3276388049999994  0.6666665670000000  0.0000000000000000
  0.1609721479999990  0.6666665670000000  0.1583841739999983
  0.9943054319999973  0.6666665670000000  0.3167683779999990
  0.3276388049999994  0.3333332839999983  0.0000000000000000
  0.1609721479999990  0.3333332839999983  0.1583841739999983
  0.9943054319999973  0.3333332839999983  0.3167683779999990
  0.3276388049999994  0.0000000000000000  0.0000000000000000
  0.1609721479999990  0.0000000000000000  0.1583841739999983
  0.9943054319999973  0.0000000000000000  0.3167683779999990
  0.6609721179999966  0.6666665670000000  0.0000000000000000
  0.4943054319999973  0.6666665670000000  0.1583841739999983
  0.3276387450000016  0.6666665670000000  0.3167683779999990
  0.6609721179999966  0.3333332839999983  0.0000000000000000
  0.4943054319999973  0.3333332839999983  0.1583841739999983
  0.3276387450000016  0.3333332839999983  0.3167683779999990
  0.6609721179999966  0.0000000000000000  0.0000000000000000
  0.4943054319999973  0.0000000000000000  0.1583841739999983
  0.3276387450000016  0.0000000000000000  0.3167683779999990
  0.0776388419999989  0.9166665670000000  0.0791920950000033
  0.9109721179999966  0.9166665670000000  0.2375762910000034
  0.7443054909999987  0.9166665670000000  0.3959604799999994
  0.0776388419999989  0.5833333129999971  0.0791920950000033
  0.9109721179999966  0.5833333129999971  0.2375762910000034
  0.7443054909999987  0.5833333129999971  0.3959604799999994
  0.0776388419999989  0.2499999549999998  0.0791920950000033
  0.9109721179999966  0.2499999549999998  0.2375762910000034
  0.7443054909999987  0.2499999549999998  0.3959604799999994
  0.4109720889999977  0.9166665670000000  0.0791920950000033
  0.2443054169999996  0.9166665670000000  0.2375762910000034
  0.0776387229999997  0.9166665670000000  0.3959604799999994
  0.4109720889999977  0.5833333129999971  0.0791920950000033
  0.2443054169999996  0.5833333129999971  0.2375762910000034
  0.0776387229999997  0.5833333129999971  0.3959604799999994
  0.4109720889999977  0.2499999549999998  0.0791920950000033
  0.2443054169999996  0.2499999549999998  0.2375762910000034
  0.0776387229999997  0.2499999549999998  0.3959604799999994
  0.7443054909999987  0.9166665670000000  0.0791920950000033
  0.5776387450000016  0.9166665670000000  0.2375762910000034
  0.4109720590000023  0.9166665670000000  0.3959604799999994
  0.7443054909999987  0.5833333129999971  0.0791920950000033
  0.5776387450000016  0.5833333129999971  0.2375762910000034
  0.4109720590000023  0.5833333129999971  0.3959604799999994
  0.7443054909999987  0.2499999549999998  0.0791920950000033
  0.5776387450000016  0.2499999549999998  0.2375762910000034
  0.4109720590000023  0.2499999549999998  0.3959604799999994
  0.1609721629999967  0.8333331939999979  0.0000000000000000
  0.9943054909999987  0.8333331939999979  0.1583841739999983
  0.8276388049999994  0.8333331939999979  0.3167683779999990
  0.1609721629999967  0.4999999110000033  0.0000000000000000
  0.9943054909999987  0.4999999110000033  0.1583841739999983
  0.8276388049999994  0.4999999110000033  0.3167683779999990
  0.1609721629999967  0.1666666420000027  0.0000000000000000
  0.9943054909999987  0.1666666420000027  0.1583841739999983
  0.8276388049999994  0.1666666420000027  0.3167683779999990
  0.4943054319999973  0.8333331939999979  0.0000000000000000
  0.3276387450000016  0.8333331939999979  0.1583841739999983
  0.1609720740000000  0.8333331939999979  0.3167683779999990
  0.4943054319999973  0.4999999110000033  0.0000000000000000
  0.3276387450000016  0.4999999110000033  0.1583841739999983
  0.1609720740000000  0.4999999110000033  0.3167683779999990
  0.4943054319999973  0.1666666420000027  0.0000000000000000
  0.3276387450000016  0.1666666420000027  0.1583841739999983
  0.1609720740000000  0.1666666420000027  0.3167683779999990
  0.8276388049999994  0.8333331939999979  0.0000000000000000
  0.6609721179999966  0.8333331939999979  0.1583841739999983
  0.4943054319999973  0.8333331939999979  0.3167683779999990
  0.8276388049999994  0.4999999110000033  0.0000000000000000
  0.6609721179999966  0.4999999110000033  0.1583841739999983
  0.4943054319999973  0.4999999110000033  0.3167683779999990
  0.8276388049999994  0.1666666420000027  0.0000000000000000
  0.6609721179999966  0.1666666420000027  0.1583841739999983
  0.4943054319999973  0.1666666420000027  0.3167683779999990
  0.2443054619999998  0.7499998810000008  0.0791920950000033
  0.0776387829999976  0.7499998810000008  0.2375762910000034
  0.9109721179999966  0.7499998810000008  0.3959604799999994
  0.2443054619999998  0.4166666269999979  0.0791920950000033
  0.0776387829999976  0.4166666269999979  0.2375762910000034
  0.9109721179999966  0.4166666269999979  0.3959604799999994
  0.2443054619999998  0.0833333280000019  0.0791920950000033
  0.0776387829999976  0.0833333280000019  0.2375762910000034
  0.9109721179999966  0.0833333280000019  0.3959604799999994
  0.5776388649999973  0.7499998810000008  0.0791920950000033
  0.4109721479999990  0.7499998810000008  0.2375762910000034
  0.2443054470000021  0.7499998810000008  0.3959604799999994
  0.5776388649999973  0.4166666269999979  0.0791920950000033
  0.4109721479999990  0.4166666269999979  0.2375762910000034
  0.2443054470000021  0.4166666269999979  0.3959604799999994
  0.5776388649999973  0.0833333280000019  0.0791920950000033
  0.4109721479999990  0.0833333280000019  0.2375762910000034
  0.2443054470000021  0.0833333280000019  0.3959604799999994
  0.9109721780000015  0.7499998810000008  0.0791920950000033
  0.7443054909999987  0.7499998810000008  0.2375762910000034
  0.5776387450000016  0.7499998810000008  0.3959604799999994
  0.9109721780000015  0.4166666269999979  0.0791920950000033
  0.7443054909999987  0.4166666269999979  0.2375762910000034
  0.5776387450000016  0.4166666269999979  0.3959604799999994
  0.9109721780000015  0.0833333280000019  0.0791920950000033
  0.7443054909999987  0.0833333280000019  0.2375762910000034
  0.5776387450000016  0.0833333280000019  0.3959604799999994
  0.7419664860000026  0.2470200059999996  0.5079362990000007
  0.6919665340000023  0.8970199820000033  0.6599714760000026
  0.6419663430000000  0.5470198390000007  0.8120067119999987
  0.8419665099999989  0.9470200539999993  0.5079362990000007
  0.7919664980000007  0.5970200300000030  0.6599714760000026
  0.7419663670000034  0.2470198870000004  0.8120067119999987
  0.9419665340000023  0.6470199820000033  0.5079362990000007
  0.8919664619999992  0.2970199579999999  0.6599714760000026
  0.8419663909999997  0.9470198149999973  0.8120067119999987
  0.0419665579999986  0.3470200000000006  0.5079362990000007
  0.9919664259999976  0.9970200059999996  0.6599714760000026
  0.9419663549999981  0.6470197439999978  0.8120067119999987
  0.1419665809999984  0.0470200780000027  0.5079362990000007
  0.0919665099999989  0.6970199350000001  0.6599714760000026
  0.0419664380000029  0.3470197919999976  0.8120067119999987
  0.2419664860000026  0.7470200059999996  0.5079362990000007
  0.1919664139999995  0.3970199529999974  0.6599714760000026
  0.1419663430000000  0.0470198390000007  0.8120067119999987
  0.3419665099999989  0.4470199940000015  0.5079362990000007
  0.2919664380000029  0.0970199109999967  0.6599714760000026
  0.2419663670000034  0.7470197680000012  0.8120067119999987
  0.4419666530000015  0.1470201019999990  0.5079362990000007
  0.3919665809999984  0.7970199579999999  0.6599714760000026
  0.3419665099999989  0.4470198750000023  0.8120067119999987
  0.5419665579999986  0.8470200300000030  0.5079362990000007
  0.4919664860000026  0.4970199469999983  0.6599714760000026
  0.4419664139999995  0.1470198629999970  0.8120067119999987
  0.6419665809999984  0.5470200780000027  0.5079362990000007
  0.5919666289999981  0.1970199350000001  0.6599714760000026
  0.5419664380000029  0.8470197919999976  0.8120067119999987
  0.7419664860000026  0.4970200059999996  0.5839539170000023
  0.6919664139999995  0.1470198629999970  0.7359890939999971
  0.6419663430000000  0.7970198390000007  0.8880242110000012
  0.8419665099999989  0.1970199350000001  0.5839539170000023
  0.7919664380000029  0.8470199109999967  0.7359890939999971
  0.7419663670000034  0.4970197379999988  0.8880242110000012
  0.9419665340000023  0.8970199820000033  0.5839539170000023
  0.8919664619999992  0.5470198989999986  0.7359890939999971
  0.8419663909999997  0.1970198149999973  0.8880242110000012
  0.0419665579999986  0.5970199699999981  0.5839539170000023
  0.9919664860000026  0.2470198870000004  0.7359890939999971
  0.9419664139999995  0.8970198629999970  0.8880242110000012
  0.1419665809999984  0.2970199880000024  0.5839539170000023
  0.0919663909999997  0.9470199350000001  0.7359890939999971
  0.0419664380000029  0.5970197919999976  0.8880242110000012
  0.2419666050000018  0.9970200059999996  0.5839539170000023
  0.1919665340000023  0.6470199230000020  0.7359890939999971
  0.1419664619999992  0.2970198690000032  0.8880242110000012
  0.3419665099999989  0.6970199350000001  0.5839539170000023
  0.2919664380000029  0.3470198509999989  0.7359890939999971
  0.2419663670000034  0.9970197680000012  0.8880242110000012
  0.4419666530000015  0.3970200119999987  0.5839539170000023
  0.3919665809999984  0.0470199579999999  0.7359890939999971
  0.3419665099999989  0.6970198149999973  0.8880242110000012
  0.5419666769999978  0.0970200300000030  0.5839539170000023
  0.4919664860000026  0.7470198870000004  0.7359890939999971
  0.4419665340000023  0.3970198330000017  0.8880242110000012
  0.6419665809999984  0.7970199579999999  0.5839539170000023
  0.5919665099999989  0.4470198750000023  0.7359890939999971
  0.5419664380000029  0.0970197919999976  0.8880242110000012
  0.7419664860000026  0.7470200059999996  0.5079362990000007
  0.6919665340000023  0.3970199529999974  0.6599714760000026
  0.6419663430000000  0.0470198390000007  0.8120067119999987
  0.8419665099999989  0.4470199940000015  0.5079362990000007
  0.7919664380000029  0.0970199109999967  0.6599714760000026
  0.7419663670000034  0.7470197680000012  0.8120067119999987
  0.9419665340000023  0.1470199820000033  0.5079362990000007
  0.8919664619999992  0.7970199579999999  0.6599714760000026
  0.8419663909999997  0.4470197859999985  0.8120067119999987
  0.0419665579999986  0.8470200300000030  0.5079362990000007
  0.9919664860000026  0.4970199469999983  0.6599714760000026
  0.9419664139999995  0.1470198629999970  0.8120067119999987
  0.1419665809999984  0.5470200179999978  0.5079362990000007
  0.0919665099999989  0.1970199350000001  0.6599714760000026
  0.0419664380000029  0.8470197919999976  0.8120067119999987
  0.2419664860000026  0.2470200059999996  0.5079362990000007
  0.1919665340000023  0.8970198629999970  0.6599714760000026
  0.1419663430000000  0.5470197200000015  0.8120067119999987
  0.3419665099999989  0.9470200539999993  0.5079362990000007
  0.2919664380000029  0.5970199109999967  0.6599714760000026
  0.2419663670000034  0.2470197680000012  0.8120067119999987
  0.4419665340000023  0.6470199820000033  0.5079362990000007
  0.3919664619999992  0.2970198989999986  0.6599714760000026
  0.3419663909999997  0.9470198149999973  0.8120067119999987
  0.5419665579999986  0.3470199699999981  0.5079362990000007
  0.4919664860000026  0.9970198870000004  0.6599714760000026
  0.4419664139999995  0.6470197439999978  0.8120067119999987
  0.6419665809999984  0.0470200780000027  0.5079362990000007
  0.5919666289999981  0.6970199350000001  0.6599714760000026
  0.5419664380000029  0.3470198210000035  0.8120067119999987
  0.7419664860000026  0.9970201249999988  0.5839539170000023
  0.6919664139999995  0.6470199820000033  0.7359890939999971
  0.6419663430000000  0.2970198989999986  0.8880242110000012
  0.8419665099999989  0.6970200539999993  0.5839539170000023
  0.7919664380000029  0.3470199109999967  0.7359890939999971
  0.7419663670000034  0.9970198870000004  0.8880242110000012
  0.9419665340000023  0.3970200119999987  0.5839539170000023
  0.8919664619999992  0.0470199579999999  0.7359890939999971
  0.8419663909999997  0.6970198149999973  0.8880242110000012
  0.0419665579999986  0.0970200300000030  0.5839539170000023
  0.9919664860000026  0.7470198870000004  0.7359890939999971
  0.9419664139999995  0.3970198330000017  0.8880242110000012
  0.1419665809999984  0.7970200780000027  0.5839539170000023
  0.0919665099999989  0.4470199940000015  0.7359890939999971
  0.0419664380000029  0.0970199109999967  0.8880242110000012
  0.2419664860000026  0.4970200059999996  0.5839539170000023
  0.1919665340000023  0.1470198629999970  0.7359890939999971
  0.1419663430000000  0.7970198390000007  0.8880242110000012
  0.3419666289999981  0.1970200539999993  0.5839539170000023
  0.2919664380000029  0.8470199109999967  0.7359890939999971
  0.2419664860000026  0.4970198569999980  0.8880242110000012
  0.4419665340000023  0.8970201019999990  0.5839539170000023
  0.3919665809999984  0.5470199579999999  0.7359890939999971
  0.3419663909999997  0.1970199350000001  0.8880242110000012
  0.5419664380000029  0.5970199699999981  0.5839539170000023
  0.4919664860000026  0.2470198870000004  0.7359890939999971
  0.4419662950000003  0.8970198629999970  0.8880242110000012
  0.6419665809999984  0.2970199880000024  0.5839539170000023
  0.5919663909999997  0.9470199350000001  0.7359890939999971
  0.5419664380000029  0.5970197919999976  0.8880242110000012
 
  0.00000000E+00  0.00000000E+00  0.00000000E+00
  0.00000000E+00  0.00000000E+00  0.00000000E+00
  0.00000000E+00  0.00000000E+00  0.00000000E+00
  0.00000000E+00  0.00000000E+00  0.00000000E+00
  0.00000000E+00  0.00000000E+00  0.00000000E+00
  0.00000000E+00  0.00000000E+00  0.00000000E+00
  0.00000000E+00  0.00000000E+00  0.00000000E+00
  0.00000000E+00  0.00000000E+00  0.00000000E+00
  0.00000000E+00  0.00000000E+00  0.00000000E+00
  0.00000000E+00  0.00000000E+00  0.00000000E+00
  0.00000000E+00  0.00000000E+00  0.00000000E+00
  0.00000000E+00  0.00000000E+00  0.00000000E+00
  0.00000000E+00  0.00000000E+00  0.00000000E+00
  0.00000000E+00  0.00000000E+00  0.00000000E+00
  0.00000000E+00  0.00000000E+00  0.00000000E+00
  0.00000000E+00  0.00000000E+00  0.00000000E+00
  0.00000000E+00  0.00000000E+00  0.00000000E+00
  0.00000000E+00  0.00000000E+00  0.00000000E+00
  0.00000000E+00  0.00000000E+00  0.00000000E+00
  0.00000000E+00  0.00000000E+00  0.00000000E+00
  0.00000000E+00  0.00000000E+00  0.00000000E+00
  0.00000000E+00  0.00000000E+00  0.00000000E+00
  0.00000000E+00  0.00000000E+00  0.00000000E+00
  0.00000000E+00  0.00000000E+00  0.00000000E+00
  0.00000000E+00  0.00000000E+00  0.00000000E+00
  0.00000000E+00  0.00000000E+00  0.00000000E+00
  0.00000000E+00  0.00000000E+00  0.00000000E+00
  0.00000000E+00  0.00000000E+00  0.00000000E+00
  0.00000000E+00  0.00000000E+00  0.00000000E+00
  0.00000000E+00  0.00000000E+00  0.00000000E+00
  0.00000000E+00  0.00000000E+00  0.00000000E+00
  0.00000000E+00  0.00000000E+00  0.00000000E+00
  0.00000000E+00  0.00000000E+00  0.00000000E+00
  0.00000000E+00  0.00000000E+00  0.00000000E+00
  0.00000000E+00  0.00000000E+00  0.00000000E+00
  0.00000000E+00  0.00000000E+00  0.00000000E+00
  0.00000000E+00  0.00000000E+00  0.00000000E+00
  0.00000000E+00  0.00000000E+00  0.00000000E+00
  0.00000000E+00  0.00000000E+00  0.00000000E+00
  0.00000000E+00  0.00000000E+00  0.00000000E+00
  0.00000000E+00  0.00000000E+00  0.00000000E+00
  0.00000000E+00  0.00000000E+00  0.00000000E+00
  0.00000000E+00  0.00000000E+00  0.00000000E+00
  0.00000000E+00  0.00000000E+00  0.00000000E+00
  0.00000000E+00  0.00000000E+00  0.00000000E+00
  0.00000000E+00  0.00000000E+00  0.00000000E+00
  0.00000000E+00  0.00000000E+00  0.00000000E+00
  0.00000000E+00  0.00000000E+00  0.00000000E+00
  0.00000000E+00  0.00000000E+00  0.00000000E+00
  0.00000000E+00  0.00000000E+00  0.00000000E+00
  0.00000000E+00  0.00000000E+00  0.00000000E+00
  0.00000000E+00  0.00000000E+00  0.00000000E+00
  0.00000000E+00  0.00000000E+00  0.00000000E+00
  0.00000000E+00  0.00000000E+00  0.00000000E+00
  0.00000000E+00  0.00000000E+00  0.00000000E+00
  0.00000000E+00  0.00000000E+00  0.00000000E+00
  0.00000000E+00  0.00000000E+00  0.00000000E+00
  0.00000000E+00  0.00000000E+00  0.00000000E+00
  0.00000000E+00  0.00000000E+00  0.00000000E+00
  0.00000000E+00  0.00000000E+00  0.00000000E+00
  0.00000000E+00  0.00000000E+00  0.00000000E+00
  0.00000000E+00  0.00000000E+00  0.00000000E+00
  0.00000000E+00  0.00000000E+00  0.00000000E+00
  0.00000000E+00  0.00000000E+00  0.00000000E+00
  0.00000000E+00  0.00000000E+00  0.00000000E+00
  0.00000000E+00  0.00000000E+00  0.00000000E+00
  0.00000000E+00  0.00000000E+00  0.00000000E+00
  0.00000000E+00  0.00000000E+00  0.00000000E+00
  0.00000000E+00  0.00000000E+00  0.00000000E+00
  0.00000000E+00  0.00000000E+00  0.00000000E+00
  0.00000000E+00  0.00000000E+00  0.00000000E+00
  0.00000000E+00  0.00000000E+00  0.00000000E+00
  0.00000000E+00  0.00000000E+00  0.00000000E+00
  0.00000000E+00  0.00000000E+00  0.00000000E+00
  0.00000000E+00  0.00000000E+00  0.00000000E+00
  0.00000000E+00  0.00000000E+00  0.00000000E+00
  0.00000000E+00  0.00000000E+00  0.00000000E+00
  0.00000000E+00  0.00000000E+00  0.00000000E+00
  0.00000000E+00  0.00000000E+00  0.00000000E+00
  0.00000000E+00  0.00000000E+00  0.00000000E+00
  0.00000000E+00  0.00000000E+00  0.00000000E+00
  0.00000000E+00  0.00000000E+00  0.00000000E+00
  0.00000000E+00  0.00000000E+00  0.00000000E+00
  0.00000000E+00  0.00000000E+00  0.00000000E+00
  0.00000000E+00  0.00000000E+00  0.00000000E+00
  0.00000000E+00  0.00000000E+00  0.00000000E+00
  0.00000000E+00  0.00000000E+00  0.00000000E+00
  0.00000000E+00  0.00000000E+00  0.00000000E+00
  0.00000000E+00  0.00000000E+00  0.00000000E+00
  0.00000000E+00  0.00000000E+00  0.00000000E+00
  0.00000000E+00  0.00000000E+00  0.00000000E+00
  0.00000000E+00  0.00000000E+00  0.00000000E+00
  0.00000000E+00  0.00000000E+00  0.00000000E+00
  0.00000000E+00  0.00000000E+00  0.00000000E+00
  0.00000000E+00  0.00000000E+00  0.00000000E+00
  0.00000000E+00  0.00000000E+00  0.00000000E+00
  0.00000000E+00  0.00000000E+00  0.00000000E+00
  0.00000000E+00  0.00000000E+00  0.00000000E+00
  0.00000000E+00  0.00000000E+00  0.00000000E+00
  0.00000000E+00  0.00000000E+00  0.00000000E+00
  0.00000000E+00  0.00000000E+00  0.00000000E+00
  0.00000000E+00  0.00000000E+00  0.00000000E+00
  0.00000000E+00  0.00000000E+00  0.00000000E+00
  0.00000000E+00  0.00000000E+00  0.00000000E+00
  0.00000000E+00  0.00000000E+00  0.00000000E+00
  0.00000000E+00  0.00000000E+00  0.00000000E+00
  0.00000000E+00  0.00000000E+00  0.00000000E+00
  0.00000000E+00  0.00000000E+00  0.00000000E+00
  0.00000000E+00  0.00000000E+00  0.00000000E+00
  0.00000000E+00  0.00000000E+00  0.00000000E+00
  0.00000000E+00  0.00000000E+00  0.00000000E+00
  0.00000000E+00  0.00000000E+00  0.00000000E+00
  0.00000000E+00  0.00000000E+00  0.00000000E+00
  0.00000000E+00  0.00000000E+00  0.00000000E+00
  0.00000000E+00  0.00000000E+00  0.00000000E+00
  0.00000000E+00  0.00000000E+00  0.00000000E+00
  0.00000000E+00  0.00000000E+00  0.00000000E+00
  0.00000000E+00  0.00000000E+00  0.00000000E+00
  0.00000000E+00  0.00000000E+00  0.00000000E+00
  0.00000000E+00  0.00000000E+00  0.00000000E+00
  0.00000000E+00  0.00000000E+00  0.00000000E+00
  0.00000000E+00  0.00000000E+00  0.00000000E+00
  0.00000000E+00  0.00000000E+00  0.00000000E+00
  0.00000000E+00  0.00000000E+00  0.00000000E+00
  0.00000000E+00  0.00000000E+00  0.00000000E+00
  0.00000000E+00  0.00000000E+00  0.00000000E+00
  0.00000000E+00  0.00000000E+00  0.00000000E+00
  0.00000000E+00  0.00000000E+00  0.00000000E+00
  0.00000000E+00  0.00000000E+00  0.00000000E+00
  0.00000000E+00  0.00000000E+00  0.00000000E+00
  0.00000000E+00  0.00000000E+00  0.00000000E+00
  0.00000000E+00  0.00000000E+00  0.00000000E+00
  0.00000000E+00  0.00000000E+00  0.00000000E+00
  0.00000000E+00  0.00000000E+00  0.00000000E+00
  0.00000000E+00  0.00000000E+00  0.00000000E+00
  0.00000000E+00  0.00000000E+00  0.00000000E+00
  0.00000000E+00  0.00000000E+00  0.00000000E+00
  0.00000000E+00  0.00000000E+00  0.00000000E+00
  0.00000000E+00  0.00000000E+00  0.00000000E+00
  0.00000000E+00  0.00000000E+00  0.00000000E+00
  0.00000000E+00  0.00000000E+00  0.00000000E+00
  0.00000000E+00  0.00000000E+00  0.00000000E+00
  0.00000000E+00  0.00000000E+00  0.00000000E+00
  0.00000000E+00  0.00000000E+00  0.00000000E+00
  0.00000000E+00  0.00000000E+00  0.00000000E+00
  0.00000000E+00  0.00000000E+00  0.00000000E+00
  0.00000000E+00  0.00000000E+00  0.00000000E+00
  0.00000000E+00  0.00000000E+00  0.00000000E+00
  0.00000000E+00  0.00000000E+00  0.00000000E+00
  0.00000000E+00  0.00000000E+00  0.00000000E+00
  0.00000000E+00  0.00000000E+00  0.00000000E+00
  0.00000000E+00  0.00000000E+00  0.00000000E+00
  0.00000000E+00  0.00000000E+00  0.00000000E+00
  0.00000000E+00  0.00000000E+00  0.00000000E+00
  0.00000000E+00  0.00000000E+00  0.00000000E+00
  0.00000000E+00  0.00000000E+00  0.00000000E+00
  0.00000000E+00  0.00000000E+00  0.00000000E+00
  0.00000000E+00  0.00000000E+00  0.00000000E+00
  0.00000000E+00  0.00000000E+00  0.00000000E+00
  0.00000000E+00  0.00000000E+00  0.00000000E+00
  0.00000000E+00  0.00000000E+00  0.00000000E+00
  0.00000000E+00  0.00000000E+00  0.00000000E+00
  0.00000000E+00  0.00000000E+00  0.00000000E+00
  0.00000000E+00  0.00000000E+00  0.00000000E+00
  0.00000000E+00  0.00000000E+00  0.00000000E+00
  0.00000000E+00  0.00000000E+00  0.00000000E+00
  0.00000000E+00  0.00000000E+00  0.00000000E+00
  0.00000000E+00  0.00000000E+00  0.00000000E+00
  0.00000000E+00  0.00000000E+00  0.00000000E+00
  0.00000000E+00  0.00000000E+00  0.00000000E+00
  0.00000000E+00  0.00000000E+00  0.00000000E+00
  0.00000000E+00  0.00000000E+00  0.00000000E+00
  0.00000000E+00  0.00000000E+00  0.00000000E+00
  0.00000000E+00  0.00000000E+00  0.00000000E+00
  0.00000000E+00  0.00000000E+00  0.00000000E+00
  0.00000000E+00  0.00000000E+00  0.00000000E+00
  0.00000000E+00  0.00000000E+00  0.00000000E+00
  0.00000000E+00  0.00000000E+00  0.00000000E+00
  0.00000000E+00  0.00000000E+00  0.00000000E+00
  0.00000000E+00  0.00000000E+00  0.00000000E+00
  0.00000000E+00  0.00000000E+00  0.00000000E+00
  0.00000000E+00  0.00000000E+00  0.00000000E+00
  0.00000000E+00  0.00000000E+00  0.00000000E+00
  0.00000000E+00  0.00000000E+00  0.00000000E+00
  0.00000000E+00  0.00000000E+00  0.00000000E+00
  0.00000000E+00  0.00000000E+00  0.00000000E+00
  0.00000000E+00  0.00000000E+00  0.00000000E+00
  0.00000000E+00  0.00000000E+00  0.00000000E+00
  0.00000000E+00  0.00000000E+00  0.00000000E+00
  0.00000000E+00  0.00000000E+00  0.00000000E+00
  0.00000000E+00  0.00000000E+00  0.00000000E+00
  0.00000000E+00  0.00000000E+00  0.00000000E+00
  0.00000000E+00  0.00000000E+00  0.00000000E+00
  0.00000000E+00  0.00000000E+00  0.00000000E+00
  0.00000000E+00  0.00000000E+00  0.00000000E+00
  0.00000000E+00  0.00000000E+00  0.00000000E+00
  0.00000000E+00  0.00000000E+00  0.00000000E+00
  0.00000000E+00  0.00000000E+00  0.00000000E+00
  0.00000000E+00  0.00000000E+00  0.00000000E+00
  0.00000000E+00  0.00000000E+00  0.00000000E+00
  0.00000000E+00  0.00000000E+00  0.00000000E+00
  0.00000000E+00  0.00000000E+00  0.00000000E+00
  0.00000000E+00  0.00000000E+00  0.00000000E+00
  0.00000000E+00  0.00000000E+00  0.00000000E+00
  0.00000000E+00  0.00000000E+00  0.00000000E+00
  0.00000000E+00  0.00000000E+00  0.00000000E+00
  0.00000000E+00  0.00000000E+00  0.00000000E+00
  0.00000000E+00  0.00000000E+00  0.00000000E+00
  0.00000000E+00  0.00000000E+00  0.00000000E+00
  0.00000000E+00  0.00000000E+00  0.00000000E+00
  0.00000000E+00  0.00000000E+00  0.00000000E+00
  0.00000000E+00  0.00000000E+00  0.00000000E+00
  0.00000000E+00  0.00000000E+00  0.00000000E+00
  0.00000000E+00  0.00000000E+00  0.00000000E+00
  0.00000000E+00  0.00000000E+00  0.00000000E+00
  0.00000000E+00  0.00000000E+00  0.00000000E+00
  0.00000000E+00  0.00000000E+00  0.00000000E+00
  0.00000000E+00  0.00000000E+00  0.00000000E+00
  0.00000000E+00  0.00000000E+00  0.00000000E+00
  0.00000000E+00  0.00000000E+00  0.00000000E+00
  0.00000000E+00  0.00000000E+00  0.00000000E+00
  0.00000000E+00  0.00000000E+00  0.00000000E+00
  0.00000000E+00  0.00000000E+00  0.00000000E+00
  0.00000000E+00  0.00000000E+00  0.00000000E+00
  0.00000000E+00  0.00000000E+00  0.00000000E+00
  0.00000000E+00  0.00000000E+00  0.00000000E+00
  0.00000000E+00  0.00000000E+00  0.00000000E+00
  0.00000000E+00  0.00000000E+00  0.00000000E+00
