Sn+Si
    1.000000000
   15.895228386    0.000000000    0.000000000
  -10.596819878   11.847604752    0.000000000
    0.000000000    0.000000000    6.663594246
Sn  Si 
24     36
Direct
    0.987179220    0.012820764    0.000000018
    0.837179184    0.162820861    0.217754826
    0.687179148    0.312820971    0.435509652
    0.487179220    0.512820780    0.000000016
    0.337179154    0.662820816    0.217754781
    0.187179133    0.812820971    0.435509652
    0.287179232    0.962820649    0.108877242
    0.137179241    0.112820745    0.326631933
    0.987179160    0.262820840    0.544386804
    0.787179351    0.462820649    0.108877212
    0.637179315    0.612820804    0.326631963
    0.487179279    0.762820840    0.544386804
    0.987179220    0.512820780    0.000000000
    0.837179184    0.662820876    0.217754766
    0.687179148    0.812820971    0.435509533
    0.487179220    0.012820777    0.000000006
    0.337179214    0.162820861    0.217754826
    0.187179133    0.312820971    0.435509652
    0.287179232    0.462820649    0.108877212
    0.137179196    0.612820745    0.326632053
    0.987179160    0.762820840    0.544386685
    0.787179232    0.962820649    0.108877197
    0.637179255    0.112820864    0.326631963
    0.487179220    0.262820840    0.544386685
    0.974358499    0.982905626    0.544386744
    0.674358428    0.782905579    0.726632178
    0.374358416    0.582905531    0.908877313
    0.307691783    0.982905626    0.544386744
    0.007691726    0.782905579    0.726632178
    0.707691669    0.582905531    0.908877313
    0.641025066    0.982905626    0.544386744
    0.341025025    0.782905579    0.726632178
    0.041024987    0.582905531    0.908877313
    0.157691970    0.632905602    0.635509253
    0.857691944    0.432905525    0.817754567
    0.557691932    0.232905507    0.999999940
    0.491025209    0.632905602    0.635509253
    0.191025153    0.432905525    0.817754567
    0.891025186    0.232905507    0.999999940
    0.824358463    0.632905602    0.635509253
    0.524358392    0.432905525    0.817754567
    0.224358499    0.232905507    0.999999940
    0.141025156    0.482905596    0.544386744
    0.841025114    0.282905489    0.726632178
    0.541025102    0.082905434    0.908877313
    0.474358439    0.482905596    0.544386744
    0.174358383    0.282905489    0.726632178
    0.874358356    0.082905434    0.908877313
    0.807691693    0.482905596    0.544386744
    0.507691681    0.282905489    0.726632178
    0.207691625    0.082905434    0.908877313
    0.991025209    0.132905662    0.635509312
    0.691025138    0.932905614    0.817754567
    0.391025186    0.732905567    0.999999940
    0.324358463    0.132905662    0.635509312
    0.024358414    0.932905614    0.817754567
    0.724358439    0.732905567    0.999999940
    0.657691658    0.132905662    0.635509312
    0.357691616    0.932905614    0.817754567
    0.057691652    0.732905567    0.999999940
