Si+Sn
    1.000000000
   10.862000465    0.000000000    0.000000000
    0.000000000   16.293001175    0.000000000
    0.000000000    0.000000000   22.784736633
Si  Sn 
72     72
Direct
    0.000000000    0.994067729    0.000000000
    0.000000000    0.827401042    0.119180664
    0.000000000    0.660734296    0.238361344
    0.500000000    0.994067729    0.000000000
    0.500000000    0.827401042    0.119180664
    0.500000000    0.660734296    0.238361344
    0.000000000    0.327401072    0.000000000
    0.000000000    0.160734385    0.119180664
    0.000000000    0.994067669    0.238361344
    0.500000000    0.327401072    0.000000000
    0.500000000    0.160734385    0.119180664
    0.500000000    0.994067669    0.238361344
    0.000000000    0.660734475    0.000000000
    0.000000000    0.494067729    0.119180664
    0.000000000    0.327401042    0.238361344
    0.500000000    0.660734475    0.000000000
    0.500000000    0.494067729    0.119180664
    0.500000000    0.327401042    0.238361344
    0.125000000    0.077401057    0.059590336
    0.125000000    0.910734355    0.178771019
    0.125000000    0.744067669    0.297951698
    0.625000000    0.077401057    0.059590336
    0.625000000    0.910734355    0.178771019
    0.625000000    0.744067669    0.297951698
    0.125000000    0.410734385    0.059590336
    0.125000000    0.244067669    0.178771019
    0.125000000    0.077400953    0.297951698
    0.625000000    0.410734385    0.059590336
    0.625000000    0.244067669    0.178771019
    0.625000000    0.077400953    0.297951698
    0.125000000    0.744067788    0.059590336
    0.125000000    0.577401042    0.178771019
    0.125000000    0.410734326    0.297951698
    0.625000000    0.744067788    0.059590336
    0.625000000    0.577401042    0.178771019
    0.625000000    0.410734326    0.297951698
    0.250000000    0.160734385    0.000000000
    0.250000000    0.994067669    0.119180664
    0.250000000    0.827400982    0.238361344
    0.750000060    0.160734385    0.000000000
    0.750000060    0.994067669    0.119180664
    0.750000060    0.827400982    0.238361344
    0.250000000    0.494067729    0.000000000
    0.250000000    0.327401042    0.119180664
    0.250000000    0.160734326    0.238361344
    0.750000060    0.494067729    0.000000000
    0.750000060    0.327401042    0.119180664
    0.750000060    0.160734326    0.238361344
    0.250000000    0.827401102    0.000000000
    0.250000000    0.660734415    0.119180664
    0.250000000    0.494067729    0.238361344
    0.750000060    0.827401102    0.000000000
    0.750000060    0.660734415    0.119180664
    0.750000060    0.494067729    0.238361344
    0.375000030    0.244067729    0.059590336
    0.375000030    0.077401020    0.178771019
    0.375000030    0.910734296    0.297951698
    0.875000060    0.244067729    0.059590336
    0.875000060    0.077401020    0.178771019
    0.875000060    0.910734296    0.297951698
    0.375000030    0.577401161    0.059590336
    0.375000030    0.410734475    0.178771019
    0.375000030    0.244067714    0.297951698
    0.875000060    0.577401161    0.059590336
    0.875000060    0.410734475    0.178771019
    0.875000060    0.244067714    0.297951698
    0.375000030    0.910734355    0.059590336
    0.375000030    0.744067669    0.178771019
    0.375000030    0.577400923    0.297951698
    0.875000060    0.910734355    0.059590336
    0.875000060    0.744067669    0.178771019
    0.875000060    0.577400923    0.297951698
    0.212962970    0.833872318    0.397241652
    0.212962866    0.583872318    0.497935295
    0.212962866    0.333872080    0.598629057
    0.212962747    0.083871961    0.699322701
    0.212962747    0.833871841    0.800016344
    0.212962747    0.583871841    0.900710106
    0.546296358    0.500539064    0.397241652
    0.546296358    0.250539064    0.497935295
    0.546296239    0.000538826    0.598628998
    0.546296179    0.750538826    0.699322641
    0.546296120    0.500538707    0.800016344
    0.546296179    0.250538588    0.900710046
    0.879629731    0.167205691    0.397241652
    0.879629672    0.917205691    0.497935295
    0.879629612    0.667205572    0.598628998
    0.879629612    0.417205334    0.699322641
    0.879629552    0.167205334    0.800016344
    0.879629612    0.917205215    0.900710046
    0.212962970    0.333872318    0.397241652
    0.212962866    0.083872318    0.497935295
    0.212962866    0.833872199    0.598629057
    0.212962747    0.583872080    0.699322701
    0.212962747    0.333872080    0.800016344
    0.212962747    0.083871841    0.900710046
    0.546296358    0.000539064    0.397241652
    0.546296299    0.750539064    0.497935295
    0.546296239    0.500538826    0.598629057
    0.546296239    0.250538588    0.699322641
    0.546296179    0.000538588    0.800016344
    0.546296120    0.750538588    0.900710046
    0.879629791    0.667205811    0.397241652
    0.879629731    0.417205691    0.497935295
    0.879629672    0.167205572    0.598629057
    0.879629612    0.917205453    0.699322701
    0.879629493    0.667205334    0.800016344
    0.879629493    0.417205334    0.900710046
    0.296296239    0.500539064    0.397241682
    0.296296239    0.250539064    0.497935295
    0.296296149    0.000538945    0.598629057
    0.296296120    0.750538826    0.699322641
    0.296296030    0.500538826    0.800016344
    0.296296060    0.250538588    0.900710046
    0.629629612    0.167205691    0.397241682
    0.629629612    0.917205632    0.497935295
    0.629629552    0.667205572    0.598629057
    0.629629493    0.417205334    0.699322641
    0.629629433    0.167205334    0.800016344
    0.629629433    0.917205215    0.900710046
    0.962962985    0.833872318    0.397241682
    0.962962985    0.583872318    0.497935295
    0.962962925    0.333872080    0.598629057
    0.962962806    0.083872080    0.699322641
    0.962962806    0.833871841    0.800016344
    0.962962806    0.583871841    0.900710046
    0.296296299    0.000539064    0.397241652
    0.296296269    0.750538945    0.497935295
    0.296296239    0.500538826    0.598629057
    0.296296149    0.250538707    0.699322701
    0.296296090    0.000538588    0.800016344
    0.296296060    0.750538588    0.900710046
    0.629629672    0.667205691    0.397241652
    0.629629612    0.417205572    0.497935295
    0.629629612    0.167205453    0.598629057
    0.629629552    0.917205334    0.699322701
    0.629629493    0.667205334    0.800016344
    0.629629493    0.417205095    0.900710046
    0.962962985    0.333872318    0.397241652
    0.962962925    0.083872318    0.497935295
    0.962962925    0.833872199    0.598629057
    0.962962806    0.583872080    0.699322701
    0.962962747    0.333871961    0.800016344
    0.962962747    0.083871841    0.900710046
