Ge+Si                                   
   1.00000000000000     
    16.0026760099999983    0.0000000000000000    0.0000000000000000
     0.0000000000000000   16.9734001160000005    0.0000000000000000
     0.0000000000000000    0.0000000000000000   18.0725250240000008
   Ge   Si
   144    72
Direct
  0.9896892309999998  0.9862523079999974  0.0000000209999982
  0.8646892309999998  0.8195856210000017  0.1106837319999983
  0.7396892309999998  0.6529189350000024  0.2213674930000025
  0.6146892309999998  0.4862522479999996  0.3320511880000012
  0.4896892909999977  0.3195855620000003  0.4427348669999986
  0.3646892309999998  0.1529188749999975  0.5534186360000035
  0.9896892309999998  0.3195856509999970  0.0000000209999982
  0.8646892309999998  0.1529189500000001  0.1106837319999983
  0.7396892309999998  0.9862522479999996  0.2213674930000025
  0.6146892309999998  0.8195855620000003  0.3320511880000012
  0.4896892909999977  0.6529189350000024  0.4427348669999986
  0.3646892309999998  0.4862521889999982  0.5534186360000035
  0.9896892309999998  0.6529189939999966  0.0000000209999982
  0.8646892309999998  0.4862523079999974  0.1106837319999983
  0.7396892309999998  0.3195855920000028  0.2213674930000025
  0.6146892309999998  0.1529189350000024  0.3320511880000012
  0.4896892909999977  0.9862522479999996  0.4427348669999986
  0.3646892309999998  0.8195855620000003  0.5534186360000035
  0.4896892309999998  0.9862523079999974  0.0000000189999980
  0.3646892309999998  0.8195856210000017  0.1106837470000031
  0.2396892160000021  0.6529189350000024  0.2213674930000025
  0.1146892309999998  0.4862522479999996  0.3320512179999966
  0.9896892309999998  0.3195855620000003  0.4427348970000011
  0.8646892309999998  0.1529188749999975  0.5534185770000022
  0.4896892309999998  0.3195856509999970  0.0000000189999980
  0.3646892309999998  0.1529189500000001  0.1106837470000031
  0.2396892160000021  0.9862522479999996  0.2213674930000025
  0.1146892309999998  0.8195855620000003  0.3320512179999966
  0.9896892309999998  0.6529189350000024  0.4427348970000011
  0.8646892309999998  0.4862521889999982  0.5534185770000022
  0.4896892309999998  0.6529189939999966  0.0000000189999980
  0.3646892309999998  0.4862523079999974  0.1106837470000031
  0.2396892160000021  0.3195855920000028  0.2213674930000025
  0.1146892309999998  0.1529189350000024  0.3320512179999966
  0.9896892309999998  0.9862522479999996  0.4427348970000011
  0.8646892309999998  0.8195855620000003  0.5534185770000022
  0.2396892309999998  0.9862523079999974  0.0000000260000022
  0.1146892309999998  0.8195856210000017  0.1106837470000031
  0.9896892309999998  0.6529189350000024  0.2213674930000025
  0.8646892309999998  0.4862522479999996  0.3320512179999966
  0.7396892309999998  0.3195855620000003  0.4427348970000011
  0.6146892309999998  0.1529188749999975  0.5534186360000035
  0.2396892309999998  0.3195856509999970  0.0000000260000022
  0.1146892309999998  0.1529189500000001  0.1106837470000031
  0.9896892309999998  0.9862522479999996  0.2213674930000025
  0.8646892309999998  0.8195855620000003  0.3320512179999966
  0.7396892309999998  0.6529189350000024  0.4427348970000011
  0.6146892309999998  0.4862521889999982  0.5534186360000035
  0.2396892309999998  0.6529189939999966  0.0000000260000022
  0.1146892309999998  0.4862523079999974  0.1106837470000031
  0.9896892309999998  0.3195855920000028  0.2213674930000025
  0.8646892309999998  0.1529189350000024  0.3320512179999966
  0.7396892309999998  0.9862522479999996  0.4427348970000011
  0.6146892309999998  0.8195855620000003  0.5534186360000035
  0.7396892309999998  0.9862523079999974  0.0000000120000010
  0.6146892309999998  0.8195856210000017  0.1106837470000031
  0.4896892009999974  0.6529189350000024  0.2213674630000000
  0.3646892309999998  0.4862522479999996  0.3320512179999966
  0.2396892459999975  0.3195855620000003  0.4427348970000011
  0.1146892309999998  0.1529188749999975  0.5534185770000022
  0.7396892309999998  0.3195856509999970  0.0000000120000010
  0.6146892309999998  0.1529189500000001  0.1106837470000031
  0.4896892009999974  0.9862522479999996  0.2213674630000000
  0.3646892309999998  0.8195855620000003  0.3320512179999966
  0.2396892459999975  0.6529189350000024  0.4427348970000011
  0.1146892309999998  0.4862521889999982  0.5534185770000022
  0.7396892309999998  0.6529189939999966  0.0000000120000010
  0.6146892309999998  0.4862523079999974  0.1106837470000031
  0.4896892009999974  0.3195855920000028  0.2213674630000000
  0.3646892309999998  0.1529189350000024  0.3320512179999966
  0.2396892459999975  0.9862522479999996  0.4427348970000011
  0.1146892309999998  0.8195855620000003  0.5534185770000022
  0.3646892309999998  0.2362523079999974  0.0000000120000010
  0.2396892309999998  0.0695856210000017  0.1106837319999983
  0.1146892089999980  0.9029188749999975  0.2213674630000000
  0.9896892309999998  0.7362521889999982  0.3320512179999966
  0.8646892309999998  0.5695855620000003  0.4427348970000011
  0.7396892309999998  0.4029188749999975  0.5534186360000035
  0.3646892309999998  0.5695856809999995  0.0000000120000010
  0.2396892309999998  0.4029189939999966  0.1106837319999983
  0.1146892089999980  0.2362522929999997  0.2213674630000000
  0.9896892309999998  0.0695856139999975  0.3320512179999966
  0.8646892309999998  0.9029189350000024  0.4427348970000011
  0.7396892309999998  0.7362521889999982  0.5534186360000035
  0.3646892309999998  0.9029189939999966  0.0000000120000010
  0.2396892309999998  0.7362523079999974  0.1106837319999983
  0.1146892089999980  0.5695855620000003  0.2213674630000000
  0.9896892309999998  0.4029189049999999  0.3320512179999966
  0.8646892309999998  0.2362522629999972  0.4427348970000011
  0.7396892309999998  0.0695855470000026  0.5534186360000035
  0.8646892909999977  0.2362523079999974  0.0000000000000000
  0.7396892909999977  0.0695856210000017  0.1106837319999983
  0.6146892909999977  0.9029188749999975  0.2213674630000000
  0.4896892909999977  0.7362521889999982  0.3320511880000012
  0.3646892909999977  0.5695855620000003  0.4427348669999986
  0.2396892909999977  0.4029188749999975  0.5534185770000022
  0.8646892909999977  0.5695856809999995  0.0000000000000000
  0.7396892909999977  0.4029189939999966  0.1106837319999983
  0.6146892909999977  0.2362522929999997  0.2213674630000000
  0.4896892909999977  0.0695856139999975  0.3320511880000012
  0.3646892909999977  0.9029189350000024  0.4427348669999986
  0.2396892909999977  0.7362521889999982  0.5534185770000022
  0.8646892909999977  0.9029189939999966  0.0000000000000000
  0.7396892909999977  0.7362523079999974  0.1106837319999983
  0.6146892909999977  0.5695855620000003  0.2213674630000000
  0.4896892909999977  0.4029189049999999  0.3320511880000012
  0.3646892909999977  0.2362522629999972  0.4427348669999986
  0.2396892909999977  0.0695855470000026  0.5534185770000022
  0.1146892229999992  0.2362523079999974  0.0000000240000020
  0.9896892309999998  0.0695856210000017  0.1106837470000031
  0.8646892309999998  0.9029188749999975  0.2213674630000000
  0.7396892309999998  0.7362521889999982  0.3320512179999966
  0.6146892309999998  0.5695855620000003  0.4427348970000011
  0.4896892309999998  0.4029188749999975  0.5534185770000022
  0.1146892229999992  0.5695856809999995  0.0000000240000020
  0.9896892309999998  0.4029189939999966  0.1106837470000031
  0.8646892309999998  0.2362522929999997  0.2213674630000000
  0.7396892309999998  0.0695856139999975  0.3320512179999966
  0.6146892309999998  0.9029189350000024  0.4427348970000011
  0.4896892309999998  0.7362521889999982  0.5534185770000022
  0.1146892229999992  0.9029189939999966  0.0000000240000020
  0.9896892309999998  0.7362523079999974  0.1106837470000031
  0.8646892309999998  0.5695855620000003  0.2213674630000000
  0.7396892309999998  0.4029189049999999  0.3320512179999966
  0.6146892309999998  0.2362522629999972  0.4427348970000011
  0.4896892309999998  0.0695855470000026  0.5534185770000022
  0.6146892309999998  0.2362523079999974  0.0000000060000005
  0.4896892309999998  0.0695856210000017  0.1106837470000031
  0.3646892309999998  0.9029188749999975  0.2213674630000000
  0.2396892309999998  0.7362521889999982  0.3320512179999966
  0.1146892530000017  0.5695855620000003  0.4427348669999986
  0.9896892309999998  0.4029188749999975  0.5534185770000022
  0.6146892309999998  0.5695856809999995  0.0000000060000005
  0.4896892309999998  0.4029189939999966  0.1106837470000031
  0.3646892309999998  0.2362522929999997  0.2213674630000000
  0.2396892309999998  0.0695856139999975  0.3320512179999966
  0.1146892530000017  0.9029189350000024  0.4427348669999986
  0.9896892309999998  0.7362521889999982  0.5534185770000022
  0.6146892309999998  0.9029189939999966  0.0000000060000005
  0.4896892309999998  0.7362523079999974  0.1106837470000031
  0.3646892309999998  0.5695855620000003  0.2213674630000000
  0.2396892309999998  0.4029189049999999  0.3320512179999966
  0.1146892530000017  0.2362522629999972  0.4427348669999986
  0.9896892309999998  0.0695855470000026  0.5534185770000022
  0.4700015490000027  0.0688081979999993  0.8954971430000001
  0.3033350709999993  0.3188074830000005  0.6579217310000018
  0.1366683239999986  0.6688075659999981  0.7054367659999983
  0.9700016979999972  0.0188077689999986  0.7529518600000031
  0.8033349509999965  0.3688080310000004  0.8004670139999988
  0.6366682049999994  0.7188081740000030  0.8479821090000002
  0.8033349509999965  0.0688081979999993  0.8954971430000001
  0.6366684440000014  0.3188074830000005  0.6579217310000018
  0.4700017270000032  0.6688075659999981  0.7054367659999983
  0.3033350709999993  0.0188077689999986  0.7529518600000031
  0.1366682049999994  0.3688080310000004  0.8004670139999988
  0.9700014590000023  0.7188081740000030  0.8479821090000002
  0.1366682049999994  0.0688081979999993  0.8954971430000001
  0.9700018169999964  0.3188074830000005  0.6579217310000018
  0.8033350709999993  0.6688075659999981  0.7054367659999983
  0.6366684440000014  0.0188077689999986  0.7529518600000031
  0.4700016379999994  0.3688080310000004  0.8004670139999988
  0.3033348319999973  0.7188081740000030  0.8479821090000002
  0.5533348319999973  0.8188083169999985  0.8954971430000001
  0.3866684139999990  0.0688076019999997  0.6579216720000005
  0.2200016979999972  0.4188077450000023  0.7054367659999983
  0.0533349509999965  0.7688080069999970  0.7529518010000018
  0.8866682049999994  0.1188081499999996  0.8004669549999974
  0.7200015780000015  0.4688081740000030  0.8479820490000023
  0.8866682049999994  0.8188083169999985  0.8954971430000001
  0.7200016979999972  0.0688076019999997  0.6579216720000005
  0.5533350110000015  0.4188077450000023  0.7054367659999983
  0.3866683239999986  0.7688080069999970  0.7529518010000018
  0.2200015780000015  0.1188081499999996  0.8004669549999974
  0.0533349509999965  0.4688081740000030  0.8479820490000023
  0.2200015780000015  0.8188083169999985  0.8954971430000001
  0.0533350709999993  0.0688076019999997  0.6579216720000005
  0.8866683239999986  0.4188077450000023  0.7054367659999983
  0.7200016379999994  0.7688080069999970  0.7529518010000018
  0.5533348920000023  0.1188081499999996  0.8004669549999974
  0.3866682350000019  0.4688081740000030  0.8479820490000023
  0.4700015490000027  0.5688083169999985  0.8954971430000001
  0.3033350709999993  0.8188075420000018  0.6579216720000005
  0.1366683239999986  0.1688077450000023  0.7054367659999983
  0.9700016979999972  0.5188077689999986  0.7529518010000018
  0.8033349509999965  0.8688080310000004  0.8004670139999988
  0.6366683239999986  0.2188081740000030  0.8479820490000023
  0.8033349509999965  0.5688083169999985  0.8954971430000001
  0.6366684440000014  0.8188075420000018  0.6579216720000005
  0.4700016979999972  0.1688077450000023  0.7054367659999983
  0.3033350709999993  0.5188077689999986  0.7529518010000018
  0.1366682049999994  0.8688080310000004  0.8004670139999988
  0.9700015780000015  0.2188081740000030  0.8479820490000023
  0.1366682049999994  0.5688083169999985  0.8954971430000001
  0.9700018169999964  0.8188075420000018  0.6579216720000005
  0.8033350709999993  0.1688077450000023  0.7054367659999983
  0.6366683840000036  0.5188077689999986  0.7529518010000018
  0.4700016379999994  0.8688080310000004  0.8004670139999988
  0.3033349509999965  0.2188081740000030  0.8479820490000023
  0.5533348319999973  0.3188083169999985  0.8954971430000001
  0.3866684139999990  0.5688074830000005  0.6579217310000018
  0.2200016979999972  0.9188075659999981  0.7054367659999983
  0.0533350709999993  0.2688077689999986  0.7529518010000018
  0.8866682049999994  0.6188080310000004  0.8004669549999974
  0.7200014590000023  0.9688082930000022  0.8479820490000023
  0.8866682049999994  0.3188083169999985  0.8954971430000001
  0.7200017569999986  0.5688074830000005  0.6579217310000018
  0.5533350709999993  0.9188075659999981  0.7054367659999983
  0.3866683839999965  0.2688077689999986  0.7529518010000018
  0.2200015780000015  0.6188080310000004  0.8004669549999974
  0.0533348319999973  0.9688082930000022  0.8479820490000023
  0.2200015780000015  0.3188083169999985  0.8954971430000001
  0.0533350709999993  0.5688074830000005  0.6579217310000018
  0.8866684440000014  0.9188075659999981  0.7054367659999983
  0.7200016979999972  0.2688077689999986  0.7529518010000018
  0.5533349509999965  0.6188080310000004  0.8004669549999974
  0.3866681749999969  0.9688082930000022  0.8479820490000023
 
  0.00000000E+00  0.00000000E+00  0.00000000E+00
  0.00000000E+00  0.00000000E+00  0.00000000E+00
  0.00000000E+00  0.00000000E+00  0.00000000E+00
  0.00000000E+00  0.00000000E+00  0.00000000E+00
  0.00000000E+00  0.00000000E+00  0.00000000E+00
  0.00000000E+00  0.00000000E+00  0.00000000E+00
  0.00000000E+00  0.00000000E+00  0.00000000E+00
  0.00000000E+00  0.00000000E+00  0.00000000E+00
  0.00000000E+00  0.00000000E+00  0.00000000E+00
  0.00000000E+00  0.00000000E+00  0.00000000E+00
  0.00000000E+00  0.00000000E+00  0.00000000E+00
  0.00000000E+00  0.00000000E+00  0.00000000E+00
  0.00000000E+00  0.00000000E+00  0.00000000E+00
  0.00000000E+00  0.00000000E+00  0.00000000E+00
  0.00000000E+00  0.00000000E+00  0.00000000E+00
  0.00000000E+00  0.00000000E+00  0.00000000E+00
  0.00000000E+00  0.00000000E+00  0.00000000E+00
  0.00000000E+00  0.00000000E+00  0.00000000E+00
  0.00000000E+00  0.00000000E+00  0.00000000E+00
  0.00000000E+00  0.00000000E+00  0.00000000E+00
  0.00000000E+00  0.00000000E+00  0.00000000E+00
  0.00000000E+00  0.00000000E+00  0.00000000E+00
  0.00000000E+00  0.00000000E+00  0.00000000E+00
  0.00000000E+00  0.00000000E+00  0.00000000E+00
  0.00000000E+00  0.00000000E+00  0.00000000E+00
  0.00000000E+00  0.00000000E+00  0.00000000E+00
  0.00000000E+00  0.00000000E+00  0.00000000E+00
  0.00000000E+00  0.00000000E+00  0.00000000E+00
  0.00000000E+00  0.00000000E+00  0.00000000E+00
  0.00000000E+00  0.00000000E+00  0.00000000E+00
  0.00000000E+00  0.00000000E+00  0.00000000E+00
  0.00000000E+00  0.00000000E+00  0.00000000E+00
  0.00000000E+00  0.00000000E+00  0.00000000E+00
  0.00000000E+00  0.00000000E+00  0.00000000E+00
  0.00000000E+00  0.00000000E+00  0.00000000E+00
  0.00000000E+00  0.00000000E+00  0.00000000E+00
  0.00000000E+00  0.00000000E+00  0.00000000E+00
  0.00000000E+00  0.00000000E+00  0.00000000E+00
  0.00000000E+00  0.00000000E+00  0.00000000E+00
  0.00000000E+00  0.00000000E+00  0.00000000E+00
  0.00000000E+00  0.00000000E+00  0.00000000E+00
  0.00000000E+00  0.00000000E+00  0.00000000E+00
  0.00000000E+00  0.00000000E+00  0.00000000E+00
  0.00000000E+00  0.00000000E+00  0.00000000E+00
  0.00000000E+00  0.00000000E+00  0.00000000E+00
  0.00000000E+00  0.00000000E+00  0.00000000E+00
  0.00000000E+00  0.00000000E+00  0.00000000E+00
  0.00000000E+00  0.00000000E+00  0.00000000E+00
  0.00000000E+00  0.00000000E+00  0.00000000E+00
  0.00000000E+00  0.00000000E+00  0.00000000E+00
  0.00000000E+00  0.00000000E+00  0.00000000E+00
  0.00000000E+00  0.00000000E+00  0.00000000E+00
  0.00000000E+00  0.00000000E+00  0.00000000E+00
  0.00000000E+00  0.00000000E+00  0.00000000E+00
  0.00000000E+00  0.00000000E+00  0.00000000E+00
  0.00000000E+00  0.00000000E+00  0.00000000E+00
  0.00000000E+00  0.00000000E+00  0.00000000E+00
  0.00000000E+00  0.00000000E+00  0.00000000E+00
  0.00000000E+00  0.00000000E+00  0.00000000E+00
  0.00000000E+00  0.00000000E+00  0.00000000E+00
  0.00000000E+00  0.00000000E+00  0.00000000E+00
  0.00000000E+00  0.00000000E+00  0.00000000E+00
  0.00000000E+00  0.00000000E+00  0.00000000E+00
  0.00000000E+00  0.00000000E+00  0.00000000E+00
  0.00000000E+00  0.00000000E+00  0.00000000E+00
  0.00000000E+00  0.00000000E+00  0.00000000E+00
  0.00000000E+00  0.00000000E+00  0.00000000E+00
  0.00000000E+00  0.00000000E+00  0.00000000E+00
  0.00000000E+00  0.00000000E+00  0.00000000E+00
  0.00000000E+00  0.00000000E+00  0.00000000E+00
  0.00000000E+00  0.00000000E+00  0.00000000E+00
  0.00000000E+00  0.00000000E+00  0.00000000E+00
  0.00000000E+00  0.00000000E+00  0.00000000E+00
  0.00000000E+00  0.00000000E+00  0.00000000E+00
  0.00000000E+00  0.00000000E+00  0.00000000E+00
  0.00000000E+00  0.00000000E+00  0.00000000E+00
  0.00000000E+00  0.00000000E+00  0.00000000E+00
  0.00000000E+00  0.00000000E+00  0.00000000E+00
  0.00000000E+00  0.00000000E+00  0.00000000E+00
  0.00000000E+00  0.00000000E+00  0.00000000E+00
  0.00000000E+00  0.00000000E+00  0.00000000E+00
  0.00000000E+00  0.00000000E+00  0.00000000E+00
  0.00000000E+00  0.00000000E+00  0.00000000E+00
  0.00000000E+00  0.00000000E+00  0.00000000E+00
  0.00000000E+00  0.00000000E+00  0.00000000E+00
  0.00000000E+00  0.00000000E+00  0.00000000E+00
  0.00000000E+00  0.00000000E+00  0.00000000E+00
  0.00000000E+00  0.00000000E+00  0.00000000E+00
  0.00000000E+00  0.00000000E+00  0.00000000E+00
  0.00000000E+00  0.00000000E+00  0.00000000E+00
  0.00000000E+00  0.00000000E+00  0.00000000E+00
  0.00000000E+00  0.00000000E+00  0.00000000E+00
  0.00000000E+00  0.00000000E+00  0.00000000E+00
  0.00000000E+00  0.00000000E+00  0.00000000E+00
  0.00000000E+00  0.00000000E+00  0.00000000E+00
  0.00000000E+00  0.00000000E+00  0.00000000E+00
  0.00000000E+00  0.00000000E+00  0.00000000E+00
  0.00000000E+00  0.00000000E+00  0.00000000E+00
  0.00000000E+00  0.00000000E+00  0.00000000E+00
  0.00000000E+00  0.00000000E+00  0.00000000E+00
  0.00000000E+00  0.00000000E+00  0.00000000E+00
  0.00000000E+00  0.00000000E+00  0.00000000E+00
  0.00000000E+00  0.00000000E+00  0.00000000E+00
  0.00000000E+00  0.00000000E+00  0.00000000E+00
  0.00000000E+00  0.00000000E+00  0.00000000E+00
  0.00000000E+00  0.00000000E+00  0.00000000E+00
  0.00000000E+00  0.00000000E+00  0.00000000E+00
  0.00000000E+00  0.00000000E+00  0.00000000E+00
  0.00000000E+00  0.00000000E+00  0.00000000E+00
  0.00000000E+00  0.00000000E+00  0.00000000E+00
  0.00000000E+00  0.00000000E+00  0.00000000E+00
  0.00000000E+00  0.00000000E+00  0.00000000E+00
  0.00000000E+00  0.00000000E+00  0.00000000E+00
  0.00000000E+00  0.00000000E+00  0.00000000E+00
  0.00000000E+00  0.00000000E+00  0.00000000E+00
  0.00000000E+00  0.00000000E+00  0.00000000E+00
  0.00000000E+00  0.00000000E+00  0.00000000E+00
  0.00000000E+00  0.00000000E+00  0.00000000E+00
  0.00000000E+00  0.00000000E+00  0.00000000E+00
  0.00000000E+00  0.00000000E+00  0.00000000E+00
  0.00000000E+00  0.00000000E+00  0.00000000E+00
  0.00000000E+00  0.00000000E+00  0.00000000E+00
  0.00000000E+00  0.00000000E+00  0.00000000E+00
  0.00000000E+00  0.00000000E+00  0.00000000E+00
  0.00000000E+00  0.00000000E+00  0.00000000E+00
  0.00000000E+00  0.00000000E+00  0.00000000E+00
  0.00000000E+00  0.00000000E+00  0.00000000E+00
  0.00000000E+00  0.00000000E+00  0.00000000E+00
  0.00000000E+00  0.00000000E+00  0.00000000E+00
  0.00000000E+00  0.00000000E+00  0.00000000E+00
  0.00000000E+00  0.00000000E+00  0.00000000E+00
  0.00000000E+00  0.00000000E+00  0.00000000E+00
  0.00000000E+00  0.00000000E+00  0.00000000E+00
  0.00000000E+00  0.00000000E+00  0.00000000E+00
  0.00000000E+00  0.00000000E+00  0.00000000E+00
  0.00000000E+00  0.00000000E+00  0.00000000E+00
  0.00000000E+00  0.00000000E+00  0.00000000E+00
  0.00000000E+00  0.00000000E+00  0.00000000E+00
  0.00000000E+00  0.00000000E+00  0.00000000E+00
  0.00000000E+00  0.00000000E+00  0.00000000E+00
  0.00000000E+00  0.00000000E+00  0.00000000E+00
  0.00000000E+00  0.00000000E+00  0.00000000E+00
  0.00000000E+00  0.00000000E+00  0.00000000E+00
  0.00000000E+00  0.00000000E+00  0.00000000E+00
  0.00000000E+00  0.00000000E+00  0.00000000E+00
  0.00000000E+00  0.00000000E+00  0.00000000E+00
  0.00000000E+00  0.00000000E+00  0.00000000E+00
  0.00000000E+00  0.00000000E+00  0.00000000E+00
  0.00000000E+00  0.00000000E+00  0.00000000E+00
  0.00000000E+00  0.00000000E+00  0.00000000E+00
  0.00000000E+00  0.00000000E+00  0.00000000E+00
  0.00000000E+00  0.00000000E+00  0.00000000E+00
  0.00000000E+00  0.00000000E+00  0.00000000E+00
  0.00000000E+00  0.00000000E+00  0.00000000E+00
  0.00000000E+00  0.00000000E+00  0.00000000E+00
  0.00000000E+00  0.00000000E+00  0.00000000E+00
  0.00000000E+00  0.00000000E+00  0.00000000E+00
  0.00000000E+00  0.00000000E+00  0.00000000E+00
  0.00000000E+00  0.00000000E+00  0.00000000E+00
  0.00000000E+00  0.00000000E+00  0.00000000E+00
  0.00000000E+00  0.00000000E+00  0.00000000E+00
  0.00000000E+00  0.00000000E+00  0.00000000E+00
  0.00000000E+00  0.00000000E+00  0.00000000E+00
  0.00000000E+00  0.00000000E+00  0.00000000E+00
  0.00000000E+00  0.00000000E+00  0.00000000E+00
  0.00000000E+00  0.00000000E+00  0.00000000E+00
  0.00000000E+00  0.00000000E+00  0.00000000E+00
  0.00000000E+00  0.00000000E+00  0.00000000E+00
  0.00000000E+00  0.00000000E+00  0.00000000E+00
  0.00000000E+00  0.00000000E+00  0.00000000E+00
  0.00000000E+00  0.00000000E+00  0.00000000E+00
  0.00000000E+00  0.00000000E+00  0.00000000E+00
  0.00000000E+00  0.00000000E+00  0.00000000E+00
  0.00000000E+00  0.00000000E+00  0.00000000E+00
  0.00000000E+00  0.00000000E+00  0.00000000E+00
  0.00000000E+00  0.00000000E+00  0.00000000E+00
  0.00000000E+00  0.00000000E+00  0.00000000E+00
  0.00000000E+00  0.00000000E+00  0.00000000E+00
  0.00000000E+00  0.00000000E+00  0.00000000E+00
  0.00000000E+00  0.00000000E+00  0.00000000E+00
  0.00000000E+00  0.00000000E+00  0.00000000E+00
  0.00000000E+00  0.00000000E+00  0.00000000E+00
  0.00000000E+00  0.00000000E+00  0.00000000E+00
  0.00000000E+00  0.00000000E+00  0.00000000E+00
  0.00000000E+00  0.00000000E+00  0.00000000E+00
  0.00000000E+00  0.00000000E+00  0.00000000E+00
  0.00000000E+00  0.00000000E+00  0.00000000E+00
  0.00000000E+00  0.00000000E+00  0.00000000E+00
  0.00000000E+00  0.00000000E+00  0.00000000E+00
  0.00000000E+00  0.00000000E+00  0.00000000E+00
  0.00000000E+00  0.00000000E+00  0.00000000E+00
  0.00000000E+00  0.00000000E+00  0.00000000E+00
  0.00000000E+00  0.00000000E+00  0.00000000E+00
  0.00000000E+00  0.00000000E+00  0.00000000E+00
  0.00000000E+00  0.00000000E+00  0.00000000E+00
  0.00000000E+00  0.00000000E+00  0.00000000E+00
  0.00000000E+00  0.00000000E+00  0.00000000E+00
  0.00000000E+00  0.00000000E+00  0.00000000E+00
  0.00000000E+00  0.00000000E+00  0.00000000E+00
  0.00000000E+00  0.00000000E+00  0.00000000E+00
  0.00000000E+00  0.00000000E+00  0.00000000E+00
  0.00000000E+00  0.00000000E+00  0.00000000E+00
  0.00000000E+00  0.00000000E+00  0.00000000E+00
  0.00000000E+00  0.00000000E+00  0.00000000E+00
  0.00000000E+00  0.00000000E+00  0.00000000E+00
  0.00000000E+00  0.00000000E+00  0.00000000E+00
  0.00000000E+00  0.00000000E+00  0.00000000E+00
  0.00000000E+00  0.00000000E+00  0.00000000E+00
  0.00000000E+00  0.00000000E+00  0.00000000E+00
  0.00000000E+00  0.00000000E+00  0.00000000E+00
  0.00000000E+00  0.00000000E+00  0.00000000E+00
  0.00000000E+00  0.00000000E+00  0.00000000E+00
  0.00000000E+00  0.00000000E+00  0.00000000E+00
  0.00000000E+00  0.00000000E+00  0.00000000E+00
  0.00000000E+00  0.00000000E+00  0.00000000E+00
  0.00000000E+00  0.00000000E+00  0.00000000E+00
