fcc Si+fcc Ge
    1.000000000
    7.749890322    0.000000000    0.000000000
   -3.874945161   11.624835483    0.000000000
    0.000000000    0.000000000   18.633333333
Si    Ge   
12     66
Direct
    0.000000000    0.000000000    0.000000000
    0.388888889    0.277777778    0.049016100
    0.777777778    0.555555556    0.098032200
    0.500000000    0.000000000    0.000000000
    0.888888889    0.277777778    0.049016100
    0.277777778    0.555555556    0.098032200
    0.694444444    0.888888889    0.024508050
    0.083333333    0.166666667    0.073524150
    0.472222222    0.444444444    0.122540250
    0.194444444    0.888888889    0.024508050
    0.583333333    0.166666667    0.073524150
    0.972222222    0.444444444    0.122540250
    0.236842105    0.385245902    0.181574240
    0.403508772    0.218579235    0.333452594
    0.570175439    0.051912568    0.485330948
    0.736842105    0.885245902    0.637209302
    0.903508772    0.718579235    0.789087657
    0.070175439    0.551912568    0.940966011
    0.903508772    0.718579235    0.181574240
    0.070175439    0.551912568    0.333452594
    0.236842105    0.385245902    0.485330948
    0.403508772    0.218579235    0.637209302
    0.570175439    0.051912568    0.789087657
    0.736842105    0.885245902    0.940966011
    0.570175439    0.051912568    0.181574240
    0.736842105    0.885245902    0.333452594
    0.903508772    0.718579235    0.485330948
    0.070175439    0.551912568    0.637209302
    0.236842105    0.385245902    0.789087657
    0.403508772    0.218579235    0.940966011
    0.736842105    0.385245902    0.181574240
    0.903508772    0.218579235    0.333452594
    0.070175439    0.051912568    0.485330948
    0.236842105    0.885245902    0.637209302
    0.403508772    0.718579235    0.789087657
    0.570175439    0.551912568    0.940966011
    0.403508772    0.718579235    0.181574240
    0.570175439    0.551912568    0.333452594
    0.736842105    0.385245902    0.485330948
    0.903508772    0.218579235    0.637209302
    0.070175439    0.051912568    0.789087657
    0.236842105    0.885245902    0.940966011
    0.070175439    0.051912568    0.181574240
    0.236842105    0.885245902    0.333452594
    0.403508772    0.718579235    0.485330948
    0.570175439    0.551912568    0.637209302
    0.736842105    0.385245902    0.789087657
    0.903508772    0.218579235    0.940966011
    0.320175439    0.551912568    0.257513417
    0.486842105    0.385245902    0.409391771
    0.653508772    0.218579235    0.561270125
    0.820175439    0.051912568    0.713148479
    0.986842105    0.885245902    0.865026834
    0.986842105    0.885245902    0.257513417
    0.153508772    0.718579235    0.409391771
    0.320175439    0.551912568    0.561270125
    0.486842105    0.385245902    0.713148479
    0.653508772    0.218579235    0.865026834
    0.653508772    0.218579235    0.257513417
    0.820175439    0.051912568    0.409391771
    0.986842105    0.885245902    0.561270125
    0.153508772    0.718579235    0.713148479
    0.320175439    0.551912568    0.865026834
    0.820175439    0.551912568    0.257513417
    0.986842105    0.385245902    0.409391771
    0.153508772    0.218579235    0.561270125
    0.320175439    0.051912568    0.713148479
    0.486842105    0.885245902    0.865026834
    0.486842105    0.885245902    0.257513417
    0.653508772    0.718579235    0.409391771
    0.820175439    0.551912568    0.561270125
    0.986842105    0.385245902    0.713148479
    0.153508772    0.218579235    0.865026834
    0.153508772    0.218579235    0.257513417
    0.320175439    0.051912568    0.409391771
    0.486842105    0.885245902    0.561270125
    0.653508772    0.718579235    0.713148479
    0.820175439    0.551912568    0.865026834
