Si+Ge                                   
   1.00000000000000     
    16.2930011750000006    0.0000000000000000    0.0000000000000000
     0.0000000000000000   17.1743297579999989    0.0000000000000000
     0.0000000000000000    0.0000001850000000    7.6274824140000002
   Si   Ge
    72    48
Direct
  0.1303789019999968  0.8262046580000018  0.5629104380000030
  0.9637124540000030  0.0762039119999969  0.0000000779999993
  0.7970457079999989  0.4262040260000006  0.1125821469999977
  0.6303790810000010  0.7762041690000032  0.2251641750000033
  0.4637122749999989  0.1262044910000029  0.3377462919999985
  0.2970455290000018  0.4762046339999984  0.4503283800000020
  0.4637122749999989  0.8262046580000018  0.5629104380000030
  0.2970457970000027  0.0762039119999969  0.0000000779999993
  0.1303790810000010  0.4262040260000006  0.1125821469999977
  0.9637123939999981  0.7762041690000032  0.2251641750000033
  0.7970455880000031  0.1262044910000029  0.3377462919999985
  0.6303788419999989  0.4762046339999984  0.4503283800000020
  0.7970455880000031  0.8262046580000018  0.5629104380000030
  0.6303791400000023  0.0762039119999969  0.0000000779999993
  0.4637124240000006  0.4262040260000006  0.1125821469999977
  0.2970457670000002  0.7762041690000032  0.2251641750000033
  0.1303789760000029  0.1262044910000029  0.3377462919999985
  0.9637122150000010  0.4762046339999984  0.4503283800000020
  0.2137122150000010  0.5762047770000009  0.5629103180000001
  0.0470457670000002  0.8262040019999972  0.0000000000000000
  0.8803790810000010  0.1762042049999977  0.1125821250000030
  0.7137123349999968  0.5262044669999995  0.2251640859999995
  0.5470455880000031  0.8762046100000020  0.3377462030000018
  0.3803789620000018  0.2262046339999984  0.4503282009999978
  0.5470455880000031  0.5762047770000009  0.5629103180000001
  0.3803790810000010  0.8262040019999972  0.0000000000000000
  0.2137123790000004  0.1762042049999977  0.1125821250000030
  0.0470456930000012  0.5262044669999995  0.2251640859999995
  0.8803789620000018  0.8762046100000020  0.3377462030000018
  0.7137123349999968  0.2262046339999984  0.4503282009999978
  0.8803789019999968  0.5762047770000009  0.5629103180000001
  0.7137123939999981  0.8262040019999972  0.0000000000000000
  0.5470457079999989  0.1762042049999977  0.1125821250000030
  0.3803789910000006  0.5262044669999995  0.2251640859999995
  0.2137122299999987  0.8762046100000020  0.3377462030000018
  0.0470455809999990  0.2262046339999984  0.4503282009999978
  0.1303789019999968  0.3262047770000009  0.5629104380000030
  0.9637123939999981  0.5762040019999972  0.0000000309999990
  0.7970457079999989  0.9262041449999998  0.1125820880000035
  0.6303790210000031  0.2762042279999974  0.2251640859999995
  0.4637122749999989  0.6262044910000029  0.3377462919999985
  0.2970456480000010  0.9762046339999984  0.4503282009999978
  0.4637122749999989  0.3262047770000009  0.5629104380000030
  0.2970457670000002  0.5762040019999972  0.0000000309999990
  0.1303790509999985  0.9262041449999998  0.1125820880000035
  0.9637123939999981  0.2762042279999974  0.2251640859999995
  0.7970455880000031  0.6262044910000029  0.3377462919999985
  0.6303789620000018  0.9762046339999984  0.4503282009999978
  0.7970455880000031  0.3262047770000009  0.5629104380000030
  0.6303791400000023  0.5762040019999972  0.0000000309999990
  0.4637123939999981  0.9262041449999998  0.1125820880000035
  0.2970457380000013  0.2762042279999974  0.2251640859999995
  0.1303789760000029  0.6262044910000029  0.3377462919999985
  0.9637123349999968  0.9762046339999984  0.4503282009999978
  0.2137122150000010  0.0762047770000009  0.5629103180000001
  0.0470457670000002  0.3262039119999969  0.0000000779999993
  0.8803790810000010  0.6762040260000006  0.1125820950000005
  0.7137123939999981  0.0262042279999974  0.2251641009999972
  0.5470455880000031  0.3762044910000029  0.3377462030000018
  0.3803788419999989  0.7262047529999975  0.4503282009999978
  0.5470455880000031  0.0762047770000009  0.5629103180000001
  0.3803791110000034  0.3262039119999969  0.0000000779999993
  0.2137124090000029  0.6762040260000006  0.1125820950000005
  0.0470457260000003  0.0262042279999974  0.2251641009999972
  0.8803789620000018  0.3762044910000029  0.3377462030000018
  0.7137122150000010  0.7262047529999975  0.4503282009999978
  0.8803789620000018  0.0762047770000009  0.5629103180000001
  0.7137124540000030  0.3262039119999969  0.0000000779999993
  0.5470457670000002  0.6762040260000006  0.1125820950000005
  0.3803790810000010  0.0262042279999974  0.2251641009999972
  0.2137122899999966  0.3762044910000029  0.3377462030000018
  0.0470455399999992  0.7262047529999975  0.4503282009999978
  0.4132376909999991  0.9100242849999987  0.5629104380000030
  0.0382377210000016  0.5211353299999999  0.6503283380000013
  0.6632377509999969  0.1322464349999990  0.7377462390000034
  0.2882378099999983  0.7433575390000016  0.8251641390000017
  0.9132378099999983  0.3544685840000028  0.9125819799999988
  0.5382376909999991  0.9655795099999978  0.9999999400000021
  0.9132377509999969  0.9100242849999987  0.5629104380000030
  0.5382378099999983  0.5211353299999999  0.6503283380000013
  0.1632377509999969  0.1322463750000011  0.7377462390000034
  0.7882378099999983  0.7433575390000016  0.8251641390000017
  0.4132379289999975  0.3544685840000028  0.9125819799999988
  0.0382378099999983  0.9655795099999978  0.9999999400000021
  0.7882376909999991  0.6600242259999973  0.5629104380000030
  0.4132377509999969  0.2711353299999999  0.6503284570000005
  0.0382377800000029  0.8822463750000011  0.7377462979999976
  0.6632378700000032  0.4933575390000016  0.8251641390000017
  0.2882379890000024  0.1044686440000007  0.9125820989999980
  0.9132376909999991  0.7155795099999978  0.9999999400000021
  0.2882376909999991  0.6600242259999973  0.5629104380000030
  0.9132377509999969  0.2711352709999986  0.6503283380000013
  0.5382377509999969  0.8822463150000033  0.7377462390000034
  0.1632378099999983  0.4933574800000002  0.8251641390000017
  0.7882379289999975  0.1044685239999978  0.9125819799999988
  0.4132376909999991  0.7155793909999986  0.9999999400000021
  0.5382376909999991  0.6600242259999973  0.5629104380000030
  0.1632377059999968  0.2711352999999974  0.6503283380000013
  0.7882377509999969  0.8822463150000033  0.7377462390000034
  0.4132378099999983  0.4933574800000002  0.8251641390000017
  0.0382379289999975  0.1044685840000028  0.9125819799999988
  0.6632376909999991  0.7155793909999986  0.9999999400000021
  0.0382377020000035  0.6600242259999973  0.5629104380000030
  0.6632377509999969  0.2711353299999999  0.6503283380000013
  0.2882377509999969  0.8822463750000011  0.7377462390000034
  0.9132378099999983  0.4933574800000002  0.8251641390000017
  0.5382379289999975  0.1044685840000028  0.9125819799999988
  0.1632378099999983  0.7155795099999978  0.9999999400000021
  0.6632376310000012  0.9100242849999987  0.5629104380000030
  0.2882376909999991  0.5211353299999999  0.6503283380000013
  0.9132376909999991  0.1322464349999990  0.7377462390000034
  0.5382378099999983  0.7433574200000024  0.8251641390000017
  0.1632379289999975  0.3544685840000028  0.9125819799999988
  0.7882376909999991  0.9655795099999978  0.9999999400000021
  0.1632377059999968  0.9100242849999987  0.5629104380000030
  0.7882377509999969  0.5211353299999999  0.6503283380000013
  0.4132378099999983  0.1322464349999990  0.7377462979999976
  0.0382378700000032  0.7433575390000016  0.8251641390000017
  0.6632379289999975  0.3544685840000028  0.9125819799999988
  0.2882376909999991  0.9655795099999978  0.9999999400000021
 
  0.00000000E+00  0.00000000E+00  0.00000000E+00
  0.00000000E+00  0.00000000E+00  0.00000000E+00
  0.00000000E+00  0.00000000E+00  0.00000000E+00
  0.00000000E+00  0.00000000E+00  0.00000000E+00
  0.00000000E+00  0.00000000E+00  0.00000000E+00
  0.00000000E+00  0.00000000E+00  0.00000000E+00
  0.00000000E+00  0.00000000E+00  0.00000000E+00
  0.00000000E+00  0.00000000E+00  0.00000000E+00
  0.00000000E+00  0.00000000E+00  0.00000000E+00
  0.00000000E+00  0.00000000E+00  0.00000000E+00
  0.00000000E+00  0.00000000E+00  0.00000000E+00
  0.00000000E+00  0.00000000E+00  0.00000000E+00
  0.00000000E+00  0.00000000E+00  0.00000000E+00
  0.00000000E+00  0.00000000E+00  0.00000000E+00
  0.00000000E+00  0.00000000E+00  0.00000000E+00
  0.00000000E+00  0.00000000E+00  0.00000000E+00
  0.00000000E+00  0.00000000E+00  0.00000000E+00
  0.00000000E+00  0.00000000E+00  0.00000000E+00
  0.00000000E+00  0.00000000E+00  0.00000000E+00
  0.00000000E+00  0.00000000E+00  0.00000000E+00
  0.00000000E+00  0.00000000E+00  0.00000000E+00
  0.00000000E+00  0.00000000E+00  0.00000000E+00
  0.00000000E+00  0.00000000E+00  0.00000000E+00
  0.00000000E+00  0.00000000E+00  0.00000000E+00
  0.00000000E+00  0.00000000E+00  0.00000000E+00
  0.00000000E+00  0.00000000E+00  0.00000000E+00
  0.00000000E+00  0.00000000E+00  0.00000000E+00
  0.00000000E+00  0.00000000E+00  0.00000000E+00
  0.00000000E+00  0.00000000E+00  0.00000000E+00
  0.00000000E+00  0.00000000E+00  0.00000000E+00
  0.00000000E+00  0.00000000E+00  0.00000000E+00
  0.00000000E+00  0.00000000E+00  0.00000000E+00
  0.00000000E+00  0.00000000E+00  0.00000000E+00
  0.00000000E+00  0.00000000E+00  0.00000000E+00
  0.00000000E+00  0.00000000E+00  0.00000000E+00
  0.00000000E+00  0.00000000E+00  0.00000000E+00
  0.00000000E+00  0.00000000E+00  0.00000000E+00
  0.00000000E+00  0.00000000E+00  0.00000000E+00
  0.00000000E+00  0.00000000E+00  0.00000000E+00
  0.00000000E+00  0.00000000E+00  0.00000000E+00
  0.00000000E+00  0.00000000E+00  0.00000000E+00
  0.00000000E+00  0.00000000E+00  0.00000000E+00
  0.00000000E+00  0.00000000E+00  0.00000000E+00
  0.00000000E+00  0.00000000E+00  0.00000000E+00
  0.00000000E+00  0.00000000E+00  0.00000000E+00
  0.00000000E+00  0.00000000E+00  0.00000000E+00
  0.00000000E+00  0.00000000E+00  0.00000000E+00
  0.00000000E+00  0.00000000E+00  0.00000000E+00
  0.00000000E+00  0.00000000E+00  0.00000000E+00
  0.00000000E+00  0.00000000E+00  0.00000000E+00
  0.00000000E+00  0.00000000E+00  0.00000000E+00
  0.00000000E+00  0.00000000E+00  0.00000000E+00
  0.00000000E+00  0.00000000E+00  0.00000000E+00
  0.00000000E+00  0.00000000E+00  0.00000000E+00
  0.00000000E+00  0.00000000E+00  0.00000000E+00
  0.00000000E+00  0.00000000E+00  0.00000000E+00
  0.00000000E+00  0.00000000E+00  0.00000000E+00
  0.00000000E+00  0.00000000E+00  0.00000000E+00
  0.00000000E+00  0.00000000E+00  0.00000000E+00
  0.00000000E+00  0.00000000E+00  0.00000000E+00
  0.00000000E+00  0.00000000E+00  0.00000000E+00
  0.00000000E+00  0.00000000E+00  0.00000000E+00
  0.00000000E+00  0.00000000E+00  0.00000000E+00
  0.00000000E+00  0.00000000E+00  0.00000000E+00
  0.00000000E+00  0.00000000E+00  0.00000000E+00
  0.00000000E+00  0.00000000E+00  0.00000000E+00
  0.00000000E+00  0.00000000E+00  0.00000000E+00
  0.00000000E+00  0.00000000E+00  0.00000000E+00
  0.00000000E+00  0.00000000E+00  0.00000000E+00
  0.00000000E+00  0.00000000E+00  0.00000000E+00
  0.00000000E+00  0.00000000E+00  0.00000000E+00
  0.00000000E+00  0.00000000E+00  0.00000000E+00
  0.00000000E+00  0.00000000E+00  0.00000000E+00
  0.00000000E+00  0.00000000E+00  0.00000000E+00
  0.00000000E+00  0.00000000E+00  0.00000000E+00
  0.00000000E+00  0.00000000E+00  0.00000000E+00
  0.00000000E+00  0.00000000E+00  0.00000000E+00
  0.00000000E+00  0.00000000E+00  0.00000000E+00
  0.00000000E+00  0.00000000E+00  0.00000000E+00
  0.00000000E+00  0.00000000E+00  0.00000000E+00
  0.00000000E+00  0.00000000E+00  0.00000000E+00
  0.00000000E+00  0.00000000E+00  0.00000000E+00
  0.00000000E+00  0.00000000E+00  0.00000000E+00
  0.00000000E+00  0.00000000E+00  0.00000000E+00
  0.00000000E+00  0.00000000E+00  0.00000000E+00
  0.00000000E+00  0.00000000E+00  0.00000000E+00
  0.00000000E+00  0.00000000E+00  0.00000000E+00
  0.00000000E+00  0.00000000E+00  0.00000000E+00
  0.00000000E+00  0.00000000E+00  0.00000000E+00
  0.00000000E+00  0.00000000E+00  0.00000000E+00
  0.00000000E+00  0.00000000E+00  0.00000000E+00
  0.00000000E+00  0.00000000E+00  0.00000000E+00
  0.00000000E+00  0.00000000E+00  0.00000000E+00
  0.00000000E+00  0.00000000E+00  0.00000000E+00
  0.00000000E+00  0.00000000E+00  0.00000000E+00
  0.00000000E+00  0.00000000E+00  0.00000000E+00
  0.00000000E+00  0.00000000E+00  0.00000000E+00
  0.00000000E+00  0.00000000E+00  0.00000000E+00
  0.00000000E+00  0.00000000E+00  0.00000000E+00
  0.00000000E+00  0.00000000E+00  0.00000000E+00
  0.00000000E+00  0.00000000E+00  0.00000000E+00
  0.00000000E+00  0.00000000E+00  0.00000000E+00
  0.00000000E+00  0.00000000E+00  0.00000000E+00
  0.00000000E+00  0.00000000E+00  0.00000000E+00
  0.00000000E+00  0.00000000E+00  0.00000000E+00
  0.00000000E+00  0.00000000E+00  0.00000000E+00
  0.00000000E+00  0.00000000E+00  0.00000000E+00
  0.00000000E+00  0.00000000E+00  0.00000000E+00
  0.00000000E+00  0.00000000E+00  0.00000000E+00
  0.00000000E+00  0.00000000E+00  0.00000000E+00
  0.00000000E+00  0.00000000E+00  0.00000000E+00
  0.00000000E+00  0.00000000E+00  0.00000000E+00
  0.00000000E+00  0.00000000E+00  0.00000000E+00
  0.00000000E+00  0.00000000E+00  0.00000000E+00
  0.00000000E+00  0.00000000E+00  0.00000000E+00
  0.00000000E+00  0.00000000E+00  0.00000000E+00
  0.00000000E+00  0.00000000E+00  0.00000000E+00
  0.00000000E+00  0.00000000E+00  0.00000000E+00
  0.00000000E+00  0.00000000E+00  0.00000000E+00
  0.00000000E+00  0.00000000E+00  0.00000000E+00
