Si+Sn
    1.000000000
    9.406767845    0.000000000    0.000000000
    0.000000000   15.361189842    0.000000000
    0.000000000    0.000000000   13.972714424
Si  Sn 
48     48
Direct
    0.069444448    0.921875000    0.000000005
    0.402777851    0.546875000    0.079340264
    0.736111283    0.171875000    0.158680528
    0.069444656    0.796875000    0.238020837
    0.402778029    0.421875119    0.317360997
    0.736111641    0.046874881    0.396701306
    0.069444455    0.421874970    0.000000003
    0.402777851    0.046874985    0.079340279
    0.736111283    0.671875000    0.158680528
    0.069444656    0.296875000    0.238020837
    0.402778029    0.921875000    0.317360997
    0.736111641    0.546874762    0.396701306
    0.819444478    0.171875015    0.000000000
    0.152777910    0.796875000    0.079340249
    0.486111283    0.421875000    0.158680514
    0.819444776    0.046874940    0.238020733
    0.152778149    0.671875000    0.317361027
    0.486111641    0.296874881    0.396701366
    0.819444478    0.671874940    0.000000000
    0.152777910    0.296874970    0.079340234
    0.486111283    0.921874940    0.158680514
    0.819444776    0.546874881    0.238020763
    0.152777910    0.171875000    0.317361057
    0.486111641    0.796874762    0.396701366
    0.069444448    0.171875000    0.000000008
    0.402777851    0.796875000    0.079340279
    0.736111283    0.421875000    0.158680528
    0.069444776    0.046874940    0.238020763
    0.402778029    0.671875000    0.317360997
    0.736111522    0.296874881    0.396701366
    0.069444455    0.671875000    0.000000005
    0.402777851    0.296875000    0.079340279
    0.736111283    0.921875000    0.158680528
    0.069444656    0.546874940    0.238020778
    0.402778029    0.171875000    0.317360997
    0.736111522    0.796874881    0.396701366
    0.819444478    0.921875000    0.000000000
    0.152777791    0.546875000    0.079340249
    0.486111283    0.171875000    0.158680514
    0.819444895    0.796875000    0.238020733
    0.152778149    0.421875000    0.317360997
    0.486111879    0.046874762    0.396701306
    0.819444478    0.421875000    0.000000000
    0.152777910    0.046874970    0.079340249
    0.486111283    0.671875000    0.158680514
    0.819444656    0.296875000    0.238020763
    0.152778149    0.921875119    0.317361057
    0.486111641    0.546874881    0.396701396
    0.000000000    0.987590849    0.396701425
    0.000000000    0.654257417    0.664834023
    0.000000000    0.320923984    0.932966828
    0.499999970    0.487590820    0.396701425
    0.500000000    0.154257417    0.664834023
    0.499999970    0.820923984    0.932966709
    0.499999970    0.154257461    0.463734597
    0.500000000    0.820924044    0.731867194
    0.499999940    0.487590671    0.999999881
    0.000000000    0.654257417    0.463734597
    0.000000000    0.320924044    0.731867194
    0.000000000    0.987590611    0.999999881
    0.249999985    0.237590820    0.396701425
    0.249999985    0.904257417    0.664834023
    0.250000000    0.570924044    0.932966828
    0.749999940    0.737590790    0.396701425
    0.749999940    0.404257387    0.664834142
    0.749999940    0.070923999    0.932966828
    0.749999940    0.404257476    0.463734537
    0.750000000    0.070924081    0.731867194
    0.750000000    0.737590671    0.999999881
    0.249999985    0.904257476    0.463734537
    0.250000000    0.570924103    0.731867194
    0.249999985    0.237590671    0.999999881
    0.749999940    0.237590820    0.396701425
    0.749999940    0.904257417    0.664834142
    0.749999940    0.570924044    0.932966828
    0.250000000    0.737590790    0.396701425
    0.250000000    0.404257387    0.664834142
    0.249999970    0.070923999    0.932966828
    0.249999970    0.404257476    0.463734537
    0.249999985    0.070924066    0.731867194
    0.249999955    0.737590671    0.999999881
    0.749999940    0.904257476    0.463734537
    0.749999940    0.570924103    0.731867194
    0.749999940    0.237590671    0.999999881
    0.499999970    0.987590849    0.396701425
    0.499999970    0.654257417    0.664834023
    0.499999970    0.320923984    0.932966828
    0.000000000    0.487590820    0.396701425
    0.000000000    0.154257417    0.664834023
    0.000000000    0.820924044    0.932966828
    0.000000000    0.154257521    0.463734597
    0.000000000    0.820924103    0.731867194
    0.000000000    0.487590730    0.999999881
    0.499999970    0.654257596    0.463734537
    0.500000000    0.320924193    0.731867194
    0.500000000    0.987590790    0.999999881
