Ge+Sn
    1.000000000
   19.599195480    0.000000000    0.000000000
    6.533064842   18.478298187    0.000000000
    0.000000000    0.000000000   25.800945282
Ge  Sn 
192     144
Direct
    0.941464424    0.974913359    0.000000015
    0.503964424    0.787413359    0.077529527
    0.066464484    0.599913359    0.155059054
    0.628964424    0.412413418    0.232588500
    0.191464424    0.224913478    0.310118079
    0.753964186    0.037413359    0.387647510
    0.441464454    0.974913359    0.000000018
    0.003964441    0.787413359    0.077529527
    0.566464424    0.599913359    0.155059040
    0.128964424    0.412413359    0.232588500
    0.691464424    0.224913418    0.310118049
    0.253964305    0.037413359    0.387647599
    0.191464439    0.224913329    0.000000018
    0.753964424    0.037413348    0.077529527
    0.316464424    0.849913359    0.155059040
    0.878964424    0.662413418    0.232588500
    0.441464424    0.474913478    0.310118049
    0.003964305    0.287413359    0.387647599
    0.941464484    0.474913329    0.000000018
    0.503964424    0.287413329    0.077529527
    0.066464424    0.099913359    0.155059040
    0.628964424    0.912413359    0.232588500
    0.191464424    0.724913478    0.310118049
    0.753964186    0.537413359    0.387647599
    0.691464424    0.224913359    0.000000000
    0.253964424    0.037413381    0.077529527
    0.816464424    0.849913359    0.155059040
    0.378964424    0.662413418    0.232588500
    0.941464424    0.474913418    0.310118079
    0.503964186    0.287413359    0.387647629
    0.441464454    0.474913329    0.000000000
    0.003964454    0.287413359    0.077529527
    0.566464424    0.099913374    0.155059040
    0.128964424    0.912413418    0.232588500
    0.691464424    0.724913478    0.310118079
    0.253964305    0.537413359    0.387647629
    0.191464454    0.724913359    0.000000000
    0.753964484    0.537413359    0.077529527
    0.316464484    0.349913388    0.155059040
    0.878964424    0.162413403    0.232588500
    0.441464424    0.974913418    0.310118079
    0.003964186    0.787413359    0.387647629
    0.691464424    0.724913359    0.000000010
    0.253964424    0.537413359    0.077529512
    0.816464424    0.349913359    0.155059040
    0.378964424    0.162413388    0.232588530
    0.941464424    0.974913418    0.310118049
    0.503964305    0.787413299    0.387647569
    0.066464439    0.099913336    0.000000019
    0.628964424    0.912413359    0.077529527
    0.191464424    0.724913359    0.155059025
    0.753964424    0.537413359    0.232588500
    0.316464424    0.349913418    0.310118049
    0.878964424    0.162413359    0.387647599
    0.566464484    0.099913321    0.000000009
    0.128964439    0.912413359    0.077529527
    0.691464424    0.724913359    0.155059040
    0.253964424    0.537413359    0.232588530
    0.816464424    0.349913359    0.310118049
    0.378964305    0.162413299    0.387647569
    0.316464424    0.349913359    0.000000009
    0.878964424    0.162413344    0.077529527
    0.441464424    0.974913359    0.155059040
    0.003964424    0.787413418    0.232588530
    0.566464424    0.599913478    0.310118049
    0.128964186    0.412413299    0.387647569
    0.066464446    0.599913359    0.000000009
    0.628964424    0.412413329    0.077529527
    0.191464484    0.224913359    0.155059040
    0.753964424    0.037413366    0.232588530
    0.316464424    0.849913478    0.310118049
    0.878964186    0.662413359    0.387647569
    0.816464484    0.349913329    0.000000019
    0.378964514    0.162413359    0.077529527
    0.941464484    0.974913359    0.155059040
    0.503964484    0.787413359    0.232588530
    0.066464484    0.599913359    0.310118049
    0.628964305    0.412413359    0.387647599
    0.566464484    0.599913359    0.000000019
    0.128964469    0.412413388    0.077529527
    0.691464484    0.224913374    0.155059040
    0.253964424    0.037413437    0.232588530
    0.816464424    0.849913418    0.310118049
    0.378964305    0.662413359    0.387647599
    0.316464484    0.849913359    0.000000019
    0.878964484    0.662413359    0.077529527
    0.441464484    0.474913418    0.155059040
    0.003964484    0.287413418    0.232588530
    0.566464424    0.099913470    0.310118049
    0.128964186    0.912413359    0.387647599
    0.816464484    0.849913359    0.000000003
    0.378964514    0.662413418    0.077529535
    0.941464484    0.474913388    0.155059025
    0.503964543    0.287413388    0.232588530
    0.066464484    0.099913426    0.310118049
    0.628964305    0.912413359    0.387647569
    0.191464424    0.099913329    0.000000015
    0.753964424    0.912413359    0.077529520
    0.316464424    0.724913359    0.155059040
    0.878964424    0.537413359    0.232588559
    0.441464424    0.349913359    0.310118079
    0.003964305    0.162413299    0.387647629
    0.941464424    0.349913329    0.000000015
    0.503964424    0.162413359    0.077529520
    0.066464424    0.974913359    0.155059040
    0.628964424    0.787413359    0.232588559
    0.191464424    0.599913359    0.310118079
    0.753964186    0.412413299    0.387647629
    0.691464365    0.099913336    0.000000003
    0.253964394    0.912413359    0.077529520
    0.816464424    0.724913359    0.155059040
    0.378964365    0.537413359    0.232588530
    0.941464424    0.349913359    0.310118079
    0.503964305    0.162413359    0.387647539
    0.441464484    0.349913359    0.000000005
    0.003964453    0.162413374    0.077529520
    0.566464484    0.974913418    0.155059040
    0.128964424    0.787413359    0.232588530
    0.691464424    0.599913359    0.310118109
    0.253964305    0.412413359    0.387647599
    0.191464469    0.599913359    0.000000005
    0.753964424    0.412413359    0.077529520
    0.316464484    0.224913403    0.155059040
    0.878964424    0.037413388    0.232588530
    0.441464543    0.849913359    0.310118109
    0.003964305    0.662413359    0.387647599
    0.941464424    0.849913418    0.000000005
    0.503964424    0.662413418    0.077529520
    0.066464484    0.474913418    0.155059040
    0.628964424    0.287413448    0.232588530
    0.191464543    0.099913388    0.310118109
    0.753964186    0.912413478    0.387647599
    0.691464424    0.599913359    0.000000015
    0.253964454    0.412413359    0.077529520
    0.816464424    0.224913374    0.155059025
    0.378964484    0.037413400    0.232588530
    0.941464424    0.849913418    0.310118049
    0.503964305    0.662413359    0.387647599
    0.441464454    0.849913359    0.000000015
    0.003964434    0.662413418    0.077529520
    0.566464424    0.474913388    0.155059025
    0.128964484    0.287413388    0.232588530
    0.691464424    0.099913403    0.310118049
    0.253964305    0.912413299    0.387647599
    0.066464432    0.974913359    0.000000014
    0.628964424    0.787413359    0.077529520
    0.191464424    0.599913359    0.155059040
    0.753964424    0.412413359    0.232588559
    0.316464543    0.224913418    0.310118020
    0.878964186    0.037413299    0.387647569
    0.566464484    0.974913359    0.000000014
    0.128964439    0.787413359    0.077529527
    0.691464424    0.599913359    0.155059025
    0.253964484    0.412413359    0.232588530
    0.816464424    0.224913418    0.310118049
    0.378964305    0.037413359    0.387647510
    0.316464454    0.224913359    0.000000014
    0.878964424    0.037413359    0.077529527
    0.441464424    0.849913359    0.155059025
    0.003964484    0.662413359    0.232588530
    0.566464424    0.474913418    0.310118049
    0.128964424    0.287413359    0.387647510
    0.066464461    0.474913329    0.000000014
    0.628964424    0.287413359    0.077529527
    0.191464484    0.099913374    0.155059025
    0.753964424    0.912413418    0.232588530
    0.316464424    0.724913359    0.310118049
    0.878964424    0.537413359    0.387647510
    0.816464484    0.224913359    0.000000024
    0.378964484    0.037413385    0.077529535
    0.941464484    0.849913359    0.155059040
    0.503964484    0.662413359    0.232588500
    0.066464484    0.474913418    0.310118049
    0.628964305    0.287413359    0.387647569
    0.566464484    0.474913359    0.000000024
    0.128964484    0.287413388    0.077529535
    0.691464424    0.099913396    0.155059040
    0.253964484    0.912413418    0.232588500
    0.816464424    0.724913418    0.310118049
    0.378964305    0.537413359    0.387647569
    0.316464454    0.724913359    0.000000023
    0.878964424    0.537413359    0.077529535
    0.441464424    0.349913359    0.155059040
    0.003964484    0.162413359    0.232588500
    0.566464424    0.974913359    0.310118079
    0.128964305    0.787413359    0.387647569
    0.816464543    0.724913418    0.000000036
    0.378964514    0.537413418    0.077529512
    0.941464543    0.349913388    0.155059040
    0.503964484    0.162413433    0.232588530
    0.066464484    0.974913478    0.310118049
    0.628964305    0.787413359    0.387647569
    0.693574429    0.134600043    0.471518040
    0.568574309    0.009599924    0.560440361
    0.443574309    0.884599805    0.649362683
    0.318574309    0.759599626    0.738284945
    0.193574190    0.634599447    0.827207267
    0.068574190    0.509599388    0.916129589
    0.693574429    0.801266670    0.471518040
    0.568574309    0.676266551    0.560440361
    0.443574309    0.551266432    0.649362683
    0.318574309    0.426266313    0.738284945
    0.193574190    0.301266193    0.827207267
    0.068574190    0.176266074    0.916129589
    0.693574429    0.467933297    0.471518040
    0.568574309    0.342933178    0.560440361
    0.443574309    0.217933059    0.649362683
    0.318574309    0.092932940    0.738284945
    0.193574190    0.967932820    0.827207267
    0.068574190    0.842932701    0.916129589
    0.193574429    0.301266670    0.471518040
    0.068574309    0.176266551    0.560440361
    0.943574309    0.051266432    0.649362683
    0.818574309    0.926266253    0.738285005
    0.693574190    0.801266134    0.827207267
    0.568574190    0.676266015    0.916129529
    0.193574429    0.967933416    0.471518040
    0.068574309    0.842933297    0.560440361
    0.943574309    0.717933118    0.649362683
    0.818574309    0.592932999    0.738285005
    0.693574190    0.467932820    0.827207267
    0.568574190    0.342932820    0.916129529
    0.193574429    0.634599924    0.471518040
    0.068574309    0.509599864    0.560440361
    0.943574309    0.384599686    0.649362683
    0.818574309    0.259599566    0.738285005
    0.693574190    0.134599447    0.827207267
    0.568574190    0.009599328    0.916129529
    0.943574369    0.384600043    0.471518040
    0.818574369    0.259599805    0.560440361
    0.693574309    0.134599686    0.649362683
    0.568574309    0.009599566    0.738284945
    0.443574190    0.884599507    0.827207267
    0.318574190    0.759599328    0.916129589
    0.943574369    0.051266789    0.471518040
    0.818574369    0.926266611    0.560440361
    0.693574309    0.801266432    0.649362683
    0.568574309    0.676266313    0.738284945
    0.443574190    0.551266193    0.827207267
    0.318574190    0.426266074    0.916129589
    0.943574369    0.717933357    0.471518040
    0.818574369    0.592933178    0.560440361
    0.693574309    0.467933059    0.649362683
    0.568574309    0.342932940    0.738284945
    0.443574190    0.217932820    0.827207267
    0.318574190    0.092932701    0.916129589
    0.443574429    0.217933297    0.471518040
    0.318574429    0.092933178    0.560440361
    0.193574309    0.967933059    0.649362683
    0.068574309    0.842932940    0.738285005
    0.943574250    0.717932820    0.827207267
    0.818574250    0.592932701    0.916129529
    0.443574429    0.884599924    0.471518040
    0.318574429    0.759599805    0.560440361
    0.193574309    0.634599686    0.649362683
    0.068574309    0.509599566    0.738285005
    0.943574250    0.384599447    0.827207267
    0.818574250    0.259599328    0.916129529
    0.443574429    0.551266670    0.471518040
    0.318574429    0.426266551    0.560440361
    0.193574309    0.301266432    0.649362683
    0.068574309    0.176266313    0.738285005
    0.943574250    0.051266193    0.827207267
    0.818574250    0.926265955    0.916129529
    0.068574429    0.426266670    0.471518070
    0.943574309    0.301266551    0.560440361
    0.818574309    0.176266432    0.649362683
    0.693574190    0.051266193    0.738285005
    0.568574190    0.926266074    0.827207267
    0.443574190    0.801265955    0.916129529
    0.068574429    0.092933416    0.471518070
    0.943574309    0.967933178    0.560440361
    0.818574309    0.842933118    0.649362683
    0.693574190    0.717932940    0.738285005
    0.568574190    0.592932820    0.827207267
    0.443574190    0.467932701    0.916129529
    0.068574429    0.759600043    0.471518070
    0.943574309    0.634599924    0.560440361
    0.818574309    0.509599805    0.649362683
    0.693574190    0.384599566    0.738285005
    0.568574190    0.259599566    0.827207267
    0.443574190    0.134599447    0.916129529
    0.568574429    0.259600163    0.471518040
    0.443574429    0.134600043    0.560440361
    0.318574429    0.009599805    0.649362683
    0.193574309    0.884599686    0.738285005
    0.068574309    0.759599566    0.827207267
    0.943574309    0.634599388    0.916129529
    0.568574429    0.926266670    0.471518040
    0.443574429    0.801266432    0.560440361
    0.318574429    0.676266372    0.649362683
    0.193574309    0.551266193    0.738285005
    0.068574309    0.426266074    0.827207267
    0.943574309    0.301265955    0.916129529
    0.568574429    0.592933297    0.471518040
    0.443574429    0.467933178    0.560440361
    0.318574429    0.342933059    0.649362683
    0.193574309    0.217932940    0.738285005
    0.068574309    0.092932820    0.827207267
    0.943574309    0.967932701    0.916129529
    0.818574369    0.176266789    0.471518040
    0.693574429    0.051266551    0.560440361
    0.568574309    0.926266432    0.649362683
    0.443574190    0.801266313    0.738285005
    0.318574190    0.676266193    0.827207267
    0.193574190    0.551266015    0.916129529
    0.818574369    0.842933357    0.471518040
    0.693574429    0.717933238    0.560440361
    0.568574309    0.592933118    0.649362683
    0.443574190    0.467932940    0.738285005
    0.318574190    0.342932820    0.827207267
    0.193574190    0.217932701    0.916129529
    0.818574369    0.509599984    0.471518040
    0.693574429    0.384599805    0.560440361
    0.568574309    0.259599686    0.649362683
    0.443574190    0.134599566    0.738285005
    0.318574190    0.009599566    0.827207267
    0.193574190    0.884599328    0.916129529
    0.318574429    0.342933416    0.471518070
    0.193574309    0.217933297    0.560440361
    0.068574309    0.092933059    0.649362683
    0.943574309    0.967932999    0.738285005
    0.818574250    0.842932940    0.827207267
    0.693574190    0.717932701    0.916129529
    0.318574429    0.009600043    0.471518070
    0.193574309    0.884599924    0.560440361
    0.068574309    0.759599805    0.649362683
    0.943574309    0.634599626    0.738285005
    0.818574250    0.509599507    0.827207267
    0.693574190    0.384599328    0.916129529
    0.318574429    0.676266670    0.471518070
    0.193574309    0.551266491    0.560440361
    0.068574309    0.426266432    0.649362683
    0.943574309    0.301266193    0.738285005
    0.818574250    0.176266193    0.827207267
    0.693574190    0.051266074    0.916129529
