Si+C
    1.000000000
   13.303179741    0.000000000    0.000000000
    6.651589394   11.520891190    0.000000000
    0.000000000    0.000000000   17.351549149
Si  C  
72     308
Direct
    0.000000000    0.318506181    0.361418992
    0.000000000    0.985172927    0.000000017
    0.000000000    0.651839554    0.180709511
    0.333333343    0.651839614    0.361418962
    0.333333343    0.318506300    0.000000011
    0.333333343    0.985172868    0.180709496
    0.666666687    0.985172927    0.361418962
    0.666666687    0.651839614    0.000000007
    0.666666687    0.318506241    0.180709496
    0.333333343    0.318506062    0.406596422
    0.333333343    0.985172868    0.045177396
    0.333333343    0.651839495    0.225886866
    1.000000000    0.985172808    0.406596422
    1.000000000    0.651839614    0.045177393
    1.000000000    0.318506271    0.225886866
    0.666666746    0.651839375    0.406596422
    0.666666746    0.318506211    0.045177411
    0.666666746    0.985172868    0.225886866
    0.500000000    0.318506241    0.361418962
    0.500000000    0.985172927    0.000000013
    0.500000000    0.651839554    0.180709496
    0.166666672    0.985172927    0.361418962
    0.166666672    0.651839674    0.000000002
    0.166666672    0.318506241    0.180709496
    0.833333373    0.651839614    0.361418962
    0.833333373    0.318506300    0.000000002
    0.833333373    0.985172927    0.180709496
    0.166666657    0.651839554    0.406596303
    0.166666657    0.318506300    0.045177344
    0.166666657    0.985172868    0.225886822
    0.833333433    0.318506181    0.406596333
    0.833333433    0.985172927    0.045177363
    0.833333433    0.651839495    0.225886837
    0.500000060    0.985172868    0.406596333
    0.500000060    0.651839614    0.045177370
    0.500000060    0.318506211    0.225886866
    0.166666672    0.485172927    0.361418962
    0.166666672    0.151839614    0.000000013
    0.166666672    0.818506241    0.180709496
    0.500000000    0.818506241    0.361418992
    0.500000000    0.485172987    0.000000020
    0.500000000    0.151839584    0.180709511
    0.833333373    0.151839629    0.361418962
    0.833333373    0.818506360    0.000000000
    0.833333373    0.485173017    0.180709451
    0.500000000    0.485172868    0.406596333
    0.500000000    0.151839614    0.045177363
    0.500000000    0.818506241    0.225886837
    0.166666672    0.151839569    0.406596303
    0.166666672    0.818506360    0.045177337
    0.166666672    0.485172927    0.225886822
    0.833333373    0.818506181    0.406596303
    0.833333373    0.485172927    0.045177337
    0.833333373    0.151839525    0.225886822
    0.000000000    0.818506241    0.361418962
    0.000000000    0.485172957    0.000000011
    0.000000000    0.151839554    0.180709496
    0.666666687    0.485172868    0.361418962
    0.666666687    0.151839599    0.000000011
    0.666666687    0.818506181    0.180709496
    0.333333313    0.151839495    0.361418962
    0.333333313    0.818506241    0.000000003
    0.333333313    0.485172868    0.180709451
    0.000000000    0.485172808    0.406596422
    0.000000000    0.151839659    0.045177389
    0.000000000    0.818506300    0.225886866
    0.333333343    0.818506122    0.406596422
    0.333333343    0.485172957    0.045177393
    0.333333343    0.151839599    0.225886866
    0.666666687    0.151839525    0.406596363
    0.666666687    0.818506300    0.045177389
    0.666666687    0.485172957    0.225886837
    0.317878604    0.317878962    0.999999821
    0.984545767    0.984545767    0.406596482
    0.651212335    0.651212394    0.525277138
    0.317878902    0.317879021    0.643957794
    0.984545350    0.984545469    0.762638509
    0.651211977    0.651212096    0.881319284
    0.603592873    0.460736036    0.999999821
    0.270260096    0.127402917    0.406596482
    0.936926663    0.794069529    0.525277138
    0.603593230    0.460736156    0.643957853
    0.270259619    0.127402604    0.762638509
    0.936926246    0.794069290    0.881319165
    0.460735798    0.889307380    0.999999821
    0.127402931    0.555974305    0.406596482
    0.794069529    0.222640932    0.525277138
    0.460736096    0.889307559    0.643957794
    0.127402425    0.555974007    0.762638509
    0.794069171    0.222640693    0.881319284
    0.889307261    0.603593111    0.999999821
    0.555974364    0.270260066    0.406596482
    0.222640932    0.936926663    0.525277138
    0.889307499    0.603593290    0.643957853
    0.555973887    0.270259738    0.762638509
    0.222640574    0.936926365    0.881319344
    0.746449947    0.032164514    0.999999821
    0.413117230    0.698831499    0.406596422
    0.079783782    0.365498126    0.525277078
    0.746450305    0.032164693    0.643957794
    0.413116932    0.698831320    0.762638450
    0.079783380    0.365497768    0.881319284
    0.175021410    0.746450186    0.999999821
    0.841688573    0.413117200    0.406596422
    0.508355200    0.079783812    0.525277078
    0.175021753    0.746450424    0.643957794
    0.841688395    0.413117051    0.762638450
    0.508354783    0.079783499    0.881319284
    0.032164276    0.175021648    0.999999821
    0.698831439    0.841688573    0.406596482
    0.365498036    0.508355200    0.525277138
    0.032164611    0.175021812    0.643957794
    0.698831022    0.841688275    0.762638509
    0.365497649    0.508354962    0.881319165
    0.079783827    0.365498096    0.436266601
    0.746450424    0.032164700    0.554947317
    0.413116992    0.698831320    0.673628032
    0.079783440    0.365497887    0.792308688
    0.746449947    0.032164395    0.910989463
    0.508355260    0.079783827    0.436266601
    0.175021827    0.746450424    0.554947317
    0.841688395    0.413117111    0.673627913
    0.508354902    0.079783618    0.792308688
    0.175021350    0.746450067    0.910989463
    0.365498096    0.508355200    0.436266601
    0.032164671    0.175021842    0.554947317
    0.698831201    0.841688454    0.673627913
    0.365497708    0.508355021    0.792308688
    0.032164216    0.175021589    0.910989344
    0.794069469    0.222640947    0.436266601
    0.460736096    0.889307559    0.554947317
    0.127402633    0.555974185    0.673628032
    0.794069111    0.222640693    0.792308688
    0.460735619    0.889307261    0.910989344
    0.222640961    0.936926723    0.436266601
    0.889307499    0.603593290    0.554947317
    0.555974126    0.270259917    0.673628032
    0.222640574    0.936926365    0.792308688
    0.889307141    0.603592992    0.910989344
    0.651212454    0.651212394    0.436266601
    0.317879021    0.317878991    0.554947317
    0.984545588    0.984545588    0.673628032
    0.651212096    0.651212096    0.792308688
    0.317878544    0.317878664    0.910989463
    0.936926723    0.794069529    0.436266601
    0.603593230    0.460736126    0.554947257
    0.270259857    0.127402753    0.673627913
    0.936926365    0.794069350    0.792308688
    0.603592873    0.460735857    0.910989344
    0.532164335    0.675021648    0.999999821
    0.198831484    0.341688633    0.406596482
    0.865498066    0.008355225    0.525277138
    0.532164633    0.675021827    0.643957794
    0.198831022    0.341688275    0.762638509
    0.865497708    0.008355021    0.881319165
    0.960735798    0.389307380    0.999999821
    0.627402961    0.055974353    0.406596422
    0.294069469    0.722640991    0.525277078
    0.960736036    0.389307618    0.643957794
    0.627402425    0.055974007    0.762638509
    0.294069111    0.722640753    0.881319165
    0.389307141    0.103593051    0.999999821
    0.055974375    0.770260036    0.406596422
    0.722640991    0.436926663    0.525277138
    0.389307499    0.103593223    0.643957794
    0.055974126    0.770259917    0.762638509
    0.722640634    0.436926365    0.881319284
    0.817878604    0.817878842    0.999999821
    0.484545797    0.484545767    0.406596422
    0.151212350    0.151212379    0.525277138
    0.817878842    0.817878962    0.643957794
    0.484545529    0.484545588    0.762638509
    0.151211977    0.151212096    0.881319165
    0.246450007    0.532164454    0.999999821
    0.913117170    0.198831514    0.406596422
    0.579783797    0.865498126    0.525277078
    0.246450335    0.532164693    0.643957794
    0.913116932    0.198831379    0.762638450
    0.579783320    0.865497828    0.881319284
    0.675021410    0.246450305    0.999999821
    0.341688663    0.913117230    0.406596482
    0.008355177    0.579783797    0.525277138
    0.675021768    0.246450439    0.643957794
    0.341688156    0.913116872    0.762638509
    0.008354843    0.579783559    0.881319165
    0.103592932    0.960736036    0.999999821
    0.770260096    0.627402902    0.406596482
    0.436926633    0.294069499    0.525277138
    0.103593230    0.960736156    0.643957853
    0.770259619    0.627402544    0.762638509
    0.436926246    0.294069290    0.881319284
    0.151212394    0.151212409    0.436266601
    0.817878962    0.817878962    0.554947317
    0.484545529    0.484545648    0.673627913
    0.151212037    0.151212215    0.792308688
    0.817878604    0.817878723    0.910989463
    0.008355271    0.579783797    0.436266601
    0.675021768    0.246450394    0.554947317
    0.341688454    0.913117051    0.673627913
    0.008354902    0.579783618    0.792308688
    0.675021529    0.246450126    0.910989344
    0.436926693    0.294069529    0.436266601
    0.103593215    0.960736096    0.554947257
    0.770259798    0.627402782    0.673627913
    0.436926305    0.294069350    0.792308688
    0.103592753    0.960735917    0.910989344
    0.865498006    0.008355216    0.436266601
    0.532164633    0.675021827    0.554947257
    0.198831230    0.341688454    0.673627913
    0.865497768    0.008355021    0.792308688
    0.532164276    0.675021529    0.910989344
    0.294069558    0.722640991    0.436266601
    0.960736096    0.389307529    0.554947257
    0.627402663    0.055974133    0.673627913
    0.294069231    0.722640753    0.792308688
    0.960735679    0.389307261    0.910989344
    0.722641051    0.436926693    0.436266601
    0.389307559    0.103593230    0.554947317
    0.055974148    0.770259857    0.673628032
    0.722640693    0.436926425    0.792308688
    0.389307201    0.103592932    0.910989463
    0.579783797    0.865498066    0.436266601
    0.246450350    0.532164633    0.554947317
    0.913116932    0.198831216    0.673627913
    0.579783440    0.865497828    0.792308688
    0.246450007    0.532164395    0.910989344
    0.460735798    0.389307380    0.999999940
    0.127402917    0.055974346    0.406596482
    0.794069469    0.722640991    0.525277138
    0.460736096    0.389307618    0.643957794
    0.127402484    0.055974066    0.762638509
    0.794069052    0.722640634    0.881319284
    0.317878723    0.817878842    0.999999821
    0.984545827    0.484545767    0.406596482
    0.651212335    0.151212364    0.525277138
    0.317878962    0.817878962    0.643957853
    0.984545350    0.484545410    0.762638509
    0.651211977    0.151212156    0.881319284
    0.746450067    0.532164574    0.999999821
    0.413117230    0.198831499    0.406596422
    0.079783797    0.865498126    0.525277138
    0.746450365    0.532164693    0.643957794
    0.413116753    0.198831141    0.762638509
    0.079783440    0.865497828    0.881319284
    0.603592873    0.960735917    0.999999940
    0.270260066    0.627402961    0.406596422
    0.936926603    0.294069588    0.525277078
    0.603593171    0.960736156    0.643957794
    0.270259798    0.627402842    0.762638450
    0.936926246    0.294069231    0.881319284
    0.032164335    0.675021648    0.999999821
    0.698831499    0.341688663    0.406596422
    0.365498096    0.008355270    0.525277078
    0.032164644    0.675021827    0.643957794
    0.698831260    0.341688514    0.762638450
    0.365497708    0.008354962    0.881319284
    0.889307141    0.103593111    0.999999821
    0.555974364    0.770260036    0.406596482
    0.222640917    0.436926663    0.525277138
    0.889307499    0.103593290    0.643957794
    0.555973887    0.770259738    0.762638509
    0.222640574    0.436926425    0.881319165
    0.175021470    0.246450186    0.999999821
    0.841688633    0.913117170    0.406596482
    0.508355200    0.579783797    0.525277138
    0.175021768    0.246450424    0.643957794
    0.841688156    0.913116872    0.762638509
    0.508354843    0.579783559    0.881319165
    0.365498096    0.008355243    0.436266601
    0.032164611    0.675021827    0.554947317
    0.698831201    0.341688454    0.673628032
    0.365497708    0.008355081    0.792308688
    0.032164216    0.675021529    0.910989463
    0.222641021    0.436926633    0.436266601
    0.889307559    0.103593238    0.554947317
    0.555974126    0.770259857    0.673627913
    0.222640634    0.436926425    0.792308688
    0.889307141    0.103593051    0.910989344
    0.651212394    0.151212379    0.436266601
    0.317878962    0.817878962    0.554947317
    0.984545529    0.484545648    0.673627913
    0.651212037    0.151212156    0.792308688
    0.317878604    0.817878723    0.910989344
    0.079783864    0.865498126    0.436266601
    0.746450365    0.532164693    0.554947317
    0.413116992    0.198831320    0.673628032
    0.079783499    0.865497947    0.792308688
    0.746449947    0.532164454    0.910989463
    0.508355260    0.579783797    0.436266601
    0.175021783    0.246450379    0.554947257
    0.841688335    0.913116992    0.673627913
    0.508354902    0.579783559    0.792308629
    0.175021410    0.246450126    0.910989344
    0.936926782    0.294069529    0.436266601
    0.603593349    0.960736096    0.554947317
    0.270259917    0.627402723    0.673627913
    0.936926365    0.294069290    0.792308688
    0.603592873    0.960735917    0.910989344
    0.794069588    0.722640991    0.436266601
    0.460736096    0.389307529    0.554947317
    0.127402708    0.055974159    0.673628032
    0.794069171    0.722640753    0.792308688
    0.460735738    0.389307320    0.910989344
    0.389307380    0.603593111    0.999999821
    0.055974361    0.270260066    0.406596422
    0.722640872    0.936926663    0.525277138
    0.389307499    0.603593290    0.643957794
    0.055973887    0.270259738    0.762638509
    0.722640514    0.936926484    0.881319165
    0.817878604    0.317878842    0.999999821
    0.484545767    0.984545767    0.406596422
    0.151212320    0.651212394    0.525277138
    0.817878902    0.317879021    0.643957794
    0.484545290    0.984545469    0.762638509
    0.151211917    0.651212215    0.881319165
    0.675021410    0.746450305    0.999999821
    0.341688633    0.413117200    0.406596482
    0.008355197    0.079783849    0.525277078
    0.675021768    0.746450424    0.643957794
    0.341688335    0.413117111    0.762638450
    0.008354783    0.079783559    0.881319284
    0.103592813    0.460735917    0.999999940
    0.770259976    0.127402887    0.406596422
    0.436926603    0.794069529    0.525277078
    0.103593118    0.460736096    0.643957794
    0.770259738    0.127402782    0.762638450
    0.436926186    0.794069290    0.881319165
    0.532164216    0.175021648    0.999999821
    0.198831499    0.841688573    0.406596482
    0.865498066    0.508355200    0.525277138
    0.532164693    0.175021812    0.643957794
    0.198831022    0.841688275    0.762638509
    0.865497589    0.508354902    0.881319284
    0.960735798    0.889307380    0.999999821
    0.627402961    0.555974364    0.406596422
    0.294069499    0.222640947    0.525277078
    0.960736096    0.889307559    0.643957794
    0.627402484    0.555974007    0.762638509
    0.294069111    0.222640693    0.881319165
    0.246450007    0.032164514    0.999999821
    0.913117170    0.698831439    0.406596482
    0.579783797    0.365498036    0.525277138
    0.246450335    0.032164663    0.643957794
    0.913116753    0.698831081    0.762638509
    0.579783440    0.365497828    0.881319284
    0.008355283    0.079783902    0.436266601
    0.675021887    0.746450543    0.554947317
    0.341688395    0.413117111    0.673628032
    0.008354902    0.079783678    0.792308688
    0.675021410    0.746450186    0.910989463
    0.294069588    0.222641021    0.436266601
    0.960736156    0.889307618    0.554947317
    0.627402663    0.555974245    0.673628032
    0.294069171    0.222640753    0.792308688
    0.960735679    0.889307380    0.910989463
    0.151212469    0.651212394    0.436266601
    0.817879021    0.317879051    0.554947317
    0.484545588    0.984545648    0.673627913
    0.151212037    0.651212215    0.792308688
    0.817878604    0.317878723    0.910989463
    0.579783857    0.365498155    0.436266601
    0.246450409    0.032164771    0.554947317
    0.913116992    0.698831379    0.673628032
    0.579783440    0.365497887    0.792308688
    0.246449947    0.032164454    0.910989463
    0.436926663    0.794069529    0.436266601
    0.103593215    0.460736156    0.554947257
    0.770259798    0.127402768    0.673627913
    0.436926246    0.794069290    0.792308688
    0.103592753    0.460735798    0.910989344
    0.865498066    0.508355200    0.436266601
    0.532164633    0.175021827    0.554947317
    0.198831201    0.841688454    0.673628032
    0.865497649    0.508354962    0.792308688
    0.532164156    0.175021529    0.910989344
    0.722640991    0.936926782    0.436266661
    0.389307559    0.603593409    0.554947317
    0.055974152    0.270260036    0.673628032
    0.722640634    0.936926484    0.792308688
    0.389307141    0.603593111    0.910989463
