Si Sn Si Sn Si Sn Si Sn
 1.0000000000000000
     5.9600000000000000    0.0000000000000000    0.0000000000000000
     0.0000000000000000    5.9600000000000000    0.0000000000000000
     0.0000000000000000    0.0000000000000000    5.9600000000000000
 Si  Sn  Si  Sn  Si  Sn  Si  Sn 
   1   1   1   1   1   1   1   1
Direct
  0.0000000000000000  0.0000000000000000  0.0000000000000000
  0.2500000000000000  0.2500000000000000  0.2500000000000000
  0.0000000000000000  0.5000000000000000  0.5000000000000000
  0.2500000000000000  0.7500000000000000  0.7500000000000000
  0.5000000000000000  0.0000000000000000  0.5000000000000000
  0.7500000000000000  0.2500000000000000  0.7500000000000000
  0.5000000000000000  0.5000000000000000  0.0000000000000000
  0.7500000000000000  0.7500000000000000  0.2500000000000000
