Ge+Ge
    1.000000000
   12.651226044    0.000000000    0.000000000
    2.530245304   12.395620346    0.000000000
    0.000000000    0.000000000   13.933910370
Ge 
96
Direct
    0.784256577    0.489798665    0.414418638
    0.992590368    0.948132515    0.000000022
    0.950923562    0.656465769    0.082883760
    0.909256816    0.364798903    0.165767506
    0.867590070    0.073132217    0.248651221
    0.825923324    0.781465530    0.331534892
    0.827100754    0.502510905    0.582883716
    0.492590368    0.448132515    0.000000028
    0.450923622    0.156465769    0.082883760
    0.409256876    0.864798963    0.165767506
    0.493767440    0.419177681    0.500000000
    0.325923383    0.281465530    0.331534922
    0.368767500    0.294177651    0.500000000
    0.367590398    0.823132634    0.000000012
    0.325923622    0.531465828    0.082883760
    0.284256876    0.239799008    0.165767536
    0.242590174    0.948132396    0.248651192
    0.910433948    0.335844189    0.665767550
    0.868767440    0.794177651    0.500000000
    0.867590487    0.323132575    0.000000012
    0.825923681    0.031465776    0.082883760
    0.784256876    0.739798903    0.165767506
    0.077100515    0.252510905    0.582883716
    0.700923383    0.156465530    0.331534892
    0.868767440    0.794177651    0.500000000
    0.242590353    0.698132634    0.000000000
    0.200923592    0.406465799    0.082883753
    0.159256846    0.114798956    0.165767506
    0.827100754    0.502510905    0.582883716
    0.075923339    0.531465530    0.331534892
    0.660434008    0.585844219    0.665767550
    0.742590427    0.198132515    0.000000021
    0.700923622    0.906465709    0.082883768
    0.659256876    0.614798903    0.165767506
    0.617590249    0.323132336    0.248651221
    0.575923443    0.031465471    0.331534892
    0.577100635    0.752510905    0.582883716
    0.117590360    0.073132515    0.000000021
    0.075923599    0.781465769    0.082883760
    0.034256846    0.489798963    0.165767506
    0.992590070    0.198132217    0.248651221
    0.285434008    0.710844219    0.665767550
    0.409256607    0.114798844    0.414418697
    0.617590487    0.573132575    0.000000012
    0.575923622    0.281465828    0.082883753
    0.534256935    0.989799023    0.165767536
    0.492590189    0.698132277    0.248651251
    0.118767500    0.544177651    0.500000000
    0.910433590    0.085843921    0.914418697
    0.159256637    0.364798784    0.414418697
    0.742590129    0.448132336    0.248651192
    0.785433888    0.210844159    0.665767550
    0.493767142    0.169177413    0.748651266
    0.202100515    0.127510667    0.831534982
    0.410433531    0.585843921    0.914418697
    0.659256577    0.864798665    0.414418638
    0.909256577    0.614798784    0.414418697
    0.950923383    0.906465530    0.331534922
    0.993767202    0.669177413    0.748651266
    0.702100396    0.627510667    0.831534982
    0.785433710    0.460843980    0.914418697
    0.243767500    0.669177711    0.500000000
    0.952100754    0.627510905    0.582883716
    0.534256697    0.739798665    0.414418697
    0.368767262    0.544177473    0.748651266
    0.077100515    0.502510726    0.831534982
    0.285433531    0.960843921    0.914418578
    0.200923383    0.656465650    0.331534922
    0.452100694    0.127511024    0.582883716
    0.160434008    0.085844159    0.665767550
    0.868767262    0.044177532    0.748651266
    0.577100456    0.002510667    0.831534982
    0.660433650    0.335843891    0.914418697
    0.450923443    0.406465530    0.331534952
    0.117590085    0.823132396    0.248651177
    0.535433948    0.460844159    0.665767550
    0.243767262    0.419177413    0.748651147
    0.952100456    0.377510667    0.831534863
    0.160433531    0.835844040    0.914418697
    0.618767440    0.044177771    0.500000000
    0.327100635    0.002511024    0.582883716
    0.035433888    0.960844159    0.665767550
    0.743767202    0.919177532    0.748651266
    0.452100396    0.877510786    0.831534982
    0.035433531    0.210843921    0.914418697
    0.367590129    0.573132277    0.248651221
    0.202100635    0.377510905    0.582883716
    0.200923383    0.656465650    0.331534922
    0.618767142    0.294177413    0.748651147
    0.327100515    0.252510667    0.831534982
    0.535433710    0.710844040    0.914418697
    0.159256637    0.364798784    0.414418697
    0.702100694    0.877510905    0.582883716
    0.410434008    0.835844278    0.665767550
    0.118767262    0.794177532    0.748651266
    0.827100456    0.752510786    0.831534982
