Ge+Sn                                   
   1.00000000000000     
    16.0026760099999983    0.0000000000000000    0.0000000000000000
   -16.0026760099999983   11.3156013489999996    0.0000000000000000
     0.0000000000000000    0.0000000000000000   25.8009376529999983
   Ge   Sn
    96    72
Direct
  0.9690676929999995  0.4793784920000022  0.0000000069999970
  0.5940676929999995  0.2293784769999974  0.0775295349999965
  0.2190676330000016  0.9793784020000018  0.1550590989999989
  0.8440676929999995  0.7293784619999997  0.2325886189999977
  0.4690678119999987  0.4793785210000010  0.3101181389999965
  0.0940676929999995  0.2293784619999997  0.3876476590000024
  0.9690676929999995  0.9793784619999997  0.0000000109999974
  0.5940676929999995  0.7293784619999997  0.0775295420000006
  0.2190676330000016  0.4793784020000018  0.1550590840000012
  0.8440676929999995  0.2293784619999997  0.2325886189999977
  0.4690678119999987  0.9793785809999989  0.3101181090000011
  0.0940676929999995  0.7293784619999997  0.3876476590000024
  0.4690677230000020  0.4793784920000022  0.0000000109999974
  0.0940677079999972  0.2293784769999974  0.0775295420000006
  0.7190676330000016  0.9793784020000018  0.1550590840000012
  0.3440677520000008  0.7293784619999997  0.2325886189999977
  0.9690678119999987  0.4793785210000010  0.3101181090000011
  0.5940676929999995  0.2293784619999997  0.3876476590000024
  0.4690676929999995  0.9793784619999997  0.0000000009999965
  0.0940676999999965  0.7293784619999997  0.0775295349999965
  0.7190676330000016  0.4793784020000018  0.1550590840000012
  0.3440676929999995  0.2293784619999997  0.2325886189999977
  0.9690678119999987  0.9793785809999989  0.3101181389999965
  0.5940676929999995  0.7293784619999997  0.3876476289999999
  0.2190677079999972  0.4793784920000022  0.0000000129999975
  0.8440676929999995  0.2293784769999974  0.0775295500000013
  0.4690676330000016  0.9793784020000018  0.1550590840000012
  0.0940676929999995  0.7293784619999997  0.2325886189999977
  0.7190678119999987  0.4793785210000010  0.3101181389999965
  0.3440676929999995  0.2293784619999997  0.3876476289999999
  0.2190676780000018  0.9793784619999997  0.0000000100000008
  0.8440676929999995  0.7293784619999997  0.0775295420000006
  0.4690676330000016  0.4793784020000018  0.1550590840000012
  0.0940676929999995  0.2293784619999997  0.2325886189999977
  0.7190678119999987  0.9793785809999989  0.3101181389999965
  0.3440676929999995  0.7293784619999997  0.3876476590000024
  0.7190676929999995  0.4793784920000022  0.0000000089999972
  0.3440677230000020  0.2293784769999974  0.0775295420000006
  0.9690676330000016  0.9793784020000018  0.1550590840000012
  0.5940676929999995  0.7293784619999997  0.2325886189999977
  0.2190677520000008  0.4793785210000010  0.3101181389999965
  0.8440676929999995  0.2293784619999997  0.3876476289999999
  0.7190676330000016  0.9793784619999997  0.0000000129999975
  0.3440676929999995  0.7293784619999997  0.0775295569999983
  0.9690676330000016  0.4793784020000018  0.1550590840000012
  0.5940676929999995  0.2293784619999997  0.2325886189999977
  0.2190678719999966  0.9793785809999989  0.3101181689999990
  0.8440676929999995  0.7293784619999997  0.3876476590000024
  0.2190677370000031  0.8543785210000010  0.0000000009999965
  0.8440676929999995  0.6043784619999997  0.0775295420000006
  0.4690676929999995  0.3543784619999997  0.1550590840000012
  0.0940677520000008  0.1043784989999992  0.2325886189999977
  0.7190678119999987  0.8543785210000010  0.3101181090000011
  0.3440676929999995  0.6043785210000010  0.3876476590000024
  0.2190676780000018  0.3543784619999997  0.0000000120000010
  0.8440676929999995  0.1043784619999997  0.0775295349999965
  0.4690676330000016  0.8543784020000018  0.1550590840000012
  0.0940676330000016  0.6043784619999997  0.2325886189999977
  0.7190676929999995  0.3543784619999997  0.3101181389999965
  0.3440675740000003  0.1043784020000018  0.3876476289999999
  0.7190677520000008  0.8543785210000010  0.0000000109999974
  0.3440676629999970  0.6043784619999997  0.0775295420000006
  0.9690676330000016  0.3543784619999997  0.1550590690000035
  0.5940676929999995  0.1043784989999992  0.2325886189999977
  0.2190678119999987  0.8543785210000010  0.3101181389999965
  0.8440676929999995  0.6043785210000010  0.3876476289999999
  0.7190676929999995  0.3543784619999997  0.0000000089999972
  0.3440676929999995  0.1043784619999997  0.0775295420000006
  0.9690676330000016  0.8543784020000018  0.1550590989999989
  0.5940676929999995  0.6043784619999997  0.2325886189999977
  0.2190677520000008  0.3543784619999997  0.3101181389999965
  0.8440675740000003  0.1043784020000018  0.3876476590000024
  0.9690676929999995  0.8543785210000010  0.0000000160000013
  0.5940676330000016  0.6043784619999997  0.0775295569999983
  0.2190676330000016  0.3543784619999997  0.1550590840000012
  0.8440675740000003  0.1043784989999992  0.2325886490000002
  0.4690678119999987  0.8543785210000010  0.3101181689999990
  0.0940676929999995  0.6043785210000010  0.3876476590000024
  0.9690676929999995  0.3543784619999997  0.0000000000000000
  0.5940676929999995  0.1043784619999997  0.0775295420000006
  0.2190676330000016  0.8543784020000018  0.1550590840000012
  0.8440676929999995  0.6043784619999997  0.2325886189999977
  0.4690676929999995  0.3543784619999997  0.3101181090000011
  0.0940676929999995  0.1043784020000018  0.3876476289999999
  0.4690677520000008  0.8543785210000010  0.0000000000000000
  0.0940676849999988  0.6043784619999997  0.0775295420000006
  0.7190676929999995  0.3543784619999997  0.1550590840000012
  0.3440677520000008  0.1043784989999992  0.2325886189999977
  0.9690678119999987  0.8543785210000010  0.3101181090000011
  0.5940678119999987  0.6043785210000010  0.3876476289999999
  0.4690676929999995  0.3543784619999997  0.0000000100000008
  0.0940676929999995  0.1043784619999997  0.0775295420000006
  0.7190676330000016  0.8543784020000018  0.1550590690000035
  0.3440676929999995  0.6043784619999997  0.2325886189999977
  0.9690676929999995  0.3543784619999997  0.3101181389999965
  0.5940676929999995  0.1043784020000018  0.3876476289999999
  0.2335928680000023  0.8974359039999982  0.4715180700000019
  0.9835928680000023  0.8974359039999982  0.5604403609999977
  0.7335927490000032  0.8974357250000011  0.6493626829999997
  0.4835926590000028  0.8974357840000025  0.7382849449999966
  0.2335926290000003  0.8974356060000019  0.8272072669999986
  0.9835926290000003  0.8974356060000019  0.9161295890000005
  0.2335928680000023  0.5641025899999974  0.4715180700000019
  0.9835928680000023  0.5641025299999995  0.5604403609999977
  0.7335927490000032  0.5641024110000004  0.6493626829999997
  0.4835926590000028  0.5641023519999990  0.7382849449999966
  0.2335926290000003  0.5641022320000033  0.8272072669999986
  0.9835926290000003  0.5641022320000033  0.9161295890000005
  0.2335928680000023  0.2307692320000001  0.4715180700000019
  0.9835928680000023  0.2307691569999974  0.5604403609999977
  0.7335927490000032  0.2307690379999983  0.6493626829999997
  0.4835926590000028  0.2307690379999983  0.7382849449999966
  0.2335926290000003  0.2307689189999991  0.8272072669999986
  0.9835926290000003  0.2307687999999999  0.9161295890000005
  0.7335928680000023  0.8974359039999982  0.4715180700000019
  0.4835928079999974  0.8974359039999982  0.5604403609999977
  0.2335927490000032  0.8974357840000025  0.6493626829999997
  0.9835927490000032  0.8974357250000011  0.7382849449999966
  0.7335926290000003  0.8974355459999970  0.8272072669999986
  0.4835926000000015  0.8974355459999970  0.9161295890000005
  0.7335928680000023  0.5641025899999974  0.4715180700000019
  0.4835928079999974  0.5641025299999995  0.5604403609999977
  0.2335927490000032  0.5641024110000004  0.6493626829999997
  0.9835927490000032  0.5641024110000004  0.7382849449999966
  0.7335926290000003  0.5641022920000012  0.8272072669999986
  0.4835926000000015  0.5641021730000020  0.9161295890000005
  0.7335928680000023  0.2307692770000003  0.4715180700000019
  0.4835928079999974  0.2307691569999974  0.5604403609999977
  0.2335927490000032  0.2307691569999974  0.6493626829999997
  0.9835927490000032  0.2307690379999983  0.7382849449999966
  0.7335926290000003  0.2307689189999991  0.8272072669999986
  0.4835926000000015  0.2307689189999991  0.9161295890000005
  0.9835928680000023  0.1474360229999974  0.4715180700000019
  0.7335928079999974  0.1474359039999982  0.5604404210000027
  0.4835927490000032  0.1474359039999982  0.6493626829999997
  0.2335926290000003  0.1474357840000025  0.7382849449999966
  0.9835926290000003  0.1474356650000033  0.8272073269999964
  0.7335926290000003  0.1474356650000033  0.9161295890000005
  0.9835928680000023  0.8141025899999974  0.4715180700000019
  0.7335928079999974  0.8141025299999995  0.5604404210000027
  0.4835927490000032  0.8141024110000004  0.6493626829999997
  0.2335926290000003  0.8141024110000004  0.7382849449999966
  0.9835926290000003  0.8141023519999990  0.8272073269999964
  0.7335926290000003  0.8141022920000012  0.9161295890000005
  0.9835928680000023  0.4807692170000024  0.4715180700000019
  0.7335928079999974  0.4807691569999974  0.5604404210000027
  0.4835927490000032  0.4807690980000032  0.6493626829999997
  0.2335926290000003  0.4807690379999983  0.7382849449999966
  0.9835926290000003  0.4807689789999969  0.8272073269999964
  0.7335926290000003  0.4807689189999991  0.9161295890000005
  0.4835928379999999  0.1474360229999974  0.4715180700000019
  0.2335928680000023  0.1474359039999982  0.5604404210000027
  0.9835927490000032  0.1474357840000025  0.6493626829999997
  0.7335926290000003  0.1474359039999982  0.7382849449999966
  0.4835926590000028  0.1474356650000033  0.8272072669999986
  0.2335926290000003  0.1474357840000025  0.9161295890000005
  0.4835928379999999  0.8141025899999974  0.4715180700000019
  0.2335928680000023  0.8141025299999995  0.5604404210000027
  0.9835927490000032  0.8141024110000004  0.6493626829999997
  0.7335926290000003  0.8141023519999990  0.7382849449999966
  0.4835926590000028  0.8141022920000012  0.8272072669999986
  0.2335926290000003  0.8141023519999990  0.9161295890000005
  0.4835928379999999  0.4807692770000003  0.4715180700000019
  0.2335928680000023  0.4807692170000024  0.5604404210000027
  0.9835927490000032  0.4807690980000032  0.6493626829999997
  0.7335926290000003  0.4807689789999969  0.7382849449999966
  0.4835926590000028  0.4807690379999983  0.8272072669999986
  0.2335926290000003  0.4807689789999969  0.9161295890000005
 
  0.00000000E+00  0.00000000E+00  0.00000000E+00
  0.00000000E+00  0.00000000E+00  0.00000000E+00
  0.00000000E+00  0.00000000E+00  0.00000000E+00
  0.00000000E+00  0.00000000E+00  0.00000000E+00
  0.00000000E+00  0.00000000E+00  0.00000000E+00
  0.00000000E+00  0.00000000E+00  0.00000000E+00
  0.00000000E+00  0.00000000E+00  0.00000000E+00
  0.00000000E+00  0.00000000E+00  0.00000000E+00
  0.00000000E+00  0.00000000E+00  0.00000000E+00
  0.00000000E+00  0.00000000E+00  0.00000000E+00
  0.00000000E+00  0.00000000E+00  0.00000000E+00
  0.00000000E+00  0.00000000E+00  0.00000000E+00
  0.00000000E+00  0.00000000E+00  0.00000000E+00
  0.00000000E+00  0.00000000E+00  0.00000000E+00
  0.00000000E+00  0.00000000E+00  0.00000000E+00
  0.00000000E+00  0.00000000E+00  0.00000000E+00
  0.00000000E+00  0.00000000E+00  0.00000000E+00
  0.00000000E+00  0.00000000E+00  0.00000000E+00
  0.00000000E+00  0.00000000E+00  0.00000000E+00
  0.00000000E+00  0.00000000E+00  0.00000000E+00
  0.00000000E+00  0.00000000E+00  0.00000000E+00
  0.00000000E+00  0.00000000E+00  0.00000000E+00
  0.00000000E+00  0.00000000E+00  0.00000000E+00
  0.00000000E+00  0.00000000E+00  0.00000000E+00
  0.00000000E+00  0.00000000E+00  0.00000000E+00
  0.00000000E+00  0.00000000E+00  0.00000000E+00
  0.00000000E+00  0.00000000E+00  0.00000000E+00
  0.00000000E+00  0.00000000E+00  0.00000000E+00
  0.00000000E+00  0.00000000E+00  0.00000000E+00
  0.00000000E+00  0.00000000E+00  0.00000000E+00
  0.00000000E+00  0.00000000E+00  0.00000000E+00
  0.00000000E+00  0.00000000E+00  0.00000000E+00
  0.00000000E+00  0.00000000E+00  0.00000000E+00
  0.00000000E+00  0.00000000E+00  0.00000000E+00
  0.00000000E+00  0.00000000E+00  0.00000000E+00
  0.00000000E+00  0.00000000E+00  0.00000000E+00
  0.00000000E+00  0.00000000E+00  0.00000000E+00
  0.00000000E+00  0.00000000E+00  0.00000000E+00
  0.00000000E+00  0.00000000E+00  0.00000000E+00
  0.00000000E+00  0.00000000E+00  0.00000000E+00
  0.00000000E+00  0.00000000E+00  0.00000000E+00
  0.00000000E+00  0.00000000E+00  0.00000000E+00
  0.00000000E+00  0.00000000E+00  0.00000000E+00
  0.00000000E+00  0.00000000E+00  0.00000000E+00
  0.00000000E+00  0.00000000E+00  0.00000000E+00
  0.00000000E+00  0.00000000E+00  0.00000000E+00
  0.00000000E+00  0.00000000E+00  0.00000000E+00
  0.00000000E+00  0.00000000E+00  0.00000000E+00
  0.00000000E+00  0.00000000E+00  0.00000000E+00
  0.00000000E+00  0.00000000E+00  0.00000000E+00
  0.00000000E+00  0.00000000E+00  0.00000000E+00
  0.00000000E+00  0.00000000E+00  0.00000000E+00
  0.00000000E+00  0.00000000E+00  0.00000000E+00
  0.00000000E+00  0.00000000E+00  0.00000000E+00
  0.00000000E+00  0.00000000E+00  0.00000000E+00
  0.00000000E+00  0.00000000E+00  0.00000000E+00
  0.00000000E+00  0.00000000E+00  0.00000000E+00
  0.00000000E+00  0.00000000E+00  0.00000000E+00
  0.00000000E+00  0.00000000E+00  0.00000000E+00
  0.00000000E+00  0.00000000E+00  0.00000000E+00
  0.00000000E+00  0.00000000E+00  0.00000000E+00
  0.00000000E+00  0.00000000E+00  0.00000000E+00
  0.00000000E+00  0.00000000E+00  0.00000000E+00
  0.00000000E+00  0.00000000E+00  0.00000000E+00
  0.00000000E+00  0.00000000E+00  0.00000000E+00
  0.00000000E+00  0.00000000E+00  0.00000000E+00
  0.00000000E+00  0.00000000E+00  0.00000000E+00
  0.00000000E+00  0.00000000E+00  0.00000000E+00
  0.00000000E+00  0.00000000E+00  0.00000000E+00
  0.00000000E+00  0.00000000E+00  0.00000000E+00
  0.00000000E+00  0.00000000E+00  0.00000000E+00
  0.00000000E+00  0.00000000E+00  0.00000000E+00
  0.00000000E+00  0.00000000E+00  0.00000000E+00
  0.00000000E+00  0.00000000E+00  0.00000000E+00
  0.00000000E+00  0.00000000E+00  0.00000000E+00
  0.00000000E+00  0.00000000E+00  0.00000000E+00
  0.00000000E+00  0.00000000E+00  0.00000000E+00
  0.00000000E+00  0.00000000E+00  0.00000000E+00
  0.00000000E+00  0.00000000E+00  0.00000000E+00
  0.00000000E+00  0.00000000E+00  0.00000000E+00
  0.00000000E+00  0.00000000E+00  0.00000000E+00
  0.00000000E+00  0.00000000E+00  0.00000000E+00
  0.00000000E+00  0.00000000E+00  0.00000000E+00
  0.00000000E+00  0.00000000E+00  0.00000000E+00
  0.00000000E+00  0.00000000E+00  0.00000000E+00
  0.00000000E+00  0.00000000E+00  0.00000000E+00
  0.00000000E+00  0.00000000E+00  0.00000000E+00
  0.00000000E+00  0.00000000E+00  0.00000000E+00
  0.00000000E+00  0.00000000E+00  0.00000000E+00
  0.00000000E+00  0.00000000E+00  0.00000000E+00
  0.00000000E+00  0.00000000E+00  0.00000000E+00
  0.00000000E+00  0.00000000E+00  0.00000000E+00
  0.00000000E+00  0.00000000E+00  0.00000000E+00
  0.00000000E+00  0.00000000E+00  0.00000000E+00
  0.00000000E+00  0.00000000E+00  0.00000000E+00
  0.00000000E+00  0.00000000E+00  0.00000000E+00
  0.00000000E+00  0.00000000E+00  0.00000000E+00
  0.00000000E+00  0.00000000E+00  0.00000000E+00
  0.00000000E+00  0.00000000E+00  0.00000000E+00
  0.00000000E+00  0.00000000E+00  0.00000000E+00
  0.00000000E+00  0.00000000E+00  0.00000000E+00
  0.00000000E+00  0.00000000E+00  0.00000000E+00
  0.00000000E+00  0.00000000E+00  0.00000000E+00
  0.00000000E+00  0.00000000E+00  0.00000000E+00
  0.00000000E+00  0.00000000E+00  0.00000000E+00
  0.00000000E+00  0.00000000E+00  0.00000000E+00
  0.00000000E+00  0.00000000E+00  0.00000000E+00
  0.00000000E+00  0.00000000E+00  0.00000000E+00
  0.00000000E+00  0.00000000E+00  0.00000000E+00
  0.00000000E+00  0.00000000E+00  0.00000000E+00
  0.00000000E+00  0.00000000E+00  0.00000000E+00
  0.00000000E+00  0.00000000E+00  0.00000000E+00
  0.00000000E+00  0.00000000E+00  0.00000000E+00
  0.00000000E+00  0.00000000E+00  0.00000000E+00
  0.00000000E+00  0.00000000E+00  0.00000000E+00
  0.00000000E+00  0.00000000E+00  0.00000000E+00
  0.00000000E+00  0.00000000E+00  0.00000000E+00
  0.00000000E+00  0.00000000E+00  0.00000000E+00
  0.00000000E+00  0.00000000E+00  0.00000000E+00
  0.00000000E+00  0.00000000E+00  0.00000000E+00
  0.00000000E+00  0.00000000E+00  0.00000000E+00
  0.00000000E+00  0.00000000E+00  0.00000000E+00
  0.00000000E+00  0.00000000E+00  0.00000000E+00
  0.00000000E+00  0.00000000E+00  0.00000000E+00
  0.00000000E+00  0.00000000E+00  0.00000000E+00
  0.00000000E+00  0.00000000E+00  0.00000000E+00
  0.00000000E+00  0.00000000E+00  0.00000000E+00
  0.00000000E+00  0.00000000E+00  0.00000000E+00
  0.00000000E+00  0.00000000E+00  0.00000000E+00
  0.00000000E+00  0.00000000E+00  0.00000000E+00
  0.00000000E+00  0.00000000E+00  0.00000000E+00
  0.00000000E+00  0.00000000E+00  0.00000000E+00
  0.00000000E+00  0.00000000E+00  0.00000000E+00
  0.00000000E+00  0.00000000E+00  0.00000000E+00
  0.00000000E+00  0.00000000E+00  0.00000000E+00
  0.00000000E+00  0.00000000E+00  0.00000000E+00
  0.00000000E+00  0.00000000E+00  0.00000000E+00
  0.00000000E+00  0.00000000E+00  0.00000000E+00
  0.00000000E+00  0.00000000E+00  0.00000000E+00
  0.00000000E+00  0.00000000E+00  0.00000000E+00
  0.00000000E+00  0.00000000E+00  0.00000000E+00
  0.00000000E+00  0.00000000E+00  0.00000000E+00
  0.00000000E+00  0.00000000E+00  0.00000000E+00
  0.00000000E+00  0.00000000E+00  0.00000000E+00
  0.00000000E+00  0.00000000E+00  0.00000000E+00
  0.00000000E+00  0.00000000E+00  0.00000000E+00
  0.00000000E+00  0.00000000E+00  0.00000000E+00
  0.00000000E+00  0.00000000E+00  0.00000000E+00
  0.00000000E+00  0.00000000E+00  0.00000000E+00
  0.00000000E+00  0.00000000E+00  0.00000000E+00
  0.00000000E+00  0.00000000E+00  0.00000000E+00
  0.00000000E+00  0.00000000E+00  0.00000000E+00
  0.00000000E+00  0.00000000E+00  0.00000000E+00
  0.00000000E+00  0.00000000E+00  0.00000000E+00
  0.00000000E+00  0.00000000E+00  0.00000000E+00
  0.00000000E+00  0.00000000E+00  0.00000000E+00
  0.00000000E+00  0.00000000E+00  0.00000000E+00
  0.00000000E+00  0.00000000E+00  0.00000000E+00
  0.00000000E+00  0.00000000E+00  0.00000000E+00
  0.00000000E+00  0.00000000E+00  0.00000000E+00
  0.00000000E+00  0.00000000E+00  0.00000000E+00
  0.00000000E+00  0.00000000E+00  0.00000000E+00
  0.00000000E+00  0.00000000E+00  0.00000000E+00
  0.00000000E+00  0.00000000E+00  0.00000000E+00
  0.00000000E+00  0.00000000E+00  0.00000000E+00
  0.00000000E+00  0.00000000E+00  0.00000000E+00
  0.00000000E+00  0.00000000E+00  0.00000000E+00
  0.00000000E+00  0.00000000E+00  0.00000000E+00
