Sn+Si                                   
   1.00000000000000     
     9.1771144870000008    0.0000000000000000    0.0000000000000000
     0.0000000000000000   12.9784011840000009    0.0000000000000000
     0.0000000000000000    0.0000000000000000   21.0721397400000008
   Sn   Si
    48    72
Direct
  0.9820204970000006  0.9820204970000006  0.0000000009999965
  0.7320204970000006  0.7320204970000006  0.1088773379999992
  0.4820204379999993  0.4820204379999993  0.2177547369999999
  0.2320204379999993  0.2320204379999993  0.3266320529999973
  0.9820203780000014  0.9820203780000014  0.4355093839999995
  0.7320203780000014  0.7320203780000014  0.5443868039999984
  0.9820204970000006  0.4820204970000006  0.0000000009999965
  0.7320204970000006  0.2320204820000029  0.1088773379999992
  0.4820204379999993  0.9820204379999993  0.2177547369999999
  0.2320204379999993  0.7320203780000014  0.3266320529999973
  0.9820203780000014  0.4820203780000014  0.4355093839999995
  0.7320203780000014  0.2320203190000001  0.5443868039999984
  0.4820204680000018  0.9820204970000006  0.0000000009999965
  0.2320204680000018  0.7320204970000006  0.1088773379999992
  0.9820204379999993  0.4820204379999993  0.2177547220000022
  0.7320203780000014  0.2320204379999993  0.3266320529999973
  0.4820203780000014  0.9820203780000014  0.4355093839999995
  0.2320203190000001  0.7320203780000014  0.5443868039999984
  0.4820204680000018  0.4820204970000006  0.0000000009999965
  0.2320204680000018  0.2320204820000029  0.1088773379999992
  0.9820204379999993  0.9820204379999993  0.2177547220000022
  0.7320203780000014  0.7320203780000014  0.3266320529999973
  0.4820203780000014  0.4820203780000014  0.4355093839999995
  0.2320203190000001  0.2320203190000001  0.5443868039999984
  0.7320204379999993  0.3570204970000006  0.0000000000000000
  0.4820204379999993  0.1070204680000018  0.1088773459999999
  0.2320203780000014  0.8570203780000014  0.2177547369999999
  0.9820203190000001  0.6070203780000014  0.3266320820000033
  0.7320203190000001  0.3570203190000001  0.4355094430000008
  0.4820203190000001  0.1070203190000001  0.5443868039999984
  0.7320204379999993  0.8570204379999993  0.0000000000000000
  0.4820204379999993  0.6070204379999993  0.1088773459999999
  0.2320203780000014  0.3570203780000014  0.2177547369999999
  0.9820203190000001  0.1070203330000012  0.3266320820000033
  0.7320203190000001  0.8570203780000014  0.4355094430000008
  0.4820203190000001  0.6070202590000022  0.5443868039999984
  0.2320204820000029  0.3570204970000006  0.0000000009999965
  0.9820204970000006  0.1070204680000018  0.1088773459999999
  0.7320203780000014  0.8570203780000014  0.2177547369999999
  0.4820203190000001  0.6070203780000014  0.3266320820000033
  0.2320203780000014  0.3570203190000001  0.4355093839999995
  0.9820203780000014  0.1070203190000001  0.5443868039999984
  0.2320204820000029  0.8570204379999993  0.0000000009999965
  0.9820204970000006  0.6070204379999993  0.1088773459999999
  0.7320203780000014  0.3570203780000014  0.2177547369999999
  0.4820203190000001  0.1070203330000012  0.3266320820000033
  0.2320203780000014  0.8570203780000014  0.4355093839999995
  0.9820203780000014  0.6070202590000022  0.5443868039999984
  0.0000000000000000  0.9785172939999995  0.5443868039999984
  0.9999999400000021  0.7285171750000003  0.6355094310000027
  0.9999999400000021  0.4785171750000003  0.7266319989999985
  0.9999998810000008  0.2285170560000012  0.8177546260000028
  0.9999998810000008  0.9785169359999983  0.9088772539999965
  0.9999998810000008  0.7285169359999983  0.9999998810000008
  0.3333333429999996  0.6451839209999974  0.5443868039999984
  0.3333333129999971  0.3951838910000021  0.6355094310000027
  0.3333332839999983  0.1451838460000019  0.7266319989999985
  0.3333332839999983  0.8951837420000004  0.8177546260000028
  0.3333332540000029  0.6451835630000033  0.9088772539999965
  0.3333331640000026  0.3951835040000020  0.9999998810000008
  0.6666666870000029  0.3118506069999967  0.5443868039999984
  0.6666666870000029  0.0618505289999973  0.6355094310000027
  0.6666666870000029  0.8118504879999975  0.7266319989999985
  0.6666665670000000  0.5618504290000033  0.8177546260000028
  0.6666665670000000  0.3118502499999991  0.9088772539999965
  0.6666665079999987  0.0618502499999991  0.9999998810000008
  0.0000000220000018  0.4785172939999995  0.5443868039999984
  0.9999999400000021  0.2285172189999969  0.6355094310000027
  0.9999999400000021  0.9785171750000003  0.7266319989999985
  0.9999999400000021  0.7285170560000012  0.8177546260000028
  0.9999999400000021  0.4785169359999983  0.9088772539999965
  0.9999998210000030  0.2285168769999970  0.0000000000000000
  0.3333333429999996  0.1451839509999999  0.5443868039999984
  0.3333333129999971  0.8951838609999996  0.6355094310000027
  0.3333332540000029  0.6451838019999983  0.7266319989999985
  0.3333332240000004  0.3951837420000004  0.8177546260000028
  0.3333332240000004  0.1451835630000033  0.9088772539999965
  0.3333331939999979  0.8951835630000033  0.0000000000000000
  0.6666666870000029  0.8118506670000016  0.5443868039999984
  0.6666666269999979  0.5618505480000024  0.6355094310000027
  0.6666666269999979  0.3118505480000024  0.7266319989999985
  0.6666665670000000  0.0618504549999983  0.8177546260000028
  0.6666665670000000  0.8118503090000004  0.9088772539999965
  0.6666664480000009  0.5618503090000004  0.9999997620000016
  0.0833333060000001  0.6451840399999966  0.5443868039999984
  0.0833332690000006  0.3951839509999999  0.6355094310000027
  0.0833332460000022  0.1451838910000021  0.7266319989999985
  0.0833332170000034  0.8951838019999983  0.8177546260000028
  0.0833331939999979  0.6451836820000025  0.9088772539999965
  0.0833331050000012  0.3951836230000012  0.0000000000000000
  0.4166666870000029  0.3118506369999992  0.5443868039999984
  0.4166666570000004  0.0618505400000018  0.6355094310000027
  0.4166665970000025  0.8118505480000024  0.7266319989999985
  0.4166665670000000  0.5618504290000033  0.8177546260000028
  0.4166665670000000  0.3118502499999991  0.9088772539999965
  0.4166665380000012  0.0618501900000012  0.0000000000000000
  0.7500000599999979  0.9785172939999995  0.5443868039999984
  0.7500000599999979  0.7285171750000003  0.6355094310000027
  0.7500000000000000  0.4785171150000025  0.7266319989999985
  0.7499998810000008  0.2285170560000012  0.8177546260000028
  0.7500000000000000  0.9785168169999992  0.9088772539999965
  0.7499998810000008  0.7285168169999992  0.0000000000000000
  0.0833333280000019  0.1451839360000022  0.5443868039999984
  0.0833332990000031  0.8951838609999996  0.6355094310000027
  0.0833332759999976  0.6451838019999983  0.7266319989999985
  0.0833332540000029  0.3951836820000025  0.8177546260000028
  0.0833332240000004  0.1451836230000012  0.9088772539999965
  0.0833331939999979  0.8951834439999971  0.9999998810000008
  0.4166666570000004  0.8118505480000024  0.5443868039999984
  0.4166666269999979  0.5618504290000033  0.6355094310000027
  0.4166665970000025  0.3118504290000033  0.7266319989999985
  0.4166665670000000  0.0618503090000004  0.8177546260000028
  0.4166665670000000  0.8118501900000012  0.9088772539999965
  0.4166665079999987  0.5618501309999999  0.9999998810000008
  0.7500000599999979  0.4785172939999995  0.5443868039999984
  0.7500000599999979  0.2285172189999969  0.6355094310000027
  0.7500000000000000  0.9785171750000003  0.7266319989999985
  0.7500000000000000  0.7285170560000012  0.8177546260000028
  0.7499999400000021  0.4785169359999983  0.9088772539999965
  0.7499998810000008  0.2285168769999970  0.9999998810000008
 
  0.00000000E+00  0.00000000E+00  0.00000000E+00
  0.00000000E+00  0.00000000E+00  0.00000000E+00
  0.00000000E+00  0.00000000E+00  0.00000000E+00
  0.00000000E+00  0.00000000E+00  0.00000000E+00
  0.00000000E+00  0.00000000E+00  0.00000000E+00
  0.00000000E+00  0.00000000E+00  0.00000000E+00
  0.00000000E+00  0.00000000E+00  0.00000000E+00
  0.00000000E+00  0.00000000E+00  0.00000000E+00
  0.00000000E+00  0.00000000E+00  0.00000000E+00
  0.00000000E+00  0.00000000E+00  0.00000000E+00
  0.00000000E+00  0.00000000E+00  0.00000000E+00
  0.00000000E+00  0.00000000E+00  0.00000000E+00
  0.00000000E+00  0.00000000E+00  0.00000000E+00
  0.00000000E+00  0.00000000E+00  0.00000000E+00
  0.00000000E+00  0.00000000E+00  0.00000000E+00
  0.00000000E+00  0.00000000E+00  0.00000000E+00
  0.00000000E+00  0.00000000E+00  0.00000000E+00
  0.00000000E+00  0.00000000E+00  0.00000000E+00
  0.00000000E+00  0.00000000E+00  0.00000000E+00
  0.00000000E+00  0.00000000E+00  0.00000000E+00
  0.00000000E+00  0.00000000E+00  0.00000000E+00
  0.00000000E+00  0.00000000E+00  0.00000000E+00
  0.00000000E+00  0.00000000E+00  0.00000000E+00
  0.00000000E+00  0.00000000E+00  0.00000000E+00
  0.00000000E+00  0.00000000E+00  0.00000000E+00
  0.00000000E+00  0.00000000E+00  0.00000000E+00
  0.00000000E+00  0.00000000E+00  0.00000000E+00
  0.00000000E+00  0.00000000E+00  0.00000000E+00
  0.00000000E+00  0.00000000E+00  0.00000000E+00
  0.00000000E+00  0.00000000E+00  0.00000000E+00
  0.00000000E+00  0.00000000E+00  0.00000000E+00
  0.00000000E+00  0.00000000E+00  0.00000000E+00
  0.00000000E+00  0.00000000E+00  0.00000000E+00
  0.00000000E+00  0.00000000E+00  0.00000000E+00
  0.00000000E+00  0.00000000E+00  0.00000000E+00
  0.00000000E+00  0.00000000E+00  0.00000000E+00
  0.00000000E+00  0.00000000E+00  0.00000000E+00
  0.00000000E+00  0.00000000E+00  0.00000000E+00
  0.00000000E+00  0.00000000E+00  0.00000000E+00
  0.00000000E+00  0.00000000E+00  0.00000000E+00
  0.00000000E+00  0.00000000E+00  0.00000000E+00
  0.00000000E+00  0.00000000E+00  0.00000000E+00
  0.00000000E+00  0.00000000E+00  0.00000000E+00
  0.00000000E+00  0.00000000E+00  0.00000000E+00
  0.00000000E+00  0.00000000E+00  0.00000000E+00
  0.00000000E+00  0.00000000E+00  0.00000000E+00
  0.00000000E+00  0.00000000E+00  0.00000000E+00
  0.00000000E+00  0.00000000E+00  0.00000000E+00
  0.00000000E+00  0.00000000E+00  0.00000000E+00
  0.00000000E+00  0.00000000E+00  0.00000000E+00
  0.00000000E+00  0.00000000E+00  0.00000000E+00
  0.00000000E+00  0.00000000E+00  0.00000000E+00
  0.00000000E+00  0.00000000E+00  0.00000000E+00
  0.00000000E+00  0.00000000E+00  0.00000000E+00
  0.00000000E+00  0.00000000E+00  0.00000000E+00
  0.00000000E+00  0.00000000E+00  0.00000000E+00
  0.00000000E+00  0.00000000E+00  0.00000000E+00
  0.00000000E+00  0.00000000E+00  0.00000000E+00
  0.00000000E+00  0.00000000E+00  0.00000000E+00
  0.00000000E+00  0.00000000E+00  0.00000000E+00
  0.00000000E+00  0.00000000E+00  0.00000000E+00
  0.00000000E+00  0.00000000E+00  0.00000000E+00
  0.00000000E+00  0.00000000E+00  0.00000000E+00
  0.00000000E+00  0.00000000E+00  0.00000000E+00
  0.00000000E+00  0.00000000E+00  0.00000000E+00
  0.00000000E+00  0.00000000E+00  0.00000000E+00
  0.00000000E+00  0.00000000E+00  0.00000000E+00
  0.00000000E+00  0.00000000E+00  0.00000000E+00
  0.00000000E+00  0.00000000E+00  0.00000000E+00
  0.00000000E+00  0.00000000E+00  0.00000000E+00
  0.00000000E+00  0.00000000E+00  0.00000000E+00
  0.00000000E+00  0.00000000E+00  0.00000000E+00
  0.00000000E+00  0.00000000E+00  0.00000000E+00
  0.00000000E+00  0.00000000E+00  0.00000000E+00
  0.00000000E+00  0.00000000E+00  0.00000000E+00
  0.00000000E+00  0.00000000E+00  0.00000000E+00
  0.00000000E+00  0.00000000E+00  0.00000000E+00
  0.00000000E+00  0.00000000E+00  0.00000000E+00
  0.00000000E+00  0.00000000E+00  0.00000000E+00
  0.00000000E+00  0.00000000E+00  0.00000000E+00
  0.00000000E+00  0.00000000E+00  0.00000000E+00
  0.00000000E+00  0.00000000E+00  0.00000000E+00
  0.00000000E+00  0.00000000E+00  0.00000000E+00
  0.00000000E+00  0.00000000E+00  0.00000000E+00
  0.00000000E+00  0.00000000E+00  0.00000000E+00
  0.00000000E+00  0.00000000E+00  0.00000000E+00
  0.00000000E+00  0.00000000E+00  0.00000000E+00
  0.00000000E+00  0.00000000E+00  0.00000000E+00
  0.00000000E+00  0.00000000E+00  0.00000000E+00
  0.00000000E+00  0.00000000E+00  0.00000000E+00
  0.00000000E+00  0.00000000E+00  0.00000000E+00
  0.00000000E+00  0.00000000E+00  0.00000000E+00
  0.00000000E+00  0.00000000E+00  0.00000000E+00
  0.00000000E+00  0.00000000E+00  0.00000000E+00
  0.00000000E+00  0.00000000E+00  0.00000000E+00
  0.00000000E+00  0.00000000E+00  0.00000000E+00
  0.00000000E+00  0.00000000E+00  0.00000000E+00
  0.00000000E+00  0.00000000E+00  0.00000000E+00
  0.00000000E+00  0.00000000E+00  0.00000000E+00
  0.00000000E+00  0.00000000E+00  0.00000000E+00
  0.00000000E+00  0.00000000E+00  0.00000000E+00
  0.00000000E+00  0.00000000E+00  0.00000000E+00
  0.00000000E+00  0.00000000E+00  0.00000000E+00
  0.00000000E+00  0.00000000E+00  0.00000000E+00
  0.00000000E+00  0.00000000E+00  0.00000000E+00
  0.00000000E+00  0.00000000E+00  0.00000000E+00
  0.00000000E+00  0.00000000E+00  0.00000000E+00
  0.00000000E+00  0.00000000E+00  0.00000000E+00
  0.00000000E+00  0.00000000E+00  0.00000000E+00
  0.00000000E+00  0.00000000E+00  0.00000000E+00
  0.00000000E+00  0.00000000E+00  0.00000000E+00
  0.00000000E+00  0.00000000E+00  0.00000000E+00
  0.00000000E+00  0.00000000E+00  0.00000000E+00
  0.00000000E+00  0.00000000E+00  0.00000000E+00
  0.00000000E+00  0.00000000E+00  0.00000000E+00
  0.00000000E+00  0.00000000E+00  0.00000000E+00
  0.00000000E+00  0.00000000E+00  0.00000000E+00
  0.00000000E+00  0.00000000E+00  0.00000000E+00
  0.00000000E+00  0.00000000E+00  0.00000000E+00
  0.00000000E+00  0.00000000E+00  0.00000000E+00
