Si+C                                    
   1.00000000000000     
    13.3031797409999992    0.0000000000000000    0.0000000000000000
     6.6515893940000002   14.8734064099999994    0.0000000000000000
     0.0000000000000000    0.0000000000000000    8.3900594710000007
   Si   C 
    36    84
Direct
  0.9829056259999973  0.6581194999999980  0.0000000049999969
  0.7829055790000012  0.5581192969999975  0.1447438000000005
  0.5829054120000023  0.4581190939999971  0.2894876000000011
  0.9829056259999973  0.3247861270000030  0.0000000049999969
  0.7829055790000012  0.2247859690000027  0.1447438000000005
  0.5829054120000023  0.1247858030000017  0.2894876000000011
  0.9829056259999973  0.9914528130000022  0.0000000049999969
  0.7829055790000012  0.8914526699999996  0.1447438000000005
  0.5829054120000023  0.7914525269999970  0.2894876000000011
  0.6329056619999989  0.6914526819999978  0.0723717440000016
  0.4329055850000003  0.5914524789999973  0.2171155509999991
  0.2329055220000029  0.4914524260000022  0.3618593509999997
  0.6329056619999989  0.3581194280000020  0.0723717440000016
  0.4329055850000003  0.2581192849999994  0.2171155509999991
  0.2329055220000029  0.1581191419999968  0.3618593509999997
  0.6329056619999989  0.0247861369999995  0.0723717440000016
  0.4329055850000003  0.9247859720000022  0.2171155509999991
  0.2329055220000029  0.8247858289999996  0.3618593509999997
  0.4829056259999973  0.6581194999999980  0.0000000000000000
  0.2829055489999988  0.5581192969999975  0.1447438000000005
  0.0829054419999977  0.4581190939999971  0.2894876000000011
  0.4829056259999973  0.3247861270000030  0.0000000000000000
  0.2829055489999988  0.2247859539999979  0.1447438000000005
  0.0829054419999977  0.1247858110000024  0.2894876000000011
  0.4829056259999973  0.9914528130000022  0.0000000000000000
  0.2829055489999988  0.8914526699999996  0.1447438000000005
  0.0829054419999977  0.7914525269999970  0.2894876000000011
  0.1329056769999966  0.6914527420000027  0.0723717589999993
  0.9329055549999978  0.5914524789999973  0.2171155509999991
  0.7329055069999981  0.4914523959999997  0.3618593509999997
  0.1329056769999966  0.3581194879999998  0.0723717589999993
  0.9329055549999978  0.2581192849999994  0.2171155509999991
  0.7329055069999981  0.1581191269999991  0.3618593509999997
  0.1329056769999966  0.0247861369999995  0.0723717589999993
  0.9329055549999978  0.9247859720000022  0.2171155509999991
  0.7329055069999981  0.8247858289999996  0.3618593509999997
  0.3607170579999988  0.1388452650000005  0.5621044040000029
  0.3321454519999989  0.4102738799999983  0.6571646929999986
  0.3035738470000027  0.6817024950000032  0.7522249220000035
  0.5035741330000008  0.2817023989999967  0.5621044040000029
  0.4750025570000034  0.5531310439999970  0.6571646929999986
  0.4464310409999968  0.8245596889999973  0.7522249220000035
  0.6464312669999970  0.4245595630000025  0.5621044040000029
  0.6178597210000021  0.6959881780000003  0.6571646929999986
  0.5892881750000001  0.9674168829999985  0.7522249220000035
  0.7892884019999968  0.5674167279999978  0.5621044040000029
  0.7607168560000019  0.8388453720000015  0.6571646929999986
  0.7321453090000034  0.1102740760000032  0.7522249220000035
  0.9321455360000002  0.7102738620000011  0.5621044040000029
  0.9035739300000003  0.9817024470000035  0.6571646929999986
  0.8750023839999983  0.2531310919999967  0.7522249220000035
  0.0750026700000035  0.8531309370000031  0.5621044040000029
  0.0464310650000002  0.1245595890000004  0.6571646929999986
  0.0178595779999995  0.3959881660000022  0.7522249220000035
  0.2178598639999976  0.9959881899999985  0.5621044040000029
  0.1892883780000005  0.2674167750000009  0.6571646929999986
  0.1607166530000015  0.5388453600000034  0.7522249220000035
  0.4535741509999980  0.8817022440000031  0.6096344589999987
  0.4250026050000031  0.1531308289999984  0.7046946880000036
  0.3964311180000024  0.4245595339999966  0.7997549179999979
  0.5964312549999988  0.0245594980000021  0.6096344589999987
  0.5678597089999968  0.2959881419999988  0.7046946880000036
  0.5392881630000019  0.5674168469999969  0.7997549179999979
  0.7392884490000000  0.1674166319999983  0.6096344589999987
  0.7107168439999967  0.4388453360000000  0.7046946880000036
  0.6821452379999968  0.7102739210000024  0.7997548580000000
  0.8821455240000020  0.3102737070000003  0.6096344589999987
  0.8535740379999979  0.5817023520000006  0.7046946880000036
  0.8250023720000002  0.8531308769999981  0.7997548580000000
  0.0250027180000032  0.4531309899999982  0.6096344589999987
  0.9964311120000033  0.7245596050000032  0.7046946880000036
  0.9678595660000013  0.9959882500000035  0.7997548580000000
  0.1678597929999981  0.5959880950000027  0.6096344589999987
  0.1392881869999982  0.8674167389999994  0.7046946880000036
  0.1107168200000004  0.1388453839999997  0.7997549179999979
  0.3107169869999993  0.7388452289999989  0.6096344589999987
  0.2821454999999986  0.0102739330000006  0.7046946880000036
  0.2535738950000024  0.2817023400000025  0.7997548580000000
  0.4321455059999977  0.7102738020000032  0.5621044040000029
  0.4035739899999982  0.9817024470000035  0.6571646929999986
  0.3750024140000008  0.2531310919999967  0.7522249220000035
  0.5750026700000035  0.8531309370000031  0.5621044040000029
  0.5464311240000015  0.1245595890000004  0.6571646929999986
  0.5178596379999973  0.3959882859999979  0.7522249220000035
  0.7178598639999976  0.9959880709999993  0.5621044040000029
  0.6892883780000005  0.2674167750000009  0.6571646929999986
  0.6607167120000028  0.5388453600000034  0.7522248630000021
  0.8607169989999974  0.1388452650000005  0.5621044040000029
  0.8321453929999976  0.4102738799999983  0.6571646929999986
  0.8035738470000027  0.6817024950000032  0.7522249220000035
  0.0035741330000008  0.2817023400000025  0.5621044040000029
  0.9750025869999988  0.5531309839999992  0.6571646929999986
  0.9464310409999968  0.8245596289999995  0.7522249220000035
  0.1464313270000019  0.4245595630000025  0.5621044040000029
  0.1178597210000021  0.6959881780000003  0.6571646929999986
  0.0892882349999979  0.9674168230000006  0.7522249220000035
  0.2892885210000031  0.5674166679999999  0.5621044040000029
  0.2607169150000033  0.8388453130000002  0.6571646929999986
  0.2321453090000034  0.1102739569999969  0.7522249220000035
  0.3821455539999974  0.3102737370000028  0.6096344589999987
  0.3535740379999979  0.5817023520000006  0.7046946880000036
  0.3250024319999980  0.8531309959999973  0.7997548580000000
  0.5250027180000032  0.4531307820000023  0.6096344589999987
  0.4964311720000012  0.7245594259999990  0.7046946880000036
  0.4678596259999992  0.9959880110000014  0.7997548580000000
  0.6678597929999981  0.5959880950000027  0.6096344589999987
  0.6392883059999974  0.8674166799999981  0.7046946880000036
  0.6107167010000012  0.1388452650000005  0.7997549179999979
  0.8107169869999993  0.7388451699999976  0.6096344589999987
  0.7821453809999994  0.0102738140000014  0.7046946880000036
  0.7535738950000024  0.2817023400000025  0.7997549179999979
  0.9535740609999976  0.8817021850000017  0.6096344589999987
  0.9250025750000006  0.1531308289999984  0.7046946880000036
  0.8964310289999986  0.4245595339999966  0.7997549179999979
  0.0964312549999988  0.0245594980000021  0.6096344589999987
  0.0678596500000026  0.2959881419999988  0.7046946880000036
  0.0392880440000027  0.5674166080000020  0.7997549179999979
  0.2392883300000008  0.1674165129999992  0.6096344589999987
  0.2107167240000010  0.4388450980000016  0.7046946880000036
  0.1821451189999976  0.7102736829999969  0.7997548580000000
 
  0.00000000E+00  0.00000000E+00  0.00000000E+00
  0.00000000E+00  0.00000000E+00  0.00000000E+00
  0.00000000E+00  0.00000000E+00  0.00000000E+00
  0.00000000E+00  0.00000000E+00  0.00000000E+00
  0.00000000E+00  0.00000000E+00  0.00000000E+00
  0.00000000E+00  0.00000000E+00  0.00000000E+00
  0.00000000E+00  0.00000000E+00  0.00000000E+00
  0.00000000E+00  0.00000000E+00  0.00000000E+00
  0.00000000E+00  0.00000000E+00  0.00000000E+00
  0.00000000E+00  0.00000000E+00  0.00000000E+00
  0.00000000E+00  0.00000000E+00  0.00000000E+00
  0.00000000E+00  0.00000000E+00  0.00000000E+00
  0.00000000E+00  0.00000000E+00  0.00000000E+00
  0.00000000E+00  0.00000000E+00  0.00000000E+00
  0.00000000E+00  0.00000000E+00  0.00000000E+00
  0.00000000E+00  0.00000000E+00  0.00000000E+00
  0.00000000E+00  0.00000000E+00  0.00000000E+00
  0.00000000E+00  0.00000000E+00  0.00000000E+00
  0.00000000E+00  0.00000000E+00  0.00000000E+00
  0.00000000E+00  0.00000000E+00  0.00000000E+00
  0.00000000E+00  0.00000000E+00  0.00000000E+00
  0.00000000E+00  0.00000000E+00  0.00000000E+00
  0.00000000E+00  0.00000000E+00  0.00000000E+00
  0.00000000E+00  0.00000000E+00  0.00000000E+00
  0.00000000E+00  0.00000000E+00  0.00000000E+00
  0.00000000E+00  0.00000000E+00  0.00000000E+00
  0.00000000E+00  0.00000000E+00  0.00000000E+00
  0.00000000E+00  0.00000000E+00  0.00000000E+00
  0.00000000E+00  0.00000000E+00  0.00000000E+00
  0.00000000E+00  0.00000000E+00  0.00000000E+00
  0.00000000E+00  0.00000000E+00  0.00000000E+00
  0.00000000E+00  0.00000000E+00  0.00000000E+00
  0.00000000E+00  0.00000000E+00  0.00000000E+00
  0.00000000E+00  0.00000000E+00  0.00000000E+00
  0.00000000E+00  0.00000000E+00  0.00000000E+00
  0.00000000E+00  0.00000000E+00  0.00000000E+00
  0.00000000E+00  0.00000000E+00  0.00000000E+00
  0.00000000E+00  0.00000000E+00  0.00000000E+00
  0.00000000E+00  0.00000000E+00  0.00000000E+00
  0.00000000E+00  0.00000000E+00  0.00000000E+00
  0.00000000E+00  0.00000000E+00  0.00000000E+00
  0.00000000E+00  0.00000000E+00  0.00000000E+00
  0.00000000E+00  0.00000000E+00  0.00000000E+00
  0.00000000E+00  0.00000000E+00  0.00000000E+00
  0.00000000E+00  0.00000000E+00  0.00000000E+00
  0.00000000E+00  0.00000000E+00  0.00000000E+00
  0.00000000E+00  0.00000000E+00  0.00000000E+00
  0.00000000E+00  0.00000000E+00  0.00000000E+00
  0.00000000E+00  0.00000000E+00  0.00000000E+00
  0.00000000E+00  0.00000000E+00  0.00000000E+00
  0.00000000E+00  0.00000000E+00  0.00000000E+00
  0.00000000E+00  0.00000000E+00  0.00000000E+00
  0.00000000E+00  0.00000000E+00  0.00000000E+00
  0.00000000E+00  0.00000000E+00  0.00000000E+00
  0.00000000E+00  0.00000000E+00  0.00000000E+00
  0.00000000E+00  0.00000000E+00  0.00000000E+00
  0.00000000E+00  0.00000000E+00  0.00000000E+00
  0.00000000E+00  0.00000000E+00  0.00000000E+00
  0.00000000E+00  0.00000000E+00  0.00000000E+00
  0.00000000E+00  0.00000000E+00  0.00000000E+00
  0.00000000E+00  0.00000000E+00  0.00000000E+00
  0.00000000E+00  0.00000000E+00  0.00000000E+00
  0.00000000E+00  0.00000000E+00  0.00000000E+00
  0.00000000E+00  0.00000000E+00  0.00000000E+00
  0.00000000E+00  0.00000000E+00  0.00000000E+00
  0.00000000E+00  0.00000000E+00  0.00000000E+00
  0.00000000E+00  0.00000000E+00  0.00000000E+00
  0.00000000E+00  0.00000000E+00  0.00000000E+00
  0.00000000E+00  0.00000000E+00  0.00000000E+00
  0.00000000E+00  0.00000000E+00  0.00000000E+00
  0.00000000E+00  0.00000000E+00  0.00000000E+00
  0.00000000E+00  0.00000000E+00  0.00000000E+00
  0.00000000E+00  0.00000000E+00  0.00000000E+00
  0.00000000E+00  0.00000000E+00  0.00000000E+00
  0.00000000E+00  0.00000000E+00  0.00000000E+00
  0.00000000E+00  0.00000000E+00  0.00000000E+00
  0.00000000E+00  0.00000000E+00  0.00000000E+00
  0.00000000E+00  0.00000000E+00  0.00000000E+00
  0.00000000E+00  0.00000000E+00  0.00000000E+00
  0.00000000E+00  0.00000000E+00  0.00000000E+00
  0.00000000E+00  0.00000000E+00  0.00000000E+00
  0.00000000E+00  0.00000000E+00  0.00000000E+00
  0.00000000E+00  0.00000000E+00  0.00000000E+00
  0.00000000E+00  0.00000000E+00  0.00000000E+00
  0.00000000E+00  0.00000000E+00  0.00000000E+00
  0.00000000E+00  0.00000000E+00  0.00000000E+00
  0.00000000E+00  0.00000000E+00  0.00000000E+00
  0.00000000E+00  0.00000000E+00  0.00000000E+00
  0.00000000E+00  0.00000000E+00  0.00000000E+00
  0.00000000E+00  0.00000000E+00  0.00000000E+00
  0.00000000E+00  0.00000000E+00  0.00000000E+00
  0.00000000E+00  0.00000000E+00  0.00000000E+00
  0.00000000E+00  0.00000000E+00  0.00000000E+00
  0.00000000E+00  0.00000000E+00  0.00000000E+00
  0.00000000E+00  0.00000000E+00  0.00000000E+00
  0.00000000E+00  0.00000000E+00  0.00000000E+00
  0.00000000E+00  0.00000000E+00  0.00000000E+00
  0.00000000E+00  0.00000000E+00  0.00000000E+00
  0.00000000E+00  0.00000000E+00  0.00000000E+00
  0.00000000E+00  0.00000000E+00  0.00000000E+00
  0.00000000E+00  0.00000000E+00  0.00000000E+00
  0.00000000E+00  0.00000000E+00  0.00000000E+00
  0.00000000E+00  0.00000000E+00  0.00000000E+00
  0.00000000E+00  0.00000000E+00  0.00000000E+00
  0.00000000E+00  0.00000000E+00  0.00000000E+00
  0.00000000E+00  0.00000000E+00  0.00000000E+00
  0.00000000E+00  0.00000000E+00  0.00000000E+00
  0.00000000E+00  0.00000000E+00  0.00000000E+00
  0.00000000E+00  0.00000000E+00  0.00000000E+00
  0.00000000E+00  0.00000000E+00  0.00000000E+00
  0.00000000E+00  0.00000000E+00  0.00000000E+00
  0.00000000E+00  0.00000000E+00  0.00000000E+00
  0.00000000E+00  0.00000000E+00  0.00000000E+00
  0.00000000E+00  0.00000000E+00  0.00000000E+00
  0.00000000E+00  0.00000000E+00  0.00000000E+00
  0.00000000E+00  0.00000000E+00  0.00000000E+00
  0.00000000E+00  0.00000000E+00  0.00000000E+00
  0.00000000E+00  0.00000000E+00  0.00000000E+00
  0.00000000E+00  0.00000000E+00  0.00000000E+00
  0.00000000E+00  0.00000000E+00  0.00000000E+00
