Si+C
    1.000000000
   13.303179741    0.000000000    0.000000000
    6.651589394   14.873406410    0.000000000
    0.000000000    0.000000000    8.390059471
Si  C  
36     84
Direct
    0.982905626    0.658119500    0.000000005
    0.782905579    0.558119297    0.144743800
    0.582905412    0.458119094    0.289487600
    0.982905626    0.324786127    0.000000005
    0.782905579    0.224785969    0.144743800
    0.582905412    0.124785803    0.289487600
    0.982905626    0.991452813    0.000000005
    0.782905579    0.891452670    0.144743800
    0.582905412    0.791452527    0.289487600
    0.632905662    0.691452682    0.072371744
    0.432905585    0.591452479    0.217115551
    0.232905522    0.491452426    0.361859351
    0.632905662    0.358119428    0.072371744
    0.432905585    0.258119285    0.217115551
    0.232905522    0.158119142    0.361859351
    0.632905662    0.024786137    0.072371744
    0.432905585    0.924785972    0.217115551
    0.232905522    0.824785829    0.361859351
    0.482905626    0.658119500    0.000000000
    0.282905549    0.558119297    0.144743800
    0.082905442    0.458119094    0.289487600
    0.482905626    0.324786127    0.000000000
    0.282905549    0.224785954    0.144743800
    0.082905442    0.124785811    0.289487600
    0.482905626    0.991452813    0.000000000
    0.282905549    0.891452670    0.144743800
    0.082905442    0.791452527    0.289487600
    0.132905677    0.691452742    0.072371759
    0.932905555    0.591452479    0.217115551
    0.732905507    0.491452396    0.361859351
    0.132905677    0.358119488    0.072371759
    0.932905555    0.258119285    0.217115551
    0.732905507    0.158119127    0.361859351
    0.132905677    0.024786137    0.072371759
    0.932905555    0.924785972    0.217115551
    0.732905507    0.824785829    0.361859351
    0.360717058    0.138845265    0.562104404
    0.332145452    0.410273880    0.657164693
    0.303573847    0.681702495    0.752224922
    0.503574133    0.281702399    0.562104404
    0.475002557    0.553131044    0.657164693
    0.446431041    0.824559689    0.752224922
    0.646431267    0.424559563    0.562104404
    0.617859721    0.695988178    0.657164693
    0.589288175    0.967416883    0.752224922
    0.789288402    0.567416728    0.562104404
    0.760716856    0.838845372    0.657164693
    0.732145309    0.110274076    0.752224922
    0.932145536    0.710273862    0.562104404
    0.903573930    0.981702447    0.657164693
    0.875002384    0.253131092    0.752224922
    0.075002670    0.853130937    0.562104404
    0.046431065    0.124559589    0.657164693
    0.017859578    0.395988166    0.752224922
    0.217859864    0.995988190    0.562104404
    0.189288378    0.267416775    0.657164693
    0.160716653    0.538845360    0.752224922
    0.453574151    0.881702244    0.609634459
    0.425002605    0.153130829    0.704694688
    0.396431118    0.424559534    0.799754918
    0.596431255    0.024559498    0.609634459
    0.567859709    0.295988142    0.704694688
    0.539288163    0.567416847    0.799754918
    0.739288449    0.167416632    0.609634459
    0.710716844    0.438845336    0.704694688
    0.682145238    0.710273921    0.799754858
    0.882145524    0.310273707    0.609634459
    0.853574038    0.581702352    0.704694688
    0.825002372    0.853130877    0.799754858
    0.025002718    0.453130990    0.609634459
    0.996431112    0.724559605    0.704694688
    0.967859566    0.995988250    0.799754858
    0.167859793    0.595988095    0.609634459
    0.139288187    0.867416739    0.704694688
    0.110716820    0.138845384    0.799754918
    0.310716987    0.738845229    0.609634459
    0.282145500    0.010273933    0.704694688
    0.253573895    0.281702340    0.799754858
    0.432145506    0.710273802    0.562104404
    0.403573990    0.981702447    0.657164693
    0.375002414    0.253131092    0.752224922
    0.575002670    0.853130937    0.562104404
    0.546431124    0.124559589    0.657164693
    0.517859638    0.395988286    0.752224922
    0.717859864    0.995988071    0.562104404
    0.689288378    0.267416775    0.657164693
    0.660716712    0.538845360    0.752224863
    0.860716999    0.138845265    0.562104404
    0.832145393    0.410273880    0.657164693
    0.803573847    0.681702495    0.752224922
    0.003574133    0.281702340    0.562104404
    0.975002587    0.553130984    0.657164693
    0.946431041    0.824559629    0.752224922
    0.146431327    0.424559563    0.562104404
    0.117859721    0.695988178    0.657164693
    0.089288235    0.967416823    0.752224922
    0.289288521    0.567416668    0.562104404
    0.260716915    0.838845313    0.657164693
    0.232145309    0.110273957    0.752224922
    0.382145554    0.310273737    0.609634459
    0.353574038    0.581702352    0.704694688
    0.325002432    0.853130996    0.799754858
    0.525002718    0.453130782    0.609634459
    0.496431172    0.724559426    0.704694688
    0.467859626    0.995988011    0.799754858
    0.667859793    0.595988095    0.609634459
    0.639288306    0.867416680    0.704694688
    0.610716701    0.138845265    0.799754918
    0.810716987    0.738845170    0.609634459
    0.782145381    0.010273814    0.704694688
    0.753573895    0.281702340    0.799754918
    0.953574061    0.881702185    0.609634459
    0.925002575    0.153130829    0.704694688
    0.896431029    0.424559534    0.799754918
    0.096431255    0.024559498    0.609634459
    0.067859650    0.295988142    0.704694688
    0.039288044    0.567416608    0.799754918
    0.239288330    0.167416513    0.609634459
    0.210716724    0.438845098    0.704694688
    0.182145119    0.710273683    0.799754858
