Sn+Ge                                   
   1.00000000000000     
    15.8952283859999994    0.0000000000000000    0.0000000000000000
    -7.9476151469999996   13.7656726840000001    0.0000000000000000
     0.0000000000000000    0.0000000000000000   20.3040103909999985
   Sn   Ge
    72    96
Direct
  0.0000000000000000  0.0124091730000018  0.0000000200000017
  0.0000000000000000  0.3457425530000009  0.1845222860000035
  0.0000000000000000  0.6790759559999984  0.3690445720000000
  0.3333333730000021  0.6790758969999970  0.0000000000000000
  0.3333334029999975  0.0124093290000005  0.1845222709999987
  0.3333334029999975  0.3457427020000026  0.3690445129999986
  0.6666667459999971  0.3457425530000009  0.0000000160000013
  0.6666667459999971  0.6790759559999984  0.1845222709999987
  0.6666667459999971  0.0124093290000005  0.3690445129999986
  0.0000000000000000  0.3457425530000009  0.0461305859999968
  0.0000000000000000  0.6790758969999970  0.2306528689999965
  0.0000000000000000  0.0124092100000013  0.4151751400000023
  0.3333334029999975  0.0124092100000013  0.0461305640000020
  0.3333334029999975  0.3457425830000034  0.2306528390000011
  0.3333334029999975  0.6790760760000012  0.4151751400000023
  0.6666667459999971  0.6790759559999984  0.0461305979999977
  0.6666667459999971  0.0124093290000005  0.2306528689999965
  0.6666667459999971  0.3457425830000034  0.4151750799999974
  0.1666666870000029  0.3457425530000009  0.0000000160000013
  0.1666667009999969  0.6790759559999984  0.1845222860000035
  0.1666666870000029  0.0124093290000005  0.3690445720000000
  0.5000000000000000  0.0124091839999991  0.0000000229999984
  0.5000000000000000  0.3457425830000034  0.1845222860000035
  0.5000000000000000  0.6790760160000033  0.3690445720000000
  0.8333334330000000  0.6790758969999970  0.0000000000000000
  0.8333334330000000  0.0124093290000005  0.1845222560000011
  0.8333334330000000  0.3457427020000026  0.3690445720000000
  0.1666667009999969  0.6790759559999984  0.0461305529999976
  0.1666667009999969  0.0124093290000005  0.2306527940000009
  0.1666667160000017  0.3457428219999983  0.4151750799999974
  0.5000000599999979  0.3457425830000034  0.0461305529999976
  0.5000000599999979  0.6790759559999984  0.2306528390000011
  0.5000000599999979  0.0124093290000005  0.4151750799999974
  0.8333334330000000  0.0124092100000013  0.0461305159999981
  0.8333334330000000  0.3457425830000034  0.2306527940000009
  0.8333334330000000  0.6790759559999984  0.4151750799999974
  0.0000000000000000  0.5124092100000013  0.0000000149999977
  0.0000000000000000  0.8457425830000034  0.1845222560000011
  0.0000000000000000  0.1790759559999984  0.3690445720000000
  0.3333333730000021  0.1790758519999969  0.0000000160000013
  0.3333333730000021  0.5124092699999991  0.1845222860000035
  0.3333333730000021  0.8457426430000012  0.3690445720000000
  0.6666667459999971  0.8457425830000034  0.0000000000000000
  0.6666667459999971  0.1790759559999984  0.1845222560000011
  0.6666668060000021  0.5124094490000033  0.3690445720000000
  0.0000000000000000  0.8457425830000034  0.0461305529999976
  0.0000000000000000  0.1790759559999984  0.2306528089999986
  0.0000000000000000  0.5124094490000033  0.4151750799999974
  0.3333333730000021  0.5124092100000013  0.0461305529999976
  0.3333333730000021  0.8457425830000034  0.2306528089999986
  0.3333334029999975  0.1790760760000012  0.4151751400000023
  0.6666667459999971  0.1790758069999967  0.0461305489999972
  0.6666667459999971  0.5124092100000013  0.2306528240000034
  0.6666667459999971  0.8457426430000012  0.4151751400000023
  0.1666667009999969  0.8457425830000034  0.0000000300000025
  0.1666667009999969  0.1790758369999992  0.1845222560000011
  0.1666667009999969  0.5124093290000005  0.3690445129999986
  0.5000000000000000  0.5124092100000013  0.0000000140000012
  0.5000000000000000  0.8457426430000012  0.1845222860000035
  0.5000000599999979  0.1790759559999984  0.3690445129999986
  0.8333333730000021  0.1790758670000017  0.0000000300000025
  0.8333333730000021  0.5124092699999991  0.1845222860000035
  0.8333333730000021  0.8457427020000026  0.3690445129999986
  0.1666666870000029  0.1790757779999979  0.0461305899999971
  0.1666666870000029  0.5124091510000000  0.2306528840000013
  0.1666666870000029  0.8457425240000020  0.4151751400000023
  0.5000000000000000  0.8457425240000020  0.0461305939999974
  0.5000000000000000  0.1790759559999984  0.2306528840000013
  0.5000000000000000  0.5124092100000013  0.4151751400000023
  0.8333334330000000  0.5124092100000013  0.0461305640000020
  0.8333334330000000  0.8457425830000034  0.2306528390000011
  0.8333334330000000  0.1790759559999984  0.4151750799999974
  0.5047546629999999  0.6764278409999989  0.5265963080000020
  0.1714212890000013  0.5097611549999996  0.6874775289999988
  0.8380878569999979  0.3430944090000025  0.8483586309999964
  0.5047546629999999  0.1764279599999981  0.5265963080000020
  0.1714212890000013  0.0097612140000010  0.6874775289999988
  0.8380878569999979  0.8430944679999968  0.8483586910000014
  0.0047545429999971  0.6764279009999967  0.5265963080000020
  0.6714211700000021  0.5097611549999996  0.6874775289999988
  0.3380877970000000  0.3430944380000014  0.8483586910000014
  0.0047545429999971  0.1764279599999981  0.5265963080000020
  0.6714211700000021  0.0097612140000010  0.6874775289999988
  0.3380877970000000  0.8430944679999968  0.8483586910000014
  0.6714212890000013  0.0097612140000010  0.5668166279999980
  0.3380879159999992  0.8430944679999968  0.7276977300000027
  0.0047545429999971  0.6764277219999997  0.8885789509999995
  0.6714212890000013  0.5097612140000010  0.5668166279999980
  0.3380879159999992  0.3430945280000017  0.7276977300000027
  0.0047545429999971  0.1764278409999989  0.8885789509999995
  0.1714212890000013  0.0097610950000018  0.5668166279999980
  0.8380879159999992  0.8430944679999968  0.7276977300000027
  0.5047545429999971  0.6764277219999997  0.8885789509999995
  0.1714212890000013  0.5097612140000010  0.5668166279999980
  0.8380879159999992  0.3430945280000017  0.7276977300000027
  0.5047545429999971  0.1764278409999989  0.8885789509999995
  0.7547546030000021  0.9264279599999981  0.5265963080000020
  0.4214212890000013  0.7597612140000010  0.6874775289999988
  0.0880877970000000  0.5930944679999968  0.8483586910000014
  0.7547546629999999  0.4264279309999992  0.5265963080000020
  0.4214212890000013  0.2597612140000010  0.6874775289999988
  0.0880877970000000  0.0930944679999968  0.8483586910000014
  0.2547545429999971  0.9264278409999989  0.5265963080000020
  0.9214211700000021  0.7597612140000010  0.6874775289999988
  0.5880877379999987  0.5930944090000025  0.8483586910000014
  0.2547545429999971  0.4264279009999967  0.5265963080000020
  0.9214211700000021  0.2597612140000010  0.6874775289999988
  0.5880877970000000  0.0930944679999968  0.8483586910000014
  0.9214212890000013  0.7597612140000010  0.5668165680000001
  0.5880878569999979  0.5930944679999968  0.7276977300000027
  0.2547545429999971  0.4264277819999975  0.8885789509999995
  0.9214212890000013  0.2597612739999988  0.5668165680000001
  0.5880878569999979  0.0930945870000031  0.7276977300000027
  0.2547545429999971  0.9264278409999989  0.8885789509999995
  0.4214212890000013  0.7597612140000010  0.5668165680000001
  0.0880880360000020  0.5930944679999968  0.7276976699999977
  0.7547546030000021  0.4264277819999975  0.8885789509999995
  0.4214212890000013  0.2597612739999988  0.5668165680000001
  0.0880880360000020  0.0930945870000031  0.7276977300000027
  0.7547546030000021  0.9264278409999989  0.8885789509999995
  0.7547546629999999  0.6764279009999967  0.5265963080000020
  0.4214212890000013  0.5097611549999996  0.6874775289999988
  0.0880877970000000  0.3430944090000025  0.8483586910000014
  0.7547546629999999  0.1764279599999981  0.5265963080000020
  0.4214212890000013  0.0097612140000010  0.6874775289999988
  0.0880877970000000  0.8430944679999968  0.8483586910000014
  0.2547545429999971  0.6764279009999967  0.5265963080000020
  0.9214211700000021  0.5097612140000010  0.6874775289999988
  0.5880877379999987  0.3430944090000025  0.8483586910000014
  0.2547545429999971  0.1764279599999981  0.5265963080000020
  0.9214211700000021  0.0097612140000010  0.6874775289999988
  0.5880877970000000  0.8430944679999968  0.8483586910000014
  0.9214212890000013  0.0097612140000010  0.5668165680000001
  0.5880878569999979  0.8430944679999968  0.7276976699999977
  0.2547545429999971  0.6764277819999975  0.8885789509999995
  0.9214212890000013  0.5097613330000001  0.5668165680000001
  0.5880879159999992  0.3430945579999971  0.7276977300000027
  0.2547545429999971  0.1764278409999989  0.8885789509999995
  0.4214212890000013  0.0097612140000010  0.5668165680000001
  0.0880879159999992  0.8430944679999968  0.7276976699999977
  0.7547546030000021  0.6764277819999975  0.8885788320000003
  0.4214212890000013  0.5097612739999988  0.5668165680000001
  0.0880880360000020  0.3430945579999971  0.7276977300000027
  0.7547546030000021  0.1764278409999989  0.8885789509999995
  0.5047546629999999  0.9264279599999981  0.5265963080000020
  0.1714212890000013  0.7597612140000010  0.6874775289999988
  0.8380878569999979  0.5930944679999968  0.8483586309999964
  0.5047546629999999  0.4264279309999992  0.5265963080000020
  0.1714212890000013  0.2597611839999985  0.6874775289999988
  0.8380878569999979  0.0930944679999968  0.8483586910000014
  0.0047545429999971  0.9264279599999981  0.5265963080000020
  0.6714211700000021  0.7597612140000010  0.6874775289999988
  0.3380877970000000  0.5930944090000025  0.8483586910000014
  0.0047545429999971  0.4264279309999992  0.5265963080000020
  0.6714211700000021  0.2597612140000010  0.6874775289999988
  0.3380877970000000  0.0930944679999968  0.8483586910000014
  0.6714213489999992  0.7597612140000010  0.5668165680000001
  0.3380880360000020  0.5930945280000017  0.7276977300000027
  0.0047545429999971  0.4264278409999989  0.8885789509999995
  0.6714213489999992  0.2597612739999988  0.5668165680000001
  0.3380880360000020  0.0930945870000031  0.7276977300000027
  0.0047545429999971  0.9264278409999989  0.8885789509999995
  0.1714212890000013  0.7597612140000010  0.5668166279999980
  0.8380879759999971  0.5930945280000017  0.7276977300000027
  0.5047545429999971  0.4264278409999989  0.8885789509999995
  0.1714212890000013  0.2597613040000013  0.5668165680000001
  0.8380879759999971  0.0930945870000031  0.7276977300000027
  0.5047545429999971  0.9264278409999989  0.8885789509999995
 
  0.00000000E+00  0.00000000E+00  0.00000000E+00
  0.00000000E+00  0.00000000E+00  0.00000000E+00
  0.00000000E+00  0.00000000E+00  0.00000000E+00
  0.00000000E+00  0.00000000E+00  0.00000000E+00
  0.00000000E+00  0.00000000E+00  0.00000000E+00
  0.00000000E+00  0.00000000E+00  0.00000000E+00
  0.00000000E+00  0.00000000E+00  0.00000000E+00
  0.00000000E+00  0.00000000E+00  0.00000000E+00
  0.00000000E+00  0.00000000E+00  0.00000000E+00
  0.00000000E+00  0.00000000E+00  0.00000000E+00
  0.00000000E+00  0.00000000E+00  0.00000000E+00
  0.00000000E+00  0.00000000E+00  0.00000000E+00
  0.00000000E+00  0.00000000E+00  0.00000000E+00
  0.00000000E+00  0.00000000E+00  0.00000000E+00
  0.00000000E+00  0.00000000E+00  0.00000000E+00
  0.00000000E+00  0.00000000E+00  0.00000000E+00
  0.00000000E+00  0.00000000E+00  0.00000000E+00
  0.00000000E+00  0.00000000E+00  0.00000000E+00
  0.00000000E+00  0.00000000E+00  0.00000000E+00
  0.00000000E+00  0.00000000E+00  0.00000000E+00
  0.00000000E+00  0.00000000E+00  0.00000000E+00
  0.00000000E+00  0.00000000E+00  0.00000000E+00
  0.00000000E+00  0.00000000E+00  0.00000000E+00
  0.00000000E+00  0.00000000E+00  0.00000000E+00
  0.00000000E+00  0.00000000E+00  0.00000000E+00
  0.00000000E+00  0.00000000E+00  0.00000000E+00
  0.00000000E+00  0.00000000E+00  0.00000000E+00
  0.00000000E+00  0.00000000E+00  0.00000000E+00
  0.00000000E+00  0.00000000E+00  0.00000000E+00
  0.00000000E+00  0.00000000E+00  0.00000000E+00
  0.00000000E+00  0.00000000E+00  0.00000000E+00
  0.00000000E+00  0.00000000E+00  0.00000000E+00
  0.00000000E+00  0.00000000E+00  0.00000000E+00
  0.00000000E+00  0.00000000E+00  0.00000000E+00
  0.00000000E+00  0.00000000E+00  0.00000000E+00
  0.00000000E+00  0.00000000E+00  0.00000000E+00
  0.00000000E+00  0.00000000E+00  0.00000000E+00
  0.00000000E+00  0.00000000E+00  0.00000000E+00
  0.00000000E+00  0.00000000E+00  0.00000000E+00
  0.00000000E+00  0.00000000E+00  0.00000000E+00
  0.00000000E+00  0.00000000E+00  0.00000000E+00
  0.00000000E+00  0.00000000E+00  0.00000000E+00
  0.00000000E+00  0.00000000E+00  0.00000000E+00
  0.00000000E+00  0.00000000E+00  0.00000000E+00
  0.00000000E+00  0.00000000E+00  0.00000000E+00
  0.00000000E+00  0.00000000E+00  0.00000000E+00
  0.00000000E+00  0.00000000E+00  0.00000000E+00
  0.00000000E+00  0.00000000E+00  0.00000000E+00
  0.00000000E+00  0.00000000E+00  0.00000000E+00
  0.00000000E+00  0.00000000E+00  0.00000000E+00
  0.00000000E+00  0.00000000E+00  0.00000000E+00
  0.00000000E+00  0.00000000E+00  0.00000000E+00
  0.00000000E+00  0.00000000E+00  0.00000000E+00
  0.00000000E+00  0.00000000E+00  0.00000000E+00
  0.00000000E+00  0.00000000E+00  0.00000000E+00
  0.00000000E+00  0.00000000E+00  0.00000000E+00
  0.00000000E+00  0.00000000E+00  0.00000000E+00
  0.00000000E+00  0.00000000E+00  0.00000000E+00
  0.00000000E+00  0.00000000E+00  0.00000000E+00
  0.00000000E+00  0.00000000E+00  0.00000000E+00
  0.00000000E+00  0.00000000E+00  0.00000000E+00
  0.00000000E+00  0.00000000E+00  0.00000000E+00
  0.00000000E+00  0.00000000E+00  0.00000000E+00
  0.00000000E+00  0.00000000E+00  0.00000000E+00
  0.00000000E+00  0.00000000E+00  0.00000000E+00
  0.00000000E+00  0.00000000E+00  0.00000000E+00
  0.00000000E+00  0.00000000E+00  0.00000000E+00
  0.00000000E+00  0.00000000E+00  0.00000000E+00
  0.00000000E+00  0.00000000E+00  0.00000000E+00
  0.00000000E+00  0.00000000E+00  0.00000000E+00
  0.00000000E+00  0.00000000E+00  0.00000000E+00
  0.00000000E+00  0.00000000E+00  0.00000000E+00
  0.00000000E+00  0.00000000E+00  0.00000000E+00
  0.00000000E+00  0.00000000E+00  0.00000000E+00
  0.00000000E+00  0.00000000E+00  0.00000000E+00
  0.00000000E+00  0.00000000E+00  0.00000000E+00
  0.00000000E+00  0.00000000E+00  0.00000000E+00
  0.00000000E+00  0.00000000E+00  0.00000000E+00
  0.00000000E+00  0.00000000E+00  0.00000000E+00
  0.00000000E+00  0.00000000E+00  0.00000000E+00
  0.00000000E+00  0.00000000E+00  0.00000000E+00
  0.00000000E+00  0.00000000E+00  0.00000000E+00
  0.00000000E+00  0.00000000E+00  0.00000000E+00
  0.00000000E+00  0.00000000E+00  0.00000000E+00
  0.00000000E+00  0.00000000E+00  0.00000000E+00
  0.00000000E+00  0.00000000E+00  0.00000000E+00
  0.00000000E+00  0.00000000E+00  0.00000000E+00
  0.00000000E+00  0.00000000E+00  0.00000000E+00
  0.00000000E+00  0.00000000E+00  0.00000000E+00
  0.00000000E+00  0.00000000E+00  0.00000000E+00
  0.00000000E+00  0.00000000E+00  0.00000000E+00
  0.00000000E+00  0.00000000E+00  0.00000000E+00
  0.00000000E+00  0.00000000E+00  0.00000000E+00
  0.00000000E+00  0.00000000E+00  0.00000000E+00
  0.00000000E+00  0.00000000E+00  0.00000000E+00
  0.00000000E+00  0.00000000E+00  0.00000000E+00
  0.00000000E+00  0.00000000E+00  0.00000000E+00
  0.00000000E+00  0.00000000E+00  0.00000000E+00
  0.00000000E+00  0.00000000E+00  0.00000000E+00
  0.00000000E+00  0.00000000E+00  0.00000000E+00
  0.00000000E+00  0.00000000E+00  0.00000000E+00
  0.00000000E+00  0.00000000E+00  0.00000000E+00
  0.00000000E+00  0.00000000E+00  0.00000000E+00
  0.00000000E+00  0.00000000E+00  0.00000000E+00
  0.00000000E+00  0.00000000E+00  0.00000000E+00
  0.00000000E+00  0.00000000E+00  0.00000000E+00
  0.00000000E+00  0.00000000E+00  0.00000000E+00
  0.00000000E+00  0.00000000E+00  0.00000000E+00
  0.00000000E+00  0.00000000E+00  0.00000000E+00
  0.00000000E+00  0.00000000E+00  0.00000000E+00
  0.00000000E+00  0.00000000E+00  0.00000000E+00
  0.00000000E+00  0.00000000E+00  0.00000000E+00
  0.00000000E+00  0.00000000E+00  0.00000000E+00
  0.00000000E+00  0.00000000E+00  0.00000000E+00
  0.00000000E+00  0.00000000E+00  0.00000000E+00
  0.00000000E+00  0.00000000E+00  0.00000000E+00
  0.00000000E+00  0.00000000E+00  0.00000000E+00
  0.00000000E+00  0.00000000E+00  0.00000000E+00
  0.00000000E+00  0.00000000E+00  0.00000000E+00
  0.00000000E+00  0.00000000E+00  0.00000000E+00
  0.00000000E+00  0.00000000E+00  0.00000000E+00
  0.00000000E+00  0.00000000E+00  0.00000000E+00
  0.00000000E+00  0.00000000E+00  0.00000000E+00
  0.00000000E+00  0.00000000E+00  0.00000000E+00
  0.00000000E+00  0.00000000E+00  0.00000000E+00
  0.00000000E+00  0.00000000E+00  0.00000000E+00
  0.00000000E+00  0.00000000E+00  0.00000000E+00
  0.00000000E+00  0.00000000E+00  0.00000000E+00
  0.00000000E+00  0.00000000E+00  0.00000000E+00
  0.00000000E+00  0.00000000E+00  0.00000000E+00
  0.00000000E+00  0.00000000E+00  0.00000000E+00
  0.00000000E+00  0.00000000E+00  0.00000000E+00
  0.00000000E+00  0.00000000E+00  0.00000000E+00
  0.00000000E+00  0.00000000E+00  0.00000000E+00
  0.00000000E+00  0.00000000E+00  0.00000000E+00
  0.00000000E+00  0.00000000E+00  0.00000000E+00
  0.00000000E+00  0.00000000E+00  0.00000000E+00
  0.00000000E+00  0.00000000E+00  0.00000000E+00
  0.00000000E+00  0.00000000E+00  0.00000000E+00
  0.00000000E+00  0.00000000E+00  0.00000000E+00
  0.00000000E+00  0.00000000E+00  0.00000000E+00
  0.00000000E+00  0.00000000E+00  0.00000000E+00
  0.00000000E+00  0.00000000E+00  0.00000000E+00
  0.00000000E+00  0.00000000E+00  0.00000000E+00
  0.00000000E+00  0.00000000E+00  0.00000000E+00
  0.00000000E+00  0.00000000E+00  0.00000000E+00
  0.00000000E+00  0.00000000E+00  0.00000000E+00
  0.00000000E+00  0.00000000E+00  0.00000000E+00
  0.00000000E+00  0.00000000E+00  0.00000000E+00
  0.00000000E+00  0.00000000E+00  0.00000000E+00
  0.00000000E+00  0.00000000E+00  0.00000000E+00
  0.00000000E+00  0.00000000E+00  0.00000000E+00
  0.00000000E+00  0.00000000E+00  0.00000000E+00
  0.00000000E+00  0.00000000E+00  0.00000000E+00
  0.00000000E+00  0.00000000E+00  0.00000000E+00
  0.00000000E+00  0.00000000E+00  0.00000000E+00
  0.00000000E+00  0.00000000E+00  0.00000000E+00
  0.00000000E+00  0.00000000E+00  0.00000000E+00
  0.00000000E+00  0.00000000E+00  0.00000000E+00
  0.00000000E+00  0.00000000E+00  0.00000000E+00
  0.00000000E+00  0.00000000E+00  0.00000000E+00
  0.00000000E+00  0.00000000E+00  0.00000000E+00
  0.00000000E+00  0.00000000E+00  0.00000000E+00
  0.00000000E+00  0.00000000E+00  0.00000000E+00
  0.00000000E+00  0.00000000E+00  0.00000000E+00
  0.00000000E+00  0.00000000E+00  0.00000000E+00
  0.00000000E+00  0.00000000E+00  0.00000000E+00
  0.00000000E+00  0.00000000E+00  0.00000000E+00
