Sn+Ge
    1.000000000
   15.895228386    0.000000000    0.000000000
   -7.947615147   13.765672684    0.000000000
    0.000000000    0.000000000   20.304010391
Sn  Ge 
72     96
Direct
    0.000000000    0.012409173    0.000000020
    0.000000000    0.345742553    0.184522286
    0.000000000    0.679075956    0.369044572
    0.333333373    0.679075897    0.000000000
    0.333333403    0.012409329    0.184522271
    0.333333403    0.345742702    0.369044513
    0.666666746    0.345742553    0.000000016
    0.666666746    0.679075956    0.184522271
    0.666666746    0.012409329    0.369044513
    0.000000000    0.345742553    0.046130586
    0.000000000    0.679075897    0.230652869
    0.000000000    0.012409210    0.415175140
    0.333333403    0.012409210    0.046130564
    0.333333403    0.345742583    0.230652839
    0.333333403    0.679076076    0.415175140
    0.666666746    0.679075956    0.046130598
    0.666666746    0.012409329    0.230652869
    0.666666746    0.345742583    0.415175080
    0.166666687    0.345742553    0.000000016
    0.166666701    0.679075956    0.184522286
    0.166666687    0.012409329    0.369044572
    0.500000000    0.012409184    0.000000023
    0.500000000    0.345742583    0.184522286
    0.500000000    0.679076016    0.369044572
    0.833333433    0.679075897    0.000000000
    0.833333433    0.012409329    0.184522256
    0.833333433    0.345742702    0.369044572
    0.166666701    0.679075956    0.046130553
    0.166666701    0.012409329    0.230652794
    0.166666716    0.345742822    0.415175080
    0.500000060    0.345742583    0.046130553
    0.500000060    0.679075956    0.230652839
    0.500000060    0.012409329    0.415175080
    0.833333433    0.012409210    0.046130516
    0.833333433    0.345742583    0.230652794
    0.833333433    0.679075956    0.415175080
    0.000000000    0.512409210    0.000000015
    0.000000000    0.845742583    0.184522256
    0.000000000    0.179075956    0.369044572
    0.333333373    0.179075852    0.000000016
    0.333333373    0.512409270    0.184522286
    0.333333373    0.845742643    0.369044572
    0.666666746    0.845742583    0.000000000
    0.666666746    0.179075956    0.184522256
    0.666666806    0.512409449    0.369044572
    0.000000000    0.845742583    0.046130553
    0.000000000    0.179075956    0.230652809
    0.000000000    0.512409449    0.415175080
    0.333333373    0.512409210    0.046130553
    0.333333373    0.845742583    0.230652809
    0.333333403    0.179076076    0.415175140
    0.666666746    0.179075807    0.046130549
    0.666666746    0.512409210    0.230652824
    0.666666746    0.845742643    0.415175140
    0.166666701    0.845742583    0.000000030
    0.166666701    0.179075837    0.184522256
    0.166666701    0.512409329    0.369044513
    0.500000000    0.512409210    0.000000014
    0.500000000    0.845742643    0.184522286
    0.500000060    0.179075956    0.369044513
    0.833333373    0.179075867    0.000000030
    0.833333373    0.512409270    0.184522286
    0.833333373    0.845742702    0.369044513
    0.166666687    0.179075778    0.046130590
    0.166666687    0.512409151    0.230652884
    0.166666687    0.845742524    0.415175140
    0.500000000    0.845742524    0.046130594
    0.500000000    0.179075956    0.230652884
    0.500000000    0.512409210    0.415175140
    0.833333433    0.512409210    0.046130564
    0.833333433    0.845742583    0.230652839
    0.833333433    0.179075956    0.415175080
    0.504754663    0.676427841    0.526596308
    0.171421289    0.509761155    0.687477529
    0.838087857    0.343094409    0.848358631
    0.504754663    0.176427960    0.526596308
    0.171421289    0.009761214    0.687477529
    0.838087857    0.843094468    0.848358691
    0.004754543    0.676427901    0.526596308
    0.671421170    0.509761155    0.687477529
    0.338087797    0.343094438    0.848358691
    0.004754543    0.176427960    0.526596308
    0.671421170    0.009761214    0.687477529
    0.338087797    0.843094468    0.848358691
    0.671421289    0.009761214    0.566816628
    0.338087916    0.843094468    0.727697730
    0.004754543    0.676427722    0.888578951
    0.671421289    0.509761214    0.566816628
    0.338087916    0.343094528    0.727697730
    0.004754543    0.176427841    0.888578951
    0.171421289    0.009761095    0.566816628
    0.838087916    0.843094468    0.727697730
    0.504754543    0.676427722    0.888578951
    0.171421289    0.509761214    0.566816628
    0.838087916    0.343094528    0.727697730
    0.504754543    0.176427841    0.888578951
    0.754754603    0.926427960    0.526596308
    0.421421289    0.759761214    0.687477529
    0.088087797    0.593094468    0.848358691
    0.754754663    0.426427931    0.526596308
    0.421421289    0.259761214    0.687477529
    0.088087797    0.093094468    0.848358691
    0.254754543    0.926427841    0.526596308
    0.921421170    0.759761214    0.687477529
    0.588087738    0.593094409    0.848358691
    0.254754543    0.426427901    0.526596308
    0.921421170    0.259761214    0.687477529
    0.588087797    0.093094468    0.848358691
    0.921421289    0.759761214    0.566816568
    0.588087857    0.593094468    0.727697730
    0.254754543    0.426427782    0.888578951
    0.921421289    0.259761274    0.566816568
    0.588087857    0.093094587    0.727697730
    0.254754543    0.926427841    0.888578951
    0.421421289    0.759761214    0.566816568
    0.088088036    0.593094468    0.727697670
    0.754754603    0.426427782    0.888578951
    0.421421289    0.259761274    0.566816568
    0.088088036    0.093094587    0.727697730
    0.754754603    0.926427841    0.888578951
    0.754754663    0.676427901    0.526596308
    0.421421289    0.509761155    0.687477529
    0.088087797    0.343094409    0.848358691
    0.754754663    0.176427960    0.526596308
    0.421421289    0.009761214    0.687477529
    0.088087797    0.843094468    0.848358691
    0.254754543    0.676427901    0.526596308
    0.921421170    0.509761214    0.687477529
    0.588087738    0.343094409    0.848358691
    0.254754543    0.176427960    0.526596308
    0.921421170    0.009761214    0.687477529
    0.588087797    0.843094468    0.848358691
    0.921421289    0.009761214    0.566816568
    0.588087857    0.843094468    0.727697670
    0.254754543    0.676427782    0.888578951
    0.921421289    0.509761333    0.566816568
    0.588087916    0.343094558    0.727697730
    0.254754543    0.176427841    0.888578951
    0.421421289    0.009761214    0.566816568
    0.088087916    0.843094468    0.727697670
    0.754754603    0.676427782    0.888578832
    0.421421289    0.509761274    0.566816568
    0.088088036    0.343094558    0.727697730
    0.754754603    0.176427841    0.888578951
    0.504754663    0.926427960    0.526596308
    0.171421289    0.759761214    0.687477529
    0.838087857    0.593094468    0.848358631
    0.504754663    0.426427931    0.526596308
    0.171421289    0.259761184    0.687477529
    0.838087857    0.093094468    0.848358691
    0.004754543    0.926427960    0.526596308
    0.671421170    0.759761214    0.687477529
    0.338087797    0.593094409    0.848358691
    0.004754543    0.426427931    0.526596308
    0.671421170    0.259761214    0.687477529
    0.338087797    0.093094468    0.848358691
    0.671421349    0.759761214    0.566816568
    0.338088036    0.593094528    0.727697730
    0.004754543    0.426427841    0.888578951
    0.671421349    0.259761274    0.566816568
    0.338088036    0.093094587    0.727697730
    0.004754543    0.926427841    0.888578951
    0.171421289    0.759761214    0.566816628
    0.838087976    0.593094528    0.727697730
    0.504754543    0.426427841    0.888578951
    0.171421289    0.259761304    0.566816568
    0.838087976    0.093094587    0.727697730
    0.504754543    0.926427841    0.888578951
