Si+C
    1.000000000
   13.303179741    0.000000000    0.000000000
    6.651589394   11.520891190    0.000000000
    0.000000000    0.000000000   21.679414749
Si  C  
72     308
Direct
    0.000000000    0.681493819    0.289268851
    0.000000000    0.014827055    0.000000008
    0.000000000    0.348160446    0.144634441
    0.333333343    0.014827132    0.289268851
    0.333333343    0.348160386    0.000000009
    0.333333343    0.681493819    0.144634441
    0.666666687    0.348160386    0.289268821
    0.666666687    0.681493759    0.000000006
    0.666666687    0.014827132    0.144634441
    0.000000000    0.014827251    0.325427473
    0.000000000    0.348160416    0.036158621
    0.000000000    0.681493819    0.180793047
    0.333333343    0.348160505    0.325427443
    0.333333343    0.681493819    0.036158621
    0.333333343    0.014827132    0.180793032
    0.666666746    0.681493998    0.325427473
    0.666666746    0.014827132    0.036158621
    0.666666746    0.348160505    0.180793062
    0.166666672    0.848160446    0.289268821
    0.166666672    0.181493714    0.000000004
    0.166666672    0.514827132    0.144634441
    0.500000060    0.181493759    0.289268821
    0.500000000    0.514827073    0.000000001
    0.500000000    0.848160505    0.144634441
    0.833333373    0.514827251    0.289268851
    0.833333373    0.848160446    0.000000000
    0.833333373    0.181493759    0.144634411
    0.166666687    0.181493759    0.325427383
    0.166666687    0.514827073    0.036158580
    0.166666687    0.848160505    0.180793002
    0.500000000    0.514827132    0.325427383
    0.500000000    0.848160326    0.036158577
    0.500000000    0.181493759    0.180793017
    0.833333313    0.848160446    0.325427383
    0.833333313    0.181493714    0.036158577
    0.833333313    0.514827132    0.180793047
    0.000000000    0.181493759    0.289268821
    0.000000000    0.514827073    0.000000011
    0.000000000    0.848160446    0.144634441
    0.333333343    0.514827251    0.289268851
    0.333333343    0.848160505    0.000000016
    0.333333343    0.181493878    0.144634470
    0.666666687    0.848160446    0.289268821
    0.666666687    0.181493714    0.000000001
    0.666666687    0.514827132    0.144634441
    0.000000014    0.514827251    0.325427443
    0.000000014    0.848160446    0.036158580
    0.000000014    0.181493878    0.180793032
    0.333333373    0.848160446    0.325427443
    0.333333373    0.181493714    0.036158580
    0.333333373    0.514827073    0.180793002
    0.666666746    0.181493878    0.325427443
    0.666666746    0.514827073    0.036158580
    0.666666746    0.848160505    0.180793017
    0.166666672    0.348160386    0.289268821
    0.166666672    0.681493759    0.000000009
    0.166666672    0.014827132    0.144634470
    0.500000000    0.681493759    0.289268851
    0.500000000    0.014827051    0.000000009
    0.500000000    0.348160475    0.144634441
    0.833333313    0.014827132    0.289268821
    0.833333313    0.348160416    0.000000006
    0.833333313    0.681493759    0.144634426
    0.166666687    0.681493878    0.325427473
    0.166666687    0.014827132    0.036158640
    0.166666687    0.348160386    0.180793032
    0.500000000    0.014827251    0.325427473
    0.500000000    0.348160416    0.036158610
    0.500000000    0.681493759    0.180793032
    0.833333373    0.348160505    0.325427443
    0.833333373    0.681493700    0.036158621
    0.833333373    0.014827013    0.180793032
    0.072890311    0.995494962    0.900184870
    0.025271416    0.233590603    0.425242722
    0.834795237    0.185971498    0.520231128
    0.644318938    0.138352275    0.615219593
    0.453842729    0.090733171    0.710208058
    0.263366550    0.043114066    0.805196404
    0.215747446    0.281209201    0.900184870
    0.168128610    0.519304872    0.425242722
    0.977652311    0.471685737    0.520231187
    0.787176132    0.424066603    0.615219593
    0.596699834    0.376447469    0.710208058
    0.406223685    0.328828335    0.805196464
    0.358604580    0.566923499    0.900184870
    0.310985744    0.805019200    0.425242752
    0.120509490    0.757400036    0.520231187
    0.930033326    0.709780872    0.615219593
    0.739556909    0.662161767    0.710208058
    0.549080849    0.614542603    0.805196404
    0.644318819    0.138352036    0.900184870
    0.596699953    0.376447737    0.425242752
    0.406223774    0.328828603    0.520231128
    0.215747565    0.281209469    0.615219593
    0.025271297    0.233590245    0.710208058
    0.834795117    0.185971141    0.805196404
    0.501461625    0.852637708    0.900184870
    0.453842849    0.090733409    0.425242722
    0.263366640    0.043114305    0.520231128
    0.072890401    0.995495081    0.615219593
    0.882414222    0.947875977    0.710207939
    0.691937923    0.900256872    0.805196464
    0.787176013    0.424066305    0.900184870
    0.739557147    0.662162006    0.425242752
    0.549080968    0.614542842    0.520231128
    0.358604699    0.566923738    0.615219593
    0.168128520    0.519304574    0.710207999
    0.977652192    0.471685439    0.805196464
    0.930033088    0.709780574    0.900184870
    0.882414222    0.947876275    0.425242722
    0.691938043    0.900257170    0.520231128
    0.501461744    0.852638006    0.615219593
    0.310985476    0.805018902    0.710208058
    0.120509297    0.757399797    0.805196404
    0.120509550    0.757400095    0.448989779
    0.930033326    0.709780991    0.543978274
    0.739557028    0.662161827    0.638966739
    0.549080849    0.614542723    0.733955085
    0.358604461    0.566923499    0.828943610
    0.406223804    0.328828692    0.448989779
    0.215747580    0.281209558    0.543978274
    0.025271416    0.233590364    0.638966739
    0.834795117    0.185971260    0.733955085
    0.644318700    0.138352156    0.828943610
    0.263366669    0.043114424    0.448989809
    0.072890446    0.995495260    0.543978274
    0.882414222    0.947876096    0.638966739
    0.691937923    0.900256991    0.733955085
    0.501461625    0.852637827    0.828943610
    0.549080968    0.614542961    0.448989779
    0.358604729    0.566923857    0.543978274
    0.168128505    0.519304693    0.638966739
    0.977652192    0.471685559    0.733955085
    0.787175894    0.424066365    0.828943610
    0.691938043    0.900257230    0.448989809
    0.501461864    0.852638066    0.543978333
    0.310985625    0.805018961    0.638966739
    0.120509356    0.757399857    0.733955085
    0.930033088    0.709780693    0.828943610
    0.977652431    0.471685767    0.448989809
    0.787176132    0.424066663    0.543978274
    0.596699953    0.376447529    0.638966739
    0.406223685    0.328828394    0.733955085
    0.215747386    0.281209230    0.828943610
    0.834795237    0.185971498    0.448989809
    0.644318938    0.138352275    0.543978274
    0.453842700    0.090733171    0.638966739
    0.263366491    0.043114066    0.733955085
    0.072890252    0.995494962    0.828943551
    0.144318849    0.138352036    0.900184929
    0.096700028    0.376447737    0.425242752
    0.906223774    0.328828573    0.520231128
    0.715747595    0.281209469    0.615219593
    0.525271297    0.233590245    0.710208058
    0.334795088    0.185971141    0.805196464
    0.287175983    0.424066365    0.900184870
    0.239557162    0.662162006    0.425242752
    0.049080923    0.614542902    0.520231187
    0.858604670    0.566923738    0.615219593
    0.668128371    0.519304633    0.710208058
    0.477652222    0.471685529    0.805196404
    0.572890282    0.995494962    0.900184870
    0.525271416    0.233590603    0.425242752
    0.334795177    0.185971498    0.520231128
    0.144318968    0.138352275    0.615219593
    0.953842640    0.090733171    0.710208058
    0.763366461    0.043114066    0.805196404
    0.430033058    0.709780574    0.900184929
    0.382414252    0.947876275    0.425242752
    0.191938043    0.900257170    0.520231187
    0.001461744    0.852638066    0.615219593
    0.810985565    0.805018902    0.710207999
    0.620509267    0.757399738    0.805196464
    0.715747356    0.281209171    0.900184870
    0.668128610    0.519304872    0.425242722
    0.477652401    0.471685708    0.520231128
    0.287176132    0.424066603    0.615219593
    0.096699983    0.376447469    0.710207939
    0.906223655    0.328828305    0.805196404
    0.858604550    0.566923499    0.900184810
    0.810985804    0.805019200    0.425242692
    0.620509505    0.757400036    0.520231128
    0.430033296    0.709780872    0.615219593
    0.239557013    0.662161708    0.710208058
    0.049080834    0.614542603    0.805196404
    0.001461744    0.852637708    0.900184870
    0.953842878    0.090733409    0.425242722
    0.763366699    0.043114185    0.520231128
    0.572890520    0.995495141    0.615219593
    0.382414162    0.947876036    0.710208058
    0.191937983    0.900256932    0.805196404
    0.049080983    0.614542902    0.448989779
    0.858604670    0.566923797    0.543978274
    0.668128490    0.519304633    0.638966739
    0.477652282    0.471685529    0.733955085
    0.287176043    0.424066365    0.828943491
    0.191938132    0.900257230    0.448989779
    0.001461864    0.852638066    0.543978274
    0.810985684    0.805018961    0.638966739
    0.620509386    0.757399797    0.733955026
    0.430033177    0.709780693    0.828943491
    0.477652371    0.471685767    0.448989779
    0.287176132    0.424066663    0.543978274
    0.096699901    0.376447558    0.638966739
    0.906223655    0.328828424    0.733955085
    0.715747476    0.281209260    0.828943491
    0.334795237    0.185971498    0.448989809
    0.144318998    0.138352394    0.543978274
    0.953842759    0.090733290    0.638966739
    0.763366580    0.043114066    0.733955085
    0.572890282    0.995495021    0.828943551
    0.620509505    0.757400155    0.448989809
    0.430033267    0.709780991    0.543978274
    0.239557043    0.662161887    0.638966739
    0.049080800    0.614542723    0.733955085
    0.858604550    0.566923618    0.828943551
    0.906223893    0.328828692    0.448989779
    0.715747595    0.281209588    0.543978274
    0.525271416    0.233590364    0.638966739
    0.334795177    0.185971260    0.733955026
    0.144318908    0.138352156    0.828943491
    0.763366699    0.043114305    0.448989779
    0.572890401    0.995495200    0.543978274
    0.382414162    0.947876096    0.638966739
    0.191937938    0.900256932    0.733955026
    0.001461744    0.852637827    0.828943551
    0.144318849    0.638352036    0.900184870
    0.096700028    0.876447737    0.425242752
    0.906223774    0.828828573    0.520231128
    0.715747595    0.781209469    0.615219593
    0.525271297    0.733590305    0.710208058
    0.334795147    0.685971200    0.805196404
    0.430033118    0.209780574    0.900184870
    0.382414281    0.447876275    0.425242752
    0.191938058    0.400257170    0.520231128
    0.001461864    0.352638006    0.615219593
    0.810985565    0.305018872    0.710208058
    0.620509386    0.257399738    0.805196404
    0.287175983    0.924066305    0.900184870
    0.239557192    0.162161946    0.425242722
    0.049080975    0.114542842    0.520231128
    0.858604670    0.066923738    0.615219593
    0.668128490    0.019304514    0.710207939
    0.477652222    0.971685410    0.805196404
    0.572890162    0.495494843    0.900184870
    0.525271416    0.733590543    0.425242722
    0.334795177    0.685971379    0.520231128
    0.144318938    0.638352275    0.615219593
    0.953842759    0.590733171    0.710207939
    0.763366461    0.543113947    0.805196464
    0.858604431    0.066923499    0.900184870
    0.810985684    0.305019140    0.425242722
    0.620509505    0.257400006    0.520231128
    0.430033237    0.209780812    0.615219593
    0.239557043    0.162161708    0.710207939
    0.049080729    0.114542603    0.805196464
    0.715747476    0.781209230    0.900184810
    0.668128610    0.019304872    0.425242722
    0.477652371    0.971685767    0.520231128
    0.287176162    0.924066663    0.615219593
    0.096699864    0.876447499    0.710208058
    0.906223655    0.828828394    0.805196404
    0.001461744    0.352637768    0.900184870
    0.953842878    0.590733469    0.425242752
    0.763366580    0.543114305    0.520231187
    0.572890401    0.495495141    0.615219653
    0.382414103    0.447876036    0.710208058
    0.191937938    0.400256902    0.805196464
    0.191938102    0.400257230    0.448989779
    0.001461864    0.352638125    0.543978274
    0.810985684    0.305018961    0.638966739
    0.620509386    0.257399857    0.733955026
    0.430033177    0.209780693    0.828943491
    0.049080975    0.114542961    0.448989779
    0.858604670    0.066923738    0.543978274
    0.668128490    0.019304633    0.638966739
    0.477652282    0.971685529    0.733955085
    0.287176043    0.924066424    0.828943491
    0.334795266    0.685971498    0.448989779
    0.144318998    0.638352394    0.543978274
    0.953842759    0.590733290    0.638966739
    0.763366580    0.543114126    0.733955085
    0.572890282    0.495495021    0.828943491
    0.620509505    0.257400125    0.448989779
    0.430033237    0.209780931    0.543978274
    0.239557073    0.162161827    0.638966739
    0.049080811    0.114542723    0.733955085
    0.858604550    0.066923618    0.828943491
    0.477652371    0.971685827    0.448989779
    0.287176132    0.924066722    0.543978274
    0.096699908    0.876447558    0.638966739
    0.906223655    0.828828394    0.733955026
    0.715747356    0.781209290    0.828943551
    0.763366699    0.543114364    0.448989779
    0.572890401    0.495495260    0.543978274
    0.382414222    0.447876155    0.638966739
    0.191937953    0.400257021    0.733955026
    0.001461744    0.352637887    0.828943551
    0.906223655    0.828828692    0.448989809
    0.715747476    0.781209588    0.543978274
    0.525271237    0.733590424    0.638966739
    0.334794998    0.685971260    0.733955085
    0.144318759    0.638352156    0.828943491
    0.072890311    0.495494902    0.900184929
    0.025271416    0.733590543    0.425242722
    0.834795237    0.685971379    0.520231128
    0.644319057    0.638352275    0.615219593
    0.453842729    0.590733111    0.710208058
    0.263366550    0.543114007    0.805196404
    0.358604580    0.066923499    0.900184870
    0.310985744    0.305019170    0.425242722
    0.120509498    0.257400036    0.520231128
    0.930033326    0.209780931    0.615219593
    0.739557028    0.162161708    0.710208058
    0.549080729    0.114542603    0.805196404
    0.215747386    0.781209111    0.900184870
    0.168128580    0.019304752    0.425242722
    0.977652311    0.971685708    0.520231128
    0.787176132    0.924066544    0.615219593
    0.596699953    0.876447380    0.710207999
    0.406223625    0.828828275    0.805196464
    0.501461625    0.352637708    0.900184870
    0.453842878    0.590733409    0.425242722
    0.263366640    0.543114305    0.520231128
    0.072890416    0.495495141    0.615219593
    0.882414222    0.447876036    0.710207939
    0.691937923    0.400256842    0.805196404
    0.644318819    0.638352036    0.900184810
    0.596700072    0.876447737    0.425242722
    0.406223774    0.828828633    0.520231128
    0.215747580    0.781209469    0.615219593
    0.025271297    0.733590305    0.710208058
    0.834795117    0.685971200    0.805196404
    0.930033088    0.209780574    0.900184870
    0.882414222    0.447876275    0.425242722
    0.691938043    0.400257170    0.520231128
    0.501461864    0.352638036    0.615219593
    0.310985476    0.305018872    0.710208058
    0.120509319    0.257399768    0.805196464
    0.787175894    0.924066305    0.900184929
    0.739557147    0.162161946    0.425242752
    0.549080849    0.114542842    0.520231128
    0.358604640    0.066923618    0.615219653
    0.168128356    0.019304514    0.710208058
    0.977652192    0.971685469    0.805196404
    0.120509557    0.257400125    0.448989809
    0.930033326    0.209780931    0.543978274
    0.739557147    0.162161827    0.638966739
    0.549080849    0.114542723    0.733955085
    0.358604521    0.066923499    0.828943610
    0.263366699    0.543114364    0.448989779
    0.072890475    0.495495260    0.543978333
    0.882414222    0.447876126    0.638966739
    0.691937923    0.400256991    0.733955085
    0.501461625    0.352637827    0.828943610
    0.406223804    0.828828692    0.448989809
    0.215747565    0.781209588    0.543978274
    0.025271297    0.733590424    0.638966739
    0.834795117    0.685971260    0.733955085
    0.644318700    0.638352156    0.828943610
    0.691938043    0.400257230    0.448989779
    0.501461864    0.352638125    0.543978274
    0.310985655    0.305018961    0.638966739
    0.120509379    0.257399827    0.733955085
    0.930033088    0.209780693    0.828943610
    0.549080968    0.114542961    0.448989809
    0.358604699    0.066923738    0.543978333
    0.168128476    0.019304633    0.638966739
    0.977652192    0.971685588    0.733955085
    0.787175894    0.924066424    0.828943610
    0.834795237    0.685971498    0.448989809
    0.644318938    0.638352394    0.543978274
    0.453842759    0.590733230    0.638966739
    0.263366461    0.543114066    0.733955085
    0.072890162    0.495494962    0.828943610
    0.977652550    0.971685827    0.448989809
    0.787176251    0.924066722    0.543978274
    0.596700072    0.876447558    0.638966739
    0.406223744    0.828828394    0.733955085
    0.215747505    0.781209230    0.828943610
