Sn+Si
    1.000000000
   15.895228386    0.000000000    0.000000000
  -10.596819878   11.847604752    0.000000000
    0.000000000    0.000000000    6.663593769
Sn  Si 
24     36
Direct
    0.987179220    0.012820764    0.000000018
    0.837179184    0.162820861    0.217754856
    0.687179148    0.312820971    0.435509712
    0.487179220    0.512820780    0.000000016
    0.337179154    0.662820816    0.217754841
    0.187179133    0.812820971    0.435509712
    0.287179232    0.962820649    0.108877264
    0.137179241    0.112820745    0.326631993
    0.987179160    0.262820840    0.544386923
    0.787179351    0.462820649    0.108877227
    0.637179315    0.612820804    0.326632053
    0.487179279    0.762820840    0.544386923
    0.987179220    0.512820780    0.000000000
    0.837179184    0.662820876    0.217754826
    0.687179148    0.812820971    0.435509652
    0.487179220    0.012820777    0.000000006
    0.337179214    0.162820861    0.217754856
    0.187179133    0.312820971    0.435509712
    0.287179232    0.462820649    0.108877227
    0.137179196    0.612820745    0.326632112
    0.987179160    0.762820840    0.544386804
    0.787179232    0.962820649    0.108877219
    0.637179255    0.112820864    0.326632053
    0.487179220    0.262820840    0.544386804
    0.982905626    0.641025126    0.544386864
    0.782905579    0.341025025    0.726632357
    0.582905412    0.041024935    0.908877730
    0.982905626    0.307691783    0.544386864
    0.782905579    0.007691715    0.726632357
    0.582905412    0.707691669    0.908877730
    0.982905626    0.974358499    0.544386864
    0.782905579    0.674358368    0.726632357
    0.582905412    0.374358296    0.908877730
    0.632905662    0.657691717    0.635509372
    0.432905585    0.357691616    0.817754865
    0.232905522    0.057691578    1.000000238
    0.632905662    0.324358463    0.635509372
    0.432905585    0.024358369    0.817754865
    0.232905522    0.724358320    1.000000238
    0.632905662    0.991025209    0.635509372
    0.432905585    0.691025138    0.817754865
    0.232905522    0.391025066    1.000000238
    0.482905626    0.807691753    0.544386864
    0.282905549    0.507691622    0.726632357
    0.082905442    0.207691610    0.908877730
    0.482905626    0.474358439    0.544386864
    0.282905549    0.174358353    0.726632357
    0.082905442    0.874358296    0.908877730
    0.482905626    0.141025141    0.544386864
    0.282905549    0.841025054    0.726632357
    0.082905442    0.541024983    0.908877730
    0.132905677    0.824358523    0.635509491
    0.932905555    0.524358392    0.817754865
    0.732905507    0.224358380    1.000000238
    0.132905677    0.491025209    0.635509491
    0.932905555    0.191025108    0.817754865
    0.732905507    0.891025126    1.000000238
    0.132905677    0.157691956    0.635509491
    0.932905555    0.857691884    0.817754865
    0.732905507    0.557691932    1.000000238
