Si+Ge
    1.000000000
   16.293001175    0.000000000    0.000000000
    0.000000000   16.293001175    0.000000000
    0.000000000    0.000000000   10.122642517
Si  Ge 
108     48
Direct
    0.000000000    0.994067729    0.000000000
    0.000000000    0.827401042    0.268260002
    0.000000000    0.660734296    0.536520064
    0.333333343    0.994067729    0.000000000
    0.333333343    0.827401042    0.268260002
    0.333333343    0.660734296    0.536520064
    0.666666687    0.994067729    0.000000000
    0.666666687    0.827401042    0.268260002
    0.666666687    0.660734296    0.536520064
    0.000000000    0.327401042    0.000000000
    0.000000000    0.160734370    0.268260002
    0.000000000    0.994067669    0.536520064
    0.333333343    0.327401042    0.000000000
    0.333333343    0.160734370    0.268260002
    0.333333343    0.994067669    0.536520064
    0.666666687    0.327401042    0.000000000
    0.666666687    0.160734370    0.268260002
    0.666666687    0.994067669    0.536520064
    0.000000000    0.660734415    0.000000000
    0.000000000    0.494067699    0.268260002
    0.000000000    0.327401042    0.536520064
    0.333333343    0.660734415    0.000000000
    0.333333343    0.494067699    0.268260002
    0.333333343    0.327401042    0.536520064
    0.666666687    0.660734415    0.000000000
    0.666666687    0.494067699    0.268260002
    0.666666687    0.327401042    0.536520064
    0.083333336    0.077401049    0.134130016
    0.083333336    0.910734355    0.402389973
    0.083333336    0.744067669    0.670650065
    0.416666687    0.077401049    0.134130016
    0.416666687    0.910734355    0.402389973
    0.416666687    0.744067669    0.670650065
    0.750000000    0.077401049    0.134130016
    0.750000000    0.910734355    0.402389973
    0.750000000    0.744067669    0.670650065
    0.083333336    0.410734355    0.134130016
    0.083333336    0.244067669    0.402389973
    0.083333336    0.077400982    0.670650065
    0.416666687    0.410734355    0.134130016
    0.416666687    0.244067669    0.402389973
    0.416666687    0.077400982    0.670650065
    0.750000000    0.410734355    0.134130016
    0.750000000    0.244067669    0.402389973
    0.750000000    0.077400982    0.670650065
    0.083333336    0.744067729    0.134130016
    0.083333336    0.577401042    0.402389973
    0.083333336    0.410734355    0.670650065
    0.416666687    0.744067729    0.134130016
    0.416666687    0.577401042    0.402389973
    0.416666687    0.410734355    0.670650065
    0.750000000    0.744067729    0.134130016
    0.750000000    0.577401042    0.402389973
    0.750000000    0.410734355    0.670650065
    0.166666672    0.160734385    0.000000000
    0.166666672    0.994067669    0.268260002
    0.166666672    0.827400982    0.536520064
    0.500000000    0.160734385    0.000000000
    0.500000000    0.994067669    0.268260002
    0.500000000    0.827400982    0.536520064
    0.833333373    0.160734385    0.000000000
    0.833333373    0.994067669    0.268260002
    0.833333373    0.827400982    0.536520064
    0.166666672    0.494067699    0.000000000
    0.166666672    0.327401042    0.268260002
    0.166666672    0.160734311    0.536520064
    0.500000000    0.494067699    0.000000000
    0.500000000    0.327401042    0.268260002
    0.500000000    0.160734311    0.536520064
    0.833333373    0.494067699    0.000000000
    0.833333373    0.327401042    0.268260002
    0.833333373    0.160734311    0.536520064
    0.166666672    0.827401042    0.000000000
    0.166666672    0.660734355    0.268260002
    0.166666672    0.494067639    0.536520064
    0.500000000    0.827401042    0.000000000
    0.500000000    0.660734355    0.268260002
    0.500000000    0.494067639    0.536520064
    0.833333373    0.827401042    0.000000000
    0.833333373    0.660734355    0.268260002
    0.833333373    0.494067639    0.536520064
    0.250000000    0.244067714    0.134130016
    0.250000000    0.077401027    0.402389973
    0.250000000    0.910734355    0.670650065
    0.583333373    0.244067714    0.134130016
    0.583333373    0.077401027    0.402389973
    0.583333373    0.910734355    0.670650065
    0.916666687    0.244067714    0.134130016
    0.916666687    0.077401027    0.402389973
    0.916666687    0.910734355    0.670650065
    0.250000000    0.577401161    0.134130016
    0.250000000    0.410734445    0.402389973
    0.250000000    0.244067743    0.670650065
    0.583333373    0.577401161    0.134130016
    0.583333373    0.410734445    0.402389973
    0.583333373    0.244067743    0.670650065
    0.916666687    0.577401161    0.134130016
    0.916666687    0.410734445    0.402389973
    0.916666687    0.244067743    0.670650065
    0.250000000    0.910734355    0.134130016
    0.250000000    0.744067669    0.402389973
    0.250000000    0.577401042    0.670650065
    0.583333373    0.910734355    0.134130016
    0.583333373    0.744067669    0.402389973
    0.583333373    0.577401042    0.670650065
    0.916666687    0.910734355    0.134130016
    0.916666687    0.744067669    0.402389973
    0.916666687    0.577401042    0.670650065
    0.910024285    0.413237661    0.670650005
    0.521135330    0.038237680    0.736520052
    0.132246435    0.663237751    0.802390099
    0.743357420    0.288237751    0.868260145
    0.354468465    0.913237810    0.934130073
    0.965579271    0.538237572    1.000000000
    0.910024285    0.913237691    0.670650005
    0.521135330    0.538237691    0.736520052
    0.132246375    0.163237751    0.802390099
    0.743357420    0.788237810    0.868259907
    0.354468465    0.413237810    0.934130073
    0.965579271    0.038237691    1.000000000
    0.660024166    0.788237631    0.670650005
    0.271135211    0.413237631    0.736520052
    0.882246315    0.038237680    0.802390099
    0.493357301    0.663237691    0.868260145
    0.104468405    0.288237751    0.934130073
    0.715579271    0.913237572    1.000000119
    0.660024226    0.288237661    0.670650005
    0.271135241    0.913237691    0.736520052
    0.882246315    0.538237691    0.802390099
    0.493357360    0.163237751    0.868260145
    0.104468346    0.788237691    0.934130073
    0.715579391    0.413237691    1.000000119
    0.660024166    0.538237691    0.670650005
    0.271135241    0.163237676    0.736520052
    0.882246315    0.788237691    0.802390099
    0.493357360    0.413237691    0.868260145
    0.104468405    0.038237810    0.934130073
    0.715579271    0.663237572    1.000000119
    0.660024226    0.038237691    0.670650005
    0.271135211    0.663237691    0.736520052
    0.882246315    0.288237751    0.802390099
    0.493357301    0.913237691    0.868260145
    0.104468405    0.538237810    0.934130073
    0.715579271    0.163237572    1.000000119
    0.910024285    0.663237631    0.670650005
    0.521135330    0.288237631    0.736520052
    0.132246435    0.913237691    0.802390099
    0.743357420    0.538237691    0.868259907
    0.354468465    0.163237751    0.934130073
    0.965579510    0.788237691    1.000000119
    0.910024285    0.163237706    0.670650005
    0.521135330    0.788237691    0.736520052
    0.132246375    0.413237691    0.802390099
    0.743357420    0.038237691    0.868259907
    0.354468465    0.663237810    0.934130073
    0.965579271    0.288237572    1.000000000
