Ge+Si                                   
   1.00000000000000     
    16.9734001160000005    0.0000000000000000    0.0000000000000000
     0.0000000000000000   16.9734001160000005    0.0000000000000000
     0.0000000000000000    0.0000000000000000   17.8610000609999986
   Ge   Si
   108   120
Direct
  0.9943054909999987  0.6666665670000000  0.0000000000000000
  0.8276388649999973  0.6666665670000000  0.1583841739999983
  0.6609721179999966  0.6666665670000000  0.3167683779999990
  0.9943054909999987  0.3333332839999983  0.0000000000000000
  0.8276388649999973  0.3333332839999983  0.1583841739999983
  0.6609721179999966  0.3333332839999983  0.3167683779999990
  0.9943054909999987  0.0000000000000000  0.0000000000000000
  0.8276388649999973  0.0000000000000000  0.1583841739999983
  0.6609721179999966  0.0000000000000000  0.3167683779999990
  0.3276388049999994  0.6666665670000000  0.0000000000000000
  0.1609721479999990  0.6666665670000000  0.1583841739999983
  0.9943054319999973  0.6666665670000000  0.3167683779999990
  0.3276388049999994  0.3333332839999983  0.0000000000000000
  0.1609721479999990  0.3333332839999983  0.1583841739999983
  0.9943054319999973  0.3333332839999983  0.3167683779999990
  0.3276388049999994  0.0000000000000000  0.0000000000000000
  0.1609721479999990  0.0000000000000000  0.1583841739999983
  0.9943054319999973  0.0000000000000000  0.3167683779999990
  0.6609721179999966  0.6666665670000000  0.0000000000000000
  0.4943054319999973  0.6666665670000000  0.1583841739999983
  0.3276387450000016  0.6666665670000000  0.3167683779999990
  0.6609721179999966  0.3333332839999983  0.0000000000000000
  0.4943054319999973  0.3333332839999983  0.1583841739999983
  0.3276387450000016  0.3333332839999983  0.3167683779999990
  0.6609721179999966  0.0000000000000000  0.0000000000000000
  0.4943054319999973  0.0000000000000000  0.1583841739999983
  0.3276387450000016  0.0000000000000000  0.3167683779999990
  0.0776388419999989  0.9166665670000000  0.0791920950000033
  0.9109721179999966  0.9166665670000000  0.2375762910000034
  0.7443054909999987  0.9166665670000000  0.3959604799999994
  0.0776388419999989  0.5833333129999971  0.0791920950000033
  0.9109721179999966  0.5833333129999971  0.2375762910000034
  0.7443054909999987  0.5833333129999971  0.3959604799999994
  0.0776388419999989  0.2499999549999998  0.0791920950000033
  0.9109721179999966  0.2499999549999998  0.2375762910000034
  0.7443054909999987  0.2499999549999998  0.3959604799999994
  0.4109720889999977  0.9166665670000000  0.0791920950000033
  0.2443054169999996  0.9166665670000000  0.2375762910000034
  0.0776387229999997  0.9166665670000000  0.3959604799999994
  0.4109720889999977  0.5833333129999971  0.0791920950000033
  0.2443054169999996  0.5833333129999971  0.2375762910000034
  0.0776387229999997  0.5833333129999971  0.3959604799999994
  0.4109720889999977  0.2499999549999998  0.0791920950000033
  0.2443054169999996  0.2499999549999998  0.2375762910000034
  0.0776387229999997  0.2499999549999998  0.3959604799999994
  0.7443054909999987  0.9166665670000000  0.0791920950000033
  0.5776387450000016  0.9166665670000000  0.2375762910000034
  0.4109720590000023  0.9166665670000000  0.3959604799999994
  0.7443054909999987  0.5833333129999971  0.0791920950000033
  0.5776387450000016  0.5833333129999971  0.2375762910000034
  0.4109720590000023  0.5833333129999971  0.3959604799999994
  0.7443054909999987  0.2499999549999998  0.0791920950000033
  0.5776387450000016  0.2499999549999998  0.2375762910000034
  0.4109720590000023  0.2499999549999998  0.3959604799999994
  0.1609721629999967  0.8333331939999979  0.0000000000000000
  0.9943054909999987  0.8333331939999979  0.1583841739999983
  0.8276388049999994  0.8333331939999979  0.3167683779999990
  0.1609721629999967  0.4999999110000033  0.0000000000000000
  0.9943054909999987  0.4999999110000033  0.1583841739999983
  0.8276388049999994  0.4999999110000033  0.3167683779999990
  0.1609721629999967  0.1666666420000027  0.0000000000000000
  0.9943054909999987  0.1666666420000027  0.1583841739999983
  0.8276388049999994  0.1666666420000027  0.3167683779999990
  0.4943054319999973  0.8333331939999979  0.0000000000000000
  0.3276387450000016  0.8333331939999979  0.1583841739999983
  0.1609720740000000  0.8333331939999979  0.3167683779999990
  0.4943054319999973  0.4999999110000033  0.0000000000000000
  0.3276387450000016  0.4999999110000033  0.1583841739999983
  0.1609720740000000  0.4999999110000033  0.3167683779999990
  0.4943054319999973  0.1666666420000027  0.0000000000000000
  0.3276387450000016  0.1666666420000027  0.1583841739999983
  0.1609720740000000  0.1666666420000027  0.3167683779999990
  0.8276388049999994  0.8333331939999979  0.0000000000000000
  0.6609721179999966  0.8333331939999979  0.1583841739999983
  0.4943054319999973  0.8333331939999979  0.3167683779999990
  0.8276388049999994  0.4999999110000033  0.0000000000000000
  0.6609721179999966  0.4999999110000033  0.1583841739999983
  0.4943054319999973  0.4999999110000033  0.3167683779999990
  0.8276388049999994  0.1666666420000027  0.0000000000000000
  0.6609721179999966  0.1666666420000027  0.1583841739999983
  0.4943054319999973  0.1666666420000027  0.3167683779999990
  0.2443054619999998  0.7499998810000008  0.0791920950000033
  0.0776387829999976  0.7499998810000008  0.2375762910000034
  0.9109721179999966  0.7499998810000008  0.3959604799999994
  0.2443054619999998  0.4166666269999979  0.0791920950000033
  0.0776387829999976  0.4166666269999979  0.2375762910000034
  0.9109721179999966  0.4166666269999979  0.3959604799999994
  0.2443054619999998  0.0833333280000019  0.0791920950000033
  0.0776387829999976  0.0833333280000019  0.2375762910000034
  0.9109721179999966  0.0833333280000019  0.3959604799999994
  0.5776388649999973  0.7499998810000008  0.0791920950000033
  0.4109721479999990  0.7499998810000008  0.2375762910000034
  0.2443054470000021  0.7499998810000008  0.3959604799999994
  0.5776388649999973  0.4166666269999979  0.0791920950000033
  0.4109721479999990  0.4166666269999979  0.2375762910000034
  0.2443054470000021  0.4166666269999979  0.3959604799999994
  0.5776388649999973  0.0833333280000019  0.0791920950000033
  0.4109721479999990  0.0833333280000019  0.2375762910000034
  0.2443054470000021  0.0833333280000019  0.3959604799999994
  0.9109721780000015  0.7499998810000008  0.0791920950000033
  0.7443054909999987  0.7499998810000008  0.2375762910000034
  0.5776387450000016  0.7499998810000008  0.3959604799999994
  0.9109721780000015  0.4166666269999979  0.0791920950000033
  0.7443054909999987  0.4166666269999979  0.2375762910000034
  0.5776387450000016  0.4166666269999979  0.3959604799999994
  0.9109721780000015  0.0833333280000019  0.0791920950000033
  0.7443054909999987  0.0833333280000019  0.2375762910000034
  0.5776387450000016  0.0833333280000019  0.3959604799999994
  0.9372645620000029  0.1846199630000029  0.5079362990000007
  0.7872644660000034  0.2346200200000013  0.6599714760000026
  0.6372644309999984  0.2846200469999971  0.8120066520000009
  0.0372644660000034  0.4846200049999965  0.5079362990000007
  0.8872644309999984  0.5346201059999984  0.6599714760000026
  0.7372643949999969  0.5846201179999966  0.8120066520000009
  0.1372644899999997  0.7846199270000014  0.5079362990000007
  0.9872643949999969  0.8346199989999974  0.6599714760000026
  0.8372644190000003  0.8846200699999969  0.8120066520000009
  0.6372644899999997  0.2846199869999992  0.5079362990000007
  0.4872644539999982  0.3346200289999999  0.6599714760000026
  0.3372643590000024  0.3846200699999969  0.8120066520000009
  0.7372645140000031  0.5846199989999974  0.5079362990000007
  0.5872644190000003  0.6346200699999969  0.6599714760000026
  0.4372643829999987  0.6846201420000000  0.8120066520000009
  0.8372644780000016  0.8846199509999977  0.5079362990000007
  0.6872643829999987  0.9346200230000008  0.6599714760000026
  0.5372643469999971  0.9846200940000003  0.8120066520000009
  0.2372645140000031  0.0846199240000018  0.5079362990000007
  0.0872644190000003  0.1346199959999979  0.6599714760000026
  0.9372643230000008  0.1846200530000033  0.8120066520000009
  0.3372644780000016  0.3846199509999977  0.5079362990000007
  0.1872644420000000  0.4346200230000008  0.6599714760000026
  0.0372643469999971  0.4846200639999978  0.8120066520000009
  0.4372645019999979  0.6846200230000008  0.5079362990000007
  0.2872644360000010  0.7346200940000003  0.6599714760000026
  0.1372643710000006  0.7846201660000034  0.8120066520000009
  0.5372644660000034  0.9846199750000011  0.5079362990000007
  0.3872643710000006  0.0346199270000014  0.6599714760000026
  0.2372643949999969  0.0846201479999991  0.8120066520000009
  0.1872644420000000  0.1846199330000005  0.5839539170000023
  0.0372643469999971  0.2346200049999965  0.7359890939999971
  0.8872642520000014  0.2846201059999984  0.8880242110000012
  0.8872645499999976  0.2846199869999992  0.5839539170000023
  0.7372645140000031  0.3346200289999999  0.7359890939999971
  0.5872644190000003  0.3846200999999994  0.8880242110000012
  0.9872645140000031  0.5846199989999974  0.5839539170000023
  0.8372644190000003  0.6346200699999969  0.7359890939999971
  0.6872643829999987  0.6846201420000000  0.8880242110000012
  0.0872645379999994  0.8846199509999977  0.5839539170000023
  0.9372644420000000  0.9346201420000000  0.7359890939999971
  0.7872643469999971  0.9846200940000003  0.8880242110000012
  0.4872645140000031  0.0846199100000007  0.5839539170000023
  0.3372644479999991  0.1346200999999994  0.7359890939999971
  0.1872643230000008  0.1846201720000025  0.8880242110000012
  0.5872644780000016  0.3846199509999977  0.5839539170000023
  0.4372644130000012  0.4346200530000033  0.7359890939999971
  0.2872643170000018  0.4846200639999978  0.8880242110000012
  0.6872645019999979  0.6846199040000016  0.5839539170000023
  0.5372644070000021  0.7346199750000011  0.7359890939999971
  0.3872643409999981  0.7846201660000034  0.8880242110000012
  0.7872644660000034  0.9846199750000011  0.5839539170000023
  0.6372644309999984  0.0346200469999971  0.7359890939999971
  0.4872643349999990  0.0846201479999991  0.8880242110000012
  0.2872644959999988  0.4846199449999986  0.5839539170000023
  0.1372643710000006  0.5346200469999971  0.7359890939999971
  0.9872642759999977  0.5846201179999966  0.8880242110000012
  0.3872644899999997  0.7846200469999971  0.5839539170000023
  0.2372643949999969  0.8346201179999966  0.7359890939999971
  0.0872642989999974  0.8846200699999969  0.8880242110000012
  0.1372644899999997  0.2846199270000014  0.5079362990000007
  0.9872644539999982  0.3346200289999999  0.6599714760000026
  0.8372643590000024  0.3846201300000018  0.8120066520000009
  0.7372645140000031  0.0846199320000025  0.5079362990000007
  0.5872644780000016  0.1346199959999979  0.6599714760000026
  0.4372643530000033  0.1846200820000021  0.8120066520000009
  0.8372644780000016  0.3846199509999977  0.5079362990000007
  0.6872644420000000  0.4346200230000008  0.6599714760000026
  0.5372643469999971  0.4846201240000028  0.8120066520000009
  0.9372645019999979  0.6846200230000008  0.5079362990000007
  0.7872644660000034  0.7346200940000003  0.6599714760000026
  0.6372643710000006  0.7846201660000034  0.8120066520000009
  0.0372645850000026  0.9846200940000003  0.5079362990000007
  0.8872644309999984  0.0346201660000034  0.6599714760000026
  0.7372643949999969  0.0846201479999991  0.8120066520000009
  0.4372645019999979  0.1846199479999981  0.5079362990000007
  0.2872644360000010  0.2346200200000013  0.6599714760000026
  0.1372643710000006  0.2846201059999984  0.8120066520000009
  0.5372645260000013  0.4846200049999965  0.5079362990000007
  0.3872644309999984  0.5346200469999971  0.6599714760000026
  0.2372643949999969  0.5846201179999966  0.8120066520000009
  0.6372644899999997  0.7846199270000014  0.5079362990000007
  0.4872643949999969  0.8346199989999974  0.6599714760000026
  0.3372643289999999  0.8846200699999969  0.8120066520000009
  0.2372645140000031  0.5846198799999982  0.5079362990000007
  0.0872644190000003  0.6346200699999969  0.6599714760000026
  0.9372643230000008  0.6846201420000000  0.8120066520000009
  0.3372644780000016  0.8846199509999977  0.5079362990000007
  0.1872644420000000  0.9346200230000008  0.6599714760000026
  0.0372643469999971  0.9846200940000003  0.8120066520000009
  0.9872644539999982  0.0846199100000007  0.5839539170000023
  0.8372644190000003  0.1346200999999994  0.7359890939999971
  0.6872643829999987  0.1846200530000033  0.8880242110000012
  0.0872645379999994  0.3846199509999977  0.5839539170000023
  0.9372644420000000  0.4346200530000033  0.7359890939999971
  0.7872643469999971  0.4846200639999978  0.8880242110000012
  0.1872645620000029  0.6846199040000016  0.5839539170000023
  0.0372644660000034  0.7346199750000011  0.7359890939999971
  0.8872643710000006  0.7846200469999971  0.8880242110000012
  0.6872645019999979  0.1846199330000005  0.5839539170000023
  0.5372644660000034  0.2346200200000013  0.7359890939999971
  0.3872643710000006  0.2846200469999971  0.8880242110000012
  0.7872645850000026  0.4846200049999965  0.5839539170000023
  0.6372644899999997  0.5346200469999971  0.7359890939999971
  0.4872644249999993  0.5846201179999966  0.8880242110000012
  0.8872644899999997  0.7846199270000014  0.5839539170000023
  0.7372644539999982  0.8346199989999974  0.7359890939999971
  0.5872643590000024  0.8846201899999997  0.8880242110000012
  0.3872645200000022  0.2846199569999968  0.5839539170000023
  0.2372645140000031  0.3346200289999999  0.7359890939999971
  0.0872642989999974  0.3846200999999994  0.8880242110000012
  0.4872645140000031  0.5846199989999974  0.5839539170000023
  0.3372644190000003  0.6346200699999969  0.7359890939999971
  0.1872643230000008  0.6846200230000008  0.8880242110000012
  0.5872644780000016  0.8846199509999977  0.5839539170000023
  0.4372643829999987  0.9346200230000008  0.7359890939999971
  0.2872642869999993  0.9846200940000003  0.8880242110000012
  0.2872644959999988  0.9846199750000011  0.5839539170000023
  0.1372643710000006  0.0346200469999971  0.7359890939999971
  0.9872642759999977  0.0846201479999991  0.8880242110000012
 
  0.00000000E+00  0.00000000E+00  0.00000000E+00
  0.00000000E+00  0.00000000E+00  0.00000000E+00
  0.00000000E+00  0.00000000E+00  0.00000000E+00
  0.00000000E+00  0.00000000E+00  0.00000000E+00
  0.00000000E+00  0.00000000E+00  0.00000000E+00
  0.00000000E+00  0.00000000E+00  0.00000000E+00
  0.00000000E+00  0.00000000E+00  0.00000000E+00
  0.00000000E+00  0.00000000E+00  0.00000000E+00
  0.00000000E+00  0.00000000E+00  0.00000000E+00
  0.00000000E+00  0.00000000E+00  0.00000000E+00
  0.00000000E+00  0.00000000E+00  0.00000000E+00
  0.00000000E+00  0.00000000E+00  0.00000000E+00
  0.00000000E+00  0.00000000E+00  0.00000000E+00
  0.00000000E+00  0.00000000E+00  0.00000000E+00
  0.00000000E+00  0.00000000E+00  0.00000000E+00
  0.00000000E+00  0.00000000E+00  0.00000000E+00
  0.00000000E+00  0.00000000E+00  0.00000000E+00
  0.00000000E+00  0.00000000E+00  0.00000000E+00
  0.00000000E+00  0.00000000E+00  0.00000000E+00
  0.00000000E+00  0.00000000E+00  0.00000000E+00
  0.00000000E+00  0.00000000E+00  0.00000000E+00
  0.00000000E+00  0.00000000E+00  0.00000000E+00
  0.00000000E+00  0.00000000E+00  0.00000000E+00
  0.00000000E+00  0.00000000E+00  0.00000000E+00
  0.00000000E+00  0.00000000E+00  0.00000000E+00
  0.00000000E+00  0.00000000E+00  0.00000000E+00
  0.00000000E+00  0.00000000E+00  0.00000000E+00
  0.00000000E+00  0.00000000E+00  0.00000000E+00
  0.00000000E+00  0.00000000E+00  0.00000000E+00
  0.00000000E+00  0.00000000E+00  0.00000000E+00
  0.00000000E+00  0.00000000E+00  0.00000000E+00
  0.00000000E+00  0.00000000E+00  0.00000000E+00
  0.00000000E+00  0.00000000E+00  0.00000000E+00
  0.00000000E+00  0.00000000E+00  0.00000000E+00
  0.00000000E+00  0.00000000E+00  0.00000000E+00
  0.00000000E+00  0.00000000E+00  0.00000000E+00
  0.00000000E+00  0.00000000E+00  0.00000000E+00
  0.00000000E+00  0.00000000E+00  0.00000000E+00
  0.00000000E+00  0.00000000E+00  0.00000000E+00
  0.00000000E+00  0.00000000E+00  0.00000000E+00
  0.00000000E+00  0.00000000E+00  0.00000000E+00
  0.00000000E+00  0.00000000E+00  0.00000000E+00
  0.00000000E+00  0.00000000E+00  0.00000000E+00
  0.00000000E+00  0.00000000E+00  0.00000000E+00
  0.00000000E+00  0.00000000E+00  0.00000000E+00
  0.00000000E+00  0.00000000E+00  0.00000000E+00
  0.00000000E+00  0.00000000E+00  0.00000000E+00
  0.00000000E+00  0.00000000E+00  0.00000000E+00
  0.00000000E+00  0.00000000E+00  0.00000000E+00
  0.00000000E+00  0.00000000E+00  0.00000000E+00
  0.00000000E+00  0.00000000E+00  0.00000000E+00
  0.00000000E+00  0.00000000E+00  0.00000000E+00
  0.00000000E+00  0.00000000E+00  0.00000000E+00
  0.00000000E+00  0.00000000E+00  0.00000000E+00
  0.00000000E+00  0.00000000E+00  0.00000000E+00
  0.00000000E+00  0.00000000E+00  0.00000000E+00
  0.00000000E+00  0.00000000E+00  0.00000000E+00
  0.00000000E+00  0.00000000E+00  0.00000000E+00
  0.00000000E+00  0.00000000E+00  0.00000000E+00
  0.00000000E+00  0.00000000E+00  0.00000000E+00
  0.00000000E+00  0.00000000E+00  0.00000000E+00
  0.00000000E+00  0.00000000E+00  0.00000000E+00
  0.00000000E+00  0.00000000E+00  0.00000000E+00
  0.00000000E+00  0.00000000E+00  0.00000000E+00
  0.00000000E+00  0.00000000E+00  0.00000000E+00
  0.00000000E+00  0.00000000E+00  0.00000000E+00
  0.00000000E+00  0.00000000E+00  0.00000000E+00
  0.00000000E+00  0.00000000E+00  0.00000000E+00
  0.00000000E+00  0.00000000E+00  0.00000000E+00
  0.00000000E+00  0.00000000E+00  0.00000000E+00
  0.00000000E+00  0.00000000E+00  0.00000000E+00
  0.00000000E+00  0.00000000E+00  0.00000000E+00
  0.00000000E+00  0.00000000E+00  0.00000000E+00
  0.00000000E+00  0.00000000E+00  0.00000000E+00
  0.00000000E+00  0.00000000E+00  0.00000000E+00
  0.00000000E+00  0.00000000E+00  0.00000000E+00
  0.00000000E+00  0.00000000E+00  0.00000000E+00
  0.00000000E+00  0.00000000E+00  0.00000000E+00
  0.00000000E+00  0.00000000E+00  0.00000000E+00
  0.00000000E+00  0.00000000E+00  0.00000000E+00
  0.00000000E+00  0.00000000E+00  0.00000000E+00
  0.00000000E+00  0.00000000E+00  0.00000000E+00
  0.00000000E+00  0.00000000E+00  0.00000000E+00
  0.00000000E+00  0.00000000E+00  0.00000000E+00
  0.00000000E+00  0.00000000E+00  0.00000000E+00
  0.00000000E+00  0.00000000E+00  0.00000000E+00
  0.00000000E+00  0.00000000E+00  0.00000000E+00
  0.00000000E+00  0.00000000E+00  0.00000000E+00
  0.00000000E+00  0.00000000E+00  0.00000000E+00
  0.00000000E+00  0.00000000E+00  0.00000000E+00
  0.00000000E+00  0.00000000E+00  0.00000000E+00
  0.00000000E+00  0.00000000E+00  0.00000000E+00
  0.00000000E+00  0.00000000E+00  0.00000000E+00
  0.00000000E+00  0.00000000E+00  0.00000000E+00
  0.00000000E+00  0.00000000E+00  0.00000000E+00
  0.00000000E+00  0.00000000E+00  0.00000000E+00
  0.00000000E+00  0.00000000E+00  0.00000000E+00
  0.00000000E+00  0.00000000E+00  0.00000000E+00
  0.00000000E+00  0.00000000E+00  0.00000000E+00
  0.00000000E+00  0.00000000E+00  0.00000000E+00
  0.00000000E+00  0.00000000E+00  0.00000000E+00
  0.00000000E+00  0.00000000E+00  0.00000000E+00
  0.00000000E+00  0.00000000E+00  0.00000000E+00
  0.00000000E+00  0.00000000E+00  0.00000000E+00
  0.00000000E+00  0.00000000E+00  0.00000000E+00
  0.00000000E+00  0.00000000E+00  0.00000000E+00
  0.00000000E+00  0.00000000E+00  0.00000000E+00
  0.00000000E+00  0.00000000E+00  0.00000000E+00
  0.00000000E+00  0.00000000E+00  0.00000000E+00
  0.00000000E+00  0.00000000E+00  0.00000000E+00
  0.00000000E+00  0.00000000E+00  0.00000000E+00
  0.00000000E+00  0.00000000E+00  0.00000000E+00
  0.00000000E+00  0.00000000E+00  0.00000000E+00
  0.00000000E+00  0.00000000E+00  0.00000000E+00
  0.00000000E+00  0.00000000E+00  0.00000000E+00
  0.00000000E+00  0.00000000E+00  0.00000000E+00
  0.00000000E+00  0.00000000E+00  0.00000000E+00
  0.00000000E+00  0.00000000E+00  0.00000000E+00
  0.00000000E+00  0.00000000E+00  0.00000000E+00
  0.00000000E+00  0.00000000E+00  0.00000000E+00
  0.00000000E+00  0.00000000E+00  0.00000000E+00
  0.00000000E+00  0.00000000E+00  0.00000000E+00
  0.00000000E+00  0.00000000E+00  0.00000000E+00
  0.00000000E+00  0.00000000E+00  0.00000000E+00
  0.00000000E+00  0.00000000E+00  0.00000000E+00
  0.00000000E+00  0.00000000E+00  0.00000000E+00
  0.00000000E+00  0.00000000E+00  0.00000000E+00
  0.00000000E+00  0.00000000E+00  0.00000000E+00
  0.00000000E+00  0.00000000E+00  0.00000000E+00
  0.00000000E+00  0.00000000E+00  0.00000000E+00
  0.00000000E+00  0.00000000E+00  0.00000000E+00
  0.00000000E+00  0.00000000E+00  0.00000000E+00
  0.00000000E+00  0.00000000E+00  0.00000000E+00
  0.00000000E+00  0.00000000E+00  0.00000000E+00
  0.00000000E+00  0.00000000E+00  0.00000000E+00
  0.00000000E+00  0.00000000E+00  0.00000000E+00
  0.00000000E+00  0.00000000E+00  0.00000000E+00
  0.00000000E+00  0.00000000E+00  0.00000000E+00
  0.00000000E+00  0.00000000E+00  0.00000000E+00
  0.00000000E+00  0.00000000E+00  0.00000000E+00
  0.00000000E+00  0.00000000E+00  0.00000000E+00
  0.00000000E+00  0.00000000E+00  0.00000000E+00
  0.00000000E+00  0.00000000E+00  0.00000000E+00
  0.00000000E+00  0.00000000E+00  0.00000000E+00
  0.00000000E+00  0.00000000E+00  0.00000000E+00
  0.00000000E+00  0.00000000E+00  0.00000000E+00
  0.00000000E+00  0.00000000E+00  0.00000000E+00
  0.00000000E+00  0.00000000E+00  0.00000000E+00
  0.00000000E+00  0.00000000E+00  0.00000000E+00
  0.00000000E+00  0.00000000E+00  0.00000000E+00
  0.00000000E+00  0.00000000E+00  0.00000000E+00
  0.00000000E+00  0.00000000E+00  0.00000000E+00
  0.00000000E+00  0.00000000E+00  0.00000000E+00
  0.00000000E+00  0.00000000E+00  0.00000000E+00
  0.00000000E+00  0.00000000E+00  0.00000000E+00
  0.00000000E+00  0.00000000E+00  0.00000000E+00
  0.00000000E+00  0.00000000E+00  0.00000000E+00
  0.00000000E+00  0.00000000E+00  0.00000000E+00
  0.00000000E+00  0.00000000E+00  0.00000000E+00
  0.00000000E+00  0.00000000E+00  0.00000000E+00
  0.00000000E+00  0.00000000E+00  0.00000000E+00
  0.00000000E+00  0.00000000E+00  0.00000000E+00
  0.00000000E+00  0.00000000E+00  0.00000000E+00
  0.00000000E+00  0.00000000E+00  0.00000000E+00
  0.00000000E+00  0.00000000E+00  0.00000000E+00
  0.00000000E+00  0.00000000E+00  0.00000000E+00
  0.00000000E+00  0.00000000E+00  0.00000000E+00
  0.00000000E+00  0.00000000E+00  0.00000000E+00
  0.00000000E+00  0.00000000E+00  0.00000000E+00
  0.00000000E+00  0.00000000E+00  0.00000000E+00
  0.00000000E+00  0.00000000E+00  0.00000000E+00
  0.00000000E+00  0.00000000E+00  0.00000000E+00
  0.00000000E+00  0.00000000E+00  0.00000000E+00
  0.00000000E+00  0.00000000E+00  0.00000000E+00
  0.00000000E+00  0.00000000E+00  0.00000000E+00
  0.00000000E+00  0.00000000E+00  0.00000000E+00
  0.00000000E+00  0.00000000E+00  0.00000000E+00
  0.00000000E+00  0.00000000E+00  0.00000000E+00
  0.00000000E+00  0.00000000E+00  0.00000000E+00
  0.00000000E+00  0.00000000E+00  0.00000000E+00
  0.00000000E+00  0.00000000E+00  0.00000000E+00
  0.00000000E+00  0.00000000E+00  0.00000000E+00
  0.00000000E+00  0.00000000E+00  0.00000000E+00
  0.00000000E+00  0.00000000E+00  0.00000000E+00
  0.00000000E+00  0.00000000E+00  0.00000000E+00
  0.00000000E+00  0.00000000E+00  0.00000000E+00
  0.00000000E+00  0.00000000E+00  0.00000000E+00
  0.00000000E+00  0.00000000E+00  0.00000000E+00
  0.00000000E+00  0.00000000E+00  0.00000000E+00
  0.00000000E+00  0.00000000E+00  0.00000000E+00
  0.00000000E+00  0.00000000E+00  0.00000000E+00
  0.00000000E+00  0.00000000E+00  0.00000000E+00
  0.00000000E+00  0.00000000E+00  0.00000000E+00
  0.00000000E+00  0.00000000E+00  0.00000000E+00
  0.00000000E+00  0.00000000E+00  0.00000000E+00
  0.00000000E+00  0.00000000E+00  0.00000000E+00
  0.00000000E+00  0.00000000E+00  0.00000000E+00
  0.00000000E+00  0.00000000E+00  0.00000000E+00
  0.00000000E+00  0.00000000E+00  0.00000000E+00
  0.00000000E+00  0.00000000E+00  0.00000000E+00
  0.00000000E+00  0.00000000E+00  0.00000000E+00
  0.00000000E+00  0.00000000E+00  0.00000000E+00
  0.00000000E+00  0.00000000E+00  0.00000000E+00
  0.00000000E+00  0.00000000E+00  0.00000000E+00
  0.00000000E+00  0.00000000E+00  0.00000000E+00
  0.00000000E+00  0.00000000E+00  0.00000000E+00
  0.00000000E+00  0.00000000E+00  0.00000000E+00
  0.00000000E+00  0.00000000E+00  0.00000000E+00
  0.00000000E+00  0.00000000E+00  0.00000000E+00
  0.00000000E+00  0.00000000E+00  0.00000000E+00
  0.00000000E+00  0.00000000E+00  0.00000000E+00
  0.00000000E+00  0.00000000E+00  0.00000000E+00
  0.00000000E+00  0.00000000E+00  0.00000000E+00
  0.00000000E+00  0.00000000E+00  0.00000000E+00
  0.00000000E+00  0.00000000E+00  0.00000000E+00
  0.00000000E+00  0.00000000E+00  0.00000000E+00
  0.00000000E+00  0.00000000E+00  0.00000000E+00
  0.00000000E+00  0.00000000E+00  0.00000000E+00
  0.00000000E+00  0.00000000E+00  0.00000000E+00
  0.00000000E+00  0.00000000E+00  0.00000000E+00
  0.00000000E+00  0.00000000E+00  0.00000000E+00
  0.00000000E+00  0.00000000E+00  0.00000000E+00
  0.00000000E+00  0.00000000E+00  0.00000000E+00
  0.00000000E+00  0.00000000E+00  0.00000000E+00
  0.00000000E+00  0.00000000E+00  0.00000000E+00
  0.00000000E+00  0.00000000E+00  0.00000000E+00
  0.00000000E+00  0.00000000E+00  0.00000000E+00
  0.00000000E+00  0.00000000E+00  0.00000000E+00
