Si+C
    1.000000000
   13.303179741    0.000000000    0.000000000
   -6.651589394   14.873406410    0.000000000
    0.000000000    0.000000000    8.390059471
Si  C  
36     84
Direct
    0.997150958    0.980056584    0.000000000
    0.963817537    0.746723175    0.144743830
    0.930484116    0.513389826    0.289487660
    0.330484211    0.313389868    0.000000000
    0.297150791    0.080056474    0.144743830
    0.263817370    0.846723080    0.289487660
    0.663817465    0.646723151    0.000000000
    0.630484045    0.413389713    0.144743830
    0.597150624    0.180056334    0.289487660
    0.313817531    0.946723342    0.072371759
    0.280484110    0.713389993    0.217115581
    0.247150689    0.480056584    0.361859351
    0.647150815    0.280056566    0.072371759
    0.613817394    0.046723194    0.217115551
    0.580483973    0.813389778    0.361859381
    0.980484426    0.613389850    0.072371788
    0.947151005    0.380056471    0.217115551
    0.913817585    0.146723092    0.361859351
    0.163817570    0.646723092    0.000000002
    0.130484164    0.413389713    0.144743830
    0.097150750    0.180056319    0.289487660
    0.497150898    0.980056643    0.000000005
    0.463817418    0.746723175    0.144743770
    0.430484056    0.513389826    0.289487600
    0.830484152    0.313389868    0.000000005
    0.797150731    0.080056526    0.144743770
    0.763817310    0.846723080    0.289487600
    0.147150904    0.280056566    0.072371773
    0.113817483    0.046723165    0.217115581
    0.080484070    0.813389778    0.361859381
    0.480484217    0.613389909    0.072371773
    0.447150826    0.380056530    0.217115551
    0.413817406    0.146723166    0.361859381
    0.813817501    0.946723282    0.072371759
    0.780484140    0.713389874    0.217115551
    0.747150719    0.480056465    0.361859381
    0.588438034    0.951577306    0.752224863
    0.388437897    0.551577389    0.562104404
    0.488437951    0.251577348    0.657164693
    0.874152362    0.094434440    0.752224863
    0.674152136    0.694434524    0.562104404
    0.774152279    0.394434482    0.657164693
    0.159866571    0.237291515    0.752224863
    0.959866464    0.837291598    0.562104404
    0.059866548    0.537291586    0.657164693
    0.445580900    0.380148768    0.752224863
    0.245580763    0.980148852    0.562104404
    0.345580816    0.680148840    0.657164693
    0.731295168    0.523005903    0.752224863
    0.531295002    0.123006016    0.562104404
    0.631295085    0.823005974    0.657164693
    0.017009497    0.665863037    0.752224863
    0.817009270    0.265863150    0.562104404
    0.917009354    0.965863109    0.657164693
    0.302723646    0.808720112    0.752224863
    0.102723479    0.408720285    0.562104404
    0.202723622    0.108720236    0.657164693
    0.567009509    0.265863121    0.799754858
    0.367009342    0.865863264    0.609634459
    0.467009425    0.565863252    0.704694629
    0.709866583    0.837291658    0.799754858
    0.509866416    0.437291741    0.609634459
    0.609866500    0.137291700    0.704694629
    0.995580852    0.980148971    0.799754858
    0.795580626    0.580149055    0.609634459
    0.895580709    0.280148983    0.704694688
    0.281295180    0.123006068    0.799754798
    0.081295013    0.723006129    0.609634459
    0.181295037    0.423006088    0.704694688
    0.852723777    0.408720195    0.799754858
    0.652723610    0.008720398    0.609634459
    0.752723694    0.708720207    0.704694629
    0.138437986    0.551577508    0.799754858
    0.938437819    0.151577592    0.609634459
    0.038437843    0.851577520    0.704694629
    0.424152136    0.694434524    0.799754858
    0.224151969    0.294434667    0.609634459
    0.324152112    0.994434595    0.704694629
    0.659866631    0.237291485    0.752224863
    0.459866405    0.837291658    0.562104404
    0.559866548    0.537291586    0.657164693
    0.517009437    0.665863037    0.752224863
    0.317009330    0.265863121    0.562104404
    0.417009383    0.965863049    0.657164693
    0.802723706    0.808720112    0.752224863
    0.602723539    0.408720255    0.562104404
    0.702723622    0.108720206    0.657164693
    0.088437915    0.951577246    0.752224863
    0.888437808    0.551577330    0.562104404
    0.988438010    0.251577318    0.657164693
    0.374152303    0.094434373    0.752224863
    0.174152136    0.694434524    0.562104404
    0.274152160    0.394434422    0.657164693
    0.945580840    0.380148768    0.752224863
    0.745580673    0.980148852    0.562104404
    0.845580816    0.680148780    0.657164693
    0.231295109    0.523005843    0.752224863
    0.031294942    0.123005979    0.562104404
    0.131295085    0.823005915    0.657164693
    0.495580852    0.980148971    0.799754858
    0.295580685    0.580149055    0.609634459
    0.395580769    0.280148983    0.704694688
    0.781295180    0.123006053    0.799754858
    0.581295013    0.723006129    0.609634459
    0.681295097    0.423006088    0.704694688
    0.067009449    0.265863180    0.799754858
    0.867009282    0.865863264    0.609634459
    0.967009366    0.565863132    0.704694688
    0.638438046    0.551577568    0.799754858
    0.438437879    0.151577652    0.609634459
    0.538437903    0.851577580    0.704694629
    0.924152315    0.694434643    0.799754798
    0.724152148    0.294434726    0.609634459
    0.824152172    0.994434595    0.704694688
    0.209866405    0.837291598    0.799754798
    0.009866238    0.437291682    0.609634459
    0.109866381    0.137291670    0.704694629
    0.352723718    0.408720195    0.799754918
    0.152723432    0.008720398    0.609634459
    0.252723575    0.708720207    0.704694688
