Ge+Si
    1.000000000
    8.001338005    0.000000000    0.000000000
    0.000000000   16.002676010    0.000000000
    0.000000000    0.000000000   20.872991562
Ge  Si 
48     72
Direct
    0.991458297    0.995729148    0.000000000
    0.741458297    0.870729148    0.135529175
    0.491458297    0.745729148    0.271058381
    0.877251148    0.452659100    0.899391532
    0.741458297    0.370729119    0.135529175
    0.491458297    0.245729119    0.271058381
    0.127251267    0.869325876    0.899391532
    0.241458267    0.120729133    0.135529175
    0.991458297    0.995729148    0.271058381
    0.491458237    0.745729089    0.000000000
    0.241458282    0.620729089    0.135529175
    0.991458237    0.495729089    0.271058381
    0.627251387    0.869325876    0.899391532
    0.991458297    0.870729148    0.203293800
    0.377251387    0.369325995    0.439431459
    0.241458237    0.495729089    0.067764588
    0.991458237    0.370729089    0.203293800
    0.741458237    0.245729089    0.338823020
    0.741458297    0.245729148    0.067764588
    0.491458297    0.120729148    0.203293800
    0.127251387    0.952659428    0.439431459
    0.741458297    0.745729089    0.067764588
    0.491458267    0.620729089    0.203293800
    0.241458267    0.495729119    0.338823020
    0.877251148    0.785992563    0.899391532
    0.127251267    0.202659160    0.899391532
    0.491458297    0.995729148    0.271058381
    0.491458267    0.995729148    0.000000000
    0.241458267    0.870729148    0.135529175
    0.991458297    0.745729148    0.271058381
    0.991458237    0.745729148    0.000000000
    0.741458297    0.620729148    0.135529175
    0.877251387    0.369325995    0.439431459
    0.491458267    0.495729119    0.000000000
    0.377251387    0.785992563    0.899391532
    0.991458297    0.245729148    0.271058381
    0.241458282    0.245729119    0.067764588
    0.991458297    0.120729133    0.203293800
    0.741458297    0.995729148    0.338823020
    0.741458237    0.995729148    0.067764588
    0.627251506    0.285992652    0.439431459
    0.127251387    0.285992652    0.439431459
    0.241458282    0.745729089    0.067764588
    0.377251387    0.702659428    0.439431459
    0.741458297    0.495729089    0.338823020
    0.741458237    0.495729089    0.067764588
    0.491458267    0.370729119    0.203293800
    0.241458252    0.245729089    0.338823020
    0.877251387    0.035992622    0.439431459
    0.627251387    0.869325936    0.531423509
    0.377251387    0.702659249    0.623415530
    0.127251387    0.535992622    0.715407610
    0.877251387    0.369325846    0.807399571
    0.627251387    0.202659160    0.899391532
    0.491458297    0.495729148    0.271058381
    0.627251387    0.202659309    0.531423509
    0.377251387    0.035992622    0.623415530
    0.127251387    0.869325995    0.715407610
    0.877251387    0.702659249    0.807399571
    0.627251387    0.535992563    0.899391532
    0.877251387    0.702659428    0.439431459
    0.627251387    0.535992682    0.531423509
    0.377251387    0.369325966    0.623415530
    0.127251387    0.202659339    0.715407610
    0.877251387    0.035992622    0.807399571
    0.241458282    0.995729148    0.067764588
    0.377251387    0.035992622    0.439431459
    0.127251387    0.869325936    0.531423509
    0.877251387    0.702659249    0.623415530
    0.627251387    0.535992622    0.715407550
    0.377251387    0.369325846    0.807399571
    0.741458297    0.120729133    0.135529175
    0.741458297    0.745729148    0.338823020
    0.127251387    0.202659309    0.531423509
    0.877251387    0.035992622    0.623415530
    0.627251387    0.869325995    0.715407550
    0.377251387    0.702659249    0.807399571
    0.127251267    0.535992563    0.899391532
    0.991458297    0.620729089    0.203293800
    0.127251387    0.535992682    0.531423509
    0.877251387    0.369325966    0.623415530
    0.627251387    0.202659339    0.715407550
    0.377251387    0.035992622    0.807399571
    0.491458237    0.245729119    0.000000000
    0.491458267    0.870729148    0.203293800
    0.377251387    0.119325951    0.531423509
    0.127251387    0.952659249    0.623415530
    0.877251387    0.785992622    0.715407610
    0.627251387    0.619325936    0.807399571
    0.377251387    0.452659100    0.899391532
    0.627251506    0.619326115    0.439431459
    0.377251387    0.452659339    0.531423509
    0.127251387    0.285992652    0.623415530
    0.877251387    0.119326003    0.715407610
    0.627251387    0.952659309    0.807399571
    0.241458312    0.370729148    0.135529175
    0.627251506    0.952659428    0.439431459
    0.377251387    0.785992682    0.531423509
    0.127251387    0.619325995    0.623415530
    0.877251387    0.452659309    0.715407610
    0.627251387    0.285992593    0.807399571
    0.377251387    0.119325846    0.899391532
    0.241458252    0.745729089    0.338823020
    0.877251387    0.119325951    0.531423509
    0.627251387    0.952659249    0.623415530
    0.377251387    0.785992622    0.715407550
    0.127251387    0.619325936    0.807399571
    0.991458237    0.495729089    0.000000000
    0.127251387    0.619326115    0.439431459
    0.877251387    0.452659339    0.531423509
    0.627251387    0.285992652    0.623415530
    0.377251387    0.119326003    0.715407550
    0.127251387    0.952659309    0.807399571
    0.991458297    0.245729133    0.000000000
    0.241458282    0.995729148    0.338823020
    0.877251387    0.785992682    0.531423509
    0.627251387    0.619325995    0.623415530
    0.377251387    0.452659309    0.715407550
    0.127251387    0.285992593    0.807399571
    0.877251148    0.119325846    0.899391532
