Sn+Ge
    1.000000000
   12.978400230    0.000000000    0.000000000
  -12.978400230   14.510293007    0.000000000
    0.000000000    0.000000000    9.389105797
Sn  Ge 
24     24
Direct
    0.979564309    0.030653533    0.000000009
    0.779564261    0.330653578    0.154543951
    0.579564154    0.630653620    0.309087902
    0.479564250    0.030653533    0.000000009
    0.279564202    0.330653578    0.154543951
    0.079564132    0.630653620    0.309087902
    0.254564315    0.680653512    0.077271819
    0.054564159    0.980653465    0.231815785
    0.854564130    0.280653596    0.386359692
    0.754564404    0.680653512    0.077271819
    0.554564238    0.980653465    0.231815785
    0.354564160    0.280653596    0.386359692
    0.229564279    0.530653477    0.000000000
    0.029564191    0.830653489    0.154543951
    0.829564035    0.130653620    0.309087902
    0.729564190    0.530653477    0.000000000
    0.529564142    0.830653489    0.154543951
    0.329564035    0.130653620    0.309087902
    0.004564330    0.180653512    0.077271827
    0.804564178    0.480653584    0.231815785
    0.604564250    0.780653656    0.386359692
    0.504564285    0.180653512    0.077271827
    0.304564178    0.480653584    0.231815785
    0.104564168    0.780653656    0.386359692
    0.042774677    0.831432581    0.555657268
    0.926108003    0.414765835    0.610666275
    0.809441209    0.998099029    0.665675282
    0.692774415    0.581432343    0.720684350
    0.576107740    0.164765596    0.775693297
    0.459440857    0.748098612    0.830702364
    0.542774677    0.081432462    0.555657268
    0.426107943    0.664765716    0.610666275
    0.309441209    0.248099089    0.665675282
    0.192774385    0.831432343    0.720684230
    0.076107636    0.414765596    0.775693238
    0.959440947    0.998098671    0.830702305
    0.542774677    0.331432462    0.555657327
    0.426107913    0.914765835    0.610666335
    0.309441149    0.498099089    0.665675282
    0.192774415    0.081432223    0.720684290
    0.076107696    0.664765596    0.775693297
    0.959440827    0.248098612    0.830702364
    0.042774677    0.581432581    0.555657327
    0.926107883    0.164765716    0.610666335
    0.809441209    0.748098969    0.665675282
    0.692774415    0.331432223    0.720684290
    0.576107621    0.914765596    0.775693357
    0.459440857    0.498098612    0.830702364
