Si+Sn                                   
   1.00000000000000     
    16.2930011750000006    0.0000000000000000    0.0000000000000000
   -10.8620004649999995   12.1440858840000008    0.0000000000000000
     0.0000000000000000    0.0000000000000000    6.6635942459999997
   Si   Sn
    36    24
Direct
  0.9743584989999974  0.9829056259999973  0.0000000020000002
  0.6743584279999979  0.7829055790000012  0.1822453139999993
  0.3743584159999997  0.5829055310000015  0.3644906279999987
  0.3076917830000028  0.9829056259999973  0.0000000020000002
  0.0076917259999973  0.7829055790000012  0.1822453139999993
  0.7076916689999990  0.5829055310000015  0.3644906279999987
  0.6410250659999974  0.9829056259999973  0.0000000020000002
  0.3410250250000004  0.7829055790000012  0.1822453139999993
  0.0410249870000001  0.5829055310000015  0.3644906279999987
  0.1576919700000019  0.6329056020000010  0.0911224780000026
  0.8576919440000026  0.4329055250000025  0.2733677920000019
  0.5576919319999973  0.2329055069999981  0.4556131359999966
  0.4910252090000000  0.6329056020000010  0.0911224780000026
  0.1910251529999982  0.4329055250000025  0.2733677920000019
  0.8910251860000002  0.2329055069999981  0.4556131359999966
  0.8243584630000029  0.6329056020000010  0.0911224780000026
  0.5243583920000034  0.4329055250000025  0.2733677920000019
  0.2243584989999974  0.2329055069999981  0.4556131359999966
  0.1410251559999978  0.4829055960000019  0.0000000000000000
  0.8410251139999971  0.2829054890000009  0.1822453139999993
  0.5410251019999990  0.0829054339999971  0.3644906279999987
  0.4743584389999995  0.4829055960000019  0.0000000000000000
  0.1743583829999977  0.2829054890000009  0.1822453139999993
  0.8743583560000019  0.0829054339999971  0.3644906279999987
  0.8076916930000024  0.4829055960000019  0.0000000000000000
  0.5076916809999972  0.2829054890000009  0.1822453139999993
  0.2076916250000025  0.0829054339999971  0.3644906279999987
  0.9910252090000000  0.1329056619999989  0.0911224930000003
  0.6910251380000005  0.9329056139999992  0.2733677920000019
  0.3910251860000002  0.7329055670000031  0.4556131359999966
  0.3243584630000029  0.1329056619999989  0.0911224930000003
  0.0243584139999982  0.9329056139999992  0.2733677920000019
  0.7243584389999995  0.7329055670000031  0.4556131359999966
  0.6576916579999974  0.1329056619999989  0.0911224930000003
  0.3576916159999968  0.9329056139999992  0.2733677920000019
  0.0576916520000026  0.7329055670000031  0.4556131359999966
  0.0128207639999971  0.9871792200000016  0.4556131359999966
  0.1628208610000001  0.8371791840000000  0.6733679179999967
  0.3128209710000007  0.6871791479999985  0.8911227580000016
  0.5128207799999984  0.4871792499999970  0.4556131359999966
  0.6628208160000000  0.3371791840000000  0.6733679179999967
  0.8128209710000007  0.1871791630000033  0.8911227580000016
  0.9628206490000011  0.2871792319999997  0.5644903780000021
  0.1128207450000005  0.1371792409999983  0.7822450999999973
  0.2628208400000034  0.9871791599999966  0.9999999400000021
  0.4628206189999986  0.7871792910000011  0.5644903780000021
  0.6128207450000005  0.6371792549999995  0.7822450999999973
  0.7628207799999984  0.4871792200000016  0.9999999400000021
  0.5128207799999984  0.9871792200000016  0.4556131359999966
  0.6628208759999978  0.8371791840000000  0.6733678579999989
  0.8128209710000007  0.6871791479999985  0.8911226390000024
  0.0128207770000017  0.4871792200000016  0.4556131359999966
  0.1628208610000001  0.3371792140000025  0.6733679179999967
  0.3128209710000007  0.1871791330000008  0.8911227580000016
  0.4628206490000011  0.2871792319999997  0.5644903780000021
  0.6128207450000005  0.1371791959999982  0.7822450999999973
  0.7628208400000034  0.9871791599999966  0.9999998210000030
  0.9628205899999998  0.7871791720000019  0.5644903780000021
  0.1128207450000005  0.6371791360000003  0.7822450999999973
  0.2628207209999971  0.4871791010000024  0.9999998210000030
 
  0.00000000E+00  0.00000000E+00  0.00000000E+00
  0.00000000E+00  0.00000000E+00  0.00000000E+00
  0.00000000E+00  0.00000000E+00  0.00000000E+00
  0.00000000E+00  0.00000000E+00  0.00000000E+00
  0.00000000E+00  0.00000000E+00  0.00000000E+00
  0.00000000E+00  0.00000000E+00  0.00000000E+00
  0.00000000E+00  0.00000000E+00  0.00000000E+00
  0.00000000E+00  0.00000000E+00  0.00000000E+00
  0.00000000E+00  0.00000000E+00  0.00000000E+00
  0.00000000E+00  0.00000000E+00  0.00000000E+00
  0.00000000E+00  0.00000000E+00  0.00000000E+00
  0.00000000E+00  0.00000000E+00  0.00000000E+00
  0.00000000E+00  0.00000000E+00  0.00000000E+00
  0.00000000E+00  0.00000000E+00  0.00000000E+00
  0.00000000E+00  0.00000000E+00  0.00000000E+00
  0.00000000E+00  0.00000000E+00  0.00000000E+00
  0.00000000E+00  0.00000000E+00  0.00000000E+00
  0.00000000E+00  0.00000000E+00  0.00000000E+00
  0.00000000E+00  0.00000000E+00  0.00000000E+00
  0.00000000E+00  0.00000000E+00  0.00000000E+00
  0.00000000E+00  0.00000000E+00  0.00000000E+00
  0.00000000E+00  0.00000000E+00  0.00000000E+00
  0.00000000E+00  0.00000000E+00  0.00000000E+00
  0.00000000E+00  0.00000000E+00  0.00000000E+00
  0.00000000E+00  0.00000000E+00  0.00000000E+00
  0.00000000E+00  0.00000000E+00  0.00000000E+00
  0.00000000E+00  0.00000000E+00  0.00000000E+00
  0.00000000E+00  0.00000000E+00  0.00000000E+00
  0.00000000E+00  0.00000000E+00  0.00000000E+00
  0.00000000E+00  0.00000000E+00  0.00000000E+00
  0.00000000E+00  0.00000000E+00  0.00000000E+00
  0.00000000E+00  0.00000000E+00  0.00000000E+00
  0.00000000E+00  0.00000000E+00  0.00000000E+00
  0.00000000E+00  0.00000000E+00  0.00000000E+00
  0.00000000E+00  0.00000000E+00  0.00000000E+00
  0.00000000E+00  0.00000000E+00  0.00000000E+00
  0.00000000E+00  0.00000000E+00  0.00000000E+00
  0.00000000E+00  0.00000000E+00  0.00000000E+00
  0.00000000E+00  0.00000000E+00  0.00000000E+00
  0.00000000E+00  0.00000000E+00  0.00000000E+00
  0.00000000E+00  0.00000000E+00  0.00000000E+00
  0.00000000E+00  0.00000000E+00  0.00000000E+00
  0.00000000E+00  0.00000000E+00  0.00000000E+00
  0.00000000E+00  0.00000000E+00  0.00000000E+00
  0.00000000E+00  0.00000000E+00  0.00000000E+00
  0.00000000E+00  0.00000000E+00  0.00000000E+00
  0.00000000E+00  0.00000000E+00  0.00000000E+00
  0.00000000E+00  0.00000000E+00  0.00000000E+00
  0.00000000E+00  0.00000000E+00  0.00000000E+00
  0.00000000E+00  0.00000000E+00  0.00000000E+00
  0.00000000E+00  0.00000000E+00  0.00000000E+00
  0.00000000E+00  0.00000000E+00  0.00000000E+00
  0.00000000E+00  0.00000000E+00  0.00000000E+00
  0.00000000E+00  0.00000000E+00  0.00000000E+00
  0.00000000E+00  0.00000000E+00  0.00000000E+00
  0.00000000E+00  0.00000000E+00  0.00000000E+00
  0.00000000E+00  0.00000000E+00  0.00000000E+00
  0.00000000E+00  0.00000000E+00  0.00000000E+00
  0.00000000E+00  0.00000000E+00  0.00000000E+00
  0.00000000E+00  0.00000000E+00  0.00000000E+00
