Si+Sn
    1.000000000
   16.293001175    0.000000000    0.000000000
  -10.862000465   12.144085884    0.000000000
    0.000000000    0.000000000    6.663594246
Si  Sn 
36     24
Direct
    0.974358499    0.982905626    0.000000002
    0.674358428    0.782905579    0.182245314
    0.374358416    0.582905531    0.364490628
    0.307691783    0.982905626    0.000000002
    0.007691726    0.782905579    0.182245314
    0.707691669    0.582905531    0.364490628
    0.641025066    0.982905626    0.000000002
    0.341025025    0.782905579    0.182245314
    0.041024987    0.582905531    0.364490628
    0.157691970    0.632905602    0.091122478
    0.857691944    0.432905525    0.273367792
    0.557691932    0.232905507    0.455613136
    0.491025209    0.632905602    0.091122478
    0.191025153    0.432905525    0.273367792
    0.891025186    0.232905507    0.455613136
    0.824358463    0.632905602    0.091122478
    0.524358392    0.432905525    0.273367792
    0.224358499    0.232905507    0.455613136
    0.141025156    0.482905596    0.000000000
    0.841025114    0.282905489    0.182245314
    0.541025102    0.082905434    0.364490628
    0.474358439    0.482905596    0.000000000
    0.174358383    0.282905489    0.182245314
    0.874358356    0.082905434    0.364490628
    0.807691693    0.482905596    0.000000000
    0.507691681    0.282905489    0.182245314
    0.207691625    0.082905434    0.364490628
    0.991025209    0.132905662    0.091122493
    0.691025138    0.932905614    0.273367792
    0.391025186    0.732905567    0.455613136
    0.324358463    0.132905662    0.091122493
    0.024358414    0.932905614    0.273367792
    0.724358439    0.732905567    0.455613136
    0.657691658    0.132905662    0.091122493
    0.357691616    0.932905614    0.273367792
    0.057691652    0.732905567    0.455613136
    0.012820764    0.987179220    0.455613136
    0.162820861    0.837179184    0.673367918
    0.312820971    0.687179148    0.891122758
    0.512820780    0.487179250    0.455613136
    0.662820816    0.337179184    0.673367918
    0.812820971    0.187179163    0.891122758
    0.962820649    0.287179232    0.564490378
    0.112820745    0.137179241    0.782245100
    0.262820840    0.987179160    0.999999940
    0.462820619    0.787179291    0.564490378
    0.612820745    0.637179255    0.782245100
    0.762820780    0.487179220    0.999999940
    0.512820780    0.987179220    0.455613136
    0.662820876    0.837179184    0.673367858
    0.812820971    0.687179148    0.891122639
    0.012820777    0.487179220    0.455613136
    0.162820861    0.337179214    0.673367918
    0.312820971    0.187179133    0.891122758
    0.462820649    0.287179232    0.564490378
    0.612820745    0.137179196    0.782245100
    0.762820840    0.987179160    0.999999821
    0.962820590    0.787179172    0.564490378
    0.112820745    0.637179136    0.782245100
    0.262820721    0.487179101    0.999999821
