Si+C
    1.000000000
   13.303179741    0.000000000    0.000000000
    6.651589394   11.520891190    0.000000000
    0.000000000    0.000000000   21.679418564
Si  C  
72     308
Direct
    0.000000000    0.318506181    0.289268762
    0.000000000    0.985172927    0.000000014
    0.000000000    0.651839554    0.144634396
    0.333333343    0.651839614    0.289268732
    0.333333343    0.318506300    0.000000009
    0.333333343    0.985172868    0.144634381
    0.666666687    0.985172927    0.289268732
    0.666666687    0.651839614    0.000000006
    0.666666687    0.318506241    0.144634381
    0.333333343    0.318506062    0.325427443
    0.333333343    0.985172868    0.036158618
    0.333333343    0.651839495    0.180793002
    1.000000000    0.985172808    0.325427443
    1.000000000    0.651839614    0.036158614
    1.000000000    0.318506271    0.180793002
    0.666666746    0.651839375    0.325427443
    0.666666746    0.318506211    0.036158625
    0.666666746    0.985172868    0.180793002
    0.500000000    0.318506241    0.289268732
    0.500000000    0.985172927    0.000000010
    0.500000000    0.651839554    0.144634381
    0.166666672    0.985172927    0.289268732
    0.166666672    0.651839674    0.000000001
    0.166666672    0.318506241    0.144634381
    0.833333373    0.651839614    0.289268732
    0.833333373    0.318506300    0.000000001
    0.833333373    0.985172927    0.144634381
    0.166666657    0.651839554    0.325427353
    0.166666657    0.318506300    0.036158573
    0.166666657    0.985172868    0.180792958
    0.833333433    0.318506181    0.325427383
    0.833333433    0.985172927    0.036158588
    0.833333433    0.651839495    0.180792972
    0.500000060    0.985172868    0.325427383
    0.500000060    0.651839614    0.036158592
    0.500000060    0.318506211    0.180793002
    0.166666672    0.485172927    0.289268732
    0.166666672    0.151839614    0.000000010
    0.166666672    0.818506241    0.144634381
    0.500000000    0.818506241    0.289268762
    0.500000000    0.485172987    0.000000016
    0.500000000    0.151839584    0.144634396
    0.833333373    0.151839629    0.289268732
    0.833333373    0.818506360    0.000000000
    0.833333373    0.485173017    0.144634351
    0.500000000    0.485172868    0.325427383
    0.500000000    0.151839614    0.036158588
    0.500000000    0.818506241    0.180792972
    0.166666672    0.151839569    0.325427353
    0.166666672    0.818506360    0.036158565
    0.166666672    0.485172927    0.180792958
    0.833333373    0.818506181    0.325427353
    0.833333373    0.485172927    0.036158565
    0.833333373    0.151839525    0.180792958
    0.000000000    0.818506241    0.289268732
    0.000000000    0.485172957    0.000000009
    0.000000000    0.151839554    0.144634381
    0.666666687    0.485172868    0.289268732
    0.666666687    0.151839599    0.000000009
    0.666666687    0.818506181    0.144634381
    0.333333313    0.151839495    0.289268732
    0.333333313    0.818506241    0.000000002
    0.333333313    0.485172868    0.144634351
    0.000000000    0.485172808    0.325427443
    0.000000000    0.151839659    0.036158610
    0.000000000    0.818506300    0.180793002
    0.333333343    0.818506122    0.325427443
    0.333333343    0.485172957    0.036158614
    0.333333343    0.151839599    0.180793002
    0.666666687    0.151839525    0.325427413
    0.666666687    0.818506300    0.036158610
    0.666666687    0.485172957    0.180792972
    0.401211947    0.446666837    0.900184691
    0.067879081    0.113333702    0.425242662
    0.734545648    0.780000269    0.520231068
    0.401212245    0.446666896    0.615219474
    0.067878723    0.113333344    0.710207939
    0.734545290    0.779999971    0.805196404
    0.686926186    0.589523911    0.900184751
    0.353593439    0.256190777    0.425242662
    0.020259976    0.922857404    0.520231068
    0.686926544    0.589524031    0.615219533
    0.353592962    0.256190479    0.710207939
    0.020259619    0.922857165    0.805196345
    0.544069111    0.018095255    0.900184751
    0.210736275    0.684762180    0.425242662
    0.877402842    0.351428807    0.520231068
    0.544069409    0.018095493    0.615219474
    0.210735768    0.684761882    0.710207939
    0.877402484    0.351428568    0.805196404
    0.972640574    0.732380986    0.900184751
    0.639307678    0.399047941    0.425242662
    0.305974275    0.065714598    0.520231068
    0.972640812    0.732381165    0.615219533
    0.639307201    0.399047613    0.710207939
    0.305973917    0.065714240    0.805196464
    0.829783261    0.160952389    0.900184751
    0.496450573    0.827619374    0.425242633
    0.163117111    0.494286001    0.520231009
    0.829783618    0.160952568    0.615219474
    0.496450275    0.827619195    0.710207880
    0.163116723    0.494285643    0.805196404
    0.258354753    0.875238061    0.900184751
    0.925021887    0.541905046    0.425242633
    0.591688514    0.208571687    0.520231009
    0.258355081    0.875238299    0.615219474
    0.925021708    0.541904926    0.710207880
    0.591688097    0.208571374    0.805196404
    0.115497611    0.303809524    0.900184751
    0.782164752    0.970476449    0.425242662
    0.448831379    0.637143075    0.520231068
    0.115497947    0.303809702    0.615219474
    0.782164335    0.970476151    0.710207939
    0.448830992    0.637142837    0.805196345
    0.163117170    0.494285971    0.448989749
    0.829783738    0.160952568    0.543978214
    0.496450335    0.827619195    0.638966620
    0.163116783    0.494285762    0.733955026
    0.829783261    0.160952270    0.828943491
    0.591688573    0.208571702    0.448989749
    0.258355170    0.875238299    0.543978214
    0.925021708    0.541904986    0.638966560
    0.591688216    0.208571494    0.733955026
    0.258354694    0.875237942    0.828943491
    0.448831439    0.637143075    0.448989749
    0.115498006    0.303809702    0.543978214
    0.782164514    0.970476329    0.638966560
    0.448831052    0.637142897    0.733955026
    0.115497552    0.303809464    0.828943431
    0.877402782    0.351428807    0.448989749
    0.544069409    0.018095493    0.543978214
    0.210735977    0.684762061    0.638966620
    0.877402425    0.351428568    0.733955026
    0.544068933    0.018095136    0.828943431
    0.305974305    0.065714598    0.448989749
    0.972640812    0.732381165    0.543978214
    0.639307439    0.399047792    0.638966620
    0.305973917    0.065714240    0.733955026
    0.972640455    0.732380867    0.828943431
    0.734545767    0.780000269    0.448989749
    0.401212364    0.446666867    0.543978214
    0.067878962    0.113333464    0.638966620
    0.734545410    0.779999971    0.733955026
    0.401211888    0.446666539    0.828943491
    0.020260096    0.922857404    0.448989719
    0.686926544    0.589524031    0.543978155
    0.353593200    0.256190628    0.638966560
    0.020259738    0.922857225    0.733955026
    0.686926186    0.589523733    0.828943431
    0.615497649    0.803809524    0.900184691
    0.282164812    0.470476508    0.425242662
    0.948831379    0.137143105    0.520231068
    0.615497947    0.803809702    0.615219474
    0.282164365    0.470476151    0.710207939
    0.948831022    0.137142897    0.805196345
    0.044069171    0.518095255    0.900184691
    0.710736275    0.184762225    0.425242633
    0.377402812    0.851428866    0.520231009
    0.044069409    0.518095493    0.615219474
    0.710735738    0.184761882    0.710207939
    0.377402455    0.851428628    0.805196345
    0.472640485    0.232380927    0.900184751
    0.139307708    0.899047911    0.425242633
    0.805974305    0.565714538    0.520231068
    0.472640842    0.232381105    0.615219474
    0.139307469    0.899047792    0.710207939
    0.805973947    0.565714240    0.805196404
    0.901211917    0.946666718    0.900184751
    0.567879140    0.613333642    0.425242633
    0.234545678    0.280000269    0.520231068
    0.901212156    0.946666837    0.615219474
    0.567878842    0.613333464    0.710207939
    0.234545320    0.279999971    0.805196345
    0.329783350    0.660952330    0.900184751
    0.996450484    0.327619374    0.425242603
    0.663117111    0.994286001    0.520231009
    0.329783678    0.660952568    0.615219474
    0.996450245    0.327619255    0.710207880
    0.663116634    0.994285703    0.805196404
    0.758354723    0.375238180    0.900184751
    0.425022006    0.041905165    0.425242662
    0.091688514    0.708571672    0.520231068
    0.758355081    0.375238299    0.615219474
    0.425021499    0.041904688    0.710207939
    0.091688178    0.708571434    0.805196345
    0.186926275    0.089523911    0.900184751
    0.853593409    0.756190777    0.425242692
    0.520259976    0.422857374    0.520231068
    0.186926574    0.089524031    0.615219533
    0.853592932    0.756190419    0.710207939
    0.520259559    0.422857165    0.805196404
    0.234545738    0.280000269    0.448989719
    0.901212275    0.946666837    0.543978214
    0.567878842    0.613333523    0.638966560
    0.234545380    0.280000091    0.733955026
    0.901211917    0.946666598    0.828943491
    0.091688603    0.708571672    0.448989719
    0.758355081    0.375238270    0.543978214
    0.425021797    0.041904926    0.638966560
    0.091688238    0.708571494    0.733955026
    0.758354843    0.375238001    0.828943372
    0.520260036    0.422857404    0.448989719
    0.186926544    0.089524031    0.543978155
    0.853593111    0.756190658    0.638966560
    0.520259619    0.422857225    0.733955026
    0.186926097    0.089523792    0.828943372
    0.948831320    0.137143090    0.448989719
    0.615497947    0.803809702    0.543978155
    0.282164574    0.470476329    0.638966560
    0.948831081    0.137142897    0.733955026
    0.615497589    0.803809404    0.828943372
    0.377402902    0.851428866    0.448989719
    0.044069409    0.518095374    0.543978155
    0.710735977    0.184762001    0.638966560
    0.377402574    0.851428628    0.733955026
    0.044069052    0.518095136    0.828943431
    0.805974364    0.565714598    0.448989719
    0.472640902    0.232381105    0.543978214
    0.139307484    0.899047732    0.638966620
    0.805974007    0.565714300    0.733955026
    0.472640544    0.232380807    0.828943491
    0.663117111    0.994285941    0.448989719
    0.329783678    0.660952508    0.543978214
    0.996450245    0.327619076    0.638966560
    0.663116753    0.994285703    0.733955026
    0.329783350    0.660952270    0.828943431
    0.544069111    0.518095255    0.900184810
    0.210736245    0.184762225    0.425242662
    0.877402782    0.851428866    0.520231068
    0.544069409    0.518095493    0.615219474
    0.210735828    0.184761941    0.710207939
    0.877402365    0.851428509    0.805196404
    0.401212066    0.946666718    0.900184751
    0.067879200    0.613333642    0.425242662
    0.734545648    0.280000240    0.520231068
    0.401212305    0.946666837    0.615219533
    0.067878723    0.613333285    0.710207939
    0.734545290    0.280000031    0.805196404
    0.829783380    0.660952449    0.900184751
    0.496450573    0.327619374    0.425242633
    0.163117141    0.994286001    0.520231068
    0.829783678    0.660952568    0.615219474
    0.496450096    0.327619016    0.710207939
    0.163116783    0.994285703    0.805196404
    0.686926186    0.089523792    0.900184810
    0.353593409    0.756190836    0.425242633
    0.020259976    0.422857463    0.520231009
    0.686926484    0.089524031    0.615219474
    0.353593141    0.756190717    0.710207880
    0.020259619    0.422857106    0.805196404
    0.115497671    0.803809524    0.900184751
    0.782164812    0.470476538    0.425242633
    0.448831439    0.137143150    0.520231009
    0.115497977    0.803809702    0.615219474
    0.782164574    0.470476389    0.710207880
    0.448831052    0.137142837    0.805196404
    0.972640455    0.232380986    0.900184691
    0.639307678    0.899047911    0.425242662
    0.305974245    0.565714538    0.520231068
    0.972640812    0.232381165    0.615219474
    0.639307201    0.899047613    0.710207939
    0.305973917    0.565714300    0.805196345
    0.258354813    0.375238061    0.900184751
    0.925021946    0.041905046    0.425242662
    0.591688514    0.708571672    0.520231068
    0.258355111    0.375238299    0.615219474
    0.925021470    0.041904688    0.710207939
    0.591688156    0.708571434    0.805196345
    0.448831439    0.137143120    0.448989749
    0.115497947    0.803809702    0.543978214
    0.782164514    0.470476329    0.638966620
    0.448831052    0.137142956    0.733955026
    0.115497552    0.803809404    0.828943491
    0.305974364    0.565714478    0.448989749
    0.972640872    0.232381105    0.543978214
    0.639307439    0.899047732    0.638966560
    0.305973977    0.565714300    0.733955026
    0.972640455    0.232380927    0.828943372
    0.734545708    0.280000269    0.448989749
    0.401212305    0.946666837    0.543978214
    0.067878842    0.613333523    0.638966560
    0.734545350    0.280000031    0.733955026
    0.401211947    0.946666598    0.828943431
    0.163117200    0.994286001    0.448989749
    0.829783678    0.660952568    0.543978214
    0.496450335    0.327619195    0.638966620
    0.163116843    0.994285822    0.733955026
    0.829783261    0.660952330    0.828943491
    0.591688573    0.708571672    0.448989719
    0.258355111    0.375238240    0.543978155
    0.925021648    0.041904926    0.638966560
    0.591688216    0.708571434    0.733954966
    0.258354753    0.375238001    0.828943431
    0.020260096    0.422857404    0.448989719
    0.686926663    0.089524031    0.543978214
    0.353593260    0.756190598    0.638966560
    0.020259738    0.422857165    0.733955026
    0.686926186    0.089523792    0.828943372
    0.877402902    0.851428866    0.448989749
    0.544069409    0.518095374    0.543978214
    0.210736036    0.184762031    0.638966620
    0.877402484    0.851428628    0.733955026
    0.544069052    0.518095195    0.828943431
    0.472640723    0.732380986    0.900184751
    0.139307693    0.399047941    0.425242633
    0.805974185    0.065714598    0.520231068
    0.472640842    0.732381165    0.615219474
    0.139307231    0.399047613    0.710207939
    0.805973828    0.065714359    0.805196345
    0.901211917    0.446666718    0.900184691
    0.567879081    0.113333702    0.425242633
    0.234545648    0.780000269    0.520231068
    0.901212215    0.446666896    0.615219474
    0.567878604    0.113333344    0.710207939
    0.234545261    0.780000091    0.805196345
    0.758354723    0.875238180    0.900184751
    0.425021976    0.541905046    0.425242662
    0.091688536    0.208571732    0.520231009
    0.758355081    0.875238299    0.615219474
    0.425021678    0.541904986    0.710207880
    0.091688119    0.208571434    0.805196404
    0.186926156    0.589523792    0.900184810
    0.853593290    0.256190777    0.425242633
    0.520259917    0.922857404    0.520231009
    0.186926454    0.589523971    0.615219474
    0.853593051    0.256190658    0.710207880
    0.520259500    0.922857165    0.805196345
    0.615497530    0.303809524    0.900184751
    0.282164842    0.970476449    0.425242662
    0.948831379    0.637143075    0.520231068
    0.615498006    0.303809702    0.615219474
    0.282164365    0.970476151    0.710207939
    0.948830903    0.637142777    0.805196404
    0.044069171    0.018095255    0.900184691
    0.710736275    0.684762239    0.425242633
    0.377402842    0.351428807    0.520231009
    0.044069409    0.018095493    0.615219474
    0.710735798    0.684761882    0.710207939
    0.377402455    0.351428568    0.805196345
    0.329783350    0.160952389    0.900184751
    0.996450484    0.827619314    0.425242662
    0.663117111    0.494285911    0.520231068
    0.329783678    0.160952538    0.615219474
    0.996450067    0.827618957    0.710207939
    0.663116753    0.494285703    0.805196404
    0.091688618    0.208571777    0.448989749
    0.758355200    0.875238419    0.543978214
    0.425021738    0.541904986    0.638966620
    0.091688238    0.208571553    0.733955026
    0.758354723    0.875238061    0.828943491
    0.377402931    0.351428896    0.448989749
    0.044069529    0.018095493    0.543978214
    0.710735977    0.684762120    0.638966620
    0.377402514    0.351428628    0.733955026
    0.044069052    0.018095255    0.828943491
    0.234545797    0.780000269    0.448989749
    0.901212335    0.446666926    0.543978214
    0.567878902    0.113333464    0.638966560
    0.234545380    0.780000091    0.733955026
    0.901211917    0.446666598    0.828943491
    0.663117170    0.494286031    0.448989749
    0.329783738    0.160952643    0.543978214
    0.996450305    0.827619255    0.638966620
    0.663116753    0.494285762    0.733955026
    0.329783291    0.160952330    0.828943491
    0.520259976    0.922857404    0.448989749
    0.186926544    0.589524031    0.543978155
    0.853593111    0.256190658    0.638966560
    0.520259559    0.922857165    0.733955026
    0.186926097    0.589523673    0.828943431
    0.948831379    0.637143075    0.448989719
    0.615497947    0.303809702    0.543978214
    0.282164544    0.970476329    0.638966620
    0.948830962    0.637142837    0.733955026
    0.615497470    0.303809404    0.828943431
    0.805974305    0.065714598    0.448989779
    0.472640902    0.732381284    0.543978214
    0.139307484    0.399047911    0.638966620
    0.805973947    0.065714359    0.733955026
    0.472640485    0.732380986    0.828943491
