Si+C
    1.000000000
   13.303179741    0.000000000    0.000000000
   -6.651589394   14.873406410    0.000000000
    0.000000000    0.000000000    7.204129696
Si  C  
36     84
Direct
    0.017094348    0.991452813    0.000000000
    0.217094451    0.891452730    0.168571234
    0.417094558    0.791452646    0.337142467
    0.017094348    0.324786127    0.000000000
    0.217094451    0.224786043    0.168571234
    0.417094558    0.124785945    0.337142467
    0.017094348    0.658119500    0.000000000
    0.217094451    0.558119357    0.168571234
    0.417094558    0.458119243    0.337142467
    0.367094278    0.191452786    0.084285446
    0.567094386    0.091452695    0.252856702
    0.767094493    0.991452634    0.421427935
    0.367094278    0.524786055    0.084285446
    0.567094386    0.424786001    0.252856702
    0.767094493    0.324785918    0.421427935
    0.367094278    0.858119428    0.084285446
    0.567094386    0.758119226    0.252856702
    0.767094493    0.658119202    0.421427935
    0.517094374    0.991452813    0.000000004
    0.717094421    0.891452670    0.168571189
    0.917094529    0.791452587    0.337142467
    0.517094374    0.324786127    0.000000004
    0.717094421    0.224786013    0.168571189
    0.917094529    0.124785922    0.337142467
    0.517094374    0.658119380    0.000000004
    0.717094421    0.558119297    0.168571189
    0.917094529    0.458119243    0.337142467
    0.867094278    0.191452801    0.084285453
    0.067094445    0.091452725    0.252856731
    0.267094374    0.991452634    0.421427846
    0.867094278    0.524786115    0.084285453
    0.067094445    0.424786001    0.252856731
    0.267094374    0.324785918    0.421427846
    0.867094278    0.858119488    0.084285453
    0.067094445    0.758119345    0.252856731
    0.267094374    0.658119261    0.421427846
    0.061117649    0.962914050    0.793745637
    0.432546139    0.991485596    0.572327852
    0.746831954    0.977199912    0.683036804
    0.203974724    0.820056856    0.793745756
    0.575403214    0.848628461    0.572327852
    0.889689028    0.834342659    0.683036804
    0.346831918    0.677199781    0.793745637
    0.718260407    0.705771327    0.572327852
    0.032546282    0.691485584    0.683036804
    0.489689112    0.534342647    0.793745637
    0.861117601    0.562914193    0.572327852
    0.175403357    0.548628390    0.683036804
    0.632546186    0.391485512    0.793745637
    0.003974676    0.420057058    0.572327852
    0.318260550    0.405771315    0.683036804
    0.775403380    0.248628348    0.793745637
    0.146831870    0.277199924    0.572327852
    0.461117625    0.262914151    0.683036804
    0.918260574    0.105771184    0.793745637
    0.289689004    0.134342790    0.572327852
    0.603974819    0.120056987    0.683036804
    0.611117601    0.062914133    0.849099874
    0.982545972    0.091485620    0.627682209
    0.296831846    0.077199936    0.738391161
    0.753974676    0.920056880    0.849099994
    0.125403047    0.948628426    0.627682209
    0.439688802    0.934342623    0.738391042
    0.896831989    0.777199805    0.849099994
    0.268260360    0.805771291    0.627682209
    0.582546234    0.791485608    0.738391042
    0.039689064    0.634342730    0.849099994
    0.411117435    0.662914217    0.627682209
    0.725403309    0.648628473    0.738391042
    0.182546020    0.491485536    0.849099994
    0.553974509    0.520057082    0.627682209
    0.868260324    0.505771339    0.738391161
    0.325403333    0.348628342    0.849099994
    0.696831822    0.377199948    0.627682209
    0.011117578    0.362914145    0.738391161
    0.468260527    0.205771267    0.849099994
    0.839688897    0.234342799    0.627682209
    0.153974652    0.220057040    0.738391161
    0.561117768    0.962914050    0.793745756
    0.932546198    0.991485715    0.572327852
    0.246831894    0.977199852    0.683036804
    0.703974962    0.820056856    0.793745756
    0.075403452    0.848628521    0.572327852
    0.389689088    0.834342659    0.683036804
    0.846832156    0.677199721    0.793745756
    0.218260527    0.705771387    0.572327852
    0.532546282    0.691485584    0.683036804
    0.989689171    0.534342706    0.793745756
    0.361117601    0.562914252    0.572327852
    0.675403416    0.548628449    0.683036804
    0.132546306    0.391485453    0.793745637
    0.503974736    0.420057058    0.572327852
    0.818260550    0.405771255    0.683036804
    0.275403380    0.248628348    0.793745637
    0.646831870    0.277199924    0.572327852
    0.961117685    0.262914121    0.683036804
    0.418260574    0.105771184    0.793745637
    0.789689004    0.134342790    0.572327852
    0.103974819    0.120056987    0.683036804
    0.111117601    0.062914133    0.849099994
    0.482546031    0.091485620    0.627682209
    0.796831787    0.077199817    0.738391161
    0.253974676    0.920056999    0.849099994
    0.625403166    0.948628545    0.627682209
    0.939688861    0.934342742    0.738391161
    0.396831870    0.777199805    0.849099874
    0.768260360    0.805771291    0.627682209
    0.082546234    0.791485548    0.738391161
    0.539689064    0.634342611    0.849099994
    0.911117494    0.662914157    0.627682209
    0.225403309    0.648628354    0.738391161
    0.682546139    0.491485536    0.849099994
    0.053974509    0.520057023    0.627682328
    0.368260384    0.505771279    0.738391161
    0.825403452    0.348628372    0.849099994
    0.196831822    0.377199948    0.627682209
    0.511117578    0.362914175    0.738391161
    0.968260527    0.205771282    0.849099874
    0.339688897    0.234342784    0.627682209
    0.653974771    0.220057070    0.738391161
