Sn+Ge
    1.000000000
   19.467599869    0.000000000    0.000000000
    6.489200115   18.354230881    0.000000000
    0.000000000    0.000000000   25.800943375
Sn  Ge 
144     192
Direct
    0.991010249    0.991010249    0.000000014
    0.866010189    0.866010129    0.088922322
    0.741010189    0.741009951    0.177844614
    0.616010189    0.616009831    0.266766906
    0.491010129    0.491009712    0.355689257
    0.366010129    0.366009593    0.444611579
    0.991010249    0.324343592    0.000000014
    0.866010189    0.199343473    0.088922322
    0.741010189    0.074343339    0.177844614
    0.616010189    0.949343204    0.266766906
    0.491010129    0.824343085    0.355689257
    0.366010129    0.699342966    0.444611579
    0.991010249    0.657676935    0.000000014
    0.866010189    0.532676816    0.088922322
    0.741010189    0.407676697    0.177844614
    0.616010189    0.282676548    0.266766906
    0.491010129    0.157676399    0.355689257
    0.366010129    0.032676294    0.444611579
    0.491010249    0.157676876    0.000000013
    0.366010219    0.032676764    0.088922322
    0.241010219    0.907676637    0.177844614
    0.116010167    0.782676458    0.266766936
    0.991010129    0.657676339    0.355689257
    0.866010129    0.532676280    0.444611549
    0.491010249    0.491010368    0.000000013
    0.366010219    0.366010189    0.088922322
    0.241010219    0.241010040    0.177844614
    0.116010167    0.116009913    0.266766936
    0.991010129    0.991009772    0.355689257
    0.866010129    0.866009712    0.444611549
    0.491010249    0.824343622    0.000000013
    0.366010219    0.699343503    0.088922322
    0.241010219    0.574343324    0.177844614
    0.116010167    0.449343175    0.266766936
    0.991010129    0.324343055    0.355689257
    0.866010129    0.199342936    0.444611549
    0.241010249    0.241010264    0.000000010
    0.116010226    0.116010129    0.088922322
    0.991010189    0.991010010    0.177844614
    0.866010189    0.866009831    0.266766906
    0.741010129    0.741009712    0.355689257
    0.616010129    0.616009593    0.444611579
    0.241010249    0.574343681    0.000000010
    0.116010226    0.449343532    0.088922322
    0.991010189    0.324343383    0.177844614
    0.866010189    0.199343234    0.266766906
    0.741010129    0.074343123    0.355689257
    0.616010129    0.949343026    0.444611579
    0.241010249    0.907676935    0.000000010
    0.116010226    0.782676756    0.088922322
    0.991010189    0.657676637    0.177844614
    0.866010189    0.532676518    0.266766906
    0.741010129    0.407676429    0.355689257
    0.616010129    0.282676280    0.444611579
    0.741010249    0.074343577    0.000000005
    0.616010249    0.949343443    0.088922322
    0.491010219    0.824343324    0.177844614
    0.366010159    0.699343204    0.266766936
    0.241010144    0.574343085    0.355689257
    0.116010129    0.449342906    0.444611549
    0.741010249    0.407676876    0.000000005
    0.616010249    0.282676727    0.088922322
    0.491010219    0.157676622    0.177844614
    0.366010159    0.032676473    0.266766936
    0.241010144    0.907676339    0.355689257
    0.116010129    0.782676220    0.444611549
    0.741010249    0.741010249    0.000000005
    0.616010249    0.616010129    0.088922322
    0.491010219    0.491010010    0.177844614
    0.366010159    0.366009861    0.266766936
    0.241010144    0.241009742    0.355689257
    0.116010129    0.116009608    0.444611549
    0.366010249    0.116010241    0.000000018
    0.241010219    0.991010129    0.088922322
    0.116010211    0.866009951    0.177844614
    0.991010129    0.741009831    0.266766936
    0.866010129    0.616009712    0.355689257
    0.741010129    0.491009593    0.444611549
    0.366010249    0.449343652    0.000000018
    0.241010219    0.324343443    0.088922322
    0.116010211    0.199343339    0.177844614
    0.991010129    0.074343182    0.266766936
    0.866010129    0.949343085    0.355689257
    0.741010129    0.824342906    0.444611549
    0.366010249    0.782676995    0.000000018
    0.241010219    0.657676816    0.088922322
    0.116010211    0.532676697    0.177844614
    0.991010129    0.407676578    0.266766936
    0.866010129    0.282676458    0.355689257
    0.741010129    0.157676324    0.444611549
    0.866010308    0.282676965    0.000000000
    0.741010249    0.157676771    0.088922314
    0.616010249    0.032676667    0.177844614
    0.491010189    0.907676518    0.266766936
    0.366010189    0.782676399    0.355689257
    0.241010174    0.657676220    0.444611549
    0.866010308    0.616010368    0.000000000
    0.741010249    0.491010159    0.088922314
    0.616010249    0.366010010    0.177844614
    0.491010189    0.241009891    0.266766936
    0.366010189    0.116009764    0.355689257
    0.241010174    0.991009653    0.444611549
    0.866010308    0.949343622    0.000000000
    0.741010249    0.824343622    0.088922314
    0.616010249    0.699343443    0.177844614
    0.491010189    0.574343264    0.266766936
    0.366010189    0.449343115    0.355689257
    0.241010174    0.324343026    0.444611549
    0.116010241    0.199343547    0.000000014
    0.991010249    0.074343421    0.088922322
    0.866010189    0.949343324    0.177844614
    0.741010129    0.824343145    0.266766936
    0.616010129    0.699343026    0.355689257
    0.491010129    0.574342966    0.444611549
    0.116010241    0.532676935    0.000000014
    0.991010249    0.407676727    0.088922322
    0.866010189    0.282676637    0.177844614
    0.741010129    0.157676473    0.266766936
    0.616010129    0.032676354    0.355689257
    0.491010129    0.907676220    0.444611549
    0.116010241    0.866010368    0.000000014
    0.991010249    0.741010189    0.088922322
    0.866010189    0.616010070    0.177844614
    0.741010129    0.491009891    0.266766936
    0.616010129    0.366009802    0.355689257
    0.491010129    0.241009653    0.444611549
    0.616010249    0.032676876    0.000000022
    0.491010219    0.907676756    0.088922322
    0.366010219    0.782676637    0.177844614
    0.241010159    0.657676458    0.266766936
    0.116010137    0.532676339    0.355689257
    0.991010129    0.407676280    0.444611549
    0.616010249    0.366010308    0.000000022
    0.491010219    0.241010129    0.088922322
    0.366010219    0.116010010    0.177844614
    0.241010159    0.991009831    0.266766936
    0.116010137    0.866009712    0.355689257
    0.991010129    0.741009593    0.444611549
    0.616010249    0.699343562    0.000000022
    0.491010219    0.574343324    0.088922322
    0.366010219    0.449343294    0.177844614
    0.241010159    0.324343145    0.266766936
    0.116010137    0.199343026    0.355689257
    0.991010129    0.074342884    0.444611549
    0.809964895    0.956928313    0.528481960
    0.622464895    0.519428313    0.606011569
    0.434964895    0.081928402    0.683541059
    0.247464895    0.644428313    0.761070490
    0.059964895    0.206928462    0.838600099
    0.872464836    0.769428313    0.916129470
    0.809964895    0.456928372    0.528481960
    0.622464895    0.019428382    0.606011569
    0.434964895    0.581928313    0.683541059
    0.247464895    0.144428402    0.761070490
    0.059964895    0.706928432    0.838600099
    0.872464776    0.269428343    0.916129589
    0.059964895    0.206928357    0.528481960
    0.872464895    0.769428313    0.606011569
    0.684964895    0.331928343    0.683541059
    0.497464895    0.894428313    0.761070490
    0.309964895    0.456928462    0.838600099
    0.122464895    0.019428223    0.916129589
    0.309964895    0.956928372    0.528481960
    0.122464895    0.519428313    0.606011569
    0.934964895    0.081928343    0.683541059
    0.747464895    0.644428432    0.761070490
    0.559964895    0.206928462    0.838600099
    0.372464776    0.769428313    0.916129589
    0.059964895    0.706928372    0.528481960
    0.872464895    0.269428402    0.606011569
    0.684964895    0.831928372    0.683541059
    0.497464895    0.394428402    0.761070490
    0.309964895    0.956928432    0.838600099
    0.122464776    0.519428194    0.916129589
    0.309964895    0.456928372    0.528481960
    0.122464895    0.019428387    0.606011569
    0.934964895    0.581928313    0.683541059
    0.747464895    0.144428402    0.761070490
    0.559964895    0.706928432    0.838600099
    0.372464776    0.269428223    0.916129589
    0.559964895    0.206928372    0.528481960
    0.372464895    0.769428372    0.606011569
    0.184964895    0.331928462    0.683541059
    0.997464836    0.894428432    0.761070490
    0.809964895    0.456928343    0.838600099
    0.622464776    0.019428343    0.916129589
    0.559964895    0.706928372    0.528481960
    0.372464895    0.269428402    0.606011510
    0.184964895    0.831928313    0.683541059
    0.997464836    0.394428402    0.761070490
    0.809964895    0.956928432    0.838600099
    0.622464776    0.519428194    0.916129529
    0.934964895    0.081928357    0.528481960
    0.747464895    0.644428313    0.606011569
    0.559964895    0.206928402    0.683541059
    0.372464895    0.769428313    0.761070490
    0.184964895    0.331928462    0.838600099
    0.997464836    0.894428313    0.916129589
    0.934964836    0.581928372    0.528481960
    0.747464895    0.144428372    0.606011569
    0.559964895    0.706928313    0.683541059
    0.372464895    0.269428402    0.761070490
    0.184964895    0.831928432    0.838600099
    0.997464776    0.394428223    0.916129529
    0.184964895    0.331928372    0.528481960
    0.997464895    0.894428313    0.606011569
    0.809964895    0.456928402    0.683541059
    0.622464895    0.019428402    0.761070490
    0.434964895    0.581928432    0.838600099
    0.247464776    0.144428223    0.916129529
    0.434964895    0.081928365    0.528481960
    0.247464895    0.644428313    0.606011569
    0.059964895    0.206928402    0.683541059
    0.872464836    0.769428432    0.761070490
    0.684964895    0.331928343    0.838600099
    0.497464776    0.894428313    0.916129529
    0.184964895    0.831928372    0.528481960
    0.997464895    0.394428432    0.606011569
    0.809964895    0.956928372    0.683541059
    0.622464895    0.519428432    0.761070490
    0.434964895    0.081928462    0.838600099
    0.247464776    0.644428313    0.916129589
    0.434964895    0.581928372    0.528481960
    0.247464895    0.144428387    0.606011569
    0.059964895    0.706928372    0.683541059
    0.872464895    0.269428402    0.761070490
    0.684964895    0.831928432    0.838600099
    0.497464776    0.394428223    0.916129589
    0.684964895    0.331928372    0.528481960
    0.497464895    0.894428313    0.606011569
    0.309964895    0.456928402    0.683541059
    0.122464895    0.019428402    0.761070490
    0.934964955    0.581928313    0.838600099
    0.747464776    0.144428223    0.916129589
    0.684964895    0.831928372    0.528481960
    0.497464895    0.394428432    0.606011569
    0.309964895    0.956928372    0.683541059
    0.122464895    0.519428432    0.761070490
    0.934964955    0.081928402    0.838600099
    0.747464895    0.644428194    0.916129529
    0.934964895    0.206928357    0.528481960
    0.747464895    0.769428313    0.606011569
    0.559964895    0.331928402    0.683541059
    0.372464895    0.894428313    0.761070549
    0.184964895    0.456928343    0.838600099
    0.997464776    0.019428223    0.916129589
    0.184964895    0.956928313    0.528481960
    0.997464895    0.519428313    0.606011569
    0.809964895    0.081928402    0.683541059
    0.622464895    0.644428313    0.761070549
    0.434964895    0.206928462    0.838600099
    0.247464657    0.769428313    0.916129589
    0.934964895    0.706928372    0.528481960
    0.747464895    0.269428402    0.606011569
    0.559964895    0.831928372    0.683541059
    0.372464895    0.394428402    0.761070490
    0.184964895    0.956928432    0.838600099
    0.997464836    0.519428313    0.916129589
    0.184964895    0.456928343    0.528481960
    0.997464836    0.019428352    0.606011569
    0.809964895    0.581928313    0.683541059
    0.622464895    0.144428343    0.761070490
    0.434964895    0.706928313    0.838600099
    0.247464895    0.269428223    0.916129470
    0.434964895    0.206928387    0.528481960
    0.247464895    0.769428372    0.606011569
    0.059964895    0.331928402    0.683541059
    0.872464895    0.894428313    0.761070490
    0.684964895    0.456928462    0.838600099
    0.497464776    0.019428343    0.916129589
    0.684964895    0.956928313    0.528481960
    0.497464895    0.519428313    0.606011569
    0.309964895    0.081928402    0.683541059
    0.122464895    0.644428432    0.761070490
    0.934964895    0.206928462    0.838600099
    0.747464895    0.769428313    0.916129589
    0.434964895    0.706928372    0.528481960
    0.247464895    0.269428372    0.606011569
    0.059964895    0.831928372    0.683541059
    0.872464895    0.394428402    0.761070490
    0.684964895    0.956928313    0.838600099
    0.497464776    0.519428194    0.916129589
    0.684964895    0.456928343    0.528481960
    0.497464895    0.019428352    0.606011569
    0.309964895    0.581928313    0.683541059
    0.122464895    0.144428402    0.761070490
    0.934964955    0.706928313    0.838600099
    0.747464895    0.269428223    0.916129589
    0.809964895    0.081928357    0.528481960
    0.622464895    0.644428313    0.606011569
    0.434964895    0.206928343    0.683541059
    0.247464895    0.769428313    0.761070549
    0.059964895    0.331928462    0.838600039
    0.872464776    0.894428313    0.916129529
    0.809964895    0.581928372    0.528481960
    0.622464895    0.144428387    0.606011569
    0.434964895    0.706928372    0.683541059
    0.247464895    0.269428402    0.761070490
    0.059964895    0.831928432    0.838600099
    0.872464836    0.394428343    0.916129470
    0.059964895    0.331928372    0.528481960
    0.872464895    0.894428372    0.606011569
    0.684964895    0.456928402    0.683541059
    0.497464895    0.019428402    0.761070490
    0.309964895    0.581928313    0.838600099
    0.122464895    0.144428343    0.916129470
    0.309964895    0.081928380    0.528481960
    0.122464895    0.644428313    0.606011569
    0.934964895    0.206928402    0.683541059
    0.747464895    0.769428313    0.761070490
    0.559964895    0.331928462    0.838600099
    0.372464776    0.894428313    0.916129470
    0.059964895    0.831928372    0.528481960
    0.872464836    0.394428372    0.606011569
    0.684964895    0.956928372    0.683541059
    0.497464895    0.519428372    0.761070490
    0.309964895    0.081928402    0.838600099
    0.122464895    0.644428194    0.916129529
    0.309964895    0.581928313    0.528481960
    0.122464895    0.144428372    0.606011569
    0.934964895    0.706928313    0.683541059
    0.747464895    0.269428402    0.761070490
    0.559964895    0.831928313    0.838600099
    0.372464895    0.394428223    0.916129529
    0.559964895    0.331928372    0.528481960
    0.372464895    0.894428313    0.606011569
    0.184964895    0.456928402    0.683541059
    0.997464895    0.019428402    0.761070490
    0.809964895    0.581928432    0.838600099
    0.622464776    0.144428343    0.916129529
    0.559964895    0.831928313    0.528482020
    0.372464895    0.394428372    0.606011569
    0.184964895    0.956928313    0.683541059
    0.997464836    0.519428372    0.761070490
    0.809964895    0.081928343    0.838600099
    0.622464776    0.644428194    0.916129529
