Si+C
    1.000000000
   13.303179741    0.000000000    0.000000000
   -6.651589394   14.873406410    0.000000000
    0.000000000    0.000000000    7.204130173
Si  C  
36     84
Direct
    0.997150958    0.980056584    0.000000000
    0.963817537    0.746723175    0.168571264
    0.930484116    0.513389826    0.337142527
    0.330484211    0.313389868    0.000000000
    0.297150791    0.080056474    0.168571264
    0.263817370    0.846723080    0.337142527
    0.663817465    0.646723151    0.000000000
    0.630484045    0.413389713    0.168571264
    0.597150624    0.180056334    0.337142527
    0.313817531    0.946723342    0.084285460
    0.280484110    0.713389993    0.252856731
    0.247150689    0.480056584    0.421427876
    0.647150815    0.280056566    0.084285460
    0.613817394    0.046723194    0.252856672
    0.580483973    0.813389778    0.421427935
    0.980484426    0.613389850    0.084285483
    0.947151005    0.380056471    0.252856672
    0.913817585    0.146723092    0.421427876
    0.163817570    0.646723092    0.000000002
    0.130484164    0.413389713    0.168571264
    0.097150750    0.180056319    0.337142527
    0.497150898    0.980056643    0.000000006
    0.463817418    0.746723175    0.168571189
    0.430484056    0.513389826    0.337142438
    0.830484152    0.313389868    0.000000006
    0.797150731    0.080056526    0.168571189
    0.763817310    0.846723080    0.337142438
    0.147150904    0.280056566    0.084285468
    0.113817483    0.046723165    0.252856731
    0.080484070    0.813389778    0.421427935
    0.480484217    0.613389909    0.084285468
    0.447150826    0.380056530    0.252856672
    0.413817406    0.146723166    0.421427935
    0.813817501    0.946723282    0.084285460
    0.780484140    0.713389874    0.252856672
    0.747150719    0.480056465    0.421427935
    0.924754083    0.950568378    0.793745518
    0.296182513    0.979139924    0.572327852
    0.610468328    0.964854240    0.683036745
    0.067611217    0.807711184    0.793745637
    0.439039618    0.836282790    0.572327852
    0.753325403    0.821996987    0.683036745
    0.210468292    0.664854109    0.793745518
    0.581896782    0.693425655    0.572327852
    0.896182597    0.679139912    0.683036745
    0.353325486    0.521996975    0.793745518
    0.724753976    0.550568521    0.572327852
    0.039039850    0.536282718    0.683036745
    0.496182561    0.379139841    0.793745518
    0.867611110    0.407711387    0.572327852
    0.181896925    0.393425643    0.683036745
    0.639039755    0.236282676    0.793745518
    0.010468245    0.264854252    0.572327852
    0.324754000    0.250568479    0.683036745
    0.781896949    0.093425512    0.793745577
    0.153325379    0.121997118    0.572327852
    0.467611164    0.107711315    0.683036745
    0.474753976    0.050568461    0.849099815
    0.846182346    0.079139948    0.627682149
    0.160468221    0.064854264    0.738391042
    0.617611051    0.907711208    0.849099815
    0.989039421    0.936282754    0.627682149
    0.303325176    0.921996951    0.738391042
    0.760468364    0.764854133    0.849099815
    0.131896734    0.793425620    0.627682149
    0.446182609    0.779139936    0.738391042
    0.903325438    0.621997058    0.849099815
    0.274753809    0.650568545    0.627682149
    0.589039683    0.636282802    0.738391042
    0.046182394    0.479139864    0.849099874
    0.417610914    0.507711411    0.627682209
    0.731896698    0.493425667    0.738391042
    0.189039707    0.336282670    0.849099874
    0.560468197    0.364854276    0.627682149
    0.874753952    0.350568473    0.738391042
    0.331896901    0.193425596    0.849099874
    0.703325272    0.221997127    0.627682149
    0.017611027    0.207711369    0.738391042
    0.424754143    0.950568378    0.793745637
    0.796182573    0.979140043    0.572327852
    0.110468388    0.964854181    0.683036745
    0.567611337    0.807711184    0.793745637
    0.939039826    0.836282849    0.572327852
    0.253325462    0.821996987    0.683036745
    0.710468531    0.664854050    0.793745637
    0.081896901    0.693425715    0.572327852
    0.396182656    0.679139912    0.683036745
    0.853325546    0.521997035    0.793745637
    0.224753976    0.550568581    0.572327852
    0.539039791    0.536282778    0.683036745
    0.996182680    0.379139781    0.793745518
    0.367611110    0.407711387    0.572327852
    0.681896925    0.393425584    0.683036745
    0.139039755    0.236282676    0.793745518
    0.510468245    0.264854252    0.572327852
    0.824754059    0.250568449    0.683036745
    0.281896949    0.093425512    0.793745518
    0.653325379    0.121997118    0.572327852
    0.967611194    0.107711315    0.683036745
    0.974753916    0.050568461    0.849099815
    0.346182406    0.079139948    0.627682209
    0.660468161    0.064854145    0.738391042
    0.117610931    0.907711327    0.849099815
    0.489039510    0.936282873    0.627682209
    0.803325236    0.921997070    0.738391042
    0.260468245    0.764854133    0.849099815
    0.631896734    0.793425620    0.627682209
    0.946182549    0.779139876    0.738391042
    0.403325438    0.621996939    0.849099815
    0.774753869    0.650568485    0.627682209
    0.089039564    0.636282682    0.738391042
    0.546182513    0.479139864    0.849099815
    0.917610884    0.507711351    0.627682209
    0.231896758    0.493425608    0.738391042
    0.689039826    0.336282700    0.849100053
    0.060468197    0.364854276    0.627682149
    0.374753952    0.350568503    0.738391042
    0.831896901    0.193425611    0.849099815
    0.203325272    0.221997112    0.627682209
    0.517611146    0.207711399    0.738391042
