fcc Si+fcc Ge
    1.000000000
    5.480000000    0.000000000    0.000000000
    0.000000000    5.480000000    0.000000000
    0.000000000    0.000000000   30.850000000
Si    Ge   
22     22
Direct
    0.000000000    0.000000000    0.000000000
    0.500000000    0.000000000    0.088816856
    0.000000000    0.000000000    0.177633712
    0.500000000    0.000000000    0.266450567
    0.000000000    0.000000000    0.355267423
    0.500000000    0.000000000    0.444084279
    0.500000000    0.500000000    0.000000000
    0.000000000    0.500000000    0.088816856
    0.500000000    0.500000000    0.177633712
    0.000000000    0.500000000    0.266450567
    0.500000000    0.500000000    0.355267423
    0.000000000    0.500000000    0.444084279
    0.250000000    0.250000000    0.044408428
    0.750000000    0.250000000    0.133225284
    0.250000000    0.250000000    0.222042139
    0.750000000    0.250000000    0.310858995
    0.250000000    0.250000000    0.399675851
    0.750000000    0.750000000    0.044408428
    0.250000000    0.750000000    0.133225284
    0.750000000    0.750000000    0.222042139
    0.250000000    0.750000000    0.310858995
    0.750000000    0.750000000    0.399675851
    0.222222222    0.222222222    0.492706645
    0.722222222    0.222222222    0.584440843
    0.222222222    0.222222222    0.676175041
    0.722222222    0.222222222    0.767909238
    0.222222222    0.222222222    0.859643436
    0.722222222    0.222222222    0.951377634
    0.722222222    0.722222222    0.492706645
    0.222222222    0.722222222    0.584440843
    0.722222222    0.722222222    0.676175041
    0.222222222    0.722222222    0.767909238
    0.722222222    0.722222222    0.859643436
    0.222222222    0.722222222    0.951377634
    0.472222222    0.472222222    0.538573744
    0.972222222    0.472222222    0.630307942
    0.472222222    0.472222222    0.722042139
    0.972222222    0.472222222    0.813776337
    0.472222222    0.472222222    0.905510535
    0.972222222    0.972222222    0.538573744
    0.472222222    0.972222222    0.630307942
    0.972222222    0.972222222    0.722042139
    0.472222222    0.972222222    0.813776337
    0.972222222    0.972222222    0.905510535
