Si+C
    1.000000000
   13.303179741    0.000000000    0.000000000
    6.651589394   11.520891190    0.000000000
    0.000000000    0.000000000   21.679416656
Si  C  
72     308
Direct
    0.000000000    0.318506181    0.289268821
    0.000000000    0.985172927    0.000000014
    0.000000000    0.651839554    0.144634426
    0.333333343    0.651839614    0.289268792
    0.333333343    0.318506300    0.000000009
    0.333333343    0.985172868    0.144634411
    0.666666687    0.985172927    0.289268792
    0.666666687    0.651839614    0.000000006
    0.666666687    0.318506241    0.144634411
    0.333333343    0.318506062    0.325427473
    0.333333343    0.985172868    0.036158625
    0.333333343    0.651839495    0.180793017
    1.000000000    0.985172808    0.325427473
    1.000000000    0.651839614    0.036158621
    1.000000000    0.318506271    0.180793017
    0.666666746    0.651839375    0.325427473
    0.666666746    0.318506211    0.036158632
    0.666666746    0.985172868    0.180793017
    0.500000000    0.318506241    0.289268792
    0.500000000    0.985172927    0.000000010
    0.500000000    0.651839554    0.144634411
    0.166666672    0.985172927    0.289268792
    0.166666672    0.651839674    0.000000001
    0.166666672    0.318506241    0.144634411
    0.833333373    0.651839614    0.289268792
    0.833333373    0.318506300    0.000000001
    0.833333373    0.985172927    0.144634411
    0.166666657    0.651839554    0.325427383
    0.166666657    0.318506300    0.036158580
    0.166666657    0.985172868    0.180792972
    0.833333433    0.318506181    0.325427413
    0.833333433    0.985172927    0.036158595
    0.833333433    0.651839495    0.180792987
    0.500000060    0.985172868    0.325427413
    0.500000060    0.651839614    0.036158599
    0.500000060    0.318506211    0.180793017
    0.166666672    0.485172927    0.289268792
    0.166666672    0.151839614    0.000000010
    0.166666672    0.818506241    0.144634411
    0.500000000    0.818506241    0.289268821
    0.500000000    0.485172987    0.000000016
    0.500000000    0.151839584    0.144634426
    0.833333373    0.151839629    0.289268792
    0.833333373    0.818506360    0.000000000
    0.833333373    0.485173017    0.144634381
    0.500000000    0.485172868    0.325427413
    0.500000000    0.151839614    0.036158595
    0.500000000    0.818506241    0.180792987
    0.166666672    0.151839569    0.325427383
    0.166666672    0.818506360    0.036158573
    0.166666672    0.485172927    0.180792972
    0.833333373    0.818506181    0.325427383
    0.833333373    0.485172927    0.036158573
    0.833333373    0.151839525    0.180792972
    0.000000000    0.818506241    0.289268792
    0.000000000    0.485172957    0.000000009
    0.000000000    0.151839554    0.144634411
    0.666666687    0.485172868    0.289268792
    0.666666687    0.151839599    0.000000009
    0.666666687    0.818506181    0.144634411
    0.333333313    0.151839495    0.289268792
    0.333333313    0.818506241    0.000000002
    0.333333313    0.485172868    0.144634381
    0.000000000    0.485172808    0.325427473
    0.000000000    0.151839659    0.036158618
    0.000000000    0.818506300    0.180793017
    0.333333343    0.818506122    0.325427473
    0.333333343    0.485172957    0.036158621
    0.333333343    0.151839599    0.180793017
    0.666666687    0.151839525    0.325427443
    0.666666687    0.818506300    0.036158618
    0.666666687    0.485172957    0.180792987
    0.446666539    0.469394147    0.876437724
    0.780000150    0.802727520    0.496484071
    0.446666896    0.469394207    0.591472447
    0.113333270    0.136060715    0.686460912
    0.780000031    0.802727401    0.781449258
    0.732380927    0.612251222    0.876437724
    0.065714471    0.945584595    0.496484071
    0.732381165    0.612251341    0.591472447
    0.399047613    0.278917849    0.686460912
    0.065714225    0.945584476    0.781449258
    0.589523733    0.040822625    0.876437783
    0.922857344    0.374156028    0.496484041
    0.589523971    0.040822744    0.591472447
    0.256190419    0.707489252    0.686460912
    0.922857106    0.374155879    0.781449258
    0.018095016    0.755108297    0.876437783
    0.351428747    0.088441752    0.496484071
    0.018095374    0.755108416    0.591472447
    0.684761941    0.421774983    0.686460912
    0.351428509    0.088441618    0.781449258
    0.875237882    0.183679700    0.876437724
    0.208571643    0.517013252    0.496484011
    0.875238240    0.183679879    0.591472447
    0.541904867    0.850346506    0.686460853
    0.208571300    0.517013073    0.781449258
    0.303809404    0.897965372    0.876437724
    0.637143075    0.231298923    0.496484011
    0.303809702    0.897965550    0.591472447
    0.970476329    0.564632237    0.686460793
    0.637142777    0.231298804    0.781449258
    0.160952255    0.326536894    0.876437724
    0.494285882    0.659870267    0.496484071
    0.160952538    0.326536983    0.591472447
    0.827619016    0.993203521    0.686460912
    0.494285643    0.659870148    0.781449258
    0.541904747    0.850346506    0.900184751
    0.208571658    0.517013192    0.425242722
    0.875238299    0.183679849    0.520231128
    0.541904807    0.850346446    0.615219593
    0.208571360    0.517012954    0.710207999
    0.875238001    0.183679640    0.805196404
    0.970476210    0.564632237    0.900184751
    0.637143075    0.231298953    0.425242722
    0.303809702    0.897965610    0.520231128
    0.970476270    0.564632237    0.615219533
    0.637142718    0.231298685    0.710207999
    0.303809404    0.897965372    0.805196404
    0.827619016    0.993203580    0.900184751
    0.494285882    0.659870327    0.425242722
    0.160952553    0.326536983    0.520231128
    0.827619135    0.993203580    0.615219533
    0.494285583    0.659870088    0.710207999
    0.160952196    0.326536775    0.805196404
    0.256190360    0.707489312    0.900184751
    0.922857344    0.374156058    0.425242722
    0.589523971    0.040822744    0.520231128
    0.256190538    0.707489312    0.615219533
    0.922856987    0.374155819    0.710207999
    0.589523613    0.040822625    0.805196404
    0.684761822    0.421775162    0.900184751
    0.351428807    0.088441782    0.425242722
    0.018095374    0.755108416    0.520231128
    0.684761941    0.421775043    0.615219593
    0.351428449    0.088441558    0.710207999
    0.018095016    0.755108178    0.805196404
    0.113333330    0.136060715    0.900184751
    0.780000269    0.802727461    0.425242752
    0.446666896    0.469394118    0.520231128
    0.113333449    0.136060715    0.615219593
    0.779999912    0.802727222    0.710207999
    0.446666598    0.469393909    0.805196404
    0.399047434    0.278917909    0.900184751
    0.065714560    0.945584595    0.425242692
    0.732381165    0.612251282    0.520231068
    0.399047852    0.278917998    0.615219533
    0.065714225    0.945584476    0.710207939
    0.732380807    0.612251103    0.805196404
    0.660952270    0.826536953    0.876437724
    0.994285882    0.159870327    0.496484041
    0.660952508    0.826537013    0.591472447
    0.327619016    0.493203521    0.686460912
    0.994285643    0.159870207    0.781449258
    0.089523718    0.540822566    0.876437724
    0.422857285    0.874156058    0.496484011
    0.089523971    0.540822744    0.591472447
    0.756190479    0.207489252    0.686460912
    0.422857106    0.874155939    0.781449258
    0.518095195    0.255108237    0.876437724
    0.851428807    0.588441730    0.496484011
    0.518095374    0.255108386    0.591472447
    0.184761986    0.921775043    0.686460853
    0.851428449    0.588441551    0.781449258
    0.946666539    0.969394028    0.876437724
    0.280000210    0.302727491    0.496484041
    0.946666777    0.969394147    0.591472447
    0.613333404    0.636060774    0.686460853
    0.279999852    0.302727282    0.781449258
    0.375237942    0.683679640    0.876437724
    0.708571672    0.017013311    0.496484011
    0.375238240    0.683679879    0.591472447
    0.041904807    0.350346565    0.686460793
    0.708571374    0.017013192    0.781449199
    0.803809464    0.397965431    0.876437724
    0.137143031    0.731298864    0.496484041
    0.803809702    0.397965610    0.591472447
    0.470476151    0.064632177    0.686460912
    0.137142822    0.731298745    0.781449258
    0.232380912    0.112251170    0.876437783
    0.565714478    0.445584595    0.496484071
    0.232381165    0.112251312    0.591472447
    0.899047613    0.778917849    0.686460912
    0.565714240    0.445584476    0.781449258
    0.613333166    0.636060655    0.900184751
    0.280000210    0.302727491    0.425242692
    0.946666837    0.969394147    0.520231068
    0.613333523    0.636060834    0.615219533
    0.279999912    0.302727282    0.710207939
    0.946666539    0.969394028    0.805196404
    0.470476091    0.064632177    0.900184751
    0.137143105    0.731298864    0.425242692
    0.803809702    0.397965550    0.520231068
    0.470476389    0.064632297    0.615219533
    0.137142763    0.731298745    0.710207939
    0.803809464    0.397965372    0.805196404
    0.899047554    0.778917730    0.900184751
    0.565714538    0.445584625    0.425242692
    0.232381105    0.112251267    0.520231068
    0.899047792    0.778917968    0.615219533
    0.565714180    0.445584416    0.710207939
    0.232380792    0.112251110    0.805196404
    0.327618897    0.493203461    0.900184751
    0.994285941    0.159870327    0.425242692
    0.660952508    0.826536953    0.520231068
    0.327619195    0.493203700    0.615219533
    0.994285643    0.159870148    0.710207939
    0.660952270    0.826536834    0.805196404
    0.756190360    0.207489252    0.900184751
    0.422857404    0.874156058    0.425242692
    0.089523956    0.540822685    0.520231068
    0.756190658    0.207489401    0.615219533
    0.422857046    0.874155879    0.710207939
    0.089523658    0.540822566    0.805196345
    0.184761807    0.921774924    0.900184751
    0.851428866    0.588441730    0.425242722
    0.518095434    0.255108386    0.520231128
    0.184762120    0.921775103    0.615219533
    0.851428568    0.588441551    0.710207939
    0.518095195    0.255108237    0.805196404
    0.041904569    0.350346327    0.900184751
    0.708571672    0.017013192    0.425242722
    0.375238240    0.683679760    0.520231128
    0.041904926    0.350346476    0.615219533
    0.708571374    0.017012954    0.710207999
    0.375237942    0.683679581    0.805196404
    0.589523733    0.540822566    0.876437783
    0.922857344    0.874156058    0.496484071
    0.589523971    0.540822744    0.591472447
    0.256190419    0.207489252    0.686460912
    0.922857106    0.874155939    0.781449258
    0.446666658    0.969394028    0.876437783
    0.780000210    0.302727461    0.496484071
    0.446666837    0.969394147    0.591472447
    0.113333270    0.636060655    0.686460912
    0.779999912    0.302727342    0.781449258
    0.875238001    0.683679760    0.876437783
    0.208571613    0.017013192    0.496484041
    0.875238299    0.683679879    0.591472447
    0.541904747    0.350346386    0.686460912
    0.208571360    0.017013073    0.781449258
    0.732380807    0.112251170    0.876437783
    0.065714478    0.445584714    0.496484011
    0.732381046    0.112251341    0.591472447
    0.399047732    0.778917968    0.686460793
    0.065714166    0.445584595    0.781449258
    0.160952196    0.826536834    0.876437724
    0.494285941    0.159870386    0.496484011
    0.160952553    0.826537013    0.591472447
    0.827619195    0.493203700    0.686460853
    0.494285703    0.159870267    0.781449258
    0.018095016    0.255108356    0.876437724
    0.351428747    0.588441730    0.496484071
    0.018095374    0.255108446    0.591472447
    0.684761882    0.921774983    0.686460912
    0.351428509    0.588441670    0.781449258
    0.303809464    0.397965431    0.876437783
    0.637143016    0.731298864    0.496484071
    0.303809702    0.397965580    0.591472447
    0.970476151    0.064632177    0.686460912
    0.637142837    0.731298745    0.781449258
    0.827618778    0.493203461    0.900184751
    0.494285882    0.159870327    0.425242722
    0.160952494    0.826536953    0.520231128
    0.827619195    0.493203700    0.615219533
    0.494285583    0.159870148    0.710207939
    0.160952196    0.826536715    0.805196404
    0.684761822    0.921774924    0.900184751
    0.351428807    0.588441730    0.425242692
    0.018095374    0.255108386    0.520231068
    0.684762120    0.921775103    0.615219533
    0.351428509    0.588441551    0.710207939
    0.018095136    0.255108178    0.805196404
    0.113333210    0.636060655    0.900184751
    0.780000269    0.302727491    0.425242722
    0.446666837    0.969394088    0.520231128
    0.113333508    0.636060834    0.615219533
    0.779999912    0.302727282    0.710207939
    0.446666539    0.969393909    0.805196404
    0.541904628    0.350346386    0.900184751
    0.208571672    0.017013311    0.425242722
    0.875238299    0.683679879    0.520231128
    0.541904926    0.350346565    0.615219533
    0.208571300    0.017013073    0.710207999
    0.875238001    0.683679760    0.805196404
    0.970476091    0.064632177    0.900184751
    0.637143075    0.731298923    0.425242662
    0.303809643    0.397965521    0.520231068
    0.970476329    0.064632297    0.615219533
    0.637142718    0.731298745    0.710207880
    0.303809345    0.397965431    0.805196345
    0.399047554    0.778917730    0.900184751
    0.065714613    0.445584625    0.425242692
    0.732381225    0.112251252    0.520231068
    0.399047911    0.778917968    0.615219533
    0.065714285    0.445584416    0.710207939
    0.732380927    0.112251110    0.805196404
    0.256190360    0.207489192    0.900184751
    0.922857404    0.874156058    0.425242722
    0.589523971    0.540822685    0.520231128
    0.256190658    0.207489401    0.615219533
    0.922857046    0.874155819    0.710207999
    0.589523733    0.540822506    0.805196404
    0.518095315    0.755108416    0.876437724
    0.851428747    0.088441759    0.496484041
    0.518095434    0.755108416    0.591472447
    0.184761807    0.421774983    0.686460912
    0.851428568    0.088441677    0.781449258
    0.946666539    0.469394028    0.876437724
    0.280000150    0.802727520    0.496484041
    0.946666837    0.469394147    0.591472447
    0.613333285    0.136060715    0.686460912
    0.279999912    0.802727401    0.781449258
    0.803809345    0.897965491    0.876437724
    0.137143046    0.231298983    0.496484011
    0.803809643    0.897965610    0.591472447
    0.470476270    0.564632237    0.686460853
    0.137142703    0.231298804    0.781449258
    0.232380733    0.612251222    0.876437724
    0.565714419    0.945584655    0.496484011
    0.232381031    0.612251222    0.591472447
    0.899047673    0.278917968    0.686460853
    0.565714180    0.945584476    0.781449258
    0.660952270    0.326536775    0.876437724
    0.994285941    0.659870207    0.496484041
    0.660952568    0.326536983    0.591472447
    0.327619016    0.993203461    0.686460912
    0.994285643    0.659870207    0.781449258
    0.089523658    0.040822744    0.876437724
    0.422857285    0.374156028    0.496484041
    0.089524001    0.040822744    0.591472447
    0.756190479    0.707489192    0.686460912
    0.422857106    0.374155939    0.781449258
    0.375238061    0.183679700    0.876437724
    0.708571613    0.517013133    0.496484071
    0.375238240    0.183679849    0.591472447
    0.041904688    0.850346386    0.686460912
    0.708571374    0.517013013    0.781449258
    0.470476329    0.564632237    0.900184751
    0.137143105    0.231298983    0.425242722
    0.803809762    0.897965670    0.520231128
    0.470476329    0.564632237    0.615219593
    0.137142763    0.231298804    0.710207939
    0.803809345    0.897965372    0.805196404
    0.756190479    0.707489312    0.900184751
    0.422857404    0.374156117    0.425242722
    0.089524016    0.040822864    0.520231128
    0.756190598    0.707489371    0.615219593
    0.422857046    0.374155879    0.710207999
    0.089523718    0.040822625    0.805196404
    0.613333404    0.136060834    0.900184751
    0.280000269    0.802727520    0.425242692
    0.946666896    0.469394177    0.520231068
    0.613333464    0.136060774    0.615219533
    0.279999912    0.802727282    0.710207999
    0.946666539    0.469393909    0.805196404
    0.041904688    0.850346506    0.900184751
    0.708571672    0.517013252    0.425242722
    0.375238240    0.183679909    0.520231068
    0.041904807    0.850346506    0.615219533
    0.708571315    0.517013013    0.710207999
    0.375237942    0.183679640    0.805196404
    0.899047554    0.278917909    0.900184751
    0.565714478    0.945584595    0.425242692
    0.232381076    0.612251282    0.520231068
    0.899047673    0.278917879    0.615219533
    0.565714121    0.945584416    0.710207999
    0.232380792    0.612251103    0.805196404
    0.327618897    0.993203580    0.900184751
    0.994285882    0.659870267    0.425242722
    0.660952568    0.326536953    0.520231128
    0.327619076    0.993203580    0.615219593
    0.994285524    0.659870088    0.710207999
    0.660952151    0.326536775    0.805196404
    0.184761867    0.421775162    0.900184751
    0.851428807    0.088441901    0.425242752
    0.518095434    0.755108535    0.520231128
    0.184762001    0.421775162    0.615219593
    0.851428449    0.088441618    0.710207999
    0.518095076    0.755108297    0.805196404
