Sn+Sn                                   
   1.00000000000000     
     9.1771144870000008    0.0000000000000000    0.0000000000000000
     4.5885577199999998   13.7656726840000001    0.0000000000000000
     0.0000000000000000    0.0000000000000000   10.8153333660000008
   Sn
    48
Direct
  0.6617017980000028  0.6617017980000028  0.0000000000000000
  0.4950350519999986  0.4950350820000011  0.3000000420000006
  0.3283683359999969  0.3283684550000032  0.5999999639999984
  0.3283684550000032  0.3283684250000007  0.0000000000000000
  0.1617016940000013  0.1617017539999992  0.3000000420000006
  0.9950349929999973  0.9950351119999965  0.5999999639999984
  0.9950351119999965  0.9950351119999965  0.0000000000000000
  0.8283683060000016  0.8283684250000007  0.3000000420000006
  0.6617016200000023  0.6617017980000028  0.5999999639999984
  0.4117018279999982  0.6617017980000028  0.1499999910000014
  0.2450351119999965  0.4950351119999965  0.4500000179999972
  0.0783682989999974  0.3283683960000019  0.7500000599999979
  0.7450350519999986  0.9950350519999986  0.1499999910000014
  0.5783683659999994  0.8283684250000007  0.4500000179999972
  0.4117016200000023  0.6617016789999965  0.7500000599999979
  0.0783684250000007  0.3283683960000019  0.1499999910000014
  0.9117017390000015  0.1617017689999969  0.4500000179999972
  0.7450349329999995  0.9950350519999986  0.7500000599999979
  0.8283684849999986  0.3283684550000032  0.0000000000000000
  0.6617016789999965  0.1617017390000015  0.3000000420000006
  0.4950349929999973  0.9950351119999965  0.5999999639999984
  0.1617017980000028  0.6617017980000028  0.0000000000000000
  0.9950349929999973  0.4950350820000011  0.3000000420000006
  0.8283683060000016  0.3283684550000032  0.5999999639999984
  0.4950350519999986  0.9950351119999965  0.0000000000000000
  0.3283683359999969  0.8283684250000007  0.3000000420000006
  0.1617015899999998  0.6617017390000015  0.5999999639999984
  0.9117018580000007  0.6617017390000015  0.1499999910000014
  0.7450351720000015  0.4950350820000011  0.4500000179999972
  0.5783683060000016  0.3283683359999969  0.7500000599999979
  0.5783684250000007  0.3283684550000032  0.1499999910000014
  0.4117017390000015  0.1617017840000017  0.4500000179999972
  0.2450349329999995  0.9950350519999986  0.7500000599999979
  0.2450350670000034  0.9950351119999965  0.1499999910000014
  0.0783683510000017  0.8283684250000007  0.4500000179999972
  0.9117015599999974  0.6617016789999965  0.7500000599999979
  0.9628466369999984  0.0265381219999981  0.7500000599999979
  0.5739576220000018  0.3043160140000012  0.8500001430000026
  0.1850686670000030  0.5820938350000020  0.9500001669999989
  0.4628466670000009  0.0265381210000015  0.7500000599999979
  0.0739576590000013  0.3043160140000012  0.8500001430000026
  0.6850687270000009  0.5820938350000020  0.9500001669999989
  0.7684021000000030  0.9154270889999978  0.8000000119999982
  0.3795131440000006  0.1932049990000024  0.9000000950000029
  0.9906240700000026  0.4709830279999991  0.0000002379999984
  0.2684021290000018  0.9154270889999978  0.8000000119999982
  0.8795131440000006  0.1932049990000024  0.9000000950000029
  0.4906241300000005  0.4709830279999991  0.0000002379999984
 
  0.00000000E+00  0.00000000E+00  0.00000000E+00
  0.00000000E+00  0.00000000E+00  0.00000000E+00
  0.00000000E+00  0.00000000E+00  0.00000000E+00
  0.00000000E+00  0.00000000E+00  0.00000000E+00
  0.00000000E+00  0.00000000E+00  0.00000000E+00
  0.00000000E+00  0.00000000E+00  0.00000000E+00
  0.00000000E+00  0.00000000E+00  0.00000000E+00
  0.00000000E+00  0.00000000E+00  0.00000000E+00
  0.00000000E+00  0.00000000E+00  0.00000000E+00
  0.00000000E+00  0.00000000E+00  0.00000000E+00
  0.00000000E+00  0.00000000E+00  0.00000000E+00
  0.00000000E+00  0.00000000E+00  0.00000000E+00
  0.00000000E+00  0.00000000E+00  0.00000000E+00
  0.00000000E+00  0.00000000E+00  0.00000000E+00
  0.00000000E+00  0.00000000E+00  0.00000000E+00
  0.00000000E+00  0.00000000E+00  0.00000000E+00
  0.00000000E+00  0.00000000E+00  0.00000000E+00
  0.00000000E+00  0.00000000E+00  0.00000000E+00
  0.00000000E+00  0.00000000E+00  0.00000000E+00
  0.00000000E+00  0.00000000E+00  0.00000000E+00
  0.00000000E+00  0.00000000E+00  0.00000000E+00
  0.00000000E+00  0.00000000E+00  0.00000000E+00
  0.00000000E+00  0.00000000E+00  0.00000000E+00
  0.00000000E+00  0.00000000E+00  0.00000000E+00
  0.00000000E+00  0.00000000E+00  0.00000000E+00
  0.00000000E+00  0.00000000E+00  0.00000000E+00
  0.00000000E+00  0.00000000E+00  0.00000000E+00
  0.00000000E+00  0.00000000E+00  0.00000000E+00
  0.00000000E+00  0.00000000E+00  0.00000000E+00
  0.00000000E+00  0.00000000E+00  0.00000000E+00
  0.00000000E+00  0.00000000E+00  0.00000000E+00
  0.00000000E+00  0.00000000E+00  0.00000000E+00
  0.00000000E+00  0.00000000E+00  0.00000000E+00
  0.00000000E+00  0.00000000E+00  0.00000000E+00
  0.00000000E+00  0.00000000E+00  0.00000000E+00
  0.00000000E+00  0.00000000E+00  0.00000000E+00
  0.00000000E+00  0.00000000E+00  0.00000000E+00
  0.00000000E+00  0.00000000E+00  0.00000000E+00
  0.00000000E+00  0.00000000E+00  0.00000000E+00
  0.00000000E+00  0.00000000E+00  0.00000000E+00
  0.00000000E+00  0.00000000E+00  0.00000000E+00
  0.00000000E+00  0.00000000E+00  0.00000000E+00
  0.00000000E+00  0.00000000E+00  0.00000000E+00
  0.00000000E+00  0.00000000E+00  0.00000000E+00
  0.00000000E+00  0.00000000E+00  0.00000000E+00
  0.00000000E+00  0.00000000E+00  0.00000000E+00
  0.00000000E+00  0.00000000E+00  0.00000000E+00
  0.00000000E+00  0.00000000E+00  0.00000000E+00
