Sn+Sn
    1.000000000
    9.177114487    0.000000000    0.000000000
    4.588557720   13.765672684    0.000000000
    0.000000000    0.000000000   10.815333366
Sn 
48
Direct
    0.661701798    0.661701798    0.000000000
    0.495035052    0.495035082    0.300000042
    0.328368336    0.328368455    0.599999964
    0.328368455    0.328368425    0.000000000
    0.161701694    0.161701754    0.300000042
    0.995034993    0.995035112    0.599999964
    0.995035112    0.995035112    0.000000000
    0.828368306    0.828368425    0.300000042
    0.661701620    0.661701798    0.599999964
    0.411701828    0.661701798    0.149999991
    0.245035112    0.495035112    0.450000018
    0.078368299    0.328368396    0.750000060
    0.745035052    0.995035052    0.149999991
    0.578368366    0.828368425    0.450000018
    0.411701620    0.661701679    0.750000060
    0.078368425    0.328368396    0.149999991
    0.911701739    0.161701769    0.450000018
    0.745034933    0.995035052    0.750000060
    0.828368485    0.328368455    0.000000000
    0.661701679    0.161701739    0.300000042
    0.495034993    0.995035112    0.599999964
    0.161701798    0.661701798    0.000000000
    0.995034993    0.495035082    0.300000042
    0.828368306    0.328368455    0.599999964
    0.495035052    0.995035112    0.000000000
    0.328368336    0.828368425    0.300000042
    0.161701590    0.661701739    0.599999964
    0.911701858    0.661701739    0.149999991
    0.745035172    0.495035082    0.450000018
    0.578368306    0.328368336    0.750000060
    0.578368425    0.328368455    0.149999991
    0.411701739    0.161701784    0.450000018
    0.245034933    0.995035052    0.750000060
    0.245035067    0.995035112    0.149999991
    0.078368351    0.828368425    0.450000018
    0.911701560    0.661701679    0.750000060
    0.962846637    0.026538122    0.750000060
    0.573957622    0.304316014    0.850000143
    0.185068667    0.582093835    0.950000167
    0.462846667    0.026538121    0.750000060
    0.073957659    0.304316014    0.850000143
    0.685068727    0.582093835    0.950000167
    0.768402100    0.915427089    0.800000012
    0.379513144    0.193204999    0.900000095
    0.990624070    0.470983028    1.000000238
    0.268402129    0.915427089    0.800000012
    0.879513144    0.193204999    0.900000095
    0.490624130    0.470983028    1.000000238
