Ge+Sn                                   
   1.00000000000000     
    11.3156003950000006    0.0000000000000000    0.0000000000000000
     0.0000000000000000   17.8915348049999992    0.0000000000000000
     0.0000000000000000   -0.0000003200000000   13.8673810960000008
   Ge   Sn
    48    48
Direct
  0.9455687399999988  0.0762038009999984  0.0000000120000010
  0.6955686809999975  0.4262039070000014  0.0645095260000019
  0.4455686809999975  0.7762039899999991  0.1290190369999991
  0.1955686209999996  0.1262041330000017  0.1935286220000023
  0.9455686809999975  0.4762041569999980  0.2580381040000006
  0.6955686809999975  0.8262043000000006  0.3225475549999999
  0.4455687399999988  0.0762038009999984  0.0000000120000010
  0.1955687110000000  0.4262039070000014  0.0645095260000019
  0.9455686809999975  0.7762039899999991  0.1290190369999991
  0.6955686809999975  0.1262041330000017  0.1935286220000023
  0.4455686809999975  0.4762041569999980  0.2580381040000006
  0.1955686209999996  0.8262043000000006  0.3225475549999999
  0.0705687250000011  0.8262039419999994  0.0000000300000025
  0.8205686809999975  0.1762040850000020  0.0645095109999971
  0.5705686809999975  0.5262041089999983  0.1290189919999989
  0.3205686209999996  0.8762041330000017  0.1935286069999975
  0.0705686209999996  0.2262041569999980  0.2580381329999994
  0.8205685619999983  0.5762043000000006  0.3225476149999977
  0.5705687399999988  0.8262039419999994  0.0000000300000025
  0.3205687399999988  0.1762040850000020  0.0645095109999971
  0.0705687110000000  0.5262041089999983  0.1290189919999989
  0.8205686809999975  0.8762041330000017  0.1935286069999975
  0.5705686809999975  0.2262041569999980  0.2580381329999994
  0.3205686209999996  0.5762043000000006  0.3225476149999977
  0.9455687399999988  0.5762038230000002  0.0000000160000013
  0.6955686809999975  0.9262039070000014  0.0645094959999994
  0.4455686809999975  0.2762039899999991  0.1290190519999967
  0.1955686209999996  0.6262041330000017  0.1935285480000033
  0.9455686809999975  0.9762041569999980  0.2580381040000006
  0.6955686809999975  0.3262043000000006  0.3225476149999977
  0.4455687399999988  0.5762038230000002  0.0000000160000013
  0.1955687110000000  0.9262039070000014  0.0645094959999994
  0.9455686809999975  0.2762039899999991  0.1290190519999967
  0.6955686809999975  0.6262041330000017  0.1935285480000033
  0.4455686809999975  0.9762041569999980  0.2580381040000006
  0.1955686209999996  0.3262043000000006  0.3225476149999977
  0.0705687250000011  0.3262038230000002  0.0000000000000000
  0.8205686809999975  0.6762039660000028  0.0645095329999990
  0.5705686809999975  0.0262039899999991  0.1290190369999991
  0.3205686209999996  0.3762041330000017  0.1935285630000010
  0.0705686209999996  0.7262041569999980  0.2580380739999981
  0.8205685619999983  0.0762043000000006  0.3225475249999974
  0.5705687399999988  0.3262038230000002  0.0000000000000000
  0.3205687399999988  0.6762039660000028  0.0645095329999990
  0.0705687110000000  0.0262039899999991  0.1290190369999991
  0.8205686809999975  0.3762041330000017  0.1935285630000010
  0.5705686809999975  0.7262041569999980  0.2580380739999981
  0.3205686209999996  0.0762043000000006  0.3225475249999974
  0.0570003990000032  0.7081854340000007  0.4224753680000006
  0.7236669059999983  0.5831854340000007  0.5179947609999971
  0.3903336229999965  0.4581854340000007  0.6135140060000026
  0.0570002790000004  0.3331854340000007  0.7090333700000002
  0.7236667279999978  0.2081854340000007  0.8045527940000028
  0.3903332650000024  0.0831853150000015  0.9000720980000025
  0.0570003990000032  0.2081854340000007  0.4224753680000006
  0.7236669059999983  0.0831854340000007  0.5179947609999971
  0.3903336229999965  0.9581853749999993  0.6135140060000026
  0.0570002790000004  0.8331853749999993  0.7090333700000002
  0.7236667279999978  0.7081853749999993  0.8045527940000028
  0.3903332650000024  0.5831852560000002  0.9000720980000025
  0.3070003389999982  0.9581854340000007  0.4224753680000006
  0.9736669660000032  0.8331854340000007  0.5179947609999971
  0.6403335930000011  0.7081854340000007  0.6135140660000005
  0.3070002500000015  0.5831854340000007  0.7090333700000002
  0.9736668469999969  0.4581854050000018  0.8045527940000028
  0.6403332349999999  0.3331853150000015  0.9000722170000017
  0.3070003389999982  0.4581854340000007  0.4224753680000006
  0.9736669059999983  0.3331854050000018  0.5179947609999971
  0.6403335930000011  0.2081854340000007  0.6135140060000026
  0.3070002500000015  0.0831854340000007  0.7090333700000002
  0.9736668469999969  0.9581853749999993  0.8045526740000000
  0.6403332349999999  0.8331853150000015  0.9000722170000017
  0.0570002790000004  0.9581854340000007  0.4224753680000006
  0.7236669059999983  0.8331854340000007  0.5179947609999971
  0.3903336229999965  0.7081854340000007  0.6135140060000026
  0.0570002790000004  0.5831854340000007  0.7090333700000002
  0.7236667279999978  0.4581853749999993  0.8045527940000028
  0.3903333840000016  0.3331852849999990  0.9000720980000025
  0.0570003990000032  0.4581854340000007  0.4224753680000006
  0.7236669059999983  0.3331854050000018  0.5179947609999971
  0.3903336229999965  0.2081854340000007  0.6135140060000026
  0.0570002790000004  0.0831854340000007  0.7090333700000002
  0.7236668469999969  0.9581853749999993  0.8045527940000028
  0.3903332650000024  0.8331852560000002  0.9000720980000025
  0.3070003990000032  0.7081854340000007  0.4224753980000031
  0.9736669660000032  0.5831854340000007  0.5179947609999971
  0.6403335930000011  0.4581854640000032  0.6135140060000026
  0.3070002500000015  0.3331854340000007  0.7090333700000002
  0.9736668469999969  0.2081854340000007  0.8045527940000028
  0.6403333539999991  0.0831854340000007  0.9000720980000025
  0.3070003690000007  0.2081854340000007  0.4224753680000006
  0.9736669660000032  0.0831854340000007  0.5179947609999971
  0.6403335930000011  0.9581853749999993  0.6135140060000026
  0.3070002500000015  0.8331853749999993  0.7090333700000002
  0.9736668469999969  0.7081853749999993  0.8045527940000028
  0.6403333539999991  0.5831853150000015  0.9000720980000025
 
  0.00000000E+00  0.00000000E+00  0.00000000E+00
  0.00000000E+00  0.00000000E+00  0.00000000E+00
  0.00000000E+00  0.00000000E+00  0.00000000E+00
  0.00000000E+00  0.00000000E+00  0.00000000E+00
  0.00000000E+00  0.00000000E+00  0.00000000E+00
  0.00000000E+00  0.00000000E+00  0.00000000E+00
  0.00000000E+00  0.00000000E+00  0.00000000E+00
  0.00000000E+00  0.00000000E+00  0.00000000E+00
  0.00000000E+00  0.00000000E+00  0.00000000E+00
  0.00000000E+00  0.00000000E+00  0.00000000E+00
  0.00000000E+00  0.00000000E+00  0.00000000E+00
  0.00000000E+00  0.00000000E+00  0.00000000E+00
  0.00000000E+00  0.00000000E+00  0.00000000E+00
  0.00000000E+00  0.00000000E+00  0.00000000E+00
  0.00000000E+00  0.00000000E+00  0.00000000E+00
  0.00000000E+00  0.00000000E+00  0.00000000E+00
  0.00000000E+00  0.00000000E+00  0.00000000E+00
  0.00000000E+00  0.00000000E+00  0.00000000E+00
  0.00000000E+00  0.00000000E+00  0.00000000E+00
  0.00000000E+00  0.00000000E+00  0.00000000E+00
  0.00000000E+00  0.00000000E+00  0.00000000E+00
  0.00000000E+00  0.00000000E+00  0.00000000E+00
  0.00000000E+00  0.00000000E+00  0.00000000E+00
  0.00000000E+00  0.00000000E+00  0.00000000E+00
  0.00000000E+00  0.00000000E+00  0.00000000E+00
  0.00000000E+00  0.00000000E+00  0.00000000E+00
  0.00000000E+00  0.00000000E+00  0.00000000E+00
  0.00000000E+00  0.00000000E+00  0.00000000E+00
  0.00000000E+00  0.00000000E+00  0.00000000E+00
  0.00000000E+00  0.00000000E+00  0.00000000E+00
  0.00000000E+00  0.00000000E+00  0.00000000E+00
  0.00000000E+00  0.00000000E+00  0.00000000E+00
  0.00000000E+00  0.00000000E+00  0.00000000E+00
  0.00000000E+00  0.00000000E+00  0.00000000E+00
  0.00000000E+00  0.00000000E+00  0.00000000E+00
  0.00000000E+00  0.00000000E+00  0.00000000E+00
  0.00000000E+00  0.00000000E+00  0.00000000E+00
  0.00000000E+00  0.00000000E+00  0.00000000E+00
  0.00000000E+00  0.00000000E+00  0.00000000E+00
  0.00000000E+00  0.00000000E+00  0.00000000E+00
  0.00000000E+00  0.00000000E+00  0.00000000E+00
  0.00000000E+00  0.00000000E+00  0.00000000E+00
  0.00000000E+00  0.00000000E+00  0.00000000E+00
  0.00000000E+00  0.00000000E+00  0.00000000E+00
  0.00000000E+00  0.00000000E+00  0.00000000E+00
  0.00000000E+00  0.00000000E+00  0.00000000E+00
  0.00000000E+00  0.00000000E+00  0.00000000E+00
  0.00000000E+00  0.00000000E+00  0.00000000E+00
  0.00000000E+00  0.00000000E+00  0.00000000E+00
  0.00000000E+00  0.00000000E+00  0.00000000E+00
  0.00000000E+00  0.00000000E+00  0.00000000E+00
  0.00000000E+00  0.00000000E+00  0.00000000E+00
  0.00000000E+00  0.00000000E+00  0.00000000E+00
  0.00000000E+00  0.00000000E+00  0.00000000E+00
  0.00000000E+00  0.00000000E+00  0.00000000E+00
  0.00000000E+00  0.00000000E+00  0.00000000E+00
  0.00000000E+00  0.00000000E+00  0.00000000E+00
  0.00000000E+00  0.00000000E+00  0.00000000E+00
  0.00000000E+00  0.00000000E+00  0.00000000E+00
  0.00000000E+00  0.00000000E+00  0.00000000E+00
  0.00000000E+00  0.00000000E+00  0.00000000E+00
  0.00000000E+00  0.00000000E+00  0.00000000E+00
  0.00000000E+00  0.00000000E+00  0.00000000E+00
  0.00000000E+00  0.00000000E+00  0.00000000E+00
  0.00000000E+00  0.00000000E+00  0.00000000E+00
  0.00000000E+00  0.00000000E+00  0.00000000E+00
  0.00000000E+00  0.00000000E+00  0.00000000E+00
  0.00000000E+00  0.00000000E+00  0.00000000E+00
  0.00000000E+00  0.00000000E+00  0.00000000E+00
  0.00000000E+00  0.00000000E+00  0.00000000E+00
  0.00000000E+00  0.00000000E+00  0.00000000E+00
  0.00000000E+00  0.00000000E+00  0.00000000E+00
  0.00000000E+00  0.00000000E+00  0.00000000E+00
  0.00000000E+00  0.00000000E+00  0.00000000E+00
  0.00000000E+00  0.00000000E+00  0.00000000E+00
  0.00000000E+00  0.00000000E+00  0.00000000E+00
  0.00000000E+00  0.00000000E+00  0.00000000E+00
  0.00000000E+00  0.00000000E+00  0.00000000E+00
  0.00000000E+00  0.00000000E+00  0.00000000E+00
  0.00000000E+00  0.00000000E+00  0.00000000E+00
  0.00000000E+00  0.00000000E+00  0.00000000E+00
  0.00000000E+00  0.00000000E+00  0.00000000E+00
  0.00000000E+00  0.00000000E+00  0.00000000E+00
  0.00000000E+00  0.00000000E+00  0.00000000E+00
  0.00000000E+00  0.00000000E+00  0.00000000E+00
  0.00000000E+00  0.00000000E+00  0.00000000E+00
  0.00000000E+00  0.00000000E+00  0.00000000E+00
  0.00000000E+00  0.00000000E+00  0.00000000E+00
  0.00000000E+00  0.00000000E+00  0.00000000E+00
  0.00000000E+00  0.00000000E+00  0.00000000E+00
  0.00000000E+00  0.00000000E+00  0.00000000E+00
  0.00000000E+00  0.00000000E+00  0.00000000E+00
  0.00000000E+00  0.00000000E+00  0.00000000E+00
  0.00000000E+00  0.00000000E+00  0.00000000E+00
  0.00000000E+00  0.00000000E+00  0.00000000E+00
  0.00000000E+00  0.00000000E+00  0.00000000E+00
