Sn+Ge
    1.000000000
   11.239624023    0.000000000    0.000000000
    0.000000000   18.354230881    0.000000000
    0.000000000    0.000000000   13.867381096
Sn  Ge 
48     48
Direct
    0.940928936    0.477848351    0.000000001
    0.607595503    0.352848351    0.095519364
    0.274262190    0.227848351    0.191038668
    0.940928817    0.102848344    0.286558032
    0.607595325    0.977848291    0.382077426
    0.274261832    0.852848232    0.477596760
    0.940928936    0.977848351    0.000000006
    0.607595503    0.852848291    0.095519379
    0.274262190    0.727848291    0.191038668
    0.940928817    0.602848291    0.286558002
    0.607595325    0.477848291    0.382077426
    0.274261832    0.352848172    0.477596760
    0.190928906    0.727848351    0.000000006
    0.857595563    0.602848351    0.095519379
    0.524262190    0.477848351    0.191038713
    0.190928817    0.352848351    0.286558032
    0.857595444    0.227848321    0.382077426
    0.524261832    0.102848224    0.477596849
    0.190928906    0.227848351    0.000000000
    0.857595503    0.102848329    0.095519364
    0.524262190    0.977848351    0.191038683
    0.190928817    0.852848351    0.286558002
    0.857595444    0.727848291    0.382077366
    0.524261832    0.602848232    0.477596849
    0.940928876    0.727848351    0.000000000
    0.607595503    0.602848351    0.095519394
    0.274262190    0.477848351    0.191038668
    0.940928817    0.352848351    0.286558002
    0.607595325    0.227848306    0.382077426
    0.274261951    0.102848209    0.477596760
    0.940928936    0.227848351    0.000000004
    0.607595503    0.102848329    0.095519364
    0.274262190    0.977848351    0.191038668
    0.940928817    0.852848351    0.286558002
    0.607595444    0.727848291    0.382077426
    0.274261832    0.602848172    0.477596760
    0.190928966    0.477848381    0.000000019
    0.857595563    0.352848381    0.095519379
    0.524262190    0.227848381    0.191038683
    0.190928817    0.102848351    0.286558032
    0.857595444    0.977848351    0.382077426
    0.524261951    0.852848291    0.477596790
    0.190928951    0.977848351    0.000000008
    0.857595563    0.852848291    0.095519364
    0.524262190    0.727848291    0.191038683
    0.190928817    0.602848291    0.286558032
    0.857595444    0.477848291    0.382077426
    0.524261951    0.352848232    0.477596790
    0.269893050    0.737406015    0.577524602
    0.019892931    0.087406158    0.642034113
    0.769892991    0.437406182    0.706543565
    0.519892931    0.787406325    0.771053255
    0.269892931    0.137406349    0.835562706
    0.019892931    0.487406492    0.900072157
    0.769893050    0.737406015    0.577524602
    0.519893050    0.087406158    0.642034113
    0.269892931    0.437406182    0.706543565
    0.019892931    0.787406325    0.771053255
    0.769892991    0.137406349    0.835562706
    0.519892931    0.487406492    0.900072157
    0.394893050    0.487406135    0.577524602
    0.144892931    0.837406278    0.642034113
    0.894892991    0.187406301    0.706543565
    0.644892931    0.537406325    0.771053255
    0.394892931    0.887406349    0.835562766
    0.144892931    0.237406492    0.900072217
    0.894893050    0.487406135    0.577524602
    0.644893050    0.837406278    0.642034113
    0.394893020    0.187406301    0.706543565
    0.144892931    0.537406325    0.771053255
    0.894892991    0.887406349    0.835562766
    0.644892931    0.237406492    0.900072217
    0.269893050    0.237406015    0.577524602
    0.019892931    0.587406158    0.642034054
    0.769892991    0.937406182    0.706543624
    0.519892931    0.287406325    0.771053195
    0.269892931    0.637406349    0.835562706
    0.019892931    0.987406492    0.900072217
    0.769893050    0.237406015    0.577524602
    0.519893050    0.587406158    0.642034054
    0.269892931    0.937406182    0.706543624
    0.019892931    0.287406325    0.771053195
    0.769892991    0.637406349    0.835562706
    0.519892931    0.987406492    0.900072217
    0.394893050    0.987406015    0.577524602
    0.144892931    0.337406158    0.642034113
    0.894892991    0.687406182    0.706543565
    0.644892931    0.037406325    0.771053195
    0.394892931    0.387406349    0.835562706
    0.144892931    0.737406492    0.900072157
    0.894893050    0.987406015    0.577524602
    0.644893050    0.337406158    0.642034113
    0.394893020    0.687406182    0.706543565
    0.144892931    0.037406325    0.771053195
    0.894892991    0.387406349    0.835562706
    0.644892931    0.737406492    0.900072157
