Si+Sn                                   
   1.00000000000000     
     9.4067678449999992    0.0000000000000000    0.0000000000000000
     0.0000000000000000   13.3031797409999992    0.0000000000000000
     0.0000000000000000    0.0000000000000000   21.0721378329999993
   Si   Sn
    72    48
Direct
  0.6666666870000029  0.6451839799999988  0.0000000020000002
  0.6666666269999979  0.3951838910000021  0.0911226349999978
  0.6666666269999979  0.1451838170000030  0.1822452689999992
  0.6666665670000000  0.8951837420000004  0.2733679119999977
  0.6666665670000000  0.6451836820000025  0.3644905390000019
  0.6666665079999987  0.3951835040000020  0.4556131960000016
  0.3333333129999971  0.3118506069999967  0.0000000020000002
  0.3333333129999971  0.0618505369999980  0.0911226349999978
  0.3333332839999983  0.8118504879999975  0.1822452689999992
  0.3333332540000029  0.5618504290000033  0.2733679119999977
  0.3333331939999979  0.3118503090000004  0.3644905390000019
  0.3333331640000026  0.0618501900000012  0.4556131960000016
  0.0000000000000000  0.9785172939999995  0.0000000020000002
  0.9999999400000021  0.7285171750000003  0.0911226349999978
  0.9999999400000021  0.4785171150000025  0.1822452689999992
  0.9999998810000008  0.2285170560000012  0.2733679119999977
  0.9999998210000030  0.9785169359999983  0.3644905390000019
  0.9999998210000030  0.7285168169999992  0.4556131960000016
  0.6666666870000029  0.1451839209999974  0.0000000029999967
  0.6666666870000029  0.8951838609999996  0.0911226349999978
  0.6666666269999979  0.6451838019999983  0.1822452689999992
  0.6666665670000000  0.3951837420000004  0.2733678820000023
  0.6666665079999987  0.1451836230000012  0.3644905390000019
  0.6666665079999987  0.8951835630000033  0.4556131659999991
  0.3333333730000021  0.8118506670000016  0.0000000009999965
  0.3333333429999996  0.5618506069999967  0.0911226349999978
  0.3333333129999971  0.3118505779999978  0.1822452689999992
  0.3333332839999983  0.0618505070000026  0.2733679119999977
  0.3333331939999979  0.8118504290000033  0.3644905390000019
  0.3333331640000026  0.5618503090000004  0.4556131659999991
  0.0000000000000000  0.4785172939999995  0.0000000000000000
  0.9999999400000021  0.2285172050000028  0.0911226349999978
  0.9999999400000021  0.9785171150000025  0.1822452689999992
  0.9999998810000008  0.7285170560000012  0.2733678820000023
  0.9999998210000030  0.4785169359999983  0.3644905390000019
  0.9999998210000030  0.2285168769999970  0.4556131960000016
  0.9166667459999971  0.6451839209999974  0.0000000009999965
  0.9166667459999971  0.3951838019999983  0.0911226420000020
  0.9166667459999971  0.1451837870000006  0.1822452689999992
  0.9166666870000029  0.8951836820000025  0.2733679119999977
  0.9166666269999979  0.6451835630000033  0.3644905390000019
  0.9166666269999979  0.3951834439999971  0.4556131960000016
  0.5833333730000021  0.3118506369999992  0.0000000020000002
  0.5833333129999971  0.0618505589999998  0.0911226200000002
  0.5833333129999971  0.8118504879999975  0.1822452689999992
  0.5833332540000029  0.5618504290000033  0.2733678820000023
  0.5833332540000029  0.3118503090000004  0.3644905390000019
  0.5833331939999979  0.0618502499999991  0.4556131659999991
  0.2500000000000000  0.9785172939999995  0.0000000020000002
  0.2499999699999975  0.7285171750000003  0.0911226349999978
  0.2499999249999973  0.4785171750000003  0.1822452689999992
  0.2499999110000033  0.2285171150000025  0.2733678820000023
  0.2499998210000030  0.9785169359999983  0.3644905390000019
  0.2499997910000005  0.7285168169999992  0.4556131659999991
  0.9166667459999971  0.1451839360000022  0.0000000109999974
  0.9166666870000029  0.8951838609999996  0.0911226349999978
  0.9166666269999979  0.6451838019999983  0.1822452689999992
  0.9166665670000000  0.3951837420000004  0.2733678820000023
  0.9166665079999987  0.1451836230000012  0.3644905390000019
  0.9166665079999987  0.8951834439999971  0.4556131659999991
  0.5833333129999971  0.8118505480000024  0.0000000009999965
  0.5833332540000029  0.5618504879999975  0.0911226349999978
  0.5833332540000029  0.3118504290000033  0.1822452689999992
  0.5833331939999979  0.0618503649999980  0.2733678820000023
  0.5833331939999979  0.8118502499999991  0.3644905390000019
  0.5833331349999966  0.5618501309999999  0.4556131659999991
  0.2499999850000023  0.4785172639999971  0.0000000009999965
  0.2499999549999998  0.2285172050000028  0.0911226349999978
  0.2499999249999973  0.9785171150000025  0.1822452689999992
  0.2499998660000031  0.7285170560000012  0.2733678820000023
  0.2499998509999983  0.4785169359999983  0.3644905390000019
  0.2499998210000030  0.2285168169999992  0.4556131960000016
  0.9820204970000006  0.9820204970000006  0.4556131659999991
  0.7320204970000006  0.7320204970000006  0.5644905569999992
  0.4820204379999993  0.4820204379999993  0.6733678579999989
  0.2320204379999993  0.2320204379999993  0.7822452779999978
  0.9820203780000014  0.9820203780000014  0.8911225800000011
  0.7320203780000014  0.7320203780000014  0.0000000000000000
  0.9820204970000006  0.4820204970000006  0.4556131659999991
  0.7320204970000006  0.2320204820000029  0.5644905569999992
  0.4820204379999993  0.9820204379999993  0.6733678579999989
  0.2320204379999993  0.7320203780000014  0.7822452779999978
  0.9820203780000014  0.4820203780000014  0.8911225800000011
  0.7320203780000014  0.2320203190000001  0.0000000000000000
  0.4820204680000018  0.9820204970000006  0.4556131659999991
  0.2320204680000018  0.7320204970000006  0.5644905569999992
  0.9820204379999993  0.4820204379999993  0.6733678579999989
  0.7320203780000014  0.2320204379999993  0.7822452779999978
  0.4820203780000014  0.9820203780000014  0.8911225800000011
  0.2320203190000001  0.7320203780000014  0.0000000000000000
  0.4820204680000018  0.4820204970000006  0.4556131659999991
  0.2320204680000018  0.2320204820000029  0.5644905569999992
  0.9820204379999993  0.9820204379999993  0.6733678579999989
  0.7320203780000014  0.7320203780000014  0.7822452779999978
  0.4820203780000014  0.4820203780000014  0.8911225800000011
  0.2320203190000001  0.2320203190000001  0.0000000000000000
  0.7320204379999993  0.3570204970000006  0.4556131659999991
  0.4820204379999993  0.1070204680000018  0.5644905569999992
  0.2320203780000014  0.8570203780000014  0.6733678579999989
  0.9820203190000001  0.6070203780000014  0.7822452779999978
  0.7320203190000001  0.3570203190000001  0.8911225800000011
  0.4820203190000001  0.1070203190000001  0.0000000000000000
  0.7320204379999993  0.8570204379999993  0.4556131659999991
  0.4820204379999993  0.6070204379999993  0.5644905569999992
  0.2320203780000014  0.3570203780000014  0.6733678579999989
  0.9820203190000001  0.1070203330000012  0.7822452779999978
  0.7320203190000001  0.8570203780000014  0.8911225800000011
  0.4820203190000001  0.6070202590000022  0.0000000000000000
  0.2320204820000029  0.3570204970000006  0.4556131659999991
  0.9820204970000006  0.1070204680000018  0.5644905569999992
  0.7320203780000014  0.8570203780000014  0.6733678579999989
  0.4820203190000001  0.6070203780000014  0.7822452779999978
  0.2320203780000014  0.3570203190000001  0.8911225800000011
  0.9820203780000014  0.1070203190000001  0.0000000000000000
  0.2320204820000029  0.8570204379999993  0.4556131659999991
  0.9820204970000006  0.6070204379999993  0.5644905569999992
  0.7320203780000014  0.3570203780000014  0.6733678579999989
  0.4820203190000001  0.1070203330000012  0.7822452779999978
  0.2320203780000014  0.8570203780000014  0.8911225800000011
  0.9820203780000014  0.6070202590000022  0.0000000000000000
 
  0.00000000E+00  0.00000000E+00  0.00000000E+00
  0.00000000E+00  0.00000000E+00  0.00000000E+00
  0.00000000E+00  0.00000000E+00  0.00000000E+00
  0.00000000E+00  0.00000000E+00  0.00000000E+00
  0.00000000E+00  0.00000000E+00  0.00000000E+00
  0.00000000E+00  0.00000000E+00  0.00000000E+00
  0.00000000E+00  0.00000000E+00  0.00000000E+00
  0.00000000E+00  0.00000000E+00  0.00000000E+00
  0.00000000E+00  0.00000000E+00  0.00000000E+00
  0.00000000E+00  0.00000000E+00  0.00000000E+00
  0.00000000E+00  0.00000000E+00  0.00000000E+00
  0.00000000E+00  0.00000000E+00  0.00000000E+00
  0.00000000E+00  0.00000000E+00  0.00000000E+00
  0.00000000E+00  0.00000000E+00  0.00000000E+00
  0.00000000E+00  0.00000000E+00  0.00000000E+00
  0.00000000E+00  0.00000000E+00  0.00000000E+00
  0.00000000E+00  0.00000000E+00  0.00000000E+00
  0.00000000E+00  0.00000000E+00  0.00000000E+00
  0.00000000E+00  0.00000000E+00  0.00000000E+00
  0.00000000E+00  0.00000000E+00  0.00000000E+00
  0.00000000E+00  0.00000000E+00  0.00000000E+00
  0.00000000E+00  0.00000000E+00  0.00000000E+00
  0.00000000E+00  0.00000000E+00  0.00000000E+00
  0.00000000E+00  0.00000000E+00  0.00000000E+00
  0.00000000E+00  0.00000000E+00  0.00000000E+00
  0.00000000E+00  0.00000000E+00  0.00000000E+00
  0.00000000E+00  0.00000000E+00  0.00000000E+00
  0.00000000E+00  0.00000000E+00  0.00000000E+00
  0.00000000E+00  0.00000000E+00  0.00000000E+00
  0.00000000E+00  0.00000000E+00  0.00000000E+00
  0.00000000E+00  0.00000000E+00  0.00000000E+00
  0.00000000E+00  0.00000000E+00  0.00000000E+00
  0.00000000E+00  0.00000000E+00  0.00000000E+00
  0.00000000E+00  0.00000000E+00  0.00000000E+00
  0.00000000E+00  0.00000000E+00  0.00000000E+00
  0.00000000E+00  0.00000000E+00  0.00000000E+00
  0.00000000E+00  0.00000000E+00  0.00000000E+00
  0.00000000E+00  0.00000000E+00  0.00000000E+00
  0.00000000E+00  0.00000000E+00  0.00000000E+00
  0.00000000E+00  0.00000000E+00  0.00000000E+00
  0.00000000E+00  0.00000000E+00  0.00000000E+00
  0.00000000E+00  0.00000000E+00  0.00000000E+00
  0.00000000E+00  0.00000000E+00  0.00000000E+00
  0.00000000E+00  0.00000000E+00  0.00000000E+00
  0.00000000E+00  0.00000000E+00  0.00000000E+00
  0.00000000E+00  0.00000000E+00  0.00000000E+00
  0.00000000E+00  0.00000000E+00  0.00000000E+00
  0.00000000E+00  0.00000000E+00  0.00000000E+00
  0.00000000E+00  0.00000000E+00  0.00000000E+00
  0.00000000E+00  0.00000000E+00  0.00000000E+00
  0.00000000E+00  0.00000000E+00  0.00000000E+00
  0.00000000E+00  0.00000000E+00  0.00000000E+00
  0.00000000E+00  0.00000000E+00  0.00000000E+00
  0.00000000E+00  0.00000000E+00  0.00000000E+00
  0.00000000E+00  0.00000000E+00  0.00000000E+00
  0.00000000E+00  0.00000000E+00  0.00000000E+00
  0.00000000E+00  0.00000000E+00  0.00000000E+00
  0.00000000E+00  0.00000000E+00  0.00000000E+00
  0.00000000E+00  0.00000000E+00  0.00000000E+00
  0.00000000E+00  0.00000000E+00  0.00000000E+00
  0.00000000E+00  0.00000000E+00  0.00000000E+00
  0.00000000E+00  0.00000000E+00  0.00000000E+00
  0.00000000E+00  0.00000000E+00  0.00000000E+00
  0.00000000E+00  0.00000000E+00  0.00000000E+00
  0.00000000E+00  0.00000000E+00  0.00000000E+00
  0.00000000E+00  0.00000000E+00  0.00000000E+00
  0.00000000E+00  0.00000000E+00  0.00000000E+00
  0.00000000E+00  0.00000000E+00  0.00000000E+00
  0.00000000E+00  0.00000000E+00  0.00000000E+00
  0.00000000E+00  0.00000000E+00  0.00000000E+00
  0.00000000E+00  0.00000000E+00  0.00000000E+00
  0.00000000E+00  0.00000000E+00  0.00000000E+00
  0.00000000E+00  0.00000000E+00  0.00000000E+00
  0.00000000E+00  0.00000000E+00  0.00000000E+00
  0.00000000E+00  0.00000000E+00  0.00000000E+00
  0.00000000E+00  0.00000000E+00  0.00000000E+00
  0.00000000E+00  0.00000000E+00  0.00000000E+00
  0.00000000E+00  0.00000000E+00  0.00000000E+00
  0.00000000E+00  0.00000000E+00  0.00000000E+00
  0.00000000E+00  0.00000000E+00  0.00000000E+00
  0.00000000E+00  0.00000000E+00  0.00000000E+00
  0.00000000E+00  0.00000000E+00  0.00000000E+00
  0.00000000E+00  0.00000000E+00  0.00000000E+00
  0.00000000E+00  0.00000000E+00  0.00000000E+00
  0.00000000E+00  0.00000000E+00  0.00000000E+00
  0.00000000E+00  0.00000000E+00  0.00000000E+00
  0.00000000E+00  0.00000000E+00  0.00000000E+00
  0.00000000E+00  0.00000000E+00  0.00000000E+00
  0.00000000E+00  0.00000000E+00  0.00000000E+00
  0.00000000E+00  0.00000000E+00  0.00000000E+00
  0.00000000E+00  0.00000000E+00  0.00000000E+00
  0.00000000E+00  0.00000000E+00  0.00000000E+00
  0.00000000E+00  0.00000000E+00  0.00000000E+00
  0.00000000E+00  0.00000000E+00  0.00000000E+00
  0.00000000E+00  0.00000000E+00  0.00000000E+00
  0.00000000E+00  0.00000000E+00  0.00000000E+00
  0.00000000E+00  0.00000000E+00  0.00000000E+00
  0.00000000E+00  0.00000000E+00  0.00000000E+00
  0.00000000E+00  0.00000000E+00  0.00000000E+00
  0.00000000E+00  0.00000000E+00  0.00000000E+00
  0.00000000E+00  0.00000000E+00  0.00000000E+00
  0.00000000E+00  0.00000000E+00  0.00000000E+00
  0.00000000E+00  0.00000000E+00  0.00000000E+00
  0.00000000E+00  0.00000000E+00  0.00000000E+00
  0.00000000E+00  0.00000000E+00  0.00000000E+00
  0.00000000E+00  0.00000000E+00  0.00000000E+00
  0.00000000E+00  0.00000000E+00  0.00000000E+00
  0.00000000E+00  0.00000000E+00  0.00000000E+00
  0.00000000E+00  0.00000000E+00  0.00000000E+00
  0.00000000E+00  0.00000000E+00  0.00000000E+00
  0.00000000E+00  0.00000000E+00  0.00000000E+00
  0.00000000E+00  0.00000000E+00  0.00000000E+00
  0.00000000E+00  0.00000000E+00  0.00000000E+00
  0.00000000E+00  0.00000000E+00  0.00000000E+00
  0.00000000E+00  0.00000000E+00  0.00000000E+00
  0.00000000E+00  0.00000000E+00  0.00000000E+00
  0.00000000E+00  0.00000000E+00  0.00000000E+00
  0.00000000E+00  0.00000000E+00  0.00000000E+00
  0.00000000E+00  0.00000000E+00  0.00000000E+00
  0.00000000E+00  0.00000000E+00  0.00000000E+00
