Si+Sn
    1.000000000
    9.406767845    0.000000000    0.000000000
    0.000000000   13.303179741    0.000000000
    0.000000000    0.000000000   21.072137833
Si  Sn 
72     48
Direct
    0.666666687    0.645183980    0.000000002
    0.666666627    0.395183891    0.091122635
    0.666666627    0.145183817    0.182245269
    0.666666567    0.895183742    0.273367912
    0.666666567    0.645183682    0.364490539
    0.666666508    0.395183504    0.455613196
    0.333333313    0.311850607    0.000000002
    0.333333313    0.061850537    0.091122635
    0.333333284    0.811850488    0.182245269
    0.333333254    0.561850429    0.273367912
    0.333333194    0.311850309    0.364490539
    0.333333164    0.061850190    0.455613196
    0.000000000    0.978517294    0.000000002
    0.999999940    0.728517175    0.091122635
    0.999999940    0.478517115    0.182245269
    0.999999881    0.228517056    0.273367912
    0.999999821    0.978516936    0.364490539
    0.999999821    0.728516817    0.455613196
    0.666666687    0.145183921    0.000000003
    0.666666687    0.895183861    0.091122635
    0.666666627    0.645183802    0.182245269
    0.666666567    0.395183742    0.273367882
    0.666666508    0.145183623    0.364490539
    0.666666508    0.895183563    0.455613166
    0.333333373    0.811850667    0.000000001
    0.333333343    0.561850607    0.091122635
    0.333333313    0.311850578    0.182245269
    0.333333284    0.061850507    0.273367912
    0.333333194    0.811850429    0.364490539
    0.333333164    0.561850309    0.455613166
    1.000000000    0.478517294    0.000000000
    0.999999940    0.228517205    0.091122635
    0.999999940    0.978517115    0.182245269
    0.999999881    0.728517056    0.273367882
    0.999999821    0.478516936    0.364490539
    0.999999821    0.228516877    0.455613196
    0.916666746    0.645183921    0.000000001
    0.916666746    0.395183802    0.091122642
    0.916666746    0.145183787    0.182245269
    0.916666687    0.895183682    0.273367912
    0.916666627    0.645183563    0.364490539
    0.916666627    0.395183444    0.455613196
    0.583333373    0.311850637    0.000000002
    0.583333313    0.061850559    0.091122620
    0.583333313    0.811850488    0.182245269
    0.583333254    0.561850429    0.273367882
    0.583333254    0.311850309    0.364490539
    0.583333194    0.061850250    0.455613166
    0.250000000    0.978517294    0.000000002
    0.249999970    0.728517175    0.091122635
    0.249999925    0.478517175    0.182245269
    0.249999911    0.228517115    0.273367882
    0.249999821    0.978516936    0.364490539
    0.249999791    0.728516817    0.455613166
    0.916666746    0.145183936    0.000000011
    0.916666687    0.895183861    0.091122635
    0.916666627    0.645183802    0.182245269
    0.916666567    0.395183742    0.273367882
    0.916666508    0.145183623    0.364490539
    0.916666508    0.895183444    0.455613166
    0.583333313    0.811850548    0.000000001
    0.583333254    0.561850488    0.091122635
    0.583333254    0.311850429    0.182245269
    0.583333194    0.061850365    0.273367882
    0.583333194    0.811850250    0.364490539
    0.583333135    0.561850131    0.455613166
    0.249999985    0.478517264    0.000000001
    0.249999955    0.228517205    0.091122635
    0.249999925    0.978517115    0.182245269
    0.249999866    0.728517056    0.273367882
    0.249999851    0.478516936    0.364490539
    0.249999821    0.228516817    0.455613196
    0.982020497    0.982020497    0.455613166
    0.732020497    0.732020497    0.564490557
    0.482020438    0.482020438    0.673367858
    0.232020438    0.232020438    0.782245278
    0.982020378    0.982020378    0.891122580
    0.732020378    0.732020378    1.000000000
    0.982020497    0.482020497    0.455613166
    0.732020497    0.232020482    0.564490557
    0.482020438    0.982020438    0.673367858
    0.232020438    0.732020378    0.782245278
    0.982020378    0.482020378    0.891122580
    0.732020378    0.232020319    1.000000000
    0.482020468    0.982020497    0.455613166
    0.232020468    0.732020497    0.564490557
    0.982020438    0.482020438    0.673367858
    0.732020378    0.232020438    0.782245278
    0.482020378    0.982020378    0.891122580
    0.232020319    0.732020378    1.000000000
    0.482020468    0.482020497    0.455613166
    0.232020468    0.232020482    0.564490557
    0.982020438    0.982020438    0.673367858
    0.732020378    0.732020378    0.782245278
    0.482020378    0.482020378    0.891122580
    0.232020319    0.232020319    1.000000000
    0.732020438    0.357020497    0.455613166
    0.482020438    0.107020468    0.564490557
    0.232020378    0.857020378    0.673367858
    0.982020319    0.607020378    0.782245278
    0.732020319    0.357020319    0.891122580
    0.482020319    0.107020319    1.000000000
    0.732020438    0.857020438    0.455613166
    0.482020438    0.607020438    0.564490557
    0.232020378    0.357020378    0.673367858
    0.982020319    0.107020333    0.782245278
    0.732020319    0.857020378    0.891122580
    0.482020319    0.607020259    1.000000000
    0.232020482    0.357020497    0.455613166
    0.982020497    0.107020468    0.564490557
    0.732020378    0.857020378    0.673367858
    0.482020319    0.607020378    0.782245278
    0.232020378    0.357020319    0.891122580
    0.982020378    0.107020319    1.000000000
    0.232020482    0.857020438    0.455613166
    0.982020497    0.607020438    0.564490557
    0.732020378    0.357020378    0.673367858
    0.482020319    0.107020333    0.782245278
    0.232020378    0.857020378    0.891122580
    0.982020378    0.607020259    1.000000000
