Sn+Ge                                   
   1.00000000000000     
    12.9784002300000001    0.0000000000000000    0.0000000000000000
   -12.9784002300000001   14.5102930069999996    0.0000000000000000
     0.0000000000000000    0.0000000000000000    9.3891057969999991
   Sn   Ge
    24    24
Direct
  0.9795643089999970  0.0306535329999988  0.0000000089999972
  0.7795642609999973  0.3306535780000033  0.1545439510000008
  0.5795641540000034  0.6306536199999968  0.3090879020000017
  0.4795642500000028  0.0306535329999988  0.0000000089999972
  0.2795642020000031  0.3306535780000033  0.1545439510000008
  0.0795641320000016  0.6306536199999968  0.3090879020000017
  0.2545643150000032  0.6806535119999992  0.0772718190000035
  0.0545641590000017  0.9806534650000032  0.2318157850000020
  0.8545641300000000  0.2806535960000005  0.3863596919999992
  0.7545644039999999  0.6806535119999992  0.0772718190000035
  0.5545642379999975  0.9806534650000032  0.2318157850000020
  0.3545641600000025  0.2806535960000005  0.3863596919999992
  0.2295642790000016  0.5306534770000013  0.0000000000000000
  0.0295641909999986  0.8306534889999995  0.1545439510000008
  0.8295640349999971  0.1306536199999968  0.3090879020000017
  0.7295641899999978  0.5306534770000013  0.0000000000000000
  0.5295641419999981  0.8306534889999995  0.1545439510000008
  0.3295640349999971  0.1306536199999968  0.3090879020000017
  0.0045643300000009  0.1806535119999992  0.0772718269999970
  0.8045641779999997  0.4806535840000024  0.2318157850000020
  0.6045642500000028  0.7806536559999984  0.3863596919999992
  0.5045642850000007  0.1806535119999992  0.0772718269999970
  0.3045641779999997  0.4806535840000024  0.2318157850000020
  0.1045641680000031  0.7806536559999984  0.3863596919999992
  0.0505266190000029  0.8365871909999996  0.5556572679999974
  0.9338598849999968  0.4199204439999988  0.6106662749999998
  0.8171931509999979  0.0032536980000017  0.6656752820000023
  0.7005262970000032  0.5865869519999976  0.7206843499999991
  0.5838596219999985  0.1699203249999997  0.7756932969999966
  0.4671927990000029  0.7532533409999971  0.8307023639999969
  0.5505266190000029  0.0865871909999996  0.5556572679999974
  0.4338598849999968  0.6699204439999988  0.6106662749999998
  0.3171931210000025  0.2532536980000017  0.6656752820000023
  0.2005263269999986  0.8365869519999976  0.7206842300000034
  0.0838595700000013  0.4199202060000005  0.7756932380000023
  0.9671928879999996  0.0032533409999971  0.8307023050000026
  0.5505266190000029  0.3365871909999996  0.5556573269999987
  0.4338598550000015  0.9199204439999988  0.6106663349999977
  0.3171930910000000  0.5032536980000017  0.6656752820000023
  0.2005263570000011  0.0865869519999976  0.7206842900000012
  0.0838596299999992  0.6699202060000005  0.7756932969999966
  0.9671927690000004  0.2532532219999979  0.8307023639999969
  0.0505266190000029  0.5865871909999996  0.5556573269999987
  0.9338598249999990  0.1699204439999988  0.6106663349999977
  0.8171930910000000  0.7532536980000017  0.6656752820000023
  0.7005262970000032  0.3365869519999976  0.7206842900000012
  0.5838595629999972  0.9199202060000005  0.7756933570000015
  0.4671927990000029  0.5032532219999979  0.8307023639999969
 
  0.00000000E+00  0.00000000E+00  0.00000000E+00
  0.00000000E+00  0.00000000E+00  0.00000000E+00
  0.00000000E+00  0.00000000E+00  0.00000000E+00
  0.00000000E+00  0.00000000E+00  0.00000000E+00
  0.00000000E+00  0.00000000E+00  0.00000000E+00
  0.00000000E+00  0.00000000E+00  0.00000000E+00
  0.00000000E+00  0.00000000E+00  0.00000000E+00
  0.00000000E+00  0.00000000E+00  0.00000000E+00
  0.00000000E+00  0.00000000E+00  0.00000000E+00
  0.00000000E+00  0.00000000E+00  0.00000000E+00
  0.00000000E+00  0.00000000E+00  0.00000000E+00
  0.00000000E+00  0.00000000E+00  0.00000000E+00
  0.00000000E+00  0.00000000E+00  0.00000000E+00
  0.00000000E+00  0.00000000E+00  0.00000000E+00
  0.00000000E+00  0.00000000E+00  0.00000000E+00
  0.00000000E+00  0.00000000E+00  0.00000000E+00
  0.00000000E+00  0.00000000E+00  0.00000000E+00
  0.00000000E+00  0.00000000E+00  0.00000000E+00
  0.00000000E+00  0.00000000E+00  0.00000000E+00
  0.00000000E+00  0.00000000E+00  0.00000000E+00
  0.00000000E+00  0.00000000E+00  0.00000000E+00
  0.00000000E+00  0.00000000E+00  0.00000000E+00
  0.00000000E+00  0.00000000E+00  0.00000000E+00
  0.00000000E+00  0.00000000E+00  0.00000000E+00
  0.00000000E+00  0.00000000E+00  0.00000000E+00
  0.00000000E+00  0.00000000E+00  0.00000000E+00
  0.00000000E+00  0.00000000E+00  0.00000000E+00
  0.00000000E+00  0.00000000E+00  0.00000000E+00
  0.00000000E+00  0.00000000E+00  0.00000000E+00
  0.00000000E+00  0.00000000E+00  0.00000000E+00
  0.00000000E+00  0.00000000E+00  0.00000000E+00
  0.00000000E+00  0.00000000E+00  0.00000000E+00
  0.00000000E+00  0.00000000E+00  0.00000000E+00
  0.00000000E+00  0.00000000E+00  0.00000000E+00
  0.00000000E+00  0.00000000E+00  0.00000000E+00
  0.00000000E+00  0.00000000E+00  0.00000000E+00
  0.00000000E+00  0.00000000E+00  0.00000000E+00
  0.00000000E+00  0.00000000E+00  0.00000000E+00
  0.00000000E+00  0.00000000E+00  0.00000000E+00
  0.00000000E+00  0.00000000E+00  0.00000000E+00
  0.00000000E+00  0.00000000E+00  0.00000000E+00
  0.00000000E+00  0.00000000E+00  0.00000000E+00
  0.00000000E+00  0.00000000E+00  0.00000000E+00
  0.00000000E+00  0.00000000E+00  0.00000000E+00
  0.00000000E+00  0.00000000E+00  0.00000000E+00
  0.00000000E+00  0.00000000E+00  0.00000000E+00
  0.00000000E+00  0.00000000E+00  0.00000000E+00
  0.00000000E+00  0.00000000E+00  0.00000000E+00
