Ge+Sn
    1.000000000
   11.315600395    0.000000000    0.000000000
    0.000000000   17.891534805    0.000000000
    0.000000000   -0.000000316   13.669418335
Ge  Sn 
48     48
Direct
    0.945568740    0.076203801    0.000000013
    0.695568681    0.426203907    0.065443769
    0.445568681    0.776203990    0.130887523
    0.195568621    0.126204133    0.196331337
    0.945568681    0.476204157    0.261775076
    0.695568681    0.826204300    0.327218771
    0.445568740    0.076203801    0.000000013
    0.195568711    0.426203907    0.065443769
    0.945568681    0.776203990    0.130887523
    0.695568681    0.126204133    0.196331337
    0.445568681    0.476204157    0.261775076
    0.195568621    0.826204300    0.327218771
    0.070568725    0.826203942    0.000000030
    0.820568681    0.176204085    0.065443747
    0.570568681    0.526204109    0.130887479
    0.320568621    0.876204133    0.196331322
    0.070568621    0.226204157    0.261775106
    0.820568562    0.576204300    0.327218831
    0.570568740    0.826203942    0.000000030
    0.320568740    0.176204085    0.065443747
    0.070568711    0.526204109    0.130887479
    0.820568681    0.876204133    0.196331322
    0.570568681    0.226204157    0.261775106
    0.320568621    0.576204300    0.327218831
    0.945568740    0.576203823    0.000000016
    0.695568681    0.926203907    0.065443739
    0.445568681    0.276203990    0.130887538
    0.195568621    0.626204133    0.196331263
    0.945568681    0.976204157    0.261775076
    0.695568681    0.326204300    0.327218831
    0.445568740    0.576203823    0.000000016
    0.195568711    0.926203907    0.065443739
    0.945568681    0.276203990    0.130887538
    0.695568681    0.626204133    0.196331263
    0.445568681    0.976204157    0.261775076
    0.195568621    0.326204300    0.327218831
    0.070568725    0.326203823    0.000000000
    0.820568681    0.676203966    0.065443777
    0.570568681    0.026203990    0.130887523
    0.320568621    0.376204133    0.196331277
    0.070568621    0.726204157    0.261775047
    0.820568562    0.076204300    0.327218741
    0.570568740    0.326203823    0.000000000
    0.320568740    0.676203966    0.065443777
    0.070568711    0.026203990    0.130887523
    0.820568681    0.376204133    0.196331277
    0.570568681    0.726204157    0.261775047
    0.320568621    0.076204300    0.327218741
    0.065928936    0.708185434    0.421352684
    0.732595503    0.583185434    0.518255353
    0.399262190    0.458185434    0.615158021
    0.065928817    0.333185434    0.712060690
    0.732595325    0.208185434    0.808963478
    0.399261832    0.083185315    0.905866086
    0.065928936    0.208185434    0.421352684
    0.732595503    0.083185434    0.518255353
    0.399262190    0.958185375    0.615158021
    0.065928817    0.833185375    0.712060690
    0.732595325    0.708185375    0.808963478
    0.399261832    0.583185256    0.905866086
    0.315928906    0.958185434    0.421352684
    0.982595563    0.833185434    0.518255353
    0.649262190    0.708185434    0.615158081
    0.315928817    0.583185434    0.712060690
    0.982595444    0.458185405    0.808963478
    0.649261832    0.333185315    0.905866206
    0.315928906    0.458185434    0.421352684
    0.982595503    0.333185405    0.518255353
    0.649262190    0.208185434    0.615158021
    0.315928817    0.083185434    0.712060690
    0.982595444    0.958185375    0.808963358
    0.649261832    0.833185315    0.905866206
    0.065928936    0.958185434    0.421352684
    0.732595503    0.833185434    0.518255353
    0.399262190    0.708185434    0.615158021
    0.065928817    0.583185434    0.712060690
    0.732595325    0.458185375    0.808963478
    0.399261951    0.333185285    0.905866086
    0.065928936    0.458185434    0.421352684
    0.732595503    0.333185405    0.518255353
    0.399262190    0.208185434    0.615158021
    0.065928817    0.083185434    0.712060690
    0.732595444    0.958185375    0.808963478
    0.399261832    0.833185256    0.905866086
    0.315928966    0.708185434    0.421352684
    0.982595563    0.583185434    0.518255353
    0.649262190    0.458185464    0.615158021
    0.315928817    0.333185434    0.712060690
    0.982595444    0.208185434    0.808963478
    0.649261951    0.083185434    0.905866086
    0.315928936    0.208185434    0.421352684
    0.982595563    0.083185434    0.518255353
    0.649262190    0.958185375    0.615158021
    0.315928817    0.833185375    0.712060690
    0.982595444    0.708185375    0.808963478
    0.649261951    0.583185315    0.905866086
