Ge+Si
    1.000000000
   16.002676010    0.000000000    0.000000000
    0.000000000   16.973402023    0.000000000
    0.000000000    0.000000000   13.293919563
Ge  Si 
48     108
Direct
    0.913237751    0.910024285    0.000000019
    0.538237751    0.521135390    0.050156742
    0.163237810    0.132246494    0.100313440
    0.788237810    0.743357420    0.150470227
    0.413237810    0.354468584    0.200626925
    0.038237691    0.965579510    0.250783652
    0.413237691    0.910024285    0.000000022
    0.038237717    0.521135330    0.050156742
    0.663237751    0.132246435    0.100313440
    0.288237691    0.743357420    0.150470182
    0.913237810    0.354468465    0.200626925
    0.538237810    0.965579748    0.250783741
    0.038237728    0.660024226    0.000000019
    0.663237751    0.271135300    0.050156724
    0.288237810    0.882246375    0.100313447
    0.913237810    0.493357420    0.150470182
    0.538237691    0.104468405    0.200626895
    0.163237691    0.715579629    0.250783652
    0.538237691    0.660024226    0.000000019
    0.163237706    0.271135300    0.050156724
    0.788237751    0.882246375    0.100313447
    0.413237691    0.493357480    0.150470182
    0.038237751    0.104468465    0.200626940
    0.663237691    0.715579629    0.250783682
    0.288237751    0.660024226    0.000000019
    0.913237751    0.271135300    0.050156724
    0.538237810    0.882246375    0.100313447
    0.163237810    0.493357420    0.150470182
    0.788237810    0.104468465    0.200626895
    0.413237810    0.715579510    0.250783652
    0.788237691    0.660024166    0.000000000
    0.413237721    0.271135300    0.050156724
    0.038237784    0.882246375    0.100313447
    0.663237751    0.493357420    0.150470167
    0.288237691    0.104468465    0.200626895
    0.913237810    0.715579629    0.250783682
    0.163237721    0.910024285    0.000000019
    0.788237691    0.521135330    0.050156742
    0.413237810    0.132246494    0.100313470
    0.038237751    0.743357420    0.150470227
    0.663237810    0.354468584    0.200626880
    0.288237691    0.965579510    0.250783652
    0.663237691    0.910024285    0.000000027
    0.288237751    0.521135330    0.050156724
    0.913237751    0.132246494    0.100313470
    0.538237810    0.743357420    0.150470227
    0.163237691    0.354468465    0.200626880
    0.788237810    0.965579748    0.250783652
    0.037735850    0.721878290    0.370058954
    0.037735850    0.555211663    0.574325264
    0.037735850    0.388544917    0.778591633
    0.371069193    0.721878290    0.370058954
    0.371069193    0.555211663    0.574325264
    0.371069193    0.388544917    0.778591633
    0.704402566    0.721878290    0.370058954
    0.704402566    0.555211663    0.574325264
    0.704402566    0.388544917    0.778591633
    0.037735850    0.055211663    0.370058954
    0.037735850    0.888544977    0.574325264
    0.037735850    0.721878290    0.778591633
    0.371069193    0.055211663    0.370058954
    0.371069193    0.888544977    0.574325264
    0.371069193    0.721878290    0.778591633
    0.704402566    0.055211663    0.370058954
    0.704402566    0.888544977    0.574325264
    0.704402566    0.721878290    0.778591633
    0.037735850    0.388545036    0.370058954
    0.037735850    0.221878290    0.574325264
    0.037735850    0.055211663    0.778591633
    0.371069193    0.388545036    0.370058954
    0.371069193    0.221878290    0.574325264
    0.371069193    0.055211663    0.778591633
    0.704402566    0.388545036    0.370058954
    0.704402566    0.221878290    0.574325264
    0.704402566    0.055211663    0.778591633
    0.121069185    0.805211663    0.472192138
    0.121069185    0.638545036    0.676458359
    0.121069185    0.471878290    0.880724788
    0.454402536    0.805211663    0.472192138
    0.454402536    0.638545036    0.676458359
    0.454402536    0.471878290    0.880724788
    0.787735820    0.805211663    0.472192138
    0.787735820    0.638545036    0.676458359
    0.787735820    0.471878290    0.880724788
    0.121069185    0.138545036    0.472192138
    0.121069185    0.971878290    0.676458359
    0.121069185    0.805211604    0.880724788
    0.454402536    0.138545036    0.472192138
    0.454402536    0.971878290    0.676458359
    0.454402536    0.805211604    0.880724788
    0.787735820    0.138545036    0.472192138
    0.787735820    0.971878290    0.676458359
    0.787735820    0.805211604    0.880724788
    0.121069185    0.471878290    0.472192138
    0.121069185    0.305211663    0.676458359
    0.121069185    0.138545036    0.880724788
    0.454402536    0.471878290    0.472192138
    0.454402536    0.305211663    0.676458359
    0.454402536    0.138545036    0.880724788
    0.787735820    0.471878290    0.472192138
    0.787735820    0.305211663    0.676458359
    0.787735820    0.138545036    0.880724788
    0.204402521    0.888545036    0.370058954
    0.204402521    0.721878290    0.574325264
    0.204402521    0.555211544    0.778591633
    0.537735820    0.888545036    0.370058954
    0.537735820    0.721878290    0.574325264
    0.537735820    0.555211544    0.778591633
    0.871069193    0.888545036    0.370058954
    0.871069193    0.721878290    0.574325264
    0.871069193    0.555211544    0.778591633
    0.204402521    0.221878290    0.370058954
    0.204402521    0.055211663    0.574325264
    0.204402521    0.888544917    0.778591633
    0.537735820    0.221878290    0.370058954
    0.537735820    0.055211663    0.574325264
    0.537735820    0.888544917    0.778591633
    0.871069193    0.221878290    0.370058954
    0.871069193    0.055211663    0.574325264
    0.871069193    0.888544917    0.778591633
    0.204402521    0.555211663    0.370058954
    0.204402521    0.388545036    0.574325264
    0.204402521    0.221878290    0.778591633
    0.537735820    0.555211663    0.370058954
    0.537735820    0.388545036    0.574325264
    0.537735820    0.221878290    0.778591633
    0.871069193    0.555211663    0.370058954
    0.871069193    0.388545036    0.574325264
    0.871069193    0.221878290    0.778591633
    0.287735850    0.971878350    0.472192138
    0.287735850    0.805211663    0.676458359
    0.287735850    0.638545036    0.880724788
    0.621069193    0.971878350    0.472192138
    0.621069193    0.805211663    0.676458359
    0.621069193    0.638545036    0.880724788
    0.954402566    0.971878350    0.472192138
    0.954402566    0.805211663    0.676458359
    0.954402566    0.638545036    0.880724788
    0.287735850    0.305211782    0.472192138
    0.287735850    0.138545036    0.676458359
    0.287735850    0.971878350    0.880724788
    0.621069193    0.305211782    0.472192138
    0.621069193    0.138545036    0.676458359
    0.621069193    0.971878350    0.880724788
    0.954402566    0.305211782    0.472192138
    0.954402566    0.138545036    0.676458359
    0.954402566    0.971878350    0.880724788
    0.287735850    0.638545036    0.472192138
    0.287735850    0.471878290    0.676458359
    0.287735850    0.305211663    0.880724788
    0.621069193    0.638545036    0.472192138
    0.621069193    0.471878290    0.676458359
    0.621069193    0.305211663    0.880724788
    0.954402566    0.638545036    0.472192138
    0.954402566    0.471878290    0.676458359
    0.954402566    0.305211663    0.880724788
