Si+Ge
    1.000000000
   16.293001175    0.000000000    0.000000000
    0.000000000   17.174329758    0.000000000
    0.000000000    0.000000257   10.600546837
Si  Ge 
72     48
Direct
    0.130378902    0.826204658    0.405034721
    0.963712454    0.076203912    0.000000056
    0.797045708    0.426204026    0.081006989
    0.630379081    0.776204169    0.162013888
    0.463712275    0.126204491    0.243020862
    0.297045529    0.476204634    0.324027807
    0.463712275    0.826204658    0.405034721
    0.297045797    0.076203912    0.000000056
    0.130379081    0.426204026    0.081006989
    0.963712394    0.776204169    0.162013888
    0.797045588    0.126204491    0.243020862
    0.630378842    0.476204634    0.324027807
    0.797045588    0.826204658    0.405034721
    0.630379140    0.076203912    0.000000056
    0.463712424    0.426204026    0.081006989
    0.297045767    0.776204169    0.162013888
    0.130378976    0.126204491    0.243020862
    0.963712215    0.476204634    0.324027807
    0.213712215    0.576204777    0.405034631
    0.047045767    0.826204002    0.000000000
    0.880379081    0.176204205    0.081006967
    0.713712335    0.526204467    0.162013814
    0.547045588    0.876204610    0.243020788
    0.380378962    0.226204634    0.324027687
    0.547045588    0.576204777    0.405034631
    0.380379081    0.826204002    0.000000000
    0.213712379    0.176204205    0.081006967
    0.047045693    0.526204467    0.162013814
    0.880378962    0.876204610    0.243020788
    0.713712335    0.226204634    0.324027687
    0.880378902    0.576204777    0.405034631
    0.713712394    0.826204002    0.000000000
    0.547045708    0.176204205    0.081006967
    0.380378991    0.526204467    0.162013814
    0.213712230    0.876204610    0.243020788
    0.047045581    0.226204634    0.324027687
    0.130378902    0.326204777    0.405034721
    0.963712394    0.576204002    0.000000023
    0.797045708    0.926204145    0.081006944
    0.630379021    0.276204228    0.162013814
    0.463712275    0.626204491    0.243020862
    0.297045648    0.976204634    0.324027687
    0.463712275    0.326204777    0.405034721
    0.297045767    0.576204002    0.000000023
    0.130379051    0.926204145    0.081006944
    0.963712394    0.276204228    0.162013814
    0.797045588    0.626204491    0.243020862
    0.630378962    0.976204634    0.324027687
    0.797045588    0.326204777    0.405034721
    0.630379140    0.576204002    0.000000023
    0.463712394    0.926204145    0.081006944
    0.297045738    0.276204228    0.162013814
    0.130378976    0.626204491    0.243020862
    0.963712335    0.976204634    0.324027687
    0.213712215    0.076204777    0.405034602
    0.047045767    0.326203912    0.000000056
    0.880379081    0.676204026    0.081006952
    0.713712394    0.026204228    0.162013844
    0.547045588    0.376204491    0.243020788
    0.380378842    0.726204753    0.324027687
    0.547045588    0.076204777    0.405034602
    0.380379111    0.326203912    0.000000056
    0.213712409    0.676204026    0.081006952
    0.047045726    0.026204228    0.162013844
    0.880378962    0.376204491    0.243020788
    0.713712215    0.726204753    0.324027687
    0.880378962    0.076204777    0.405034602
    0.713712454    0.326203912    0.000000056
    0.547045767    0.676204026    0.081006952
    0.380379081    0.026204228    0.162013844
    0.213712290    0.376204491    0.243020788
    0.047045540    0.726204753    0.324027687
    0.462620407    0.986047685    0.545266390
    0.087620437    0.597158730    0.608166754
    0.712620497    0.208269835    0.671067119
    0.337620527    0.819380939    0.733967543
    0.962620497    0.430491984    0.796867847
    0.587620378    0.041602850    0.859768271
    0.962620497    0.986047685    0.545266390
    0.587620497    0.597158730    0.608166754
    0.212620467    0.208269775    0.671067119
    0.837620497    0.819380939    0.733967543
    0.462620646    0.430491984    0.796867847
    0.087620527    0.041602850    0.859768331
    0.837620378    0.736047626    0.545266390
    0.462620467    0.347158730    0.608166814
    0.087620497    0.958269775    0.671067178
    0.712620616    0.569380939    0.733967602
    0.337620705    0.180492043    0.796867907
    0.962620378    0.791602910    0.859768271
    0.337620407    0.736047626    0.545266390
    0.962620497    0.347158670    0.608166754
    0.587620497    0.958269715    0.671067119
    0.212620527    0.569380879    0.733967602
    0.837620616    0.180491924    0.796867847
    0.462620407    0.791602790    0.859768271
    0.587620378    0.736047626    0.545266390
    0.212620422    0.347158700    0.608166754
    0.837620497    0.958269715    0.671067119
    0.462620527    0.569380879    0.733967602
    0.087620646    0.180491984    0.796867847
    0.712620378    0.791602790    0.859768271
    0.087620422    0.736047626    0.545266390
    0.712620497    0.347158730    0.608166754
    0.337620467    0.958269775    0.671067119
    0.962620497    0.569380879    0.733967602
    0.587620616    0.180491984    0.796867847
    0.212620527    0.791602910    0.859768331
    0.712620378    0.986047685    0.545266390
    0.337620407    0.597158730    0.608166754
    0.962620378    0.208269835    0.671067119
    0.587620497    0.819380820    0.733967543
    0.212620646    0.430491984    0.796867847
    0.837620378    0.041602850    0.859768271
    0.212620422    0.986047685    0.545266390
    0.837620497    0.597158730    0.608166754
    0.462620527    0.208269835    0.671067178
    0.087620586    0.819380939    0.733967602
    0.712620616    0.430491984    0.796867847
    0.337620407    0.041602850    0.859768331
