fcc Si+fcc Ge                           
   1.00000000000000     
     5.4800000000000004    0.0000000000000000    0.0000000000000000
    -5.4800000000000004    7.7498903219999997    0.0000000000000000
     0.0000000000000000    0.0000000000000000   24.4929238560000009
   Si   Ge
    24    24
Direct
  0.0000000000000000  0.0000000000000000  0.0000000000000000
  0.2500000000000000  0.7500000000000000  0.0791033599999977
  0.5000000000000000  0.5000000000000000  0.1582067209999991
  0.7500000000000000  0.2500000000000000  0.2373100809999968
  0.0000000000000000  0.0000000000000000  0.3164134410000017
  0.2500000000000000  0.7500000000000000  0.3955168009999994
  0.5000000000000000  0.5000000000000000  0.0000000000000000
  0.7500000000000000  0.2500000000000000  0.0791033599999977
  0.0000000000000000  0.0000000000000000  0.1582067209999991
  0.2500000000000000  0.7500000000000000  0.2373100809999968
  0.5000000000000000  0.5000000000000000  0.3164134410000017
  0.7500000000000000  0.2500000000000000  0.3955168009999994
  0.0000000000000000  0.2500000000000000  0.0000000000000000
  0.2500000000000000  0.0000000000000000  0.0791033599999977
  0.5000000000000000  0.7500000000000000  0.1582067209999991
  0.7500000000000000  0.5000000000000000  0.2373100809999968
  0.0000000000000000  0.2500000000000000  0.3164134410000017
  0.2500000000000000  0.0000000000000000  0.3955168009999994
  0.5000000000000000  0.7500000000000000  0.0000000000000000
  0.7500000000000000  0.5000000000000000  0.0791033599999977
  0.0000000000000000  0.2500000000000000  0.1582067209999991
  0.2500000000000000  0.0000000000000000  0.2373100809999968
  0.5000000000000000  0.7500000000000000  0.3164134410000017
  0.7500000000000000  0.5000000000000000  0.3955168009999994
  0.1666666670000012  0.0106382980000035  0.4935042859999967
  0.9166666670000012  0.2606382980000035  0.5752059320000029
  0.6666666670000012  0.5106382980000035  0.6569075780000020
  0.4166666670000012  0.7606382980000035  0.7386092240000011
  0.1666666670000012  0.0106382980000035  0.8203108700000001
  0.9166666670000012  0.2606382980000035  0.9020125150000027
  0.6666666670000012  0.5106382980000035  0.4935042859999967
  0.4166666670000012  0.7606382980000035  0.5752059320000029
  0.1666666670000012  0.0106382980000035  0.6569075780000020
  0.9166666670000012  0.2606382980000035  0.7386092240000011
  0.6666666670000012  0.5106382980000035  0.8203108700000001
  0.4166666670000012  0.7606382980000035  0.9020125150000027
  0.1666666670000012  0.7606382980000035  0.4935042859999967
  0.9166666670000012  0.0106382980000035  0.5752059320000029
  0.6666666670000012  0.2606382980000035  0.6569075780000020
  0.4166666670000012  0.5106382980000035  0.7386092240000011
  0.1666666670000012  0.7606382980000035  0.8203108700000001
  0.9166666670000012  0.0106382980000035  0.9020125150000027
  0.6666666670000012  0.2606382980000035  0.4935042859999967
  0.4166666670000012  0.5106382980000035  0.5752059320000029
  0.1666666670000012  0.7606382980000035  0.6569075780000020
  0.9166666670000012  0.0106382980000035  0.7386092240000011
  0.6666666670000012  0.2606382980000035  0.8203108700000001
  0.4166666670000012  0.5106382980000035  0.9020125150000027
 
  0.00000000E+00  0.00000000E+00  0.00000000E+00
  0.00000000E+00  0.00000000E+00  0.00000000E+00
  0.00000000E+00  0.00000000E+00  0.00000000E+00
  0.00000000E+00  0.00000000E+00  0.00000000E+00
  0.00000000E+00  0.00000000E+00  0.00000000E+00
  0.00000000E+00  0.00000000E+00  0.00000000E+00
  0.00000000E+00  0.00000000E+00  0.00000000E+00
  0.00000000E+00  0.00000000E+00  0.00000000E+00
  0.00000000E+00  0.00000000E+00  0.00000000E+00
  0.00000000E+00  0.00000000E+00  0.00000000E+00
  0.00000000E+00  0.00000000E+00  0.00000000E+00
  0.00000000E+00  0.00000000E+00  0.00000000E+00
  0.00000000E+00  0.00000000E+00  0.00000000E+00
  0.00000000E+00  0.00000000E+00  0.00000000E+00
  0.00000000E+00  0.00000000E+00  0.00000000E+00
  0.00000000E+00  0.00000000E+00  0.00000000E+00
  0.00000000E+00  0.00000000E+00  0.00000000E+00
  0.00000000E+00  0.00000000E+00  0.00000000E+00
  0.00000000E+00  0.00000000E+00  0.00000000E+00
  0.00000000E+00  0.00000000E+00  0.00000000E+00
  0.00000000E+00  0.00000000E+00  0.00000000E+00
  0.00000000E+00  0.00000000E+00  0.00000000E+00
  0.00000000E+00  0.00000000E+00  0.00000000E+00
  0.00000000E+00  0.00000000E+00  0.00000000E+00
  0.00000000E+00  0.00000000E+00  0.00000000E+00
  0.00000000E+00  0.00000000E+00  0.00000000E+00
  0.00000000E+00  0.00000000E+00  0.00000000E+00
  0.00000000E+00  0.00000000E+00  0.00000000E+00
  0.00000000E+00  0.00000000E+00  0.00000000E+00
  0.00000000E+00  0.00000000E+00  0.00000000E+00
  0.00000000E+00  0.00000000E+00  0.00000000E+00
  0.00000000E+00  0.00000000E+00  0.00000000E+00
  0.00000000E+00  0.00000000E+00  0.00000000E+00
  0.00000000E+00  0.00000000E+00  0.00000000E+00
  0.00000000E+00  0.00000000E+00  0.00000000E+00
  0.00000000E+00  0.00000000E+00  0.00000000E+00
  0.00000000E+00  0.00000000E+00  0.00000000E+00
  0.00000000E+00  0.00000000E+00  0.00000000E+00
  0.00000000E+00  0.00000000E+00  0.00000000E+00
  0.00000000E+00  0.00000000E+00  0.00000000E+00
  0.00000000E+00  0.00000000E+00  0.00000000E+00
  0.00000000E+00  0.00000000E+00  0.00000000E+00
  0.00000000E+00  0.00000000E+00  0.00000000E+00
  0.00000000E+00  0.00000000E+00  0.00000000E+00
  0.00000000E+00  0.00000000E+00  0.00000000E+00
  0.00000000E+00  0.00000000E+00  0.00000000E+00
  0.00000000E+00  0.00000000E+00  0.00000000E+00
  0.00000000E+00  0.00000000E+00  0.00000000E+00
