fcc Si+fcc Ge                           
   1.00000000000000     
    13.4232037900000005    0.0000000000000000    0.0000000000000000
    -6.7116018950000003   15.0075980760000007    0.0000000000000000
     0.0000000000000000    0.0000000000000000   12.5914855049999996
   Si   Ge
    36    66
Direct
  0.0000000000000000  0.6666666670000012  0.0000000000000000
  0.2999999999999972  0.4333333330000002  0.0973169729999981
  0.6000000000000014  0.2000000000000028  0.1946339449999996
  0.0000000000000000  0.3333333329999988  0.0000000000000000
  0.2999999999999972  0.1000000000000014  0.0973169729999981
  0.6000000000000014  0.8666666669999969  0.1946339449999996
  0.0000000000000000  0.0000000000000000  0.0000000000000000
  0.2999999999999972  0.7666666670000026  0.0973169729999981
  0.6000000000000014  0.5333333330000016  0.1946339449999996
  0.5000000000000000  0.6666666670000012  0.0000000000000000
  0.7999999999999972  0.4333333330000002  0.0973169729999981
  0.1000000000000014  0.2000000000000028  0.1946339449999996
  0.5000000000000000  0.3333333329999988  0.0000000000000000
  0.7999999999999972  0.1000000000000014  0.0973169729999981
  0.1000000000000014  0.8666666669999969  0.1946339449999996
  0.5000000000000000  0.0000000000000000  0.0000000000000000
  0.7999999999999972  0.7666666670000026  0.0973169729999981
  0.1000000000000014  0.5333333330000016  0.1946339449999996
  0.1499999999999986  0.7999999999999972  0.0486584860000008
  0.4500000000000028  0.5666666669999998  0.1459754589999989
  0.7500000000000000  0.3333333329999988  0.2432924319999969
  0.1499999999999986  0.4666666669999984  0.0486584860000008
  0.4500000000000028  0.2333333329999974  0.1459754589999989
  0.7500000000000000  0.0000000000000000  0.2432924319999969
  0.1499999999999986  0.1333333330000031  0.0486584860000008
  0.4500000000000028  0.8999999999999986  0.1459754589999989
  0.7500000000000000  0.6666666670000012  0.2432924319999969
  0.6499999999999986  0.7999999999999972  0.0486584860000008
  0.9500000000000028  0.5666666669999998  0.1459754589999989
  0.2500000000000000  0.3333333329999988  0.2432924319999969
  0.6499999999999986  0.4666666669999984  0.0486584860000008
  0.9500000000000028  0.2333333329999974  0.1459754589999989
  0.2500000000000000  0.0000000000000000  0.2432924319999969
  0.6499999999999986  0.1333333330000031  0.0486584860000008
  0.9500000000000028  0.8999999999999986  0.1459754589999989
  0.2500000000000000  0.6666666670000012  0.2432924319999969
  0.3360902260000032  0.3444785280000033  0.4206191849999996
  0.1360902260000003  0.4444785279999977  0.5211327000000026
  0.9360902259999975  0.5444785279999991  0.6216462160000020
  0.7360902260000017  0.6444785280000005  0.7221597320000015
  0.5360902259999989  0.7444785280000019  0.8226732469999973
  0.6694235590000019  0.6778118610000021  0.4206191849999996
  0.4694235589999991  0.7778118610000035  0.5211327000000026
  0.2694235590000034  0.8778118609999979  0.6216462160000020
  0.0694235590000005  0.9778118609999993  0.7221597320000015
  0.8694235589999977  0.0778118610000007  0.8226732469999973
  0.0027568920000007  0.0111451940000009  0.4206191849999996
  0.8027568919999979  0.1111451940000023  0.5211327000000026
  0.6027568920000022  0.2111451939999966  0.6216462160000020
  0.4027568919999993  0.3111451939999981  0.7221597320000015
  0.2027568919999965  0.4111451939999995  0.8226732469999973
  0.5027568920000007  0.0111451940000009  0.4206191849999996
  0.3027568919999979  0.1111451940000023  0.5211327000000026
  0.1027568920000022  0.2111451939999966  0.6216462160000020
  0.9027568919999993  0.3111451939999981  0.7221597320000015
  0.7027568919999965  0.4111451939999995  0.8226732469999973
  0.8360902260000032  0.3444785280000033  0.4206191849999996
  0.6360902260000003  0.4444785279999977  0.5211327000000026
  0.4360902259999975  0.5444785279999991  0.6216462160000020
  0.2360902260000017  0.6444785280000005  0.7221597320000015
  0.0360902259999989  0.7444785280000019  0.8226732469999973
  0.1694235590000019  0.6778118610000021  0.4206191849999996
  0.9694235589999991  0.7778118610000035  0.5211327000000026
  0.7694235590000034  0.8778118609999979  0.6216462160000020
  0.5694235590000005  0.9778118609999993  0.7221597320000015
  0.3694235589999977  0.0778118610000007  0.8226732469999973
  0.6860902259999975  0.5444785279999991  0.3703624270000034
  0.4860902260000017  0.6444785280000005  0.4708759419999993
  0.2860902259999989  0.7444785280000019  0.5713894579999987
  0.0860902260000032  0.8444785280000033  0.6719029739999982
  0.8860902260000003  0.9444785279999977  0.7724164890000011
  0.6860902259999975  0.0444785279999991  0.8729300050000006
  0.0194235590000034  0.8778118609999979  0.3703624270000034
  0.8194235590000005  0.9778118609999993  0.4708759419999993
  0.6194235589999977  0.0778118610000007  0.5713894579999987
  0.4194235590000019  0.1778118610000021  0.6719029739999982
  0.2194235589999991  0.2778118610000035  0.7724164890000011
  0.0194235590000034  0.3778118609999979  0.8729300050000006
  0.3527568920000022  0.2111451939999966  0.3703624270000034
  0.1527568919999993  0.3111451939999981  0.4708759419999993
  0.9527568919999965  0.4111451939999995  0.5713894579999987
  0.7527568920000007  0.5111451940000009  0.6719029739999982
  0.5527568919999979  0.6111451940000023  0.7724164890000011
  0.3527568920000022  0.7111451939999966  0.8729300050000006
  0.8527568920000022  0.2111451939999966  0.3703624270000034
  0.6527568919999993  0.3111451939999981  0.4708759419999993
  0.4527568919999965  0.4111451939999995  0.5713894579999987
  0.2527568920000007  0.5111451940000009  0.6719029739999982
  0.0527568919999979  0.6111451940000023  0.7724164890000011
  0.8527568920000022  0.7111451939999966  0.8729300050000006
  0.1860902259999975  0.5444785279999991  0.3703624270000034
  0.9860902260000017  0.6444785280000005  0.4708759419999993
  0.7860902259999989  0.7444785280000019  0.5713894579999987
  0.5860902260000032  0.8444785280000033  0.6719029739999982
  0.3860902260000003  0.9444785279999977  0.7724164890000011
  0.1860902259999975  0.0444785279999991  0.8729300050000006
  0.5194235590000034  0.8778118609999979  0.3703624270000034
  0.3194235590000005  0.9778118609999993  0.4708759419999993
  0.1194235589999977  0.0778118610000007  0.5713894579999987
  0.9194235590000019  0.1778118610000021  0.6719029739999982
  0.7194235589999991  0.2778118610000035  0.7724164890000011
  0.5194235590000034  0.3778118609999979  0.8729300050000006
 
  0.00000000E+00  0.00000000E+00  0.00000000E+00
  0.00000000E+00  0.00000000E+00  0.00000000E+00
  0.00000000E+00  0.00000000E+00  0.00000000E+00
  0.00000000E+00  0.00000000E+00  0.00000000E+00
  0.00000000E+00  0.00000000E+00  0.00000000E+00
  0.00000000E+00  0.00000000E+00  0.00000000E+00
  0.00000000E+00  0.00000000E+00  0.00000000E+00
  0.00000000E+00  0.00000000E+00  0.00000000E+00
  0.00000000E+00  0.00000000E+00  0.00000000E+00
  0.00000000E+00  0.00000000E+00  0.00000000E+00
  0.00000000E+00  0.00000000E+00  0.00000000E+00
  0.00000000E+00  0.00000000E+00  0.00000000E+00
  0.00000000E+00  0.00000000E+00  0.00000000E+00
  0.00000000E+00  0.00000000E+00  0.00000000E+00
  0.00000000E+00  0.00000000E+00  0.00000000E+00
  0.00000000E+00  0.00000000E+00  0.00000000E+00
  0.00000000E+00  0.00000000E+00  0.00000000E+00
  0.00000000E+00  0.00000000E+00  0.00000000E+00
  0.00000000E+00  0.00000000E+00  0.00000000E+00
  0.00000000E+00  0.00000000E+00  0.00000000E+00
  0.00000000E+00  0.00000000E+00  0.00000000E+00
  0.00000000E+00  0.00000000E+00  0.00000000E+00
  0.00000000E+00  0.00000000E+00  0.00000000E+00
  0.00000000E+00  0.00000000E+00  0.00000000E+00
  0.00000000E+00  0.00000000E+00  0.00000000E+00
  0.00000000E+00  0.00000000E+00  0.00000000E+00
  0.00000000E+00  0.00000000E+00  0.00000000E+00
  0.00000000E+00  0.00000000E+00  0.00000000E+00
  0.00000000E+00  0.00000000E+00  0.00000000E+00
  0.00000000E+00  0.00000000E+00  0.00000000E+00
  0.00000000E+00  0.00000000E+00  0.00000000E+00
  0.00000000E+00  0.00000000E+00  0.00000000E+00
  0.00000000E+00  0.00000000E+00  0.00000000E+00
  0.00000000E+00  0.00000000E+00  0.00000000E+00
  0.00000000E+00  0.00000000E+00  0.00000000E+00
  0.00000000E+00  0.00000000E+00  0.00000000E+00
  0.00000000E+00  0.00000000E+00  0.00000000E+00
  0.00000000E+00  0.00000000E+00  0.00000000E+00
  0.00000000E+00  0.00000000E+00  0.00000000E+00
  0.00000000E+00  0.00000000E+00  0.00000000E+00
  0.00000000E+00  0.00000000E+00  0.00000000E+00
  0.00000000E+00  0.00000000E+00  0.00000000E+00
  0.00000000E+00  0.00000000E+00  0.00000000E+00
  0.00000000E+00  0.00000000E+00  0.00000000E+00
  0.00000000E+00  0.00000000E+00  0.00000000E+00
  0.00000000E+00  0.00000000E+00  0.00000000E+00
  0.00000000E+00  0.00000000E+00  0.00000000E+00
  0.00000000E+00  0.00000000E+00  0.00000000E+00
  0.00000000E+00  0.00000000E+00  0.00000000E+00
  0.00000000E+00  0.00000000E+00  0.00000000E+00
  0.00000000E+00  0.00000000E+00  0.00000000E+00
  0.00000000E+00  0.00000000E+00  0.00000000E+00
  0.00000000E+00  0.00000000E+00  0.00000000E+00
  0.00000000E+00  0.00000000E+00  0.00000000E+00
  0.00000000E+00  0.00000000E+00  0.00000000E+00
  0.00000000E+00  0.00000000E+00  0.00000000E+00
  0.00000000E+00  0.00000000E+00  0.00000000E+00
  0.00000000E+00  0.00000000E+00  0.00000000E+00
  0.00000000E+00  0.00000000E+00  0.00000000E+00
  0.00000000E+00  0.00000000E+00  0.00000000E+00
  0.00000000E+00  0.00000000E+00  0.00000000E+00
  0.00000000E+00  0.00000000E+00  0.00000000E+00
  0.00000000E+00  0.00000000E+00  0.00000000E+00
  0.00000000E+00  0.00000000E+00  0.00000000E+00
  0.00000000E+00  0.00000000E+00  0.00000000E+00
  0.00000000E+00  0.00000000E+00  0.00000000E+00
  0.00000000E+00  0.00000000E+00  0.00000000E+00
  0.00000000E+00  0.00000000E+00  0.00000000E+00
  0.00000000E+00  0.00000000E+00  0.00000000E+00
  0.00000000E+00  0.00000000E+00  0.00000000E+00
  0.00000000E+00  0.00000000E+00  0.00000000E+00
  0.00000000E+00  0.00000000E+00  0.00000000E+00
  0.00000000E+00  0.00000000E+00  0.00000000E+00
  0.00000000E+00  0.00000000E+00  0.00000000E+00
  0.00000000E+00  0.00000000E+00  0.00000000E+00
  0.00000000E+00  0.00000000E+00  0.00000000E+00
  0.00000000E+00  0.00000000E+00  0.00000000E+00
  0.00000000E+00  0.00000000E+00  0.00000000E+00
  0.00000000E+00  0.00000000E+00  0.00000000E+00
  0.00000000E+00  0.00000000E+00  0.00000000E+00
  0.00000000E+00  0.00000000E+00  0.00000000E+00
  0.00000000E+00  0.00000000E+00  0.00000000E+00
  0.00000000E+00  0.00000000E+00  0.00000000E+00
  0.00000000E+00  0.00000000E+00  0.00000000E+00
  0.00000000E+00  0.00000000E+00  0.00000000E+00
  0.00000000E+00  0.00000000E+00  0.00000000E+00
  0.00000000E+00  0.00000000E+00  0.00000000E+00
  0.00000000E+00  0.00000000E+00  0.00000000E+00
  0.00000000E+00  0.00000000E+00  0.00000000E+00
  0.00000000E+00  0.00000000E+00  0.00000000E+00
  0.00000000E+00  0.00000000E+00  0.00000000E+00
  0.00000000E+00  0.00000000E+00  0.00000000E+00
  0.00000000E+00  0.00000000E+00  0.00000000E+00
  0.00000000E+00  0.00000000E+00  0.00000000E+00
  0.00000000E+00  0.00000000E+00  0.00000000E+00
  0.00000000E+00  0.00000000E+00  0.00000000E+00
  0.00000000E+00  0.00000000E+00  0.00000000E+00
  0.00000000E+00  0.00000000E+00  0.00000000E+00
  0.00000000E+00  0.00000000E+00  0.00000000E+00
  0.00000000E+00  0.00000000E+00  0.00000000E+00
  0.00000000E+00  0.00000000E+00  0.00000000E+00
  0.00000000E+00  0.00000000E+00  0.00000000E+00
