fcc Si+fcc Ge
    1.000000000
   16.440000000    0.000000000    0.000000000
    0.000000000   17.329281578    0.000000000
    0.000000000    0.000000000   18.137881348
Si    Ge   
72     144
Direct
    0.166666667    0.250000000    0.238854821
    0.000000000    0.000000000    0.000000000
    0.833333333    0.850000000    0.047770964
    0.666666667    0.700000000    0.095541928
    0.500000000    0.550000000    0.143312892
    0.333333333    0.400000000    0.191083856
    0.500000000    0.250000000    0.238854821
    0.333333333    0.000000000    0.000000000
    0.166666667    0.850000000    0.047770964
    0.000000000    0.700000000    0.095541928
    0.833333333    0.550000000    0.143312892
    0.666666667    0.400000000    0.191083856
    0.833333333    0.250000000    0.238854821
    0.666666667    0.000000000    0.000000000
    0.500000000    0.850000000    0.047770964
    0.333333333    0.700000000    0.095541928
    0.166666667    0.550000000    0.143312892
    0.000000000    0.400000000    0.191083856
    0.166666667    0.750000000    0.238854821
    0.000000000    0.500000000    0.000000000
    0.833333333    0.350000000    0.047770964
    0.666666667    0.200000000    0.095541928
    0.500000000    0.050000000    0.143312892
    0.333333333    0.900000000    0.191083856
    0.500000000    0.750000000    0.238854821
    0.333333333    0.500000000    0.000000000
    0.166666667    0.350000000    0.047770964
    0.000000000    0.200000000    0.095541928
    0.833333333    0.050000000    0.143312892
    0.666666667    0.900000000    0.191083856
    0.833333333    0.750000000    0.238854821
    0.666666667    0.500000000    0.000000000
    0.500000000    0.350000000    0.047770964
    0.333333333    0.200000000    0.095541928
    0.166666667    0.050000000    0.143312892
    0.000000000    0.900000000    0.191083856
    0.250000000    0.000000000    0.238854821
    0.083333333    0.750000000    0.000000000
    0.916666667    0.600000000    0.047770964
    0.750000000    0.450000000    0.095541928
    0.583333333    0.300000000    0.143312892
    0.416666667    0.150000000    0.191083856
    0.583333333    0.000000000    0.238854821
    0.416666667    0.750000000    0.000000000
    0.250000000    0.600000000    0.047770964
    0.083333333    0.450000000    0.095541928
    0.916666667    0.300000000    0.143312892
    0.750000000    0.150000000    0.191083856
    0.916666667    0.000000000    0.238854821
    0.750000000    0.750000000    0.000000000
    0.583333333    0.600000000    0.047770964
    0.416666667    0.450000000    0.095541928
    0.250000000    0.300000000    0.143312892
    0.083333333    0.150000000    0.191083856
    0.250000000    0.500000000    0.238854821
    0.083333333    0.250000000    0.000000000
    0.916666667    0.100000000    0.047770964
    0.750000000    0.950000000    0.095541928
    0.583333333    0.800000000    0.143312892
    0.416666667    0.650000000    0.191083856
    0.583333333    0.500000000    0.238854821
    0.416666667    0.250000000    0.000000000
    0.250000000    0.100000000    0.047770964
    0.083333333    0.950000000    0.095541928
    0.916666667    0.800000000    0.143312892
    0.750000000    0.650000000    0.191083856
    0.916666667    0.500000000    0.238854821
    0.750000000    0.250000000    0.000000000
    0.583333333    0.100000000    0.047770964
    0.416666667    0.950000000    0.095541928
    0.250000000    0.800000000    0.143312892
    0.083333333    0.650000000    0.191083856
    0.018404908    0.587209302    0.343607959
    0.643404908    0.420542636    0.453935740
    0.268404908    0.253875969    0.564263520
    0.893404908    0.087209302    0.674591300
    0.518404908    0.920542636    0.784919081
    0.143404908    0.753875969    0.895246861
    0.018404908    0.920542636    0.343607959
    0.643404908    0.753875969    0.453935740
    0.268404908    0.587209302    0.564263520
    0.893404908    0.420542636    0.674591300
    0.518404908    0.253875969    0.784919081
    0.143404908    0.087209302    0.895246861
    0.018404908    0.253875969    0.343607959
    0.643404908    0.087209302    0.453935740
    0.268404908    0.920542636    0.564263520
    0.893404908    0.753875969    0.674591300
    0.518404908    0.587209302    0.784919081
    0.143404908    0.420542636    0.895246861
    0.518404908    0.587209302    0.343607959
    0.143404908    0.420542636    0.453935740
    0.768404908    0.253875969    0.564263520
    0.393404908    0.087209302    0.674591300
    0.018404908    0.920542636    0.784919081
    0.643404908    0.753875969    0.895246861
    0.518404908    0.920542636    0.343607959
    0.143404908    0.753875969    0.453935740
    0.768404908    0.587209302    0.564263520
    0.393404908    0.420542636    0.674591300
    0.018404908    0.253875969    0.784919081
    0.643404908    0.087209302    0.895246861
    0.518404908    0.253875969    0.343607959
    0.143404908    0.087209302    0.453935740
    0.768404908    0.920542636    0.564263520
    0.393404908    0.753875969    0.674591300
    0.018404908    0.587209302    0.784919081
    0.643404908    0.420542636    0.895246861
    0.268404908    0.587209302    0.343607959
    0.893404908    0.420542636    0.453935740
    0.518404908    0.253875969    0.564263520
    0.143404908    0.087209302    0.674591300
    0.768404908    0.920542636    0.784919081
    0.393404908    0.753875969    0.895246861
    0.268404908    0.920542636    0.343607959
    0.893404908    0.753875969    0.453935740
    0.518404908    0.587209302    0.564263520
    0.143404908    0.420542636    0.674591300
    0.768404908    0.253875969    0.784919081
    0.393404908    0.087209302    0.895246861
    0.268404908    0.253875969    0.343607959
    0.893404908    0.087209302    0.453935740
    0.518404908    0.920542636    0.564263520
    0.143404908    0.753875969    0.674591300
    0.768404908    0.587209302    0.784919081
    0.393404908    0.420542636    0.895246861
    0.768404908    0.587209302    0.343607959
    0.393404908    0.420542636    0.453935740
    0.018404908    0.253875969    0.564263520
    0.643404908    0.087209302    0.674591300
    0.268404908    0.920542636    0.784919081
    0.893404908    0.753875969    0.895246861
    0.768404908    0.920542636    0.343607959
    0.393404908    0.753875969    0.453935740
    0.018404908    0.587209302    0.564263520
    0.643404908    0.420542636    0.674591300
    0.268404908    0.253875969    0.784919081
    0.893404908    0.087209302    0.895246861
    0.768404908    0.253875969    0.343607959
    0.393404908    0.087209302    0.453935740
    0.018404908    0.920542636    0.564263520
    0.643404908    0.753875969    0.674591300
    0.268404908    0.587209302    0.784919081
    0.893404908    0.420542636    0.895246861
    0.393404908    0.837209302    0.343607959
    0.018404908    0.670542636    0.453935740
    0.643404908    0.503875969    0.564263520
    0.268404908    0.337209302    0.674591300
    0.893404908    0.170542636    0.784919081
    0.518404908    0.003875969    0.895246861
    0.393404908    0.170542636    0.343607959
    0.018404908    0.003875969    0.453935740
    0.643404908    0.837209302    0.564263520
    0.268404908    0.670542636    0.674591300
    0.893404908    0.503875969    0.784919081
    0.518404908    0.337209302    0.895246861
    0.393404908    0.503875969    0.343607959
    0.018404908    0.337209302    0.453935740
    0.643404908    0.170542636    0.564263520
    0.268404908    0.003875969    0.674591300
    0.893404908    0.837209302    0.784919081
    0.518404908    0.670542636    0.895246861
    0.893404908    0.837209302    0.343607959
    0.518404908    0.670542636    0.453935740
    0.143404908    0.503875969    0.564263520
    0.768404908    0.337209302    0.674591300
    0.393404908    0.170542636    0.784919081
    0.018404908    0.003875969    0.895246861
    0.893404908    0.170542636    0.343607959
    0.518404908    0.003875969    0.453935740
    0.143404908    0.837209302    0.564263520
    0.768404908    0.670542636    0.674591300
    0.393404908    0.503875969    0.784919081
    0.018404908    0.337209302    0.895246861
    0.893404908    0.503875969    0.343607959
    0.518404908    0.337209302    0.453935740
    0.143404908    0.170542636    0.564263520
    0.768404908    0.003875969    0.674591300
    0.393404908    0.837209302    0.784919081
    0.018404908    0.670542636    0.895246861
    0.143404908    0.837209302    0.343607959
    0.768404908    0.670542636    0.453935740
    0.393404908    0.503875969    0.564263520
    0.018404908    0.337209302    0.674591300
    0.643404908    0.170542636    0.784919081
    0.268404908    0.003875969    0.895246861
    0.143404908    0.170542636    0.343607959
    0.768404908    0.003875969    0.453935740
    0.393404908    0.837209302    0.564263520
    0.018404908    0.670542636    0.674591300
    0.643404908    0.503875969    0.784919081
    0.268404908    0.337209302    0.895246861
    0.143404908    0.503875969    0.343607959
    0.768404908    0.337209302    0.453935740
    0.393404908    0.170542636    0.564263520
    0.018404908    0.003875969    0.674591300
    0.643404908    0.837209302    0.784919081
    0.268404908    0.670542636    0.895246861
    0.643404908    0.837209302    0.343607959
    0.268404908    0.670542636    0.453935740
    0.893404908    0.503875969    0.564263520
    0.518404908    0.337209302    0.674591300
    0.143404908    0.170542636    0.784919081
    0.768404908    0.003875969    0.895246861
    0.643404908    0.170542636    0.343607959
    0.268404908    0.003875969    0.453935740
    0.893404908    0.837209302    0.564263520
    0.518404908    0.670542636    0.674591300
    0.143404908    0.503875969    0.784919081
    0.768404908    0.337209302    0.895246861
    0.643404908    0.503875969    0.343607959
    0.268404908    0.337209302    0.453935740
    0.893404908    0.170542636    0.564263520
    0.518404908    0.003875969    0.674591300
    0.143404908    0.837209302    0.784919081
    0.768404908    0.670542636    0.895246861
