Sn+Sn                                   
   1.00000000000000     
     9.1771144870000008    0.0000000000000000    0.0000000000000000
    -4.5885577199999998   13.7656726840000001    0.0000000000000000
     0.0000000000000000    0.0000000000000000   10.8153343199999998
   Sn
    48
Direct
  0.0049649059999979  0.9950351119999965  0.0000000000000000
  0.1716316340000006  0.8283684250000007  0.2999999820000028
  0.3382982910000010  0.6617017980000028  0.5999999049999971
  0.6716315749999993  0.3283684250000007  0.0000000000000000
  0.8382983210000035  0.1617017239999967  0.2999999820000028
  0.0049650670000005  0.9950351119999965  0.5999999049999971
  0.3382982609999985  0.6617017390000015  0.0000000000000000
  0.5049649480000014  0.4950350519999986  0.2999999820000028
  0.6716316939999984  0.3283684250000007  0.5999999049999971
  0.0882982609999985  0.1617017390000015  0.1499999759999966
  0.2549649480000014  0.9950351119999965  0.4499999279999969
  0.4216316939999984  0.8283683659999994  0.7499999400000021
  0.7549648279999985  0.4950350820000011  0.1499999759999966
  0.9216314549999964  0.3283684250000007  0.4499999279999969
  0.0882983210000035  0.1617017390000015  0.7499999400000021
  0.4216316039999981  0.8283684849999986  0.1499999759999966
  0.5882982609999985  0.6617017980000028  0.4499999279999969
  0.7549651269999984  0.4950351419999990  0.7499999400000021
  0.5049648880000035  0.9950351119999965  0.0000000000000000
  0.6716316340000006  0.8283684250000007  0.2999999820000028
  0.8382983210000035  0.6617017390000015  0.5999999049999971
  0.1716315899999969  0.3283684250000007  0.0000000000000000
  0.3382983210000035  0.1617017390000015  0.2999999820000028
  0.5049650070000027  0.9950351119999965  0.5999999049999971
  0.8382982609999985  0.6617017390000015  0.0000000000000000
  0.0049649480000014  0.4950350519999986  0.2999999820000028
  0.1716315749999993  0.3283683659999994  0.5999999049999971
  0.5882982019999972  0.1617017239999967  0.1499999759999966
  0.7549649480000014  0.9950350519999986  0.4499999279999969
  0.9216316340000006  0.8283683659999994  0.7499999400000021
  0.2549648580000010  0.4950350820000011  0.1499999759999966
  0.4216315749999993  0.3283684250000007  0.4499999279999969
  0.5882983210000035  0.1617017089999990  0.7499999400000021
  0.9216316340000006  0.8283684849999986  0.1499999759999966
  0.0882983210000035  0.6617018580000007  0.4499999279999969
  0.2549651859999997  0.4950351720000015  0.7499999400000021
  0.9628466369999984  0.9734618660000010  0.7499999400000021
  0.5739576220000018  0.6956839560000034  0.8500000240000034
  0.1850686670000030  0.4179061649999980  0.9500000479999997
  0.4628466670000009  0.9734618660000010  0.7499999400000021
  0.0739576590000013  0.6956839560000034  0.8500000240000034
  0.6850687270000009  0.4179061649999980  0.9500000479999997
  0.7684021000000030  0.0845729560000024  0.8000000119999982
  0.3795131440000006  0.8067951199999968  0.8999999759999966
  0.9906240700000026  0.5290171500000014  0.0000001189999992
  0.2684021589999972  0.0845729560000024  0.7999998929999990
  0.8795131440000006  0.8067951199999968  0.8999999759999966
  0.4906241300000005  0.5290171500000014  0.0000001189999992
 
  0.00000000E+00  0.00000000E+00  0.00000000E+00
  0.00000000E+00  0.00000000E+00  0.00000000E+00
  0.00000000E+00  0.00000000E+00  0.00000000E+00
  0.00000000E+00  0.00000000E+00  0.00000000E+00
  0.00000000E+00  0.00000000E+00  0.00000000E+00
  0.00000000E+00  0.00000000E+00  0.00000000E+00
  0.00000000E+00  0.00000000E+00  0.00000000E+00
  0.00000000E+00  0.00000000E+00  0.00000000E+00
  0.00000000E+00  0.00000000E+00  0.00000000E+00
  0.00000000E+00  0.00000000E+00  0.00000000E+00
  0.00000000E+00  0.00000000E+00  0.00000000E+00
  0.00000000E+00  0.00000000E+00  0.00000000E+00
  0.00000000E+00  0.00000000E+00  0.00000000E+00
  0.00000000E+00  0.00000000E+00  0.00000000E+00
  0.00000000E+00  0.00000000E+00  0.00000000E+00
  0.00000000E+00  0.00000000E+00  0.00000000E+00
  0.00000000E+00  0.00000000E+00  0.00000000E+00
  0.00000000E+00  0.00000000E+00  0.00000000E+00
  0.00000000E+00  0.00000000E+00  0.00000000E+00
  0.00000000E+00  0.00000000E+00  0.00000000E+00
  0.00000000E+00  0.00000000E+00  0.00000000E+00
  0.00000000E+00  0.00000000E+00  0.00000000E+00
  0.00000000E+00  0.00000000E+00  0.00000000E+00
  0.00000000E+00  0.00000000E+00  0.00000000E+00
  0.00000000E+00  0.00000000E+00  0.00000000E+00
  0.00000000E+00  0.00000000E+00  0.00000000E+00
  0.00000000E+00  0.00000000E+00  0.00000000E+00
  0.00000000E+00  0.00000000E+00  0.00000000E+00
  0.00000000E+00  0.00000000E+00  0.00000000E+00
  0.00000000E+00  0.00000000E+00  0.00000000E+00
  0.00000000E+00  0.00000000E+00  0.00000000E+00
  0.00000000E+00  0.00000000E+00  0.00000000E+00
  0.00000000E+00  0.00000000E+00  0.00000000E+00
  0.00000000E+00  0.00000000E+00  0.00000000E+00
  0.00000000E+00  0.00000000E+00  0.00000000E+00
  0.00000000E+00  0.00000000E+00  0.00000000E+00
  0.00000000E+00  0.00000000E+00  0.00000000E+00
  0.00000000E+00  0.00000000E+00  0.00000000E+00
  0.00000000E+00  0.00000000E+00  0.00000000E+00
  0.00000000E+00  0.00000000E+00  0.00000000E+00
  0.00000000E+00  0.00000000E+00  0.00000000E+00
  0.00000000E+00  0.00000000E+00  0.00000000E+00
  0.00000000E+00  0.00000000E+00  0.00000000E+00
  0.00000000E+00  0.00000000E+00  0.00000000E+00
  0.00000000E+00  0.00000000E+00  0.00000000E+00
  0.00000000E+00  0.00000000E+00  0.00000000E+00
  0.00000000E+00  0.00000000E+00  0.00000000E+00
  0.00000000E+00  0.00000000E+00  0.00000000E+00
