Sn+Sn
    1.000000000
    9.177114487    0.000000000    0.000000000
   -4.588557720   13.765672684    0.000000000
    0.000000000    0.000000000   10.815334320
Sn 
48
Direct
    0.004964906    0.995035112    0.000000000
    0.171631634    0.828368425    0.299999982
    0.338298291    0.661701798    0.599999905
    0.671631575    0.328368425    0.000000000
    0.838298321    0.161701724    0.299999982
    0.004965067    0.995035112    0.599999905
    0.338298261    0.661701739    0.000000000
    0.504964948    0.495035052    0.299999982
    0.671631694    0.328368425    0.599999905
    0.088298261    0.161701739    0.149999976
    0.254964948    0.995035112    0.449999928
    0.421631694    0.828368366    0.749999940
    0.754964828    0.495035082    0.149999976
    0.921631455    0.328368425    0.449999928
    0.088298321    0.161701739    0.749999940
    0.421631604    0.828368485    0.149999976
    0.588298261    0.661701798    0.449999928
    0.754965127    0.495035142    0.749999940
    0.504964888    0.995035112    0.000000000
    0.671631634    0.828368425    0.299999982
    0.838298321    0.661701739    0.599999905
    0.171631590    0.328368425    0.000000000
    0.338298321    0.161701739    0.299999982
    0.504965007    0.995035112    0.599999905
    0.838298261    0.661701739    0.000000000
    0.004964948    0.495035052    0.299999982
    0.171631575    0.328368366    0.599999905
    0.588298202    0.161701724    0.149999976
    0.754964948    0.995035052    0.449999928
    0.921631634    0.828368366    0.749999940
    0.254964858    0.495035082    0.149999976
    0.421631575    0.328368425    0.449999928
    0.588298321    0.161701709    0.749999940
    0.921631634    0.828368485    0.149999976
    0.088298321    0.661701858    0.449999928
    0.254965186    0.495035172    0.749999940
    0.962846637    0.973461866    0.749999940
    0.573957622    0.695683956    0.850000024
    0.185068667    0.417906165    0.950000048
    0.462846667    0.973461866    0.749999940
    0.073957659    0.695683956    0.850000024
    0.685068727    0.417906165    0.950000048
    0.768402100    0.084572956    0.800000012
    0.379513144    0.806795120    0.899999976
    0.990624070    0.529017150    1.000000119
    0.268402159    0.084572956    0.799999893
    0.879513144    0.806795120    0.899999976
    0.490624130    0.529017150    1.000000119
