Si+Sn
    1.000000000
    9.406767845    0.000000000    0.000000000
    0.000000000   15.361189842    0.000000000
    0.000000000    0.000000000   16.934633255
Si  Sn 
48     48
Direct
    0.069444448    0.921875000    0.000000004
    0.402777851    0.546875000    0.065463416
    0.736111283    0.171875000    0.130926833
    0.069444656    0.796875000    0.196390271
    0.402778029    0.421875119    0.261853606
    0.736111641    0.046874881    0.327317059
    0.069444455    0.421874970    0.000000002
    0.402777851    0.046874985    0.065463416
    0.736111283    0.671875000    0.130926833
    0.069444656    0.296875000    0.196390271
    0.402778029    0.921875000    0.261853606
    0.736111641    0.546874762    0.327317059
    0.819444478    0.171875015    0.000000000
    0.152777910    0.796875000    0.065463401
    0.486111283    0.421875000    0.130926818
    0.819444776    0.046874940    0.196390182
    0.152778149    0.671875000    0.261853635
    0.486111641    0.296874881    0.327317119
    0.819444478    0.671874940    0.000000000
    0.152777910    0.296874970    0.065463386
    0.486111283    0.921874940    0.130926818
    0.819444776    0.546874881    0.196390212
    0.152777910    0.171875000    0.261853665
    0.486111641    0.796874762    0.327317119
    0.069444448    0.171875000    0.000000006
    0.402777851    0.796875000    0.065463416
    0.736111283    0.421875000    0.130926833
    0.069444776    0.046874940    0.196390212
    0.402778029    0.671875000    0.261853606
    0.736111522    0.296874881    0.327317119
    0.069444455    0.671875000    0.000000004
    0.402777851    0.296875000    0.065463416
    0.736111283    0.921875000    0.130926833
    0.069444656    0.546874940    0.196390226
    0.402778029    0.171875000    0.261853606
    0.736111522    0.796874881    0.327317119
    0.819444478    0.921875000    0.000000000
    0.152777791    0.546875000    0.065463401
    0.486111283    0.171875000    0.130926818
    0.819444895    0.796875000    0.196390182
    0.152778149    0.421875000    0.261853606
    0.486111879    0.046874762    0.327317059
    0.819444478    0.421875000    0.000000000
    0.152777910    0.046874970    0.065463401
    0.486111283    0.671875000    0.130926818
    0.819444656    0.296875000    0.196390212
    0.152778149    0.921875119    0.261853665
    0.486111641    0.546874881    0.327317148
    0.881720424    0.144453645    0.414768606
    0.881720424    0.811120152    0.636004150
    0.881720424    0.477786720    0.857239664
    0.381720424    0.644453585    0.414768606
    0.381720424    0.311120152    0.636004150
    0.381720424    0.977786779    0.857239664
    0.381720424    0.311120212    0.470077485
    0.381720424    0.977786779    0.691312969
    0.381720424    0.644453406    0.912548482
    0.881720424    0.811120152    0.470077485
    0.881720424    0.477786779    0.691312969
    0.881720424    0.144453406    0.912548482
    0.631720304    0.394453585    0.414768606
    0.631720304    0.061120152    0.636004210
    0.631720304    0.727786779    0.857239664
    0.131720424    0.894453526    0.414768636
    0.131720424    0.561120152    0.636004210
    0.131720424    0.227786750    0.857239664
    0.131720424    0.561120212    0.470077425
    0.131720424    0.227786839    0.691312969
    0.131720424    0.894453406    0.912548482
    0.631720304    0.061120272    0.470077425
    0.631720304    0.727786839    0.691312969
    0.631720304    0.394453406    0.912548423
    0.131720424    0.394453585    0.414768606
    0.131720424    0.061120152    0.636004210
    0.131720424    0.727786779    0.857239664
    0.631720304    0.894453526    0.414768636
    0.631720304    0.561120152    0.636004210
    0.631720304    0.227786750    0.857239664
    0.631720304    0.561120212    0.470077425
    0.631720424    0.227786839    0.691312969
    0.631720424    0.894453406    0.912548482
    0.131720424    0.061120272    0.470077425
    0.131720424    0.727786839    0.691312969
    0.131720424    0.394453406    0.912548482
    0.381720424    0.144453645    0.414768606
    0.381720424    0.811120152    0.636004150
    0.381720424    0.477786720    0.857239664
    0.881720424    0.644453585    0.414768606
    0.881720424    0.311120152    0.636004150
    0.881720424    0.977786779    0.857239664
    0.881720424    0.311120272    0.470077485
    0.881720424    0.977786839    0.691312969
    0.881720424    0.644453466    0.912548482
    0.381720304    0.811120331    0.470077425
    0.381720424    0.477786958    0.691312969
    0.381720424    0.144453526    0.912548482
