Ge+Sn
    1.000000000
   11.315600395    0.000000000    0.000000000
    0.000000000   16.002676010    0.000000000
    0.000000000    0.000000000   25.800939560
Ge  Sn 
96     72
Direct
    0.970662773    0.455994159    0.000000018
    0.720662713    0.080994137    0.077529535
    0.470662773    0.705994129    0.155059069
    0.220662892    0.330994248    0.232588530
    0.970662713    0.955994129    0.310118079
    0.720662713    0.580994129    0.387647629
    0.470662773    0.455994159    0.000000018
    0.220662758    0.080994137    0.077529535
    0.970662773    0.705994129    0.155059069
    0.720662832    0.330994248    0.232588530
    0.470662832    0.955994129    0.310118079
    0.220662773    0.580994129    0.387647629
    0.970662773    0.955994129    0.000000016
    0.720662713    0.580994129    0.077529542
    0.470662773    0.205994129    0.155059054
    0.220662892    0.830994368    0.232588530
    0.970662713    0.455994129    0.310118109
    0.720662713    0.080994129    0.387647599
    0.470662773    0.955994129    0.000000016
    0.220662758    0.580994129    0.077529542
    0.970662773    0.205994129    0.155059054
    0.720662832    0.830994368    0.232588530
    0.470662832    0.455994129    0.310118109
    0.220662773    0.080994129    0.387647599
    0.970662773    0.705994129    0.000000021
    0.720662713    0.330994129    0.077529535
    0.470662773    0.955994129    0.155059054
    0.220662892    0.580994248    0.232588559
    0.970662713    0.205994189    0.310118109
    0.720662713    0.830994129    0.387647629
    0.470662773    0.705994129    0.000000021
    0.220662758    0.330994129    0.077529535
    0.970662773    0.955994129    0.155059054
    0.720662832    0.580994248    0.232588559
    0.470662832    0.205994189    0.310118109
    0.220662773    0.830994129    0.387647629
    0.970662773    0.205994144    0.000000017
    0.720662713    0.830994129    0.077529535
    0.470662773    0.455994129    0.155059054
    0.220662892    0.080994248    0.232588559
    0.970662713    0.705994248    0.310118079
    0.720662713    0.330994129    0.387647599
    0.470662773    0.205994144    0.000000017
    0.220662758    0.830994129    0.077529535
    0.970662773    0.455994129    0.155059054
    0.720662832    0.080994248    0.232588559
    0.470662832    0.705994248    0.310118079
    0.220662773    0.330994129    0.387647599
    0.345662743    0.580994189    0.000000026
    0.095662758    0.205994159    0.077529535
    0.845662773    0.830994129    0.155059054
    0.595662832    0.455994248    0.232588530
    0.345662773    0.080994189    0.310118109
    0.095662713    0.705994129    0.387647629
    0.845662832    0.580994189    0.000000026
    0.595662773    0.205994159    0.077529535
    0.345662802    0.830994129    0.155059054
    0.095662884    0.455994248    0.232588530
    0.845662832    0.080994189    0.310118109
    0.595662773    0.705994129    0.387647629
    0.345662743    0.080994137    0.000000013
    0.095662758    0.705994129    0.077529535
    0.845662773    0.330994129    0.155059054
    0.595662832    0.955994248    0.232588559
    0.345662773    0.580994248    0.310118079
    0.095662713    0.205994010    0.387647599
    0.845662832    0.080994137    0.000000013
    0.595662773    0.705994129    0.077529535
    0.345662802    0.330994129    0.155059054
    0.095662884    0.955994248    0.232588559
    0.845662832    0.580994248    0.310118079
    0.595662773    0.205994010    0.387647599
    0.345662743    0.830994189    0.000000000
    0.095662758    0.455994189    0.077529535
    0.845662773    0.080994174    0.155059054
    0.595662832    0.705994308    0.232588530
    0.345662773    0.330994248    0.310118079
    0.095662713    0.955994129    0.387647569
    0.845662832    0.830994189    0.000000000
    0.595662773    0.455994189    0.077529535
    0.345662802    0.080994174    0.155059054
    0.095662884    0.705994308    0.232588530
    0.845662832    0.330994248    0.310118079
    0.595662773    0.955994129    0.387647569
    0.345662743    0.330994129    0.000000018
    0.095662758    0.955994129    0.077529542
    0.845662773    0.580994129    0.155059054
    0.595662832    0.205994248    0.232588559
    0.345662773    0.830994129    0.310118079
    0.095662713    0.455994129    0.387647599
    0.845662832    0.330994129    0.000000018
    0.595662773    0.955994129    0.077529542
    0.345662802    0.580994129    0.155059054
    0.095662884    0.205994248    0.232588559
    0.845662832    0.830994129    0.310118079
    0.595662773    0.455994129    0.387647599
    0.223214284    0.724158883    0.471518010
    0.223214269    0.474158764    0.560440361
    0.223214149    0.224158645    0.649362683
    0.223214149    0.974158466    0.738284945
    0.223214030    0.724158406    0.827207208
    0.223214030    0.474158287    0.916129589
    0.889881015    0.057492256    0.471518010
    0.889880955    0.807492137    0.560440361
    0.889880896    0.557492018    0.649362683
    0.889880896    0.307491899    0.738284945
    0.889880836    0.057491779    0.827207267
    0.889880776    0.807491660    0.916129589
    0.556547701    0.390825510    0.471518010
    0.556547642    0.140825510    0.560440361
    0.556547582    0.890825391    0.649362683
    0.556547523    0.640825272    0.738284945
    0.556547463    0.390825272    0.827207267
    0.556547463    0.140825033    0.916129589
    0.556547642    0.890825570    0.471518010
    0.556547582    0.640825510    0.560440361
    0.556547523    0.390825391    0.649362683
    0.556547523    0.140825152    0.738284945
    0.556547523    0.890825093    0.827207208
    0.556547463    0.640825033    0.916129589
    0.223214284    0.224158883    0.471518010
    0.223214269    0.974158823    0.560440361
    0.223214149    0.724158764    0.649362683
    0.223214149    0.474158525    0.738284945
    0.223214030    0.224158525    0.827207208
    0.223214030    0.974158347    0.916129589
    0.889881074    0.557492256    0.471518010
    0.889881015    0.307492256    0.560440421
    0.889880896    0.057492018    0.649362683
    0.889880896    0.807491958    0.738284945
    0.889880776    0.557491899    0.827207267
    0.889880776    0.307491779    0.916129589
    0.806547642    0.890825570    0.471518040
    0.806547642    0.640825510    0.560440361
    0.806547582    0.390825272    0.649362683
    0.806547463    0.140825272    0.738284945
    0.806547523    0.890825152    0.827207208
    0.806547403    0.640825152    0.916129589
    0.473214269    0.224158883    0.471518040
    0.473214209    0.974158823    0.560440361
    0.473214209    0.724158764    0.649362683
    0.473214090    0.474158525    0.738284945
    0.473214030    0.224158525    0.827207267
    0.473214000    0.974158347    0.916129589
    0.139881015    0.557492256    0.471518010
    0.139880896    0.307492256    0.560440361
    0.139880776    0.057492018    0.649362683
    0.139880776    0.807491899    0.738284945
    0.139880776    0.557491779    0.827207208
    0.139880776    0.307491660    0.916129589
    0.473214328    0.724158883    0.471518010
    0.473214269    0.474158764    0.560440421
    0.473214269    0.224158645    0.649362683
    0.473214149    0.974158525    0.738284945
    0.473214090    0.724158525    0.827207267
    0.473213971    0.474158406    0.916129589
    0.139881134    0.057492256    0.471518040
    0.139881015    0.807492197    0.560440421
    0.139880896    0.557492018    0.649362683
    0.139880896    0.307491899    0.738284945
    0.139880896    0.057491779    0.827207208
    0.139880776    0.807491779    0.916129589
    0.806547701    0.390825510    0.471518040
    0.806547582    0.140825510    0.560440421
    0.806547523    0.890825391    0.649362683
    0.806547523    0.640825272    0.738284945
    0.806547463    0.390825272    0.827207208
    0.806547463    0.140825033    0.916129589
