fcc Si+fcc Ge                           
   1.00000000000000     
     5.4800000000000004    0.0000000000000000    0.0000000000000000
     0.0000000000000000   17.3292815779999998    0.0000000000000000
     0.0000000000000000    0.0000000000000000   15.4073203939999992
   Si   Ge
    24    36
Direct
  0.0000000000000000  0.0000000000000000  0.0000000000000000
  0.5000000000000000  0.1499999999999986  0.0562371689999992
  0.0000000000000000  0.2999999999999972  0.1124743379999984
  0.5000000000000000  0.4500000000000028  0.1687115069999976
  0.0000000000000000  0.6000000000000014  0.2249486750000003
  0.5000000000000000  0.7500000000000000  0.2811858439999995
  0.0000000000000000  0.5000000000000000  0.0000000000000000
  0.5000000000000000  0.6499999999999986  0.0562371689999992
  0.0000000000000000  0.7999999999999972  0.1124743379999984
  0.5000000000000000  0.9500000000000028  0.1687115069999976
  0.0000000000000000  0.1000000000000014  0.2249486750000003
  0.5000000000000000  0.2500000000000000  0.2811858439999995
  0.2500000000000000  0.2500000000000000  0.0000000000000000
  0.7500000000000000  0.3999999999999986  0.0562371689999992
  0.2500000000000000  0.5499999999999972  0.1124743379999984
  0.7500000000000000  0.7000000000000028  0.1687115069999976
  0.2500000000000000  0.8500000000000014  0.2249486750000003
  0.7500000000000000  0.0000000000000000  0.2811858439999995
  0.2500000000000000  0.7500000000000000  0.0000000000000000
  0.7500000000000000  0.8999999999999986  0.0562371689999992
  0.2500000000000000  0.0499999999999972  0.1124743379999984
  0.7500000000000000  0.2000000000000028  0.1687115069999976
  0.2500000000000000  0.3500000000000014  0.2249486750000003
  0.7500000000000000  0.5000000000000000  0.2811858439999995
  0.5000000000000000  0.1686046510000025  0.4109942700000033
  0.5000000000000000  0.0019379840000013  0.5946731920000019
  0.5000000000000000  0.8352713179999967  0.7783521140000005
  0.5000000000000000  0.5019379840000013  0.4109942700000033
  0.5000000000000000  0.3352713179999967  0.5946731920000019
  0.5000000000000000  0.1686046510000025  0.7783521140000005
  0.5000000000000000  0.8352713179999967  0.4109942700000033
  0.5000000000000000  0.6686046510000025  0.5946731920000019
  0.5000000000000000  0.5019379840000013  0.7783521140000005
  0.0000000000000000  0.3352713179999967  0.4109942700000033
  0.0000000000000000  0.1686046510000025  0.5946731920000019
  0.0000000000000000  0.0019379840000013  0.7783521140000005
  0.0000000000000000  0.6686046510000025  0.4109942700000033
  0.0000000000000000  0.5019379840000013  0.5946731920000019
  0.0000000000000000  0.3352713179999967  0.7783521140000005
  0.0000000000000000  0.0019379840000013  0.4109942700000033
  0.0000000000000000  0.8352713179999967  0.5946731920000019
  0.0000000000000000  0.6686046510000025  0.7783521140000005
  0.7500000000000000  0.2519379840000013  0.5028337310000026
  0.7500000000000000  0.0852713179999967  0.6865126530000012
  0.7500000000000000  0.9186046510000025  0.8701915749999998
  0.7500000000000000  0.5852713179999967  0.5028337310000026
  0.7500000000000000  0.4186046510000025  0.6865126530000012
  0.7500000000000000  0.2519379840000013  0.8701915749999998
  0.7500000000000000  0.9186046510000025  0.5028337310000026
  0.7500000000000000  0.7519379840000013  0.6865126530000012
  0.7500000000000000  0.5852713179999967  0.8701915749999998
  0.2500000000000000  0.4186046510000025  0.5028337310000026
  0.2500000000000000  0.2519379840000013  0.6865126530000012
  0.2500000000000000  0.0852713179999967  0.8701915749999998
  0.2500000000000000  0.7519379840000013  0.5028337310000026
  0.2500000000000000  0.5852713179999967  0.6865126530000012
  0.2500000000000000  0.4186046510000025  0.8701915749999998
  0.2500000000000000  0.0852713179999967  0.5028337310000026
  0.2500000000000000  0.9186046510000025  0.6865126530000012
  0.2500000000000000  0.7519379840000013  0.8701915749999998
 
  0.00000000E+00  0.00000000E+00  0.00000000E+00
  0.00000000E+00  0.00000000E+00  0.00000000E+00
  0.00000000E+00  0.00000000E+00  0.00000000E+00
  0.00000000E+00  0.00000000E+00  0.00000000E+00
  0.00000000E+00  0.00000000E+00  0.00000000E+00
  0.00000000E+00  0.00000000E+00  0.00000000E+00
  0.00000000E+00  0.00000000E+00  0.00000000E+00
  0.00000000E+00  0.00000000E+00  0.00000000E+00
  0.00000000E+00  0.00000000E+00  0.00000000E+00
  0.00000000E+00  0.00000000E+00  0.00000000E+00
  0.00000000E+00  0.00000000E+00  0.00000000E+00
  0.00000000E+00  0.00000000E+00  0.00000000E+00
  0.00000000E+00  0.00000000E+00  0.00000000E+00
  0.00000000E+00  0.00000000E+00  0.00000000E+00
  0.00000000E+00  0.00000000E+00  0.00000000E+00
  0.00000000E+00  0.00000000E+00  0.00000000E+00
  0.00000000E+00  0.00000000E+00  0.00000000E+00
  0.00000000E+00  0.00000000E+00  0.00000000E+00
  0.00000000E+00  0.00000000E+00  0.00000000E+00
  0.00000000E+00  0.00000000E+00  0.00000000E+00
  0.00000000E+00  0.00000000E+00  0.00000000E+00
  0.00000000E+00  0.00000000E+00  0.00000000E+00
  0.00000000E+00  0.00000000E+00  0.00000000E+00
  0.00000000E+00  0.00000000E+00  0.00000000E+00
  0.00000000E+00  0.00000000E+00  0.00000000E+00
  0.00000000E+00  0.00000000E+00  0.00000000E+00
  0.00000000E+00  0.00000000E+00  0.00000000E+00
  0.00000000E+00  0.00000000E+00  0.00000000E+00
  0.00000000E+00  0.00000000E+00  0.00000000E+00
  0.00000000E+00  0.00000000E+00  0.00000000E+00
  0.00000000E+00  0.00000000E+00  0.00000000E+00
  0.00000000E+00  0.00000000E+00  0.00000000E+00
  0.00000000E+00  0.00000000E+00  0.00000000E+00
  0.00000000E+00  0.00000000E+00  0.00000000E+00
  0.00000000E+00  0.00000000E+00  0.00000000E+00
  0.00000000E+00  0.00000000E+00  0.00000000E+00
  0.00000000E+00  0.00000000E+00  0.00000000E+00
  0.00000000E+00  0.00000000E+00  0.00000000E+00
  0.00000000E+00  0.00000000E+00  0.00000000E+00
  0.00000000E+00  0.00000000E+00  0.00000000E+00
  0.00000000E+00  0.00000000E+00  0.00000000E+00
  0.00000000E+00  0.00000000E+00  0.00000000E+00
  0.00000000E+00  0.00000000E+00  0.00000000E+00
  0.00000000E+00  0.00000000E+00  0.00000000E+00
  0.00000000E+00  0.00000000E+00  0.00000000E+00
  0.00000000E+00  0.00000000E+00  0.00000000E+00
  0.00000000E+00  0.00000000E+00  0.00000000E+00
  0.00000000E+00  0.00000000E+00  0.00000000E+00
  0.00000000E+00  0.00000000E+00  0.00000000E+00
  0.00000000E+00  0.00000000E+00  0.00000000E+00
  0.00000000E+00  0.00000000E+00  0.00000000E+00
  0.00000000E+00  0.00000000E+00  0.00000000E+00
  0.00000000E+00  0.00000000E+00  0.00000000E+00
  0.00000000E+00  0.00000000E+00  0.00000000E+00
  0.00000000E+00  0.00000000E+00  0.00000000E+00
  0.00000000E+00  0.00000000E+00  0.00000000E+00
  0.00000000E+00  0.00000000E+00  0.00000000E+00
  0.00000000E+00  0.00000000E+00  0.00000000E+00
  0.00000000E+00  0.00000000E+00  0.00000000E+00
  0.00000000E+00  0.00000000E+00  0.00000000E+00
