Ge+Si
    1.000000000
   16.973400116    0.000000000    0.000000000
    0.000000000   16.973400116    0.000000000
    0.000000000    0.000000000   17.861000061
Ge  Si 
108     120
Direct
    0.994305491    0.666666567    0.000000000
    0.827638865    0.666666567    0.158384174
    0.660972118    0.666666567    0.316768378
    0.994305491    0.333333284    0.000000000
    0.827638865    0.333333284    0.158384174
    0.660972118    0.333333284    0.316768378
    0.994305491    0.000000000    0.000000000
    0.827638865    0.000000000    0.158384174
    0.660972118    0.000000000    0.316768378
    0.327638805    0.666666567    0.000000000
    0.160972148    0.666666567    0.158384174
    0.994305432    0.666666567    0.316768378
    0.327638805    0.333333284    0.000000000
    0.160972148    0.333333284    0.158384174
    0.994305432    0.333333284    0.316768378
    0.327638805    0.000000000    0.000000000
    0.160972148    0.000000000    0.158384174
    0.994305432    0.000000000    0.316768378
    0.660972118    0.666666567    0.000000000
    0.494305432    0.666666567    0.158384174
    0.327638745    0.666666567    0.316768378
    0.660972118    0.333333284    0.000000000
    0.494305432    0.333333284    0.158384174
    0.327638745    0.333333284    0.316768378
    0.660972118    0.000000000    0.000000000
    0.494305432    0.000000000    0.158384174
    0.327638745    0.000000000    0.316768378
    0.077638842    0.916666567    0.079192095
    0.910972118    0.916666567    0.237576291
    0.744305491    0.916666567    0.395960480
    0.077638842    0.583333313    0.079192095
    0.910972118    0.583333313    0.237576291
    0.744305491    0.583333313    0.395960480
    0.077638842    0.249999955    0.079192095
    0.910972118    0.249999955    0.237576291
    0.744305491    0.249999955    0.395960480
    0.410972089    0.916666567    0.079192095
    0.244305417    0.916666567    0.237576291
    0.077638723    0.916666567    0.395960480
    0.410972089    0.583333313    0.079192095
    0.244305417    0.583333313    0.237576291
    0.077638723    0.583333313    0.395960480
    0.410972089    0.249999955    0.079192095
    0.244305417    0.249999955    0.237576291
    0.077638723    0.249999955    0.395960480
    0.744305491    0.916666567    0.079192095
    0.577638745    0.916666567    0.237576291
    0.410972059    0.916666567    0.395960480
    0.744305491    0.583333313    0.079192095
    0.577638745    0.583333313    0.237576291
    0.410972059    0.583333313    0.395960480
    0.744305491    0.249999955    0.079192095
    0.577638745    0.249999955    0.237576291
    0.410972059    0.249999955    0.395960480
    0.160972163    0.833333194    0.000000000
    0.994305491    0.833333194    0.158384174
    0.827638805    0.833333194    0.316768378
    0.160972163    0.499999911    0.000000000
    0.994305491    0.499999911    0.158384174
    0.827638805    0.499999911    0.316768378
    0.160972163    0.166666642    0.000000000
    0.994305491    0.166666642    0.158384174
    0.827638805    0.166666642    0.316768378
    0.494305432    0.833333194    0.000000000
    0.327638745    0.833333194    0.158384174
    0.160972074    0.833333194    0.316768378
    0.494305432    0.499999911    0.000000000
    0.327638745    0.499999911    0.158384174
    0.160972074    0.499999911    0.316768378
    0.494305432    0.166666642    0.000000000
    0.327638745    0.166666642    0.158384174
    0.160972074    0.166666642    0.316768378
    0.827638805    0.833333194    0.000000000
    0.660972118    0.833333194    0.158384174
    0.494305432    0.833333194    0.316768378
    0.827638805    0.499999911    0.000000000
    0.660972118    0.499999911    0.158384174
    0.494305432    0.499999911    0.316768378
    0.827638805    0.166666642    0.000000000
    0.660972118    0.166666642    0.158384174
    0.494305432    0.166666642    0.316768378
    0.244305462    0.749999881    0.079192095
    0.077638783    0.749999881    0.237576291
    0.910972118    0.749999881    0.395960480
    0.244305462    0.416666627    0.079192095
    0.077638783    0.416666627    0.237576291
    0.910972118    0.416666627    0.395960480
    0.244305462    0.083333328    0.079192095
    0.077638783    0.083333328    0.237576291
    0.910972118    0.083333328    0.395960480
    0.577638865    0.749999881    0.079192095
    0.410972148    0.749999881    0.237576291
    0.244305447    0.749999881    0.395960480
    0.577638865    0.416666627    0.079192095
    0.410972148    0.416666627    0.237576291
    0.244305447    0.416666627    0.395960480
    0.577638865    0.083333328    0.079192095
    0.410972148    0.083333328    0.237576291
    0.244305447    0.083333328    0.395960480
    0.910972178    0.749999881    0.079192095
    0.744305491    0.749999881    0.237576291
    0.577638745    0.749999881    0.395960480
    0.910972178    0.416666627    0.079192095
    0.744305491    0.416666627    0.237576291
    0.577638745    0.416666627    0.395960480
    0.910972178    0.083333328    0.079192095
    0.744305491    0.083333328    0.237576291
    0.577638745    0.083333328    0.395960480
    0.605903625    0.190537125    0.507936299
    0.455903530    0.240537181    0.659971476
    0.305903435    0.290537238    0.812006652
    0.705903530    0.490537167    0.507936299
    0.555903435    0.540537238    0.659971476
    0.405903459    0.590537310    0.812006652
    0.805903554    0.790537119    0.507936299
    0.655903459    0.840537131    0.659971476
    0.505903482    0.890537262    0.812006652
    0.305903554    0.290537119    0.507936299
    0.155903459    0.340537190    0.659971476
    0.005903363    0.390537232    0.812006652
    0.405903578    0.590537131    0.507936299
    0.255903482    0.640537202    0.659971476
    0.105903387    0.690537274    0.812006652
    0.505903482    0.890537143    0.507936299
    0.355903387    0.940537155    0.659971476
    0.205903411    0.990537286    0.812006652
    0.905903578    0.090537086    0.507936299
    0.755903482    0.140537158    0.659971476
    0.605903387    0.190537214    0.812006652
    0.005903482    0.390537113    0.507936299
    0.855903506    0.440537184    0.659971476
    0.705903411    0.490537226    0.812006652
    0.105903506    0.690537155    0.507936299
    0.955903471    0.740537226    0.659971476
    0.805903435    0.790537298    0.812006652
    0.205903530    0.990537107    0.507936299
    0.055903435    0.040537119    0.659971476
    0.905903339    0.090537310    0.812006652
    0.855903506    0.190537095    0.583953917
    0.705903411    0.240537167    0.735989094
    0.555903316    0.290537238    0.888024211
    0.555903673    0.290537119    0.583953917
    0.405903578    0.340537190    0.735989094
    0.255903482    0.390537262    0.888024211
    0.655903578    0.590537190    0.583953917
    0.505903482    0.640537262    0.735989094
    0.355903387    0.690537274    0.888024211
    0.755903482    0.890537143    0.583953917
    0.605903506    0.940537274    0.735989094
    0.455903411    0.990537286    0.888024211
    0.155903578    0.090537071    0.583953917
    0.005903482    0.140537262    0.735989094
    0.855903387    0.190537333    0.888024211
    0.255903482    0.390537113    0.583953917
    0.105903506    0.440537214    0.735989094
    0.955903351    0.490537226    0.888024211
    0.355903506    0.690537095    0.583953917
    0.205903530    0.740537167    0.735989094
    0.055903435    0.790537298    0.888024211
    0.455903530    0.990537107    0.583953917
    0.305903435    0.040537238    0.735989094
    0.155903339    0.090537310    0.888024211
    0.955903530    0.490537107    0.583953917
    0.805903435    0.540537238    0.735989094
    0.655903339    0.590537250    0.888024211
    0.055903554    0.790537179    0.583953917
    0.905903459    0.840537250    0.735989094
    0.755903363    0.890537262    0.888024211
    0.805903554    0.290537119    0.507936299
    0.655903578    0.340537190    0.659971476
    0.505903482    0.390537292    0.812006652
    0.405903578    0.090537094    0.507936299
    0.255903482    0.140537158    0.659971476
    0.105903387    0.190537244    0.812006652
    0.505903482    0.390537113    0.507936299
    0.355903506    0.440537184    0.659971476
    0.205903411    0.490537286    0.812006652
    0.605903625    0.690537155    0.507936299
    0.455903530    0.740537226    0.659971476
    0.305903435    0.790537298    0.812006652
    0.705903530    0.990537286    0.507936299
    0.555903435    0.040537357    0.659971476
    0.405903459    0.090537310    0.812006652
    0.105903506    0.190537110    0.507936299
    0.955903471    0.240537181    0.659971476
    0.805903435    0.290537238    0.812006652
    0.205903530    0.490537167    0.507936299
    0.055903435    0.540537238    0.659971476
    0.905903339    0.590537310    0.812006652
    0.305903554    0.790537119    0.507936299
    0.155903459    0.840537190    0.659971476
    0.005903363    0.890537262    0.812006652
    0.905903578    0.590537071    0.507936299
    0.755903482    0.640537202    0.659971476
    0.605903387    0.690537274    0.812006652
    0.005903482    0.890537143    0.507936299
    0.855903506    0.940537214    0.659971476
    0.705903411    0.990537286    0.812006652
    0.655903578    0.090537071    0.583953917
    0.505903482    0.140537262    0.735989094
    0.355903387    0.190537214    0.888024211
    0.755903602    0.390537113    0.583953917
    0.605903506    0.440537214    0.735989094
    0.455903411    0.490537226    0.888024211
    0.855903625    0.690537095    0.583953917
    0.705903530    0.740537167    0.735989094
    0.555903435    0.790537238    0.888024211
    0.355903625    0.190537095    0.583953917
    0.205903530    0.240537181    0.735989094
    0.055903435    0.290537238    0.888024211
    0.455903649    0.490537167    0.583953917
    0.305903554    0.540537179    0.735989094
    0.155903459    0.590537250    0.888024211
    0.555903554    0.790537119    0.583953917
    0.405903459    0.840537190    0.735989094
    0.255903482    0.890537322    0.888024211
    0.055903554    0.290537119    0.583953917
    0.905903578    0.340537190    0.735989094
    0.755903363    0.390537262    0.888024211
    0.155903578    0.590537131    0.583953917
    0.005903482    0.640537202    0.735989094
    0.855903387    0.690537214    0.888024211
    0.255903482    0.890537083    0.583953917
    0.105903387    0.940537155    0.735989094
    0.955903351    0.990537286    0.888024211
    0.955903530    0.990537107    0.583953917
    0.805903435    0.040537238    0.735989094
    0.655903339    0.090537310    0.888024211
