Ge+Sn
    1.000000000
   19.599195480    0.000000000    0.000000000
    6.533064842   18.478298187    0.000000000
    0.000000000    0.000000000   25.800945282
Ge  Sn 
192     144
Direct
    0.941464424    0.974913359    0.000000015
    0.503964424    0.787413359    0.077529527
    0.066464484    0.599913359    0.155059054
    0.628964424    0.412413418    0.232588500
    0.191464424    0.224913478    0.310118079
    0.753964186    0.037413359    0.387647510
    0.441464454    0.974913359    0.000000018
    0.003964441    0.787413359    0.077529527
    0.566464424    0.599913359    0.155059040
    0.128964424    0.412413359    0.232588500
    0.691464424    0.224913418    0.310118049
    0.253964305    0.037413359    0.387647599
    0.191464439    0.224913329    0.000000018
    0.753964424    0.037413348    0.077529527
    0.316464424    0.849913359    0.155059040
    0.878964424    0.662413418    0.232588500
    0.441464424    0.474913478    0.310118049
    0.003964305    0.287413359    0.387647599
    0.941464484    0.474913329    0.000000018
    0.503964424    0.287413329    0.077529527
    0.066464424    0.099913359    0.155059040
    0.628964424    0.912413359    0.232588500
    0.191464424    0.724913478    0.310118049
    0.753964186    0.537413359    0.387647599
    0.691464424    0.224913359    0.000000000
    0.253964424    0.037413381    0.077529527
    0.816464424    0.849913359    0.155059040
    0.378964424    0.662413418    0.232588500
    0.941464424    0.474913418    0.310118079
    0.503964186    0.287413359    0.387647629
    0.441464454    0.474913329    0.000000000
    0.003964454    0.287413359    0.077529527
    0.566464424    0.099913374    0.155059040
    0.128964424    0.912413418    0.232588500
    0.691464424    0.724913478    0.310118079
    0.253964305    0.537413359    0.387647629
    0.191464454    0.724913359    0.000000000
    0.753964484    0.537413359    0.077529527
    0.316464484    0.349913388    0.155059040
    0.878964424    0.162413403    0.232588500
    0.441464424    0.974913418    0.310118079
    0.003964186    0.787413359    0.387647629
    0.691464424    0.724913359    0.000000010
    0.253964424    0.537413359    0.077529512
    0.816464424    0.349913359    0.155059040
    0.378964424    0.162413388    0.232588530
    0.941464424    0.974913418    0.310118049
    0.503964305    0.787413299    0.387647569
    0.066464439    0.099913336    0.000000019
    0.628964424    0.912413359    0.077529527
    0.191464424    0.724913359    0.155059025
    0.753964424    0.537413359    0.232588500
    0.316464424    0.349913418    0.310118049
    0.878964424    0.162413359    0.387647599
    0.566464484    0.099913321    0.000000009
    0.128964439    0.912413359    0.077529527
    0.691464424    0.724913359    0.155059040
    0.253964424    0.537413359    0.232588530
    0.816464424    0.349913359    0.310118049
    0.378964305    0.162413299    0.387647569
    0.316464424    0.349913359    0.000000009
    0.878964424    0.162413344    0.077529527
    0.441464424    0.974913359    0.155059040
    0.003964424    0.787413418    0.232588530
    0.566464424    0.599913478    0.310118049
    0.128964186    0.412413299    0.387647569
    0.066464446    0.599913359    0.000000009
    0.628964424    0.412413329    0.077529527
    0.191464484    0.224913359    0.155059040
    0.753964424    0.037413366    0.232588530
    0.316464424    0.849913478    0.310118049
    0.878964186    0.662413359    0.387647569
    0.816464484    0.349913329    0.000000019
    0.378964514    0.162413359    0.077529527
    0.941464484    0.974913359    0.155059040
    0.503964484    0.787413359    0.232588530
    0.066464484    0.599913359    0.310118049
    0.628964305    0.412413359    0.387647599
    0.566464484    0.599913359    0.000000019
    0.128964469    0.412413388    0.077529527
    0.691464484    0.224913374    0.155059040
    0.253964424    0.037413437    0.232588530
    0.816464424    0.849913418    0.310118049
    0.378964305    0.662413359    0.387647599
    0.316464484    0.849913359    0.000000019
    0.878964484    0.662413359    0.077529527
    0.441464484    0.474913418    0.155059040
    0.003964484    0.287413418    0.232588530
    0.566464424    0.099913470    0.310118049
    0.128964186    0.912413359    0.387647599
    0.816464484    0.849913359    0.000000003
    0.378964514    0.662413418    0.077529535
    0.941464484    0.474913388    0.155059025
    0.503964543    0.287413388    0.232588530
    0.066464484    0.099913426    0.310118049
    0.628964305    0.912413359    0.387647569
    0.191464424    0.099913329    0.000000015
    0.753964424    0.912413359    0.077529520
    0.316464424    0.724913359    0.155059040
    0.878964424    0.537413359    0.232588559
    0.441464424    0.349913359    0.310118079
    0.003964305    0.162413299    0.387647629
    0.941464424    0.349913329    0.000000015
    0.503964424    0.162413359    0.077529520
    0.066464424    0.974913359    0.155059040
    0.628964424    0.787413359    0.232588559
    0.191464424    0.599913359    0.310118079
    0.753964186    0.412413299    0.387647629
    0.691464365    0.099913336    0.000000003
    0.253964394    0.912413359    0.077529520
    0.816464424    0.724913359    0.155059040
    0.378964365    0.537413359    0.232588530
    0.941464424    0.349913359    0.310118079
    0.503964305    0.162413359    0.387647539
    0.441464484    0.349913359    0.000000005
    0.003964453    0.162413374    0.077529520
    0.566464484    0.974913418    0.155059040
    0.128964424    0.787413359    0.232588530
    0.691464424    0.599913359    0.310118109
    0.253964305    0.412413359    0.387647599
    0.191464469    0.599913359    0.000000005
    0.753964424    0.412413359    0.077529520
    0.316464484    0.224913403    0.155059040
    0.878964424    0.037413388    0.232588530
    0.441464543    0.849913359    0.310118109
    0.003964305    0.662413359    0.387647599
    0.941464424    0.849913418    0.000000005
    0.503964424    0.662413418    0.077529520
    0.066464484    0.474913418    0.155059040
    0.628964424    0.287413448    0.232588530
    0.191464543    0.099913388    0.310118109
    0.753964186    0.912413478    0.387647599
    0.691464424    0.599913359    0.000000015
    0.253964454    0.412413359    0.077529520
    0.816464424    0.224913374    0.155059025
    0.378964484    0.037413400    0.232588530
    0.941464424    0.849913418    0.310118049
    0.503964305    0.662413359    0.387647599
    0.441464454    0.849913359    0.000000015
    0.003964434    0.662413418    0.077529520
    0.566464424    0.474913388    0.155059025
    0.128964484    0.287413388    0.232588530
    0.691464424    0.099913403    0.310118049
    0.253964305    0.912413299    0.387647599
    0.066464432    0.974913359    0.000000014
    0.628964424    0.787413359    0.077529520
    0.191464424    0.599913359    0.155059040
    0.753964424    0.412413359    0.232588559
    0.316464543    0.224913418    0.310118020
    0.878964186    0.037413299    0.387647569
    0.566464484    0.974913359    0.000000014
    0.128964439    0.787413359    0.077529527
    0.691464424    0.599913359    0.155059025
    0.253964484    0.412413359    0.232588530
    0.816464424    0.224913418    0.310118049
    0.378964305    0.037413359    0.387647510
    0.316464454    0.224913359    0.000000014
    0.878964424    0.037413359    0.077529527
    0.441464424    0.849913359    0.155059025
    0.003964484    0.662413359    0.232588530
    0.566464424    0.474913418    0.310118049
    0.128964424    0.287413359    0.387647510
    0.066464461    0.474913329    0.000000014
    0.628964424    0.287413359    0.077529527
    0.191464484    0.099913374    0.155059025
    0.753964424    0.912413418    0.232588530
    0.316464424    0.724913359    0.310118049
    0.878964424    0.537413359    0.387647510
    0.816464484    0.224913359    0.000000024
    0.378964484    0.037413385    0.077529535
    0.941464484    0.849913359    0.155059040
    0.503964484    0.662413359    0.232588500
    0.066464484    0.474913418    0.310118049
    0.628964305    0.287413359    0.387647569
    0.566464484    0.474913359    0.000000024
    0.128964484    0.287413388    0.077529535
    0.691464424    0.099913396    0.155059040
    0.253964484    0.912413418    0.232588500
    0.816464424    0.724913418    0.310118049
    0.378964305    0.537413359    0.387647569
    0.316464454    0.724913359    0.000000023
    0.878964424    0.537413359    0.077529535
    0.441464424    0.349913359    0.155059040
    0.003964484    0.162413359    0.232588500
    0.566464424    0.974913359    0.310118079
    0.128964305    0.787413359    0.387647569
    0.816464543    0.724913418    0.000000036
    0.378964514    0.537413418    0.077529512
    0.941464543    0.349913388    0.155059040
    0.503964484    0.162413433    0.232588530
    0.066464484    0.974913478    0.310118049
    0.628964305    0.787413359    0.387647569
    0.442292333    0.883317947    0.471518040
    0.317292213    0.758317828    0.560440361
    0.192292213    0.633317709    0.649362683
    0.067292213    0.508317590    0.738284945
    0.942292213    0.383317411    0.827207267
    0.817292213    0.258317322    0.916129589
    0.442292333    0.549984634    0.471518040
    0.317292213    0.424984515    0.560440361
    0.192292213    0.299984366    0.649362683
    0.067292213    0.174984217    0.738284945
    0.942292213    0.049984097    0.827207267
    0.817292213    0.924983978    0.916129589
    0.442292333    0.216651320    0.471518040
    0.317292213    0.091651201    0.560440361
    0.192292213    0.966650963    0.649362683
    0.067292213    0.841650844    0.738284945
    0.942292213    0.716650724    0.827207267
    0.817292213    0.591650605    0.916129589
    0.942292333    0.049984694    0.471518040
    0.817292273    0.924984515    0.560440361
    0.692292273    0.799984336    0.649362683
    0.567292213    0.674984217    0.738285005
    0.442292213    0.549984097    0.827207267
    0.317292213    0.424983978    0.916129529
    0.942292333    0.716651380    0.471518040
    0.817292273    0.591651201    0.560440361
    0.692292273    0.466651082    0.649362683
    0.567292213    0.341650933    0.738285005
    0.442292213    0.216650844    0.827207267
    0.317292213    0.091650724    0.916129529
    0.942292333    0.383317888    0.471518040
    0.817292273    0.258317798    0.560440361
    0.692292273    0.133317709    0.649362683
    0.567292213    0.008317471    0.738285005
    0.442292213    0.883317351    0.827207267
    0.317292213    0.758317292    0.916129529
    0.692292333    0.133317947    0.471518040
    0.567292273    0.008317828    0.560440361
    0.442292213    0.883317649    0.649362683
    0.317292213    0.758317530    0.738284945
    0.192292213    0.633317471    0.827207267
    0.067292213    0.508317292    0.916129589
    0.692292333    0.799984694    0.471518040
    0.567292273    0.674984574    0.560440361
    0.442292213    0.549984396    0.649362683
    0.317292213    0.424984276    0.738284945
    0.192292213    0.299984157    0.827207267
    0.067292213    0.174984097    0.916129589
    0.692292333    0.466651291    0.471518040
    0.567292273    0.341651142    0.560440361
    0.442292213    0.216651082    0.649362683
    0.317292213    0.091650844    0.738284945
    0.192292213    0.966650724    0.827207267
    0.067292213    0.841650605    0.916129589
    0.192292333    0.966651261    0.471518040
    0.067292333    0.841651142    0.560440361
    0.942292273    0.716651022    0.649362683
    0.817292213    0.591650903    0.738285005
    0.692292213    0.466650784    0.827207267
    0.567292213    0.341650635    0.916129529
    0.192292333    0.633317888    0.471518040
    0.067292333    0.508317769    0.560440361
    0.942292273    0.383317649    0.649362683
    0.817292213    0.258317500    0.738285005
    0.692292213    0.133317351    0.827207267
    0.567292213    0.008317232    0.916129529
    0.192292333    0.299984604    0.471518040
    0.067292333    0.174984455    0.560440361
    0.942292273    0.049984336    0.649362683
    0.817292213    0.924984217    0.738285005
    0.692292213    0.799984097    0.827207267
    0.567292213    0.674983919    0.916129529
    0.817292333    0.174984574    0.471518070
    0.692292273    0.049984455    0.560440361
    0.567292273    0.924984336    0.649362683
    0.442292213    0.799984157    0.738285005
    0.317292213    0.674984038    0.827207267
    0.192292213    0.549983919    0.916129529
    0.817292333    0.841651320    0.471518070
    0.692292273    0.716651142    0.560440361
    0.567292273    0.591651082    0.649362683
    0.442292213    0.466650903    0.738285005
    0.317292213    0.341650784    0.827207267
    0.192292213    0.216650724    0.916129529
    0.817292333    0.508318007    0.471518070
    0.692292273    0.383317828    0.560440361
    0.567292273    0.258317739    0.649362683
    0.442292213    0.133317590    0.738285005
    0.317292213    0.008317471    0.827207267
    0.192292213    0.883317351    0.916129529
    0.317292333    0.008318067    0.471518040
    0.192292333    0.883317947    0.560440361
    0.067292333    0.758317709    0.649362683
    0.942292213    0.633317590    0.738285005
    0.817292213    0.508317471    0.827207267
    0.692292213    0.383317351    0.916129529
    0.317292333    0.674984634    0.471518040
    0.192292333    0.549984396    0.560440361
    0.067292333    0.424984336    0.649362683
    0.942292213    0.299984157    0.738285005
    0.817292213    0.174984097    0.827207267
    0.692292213    0.049983978    0.916129529
    0.317292333    0.341651231    0.471518040
    0.192292333    0.216651082    0.560440361
    0.067292333    0.091650963    0.649362683
    0.942292213    0.966650844    0.738285005
    0.817292213    0.841650724    0.827207267
    0.692292213    0.716650605    0.916129529
    0.567292273    0.924984694    0.471518040
    0.442292333    0.799984515    0.560440361
    0.317292213    0.674984396    0.649362683
    0.192292213    0.549984276    0.738285005
    0.067292213    0.424984097    0.827207267
    0.942292213    0.299983978    0.916129529
    0.567292273    0.591651320    0.471518040
    0.442292333    0.466651171    0.560440361
    0.317292213    0.341651052    0.649362683
    0.192292213    0.216650963    0.738285005
    0.067292213    0.091650844    0.827207267
    0.942292213    0.966650665    0.916129529
    0.567292273    0.258317947    0.471518040
    0.442292333    0.133317828    0.560440361
    0.317292213    0.008317709    0.649362683
    0.192292213    0.883317471    0.738285005
    0.067292213    0.758317471    0.827207267
    0.942292213    0.633317292    0.916129529
    0.067292333    0.091651440    0.471518070
    0.942292273    0.966651201    0.560440361
    0.817292273    0.841651022    0.649362683
    0.692292213    0.716650963    0.738285005
    0.567292213    0.591650844    0.827207267
    0.442292213    0.466650665    0.916129529
    0.067292333    0.758318007    0.471518070
    0.942292273    0.633317828    0.560440361
    0.817292273    0.508317709    0.649362683
    0.692292213    0.383317590    0.738285005
    0.567292213    0.258317441    0.827207267
    0.442292213    0.133317351    0.916129529
    0.067292333    0.424984604    0.471518070
    0.942292273    0.299984455    0.560440361
    0.817292273    0.174984336    0.649362683
    0.692292213    0.049984217    0.738285005
    0.567292213    0.924984097    0.827207267
    0.442292213    0.799983978    0.916129529
