Si+C                                    
   1.00000000000000     
    13.3031797409999992    0.0000000000000000    0.0000000000000000
    -6.6515893940000002   14.8734064099999994    0.0000000000000000
     0.0000000000000000    0.0000000000000000    7.4017848969999998
   Si   C 
    36    84
Direct
  0.0170943480000005  0.9914528130000022  0.0000000000000000
  0.2170944510000012  0.8914527299999975  0.1640697420000023
  0.4170945580000023  0.7914526460000033  0.3281394839999976
  0.0170943480000005  0.3247861270000030  0.0000000000000000
  0.2170944510000012  0.2247860430000017  0.1640697420000023
  0.4170945580000023  0.1247859449999993  0.3281394839999976
  0.0170943480000005  0.6581194999999980  0.0000000000000000
  0.2170944510000012  0.5581193570000025  0.1640697420000023
  0.4170945580000023  0.4581192429999987  0.3281394839999976
  0.3670942780000033  0.1914527859999993  0.0820347069999983
  0.5670943860000008  0.0914526950000010  0.2461044790000031
  0.7670944930000019  0.9914526339999981  0.4101742510000008
  0.3670942780000033  0.5247860549999999  0.0820347069999983
  0.5670943860000008  0.4247860010000011  0.2461044790000031
  0.7670944930000019  0.3247859180000034  0.4101742510000008
  0.3670942780000033  0.8581194280000020  0.0820347069999983
  0.5670943860000008  0.7581192259999980  0.2461044790000031
  0.7670944930000019  0.6581192020000017  0.4101742510000008
  0.5170943740000027  0.9914528130000022  0.0000000040000003
  0.7170944209999988  0.8914526699999996  0.1640697269999976
  0.9170945290000034  0.7914525870000020  0.3281394839999976
  0.5170943740000027  0.3247861270000030  0.0000000040000003
  0.7170944209999988  0.2247860129999992  0.1640697269999976
  0.9170945290000034  0.1247859220000009  0.3281394839999976
  0.5170943740000027  0.6581193800000023  0.0000000040000003
  0.7170944209999988  0.5581192969999975  0.1640697269999976
  0.9170945290000034  0.4581192429999987  0.3281394839999976
  0.8670942780000033  0.1914528009999970  0.0820347149999989
  0.0670944450000022  0.0914527250000035  0.2461044940000008
  0.2670943740000027  0.9914526339999981  0.4101741610000005
  0.8670942780000033  0.5247861149999977  0.0820347149999989
  0.0670944450000022  0.4247860010000011  0.2461044940000008
  0.2670943740000027  0.3247859180000034  0.4101741610000005
  0.8670942780000033  0.8581194879999998  0.0820347149999989
  0.0670944450000022  0.7581193449999972  0.2461044940000008
  0.2670943740000027  0.6581192610000031  0.4101741610000005
  0.0535418990000025  0.9629140500000020  0.7859015459999981
  0.4249703879999984  0.9914855959999969  0.5703964830000032
  0.7392562029999965  0.9771999120000032  0.6781490449999978
  0.1963989730000009  0.8200568560000008  0.7859016060000030
  0.5678274630000004  0.8486284609999970  0.5703964830000032
  0.8821132779999985  0.8343426590000007  0.6781490449999978
  0.3392561670000021  0.6771997809999988  0.7859015459999981
  0.7106846570000016  0.7057713270000008  0.5703964830000032
  0.0249705310000010  0.6914855839999987  0.6781490449999978
  0.4821133610000032  0.5343426470000026  0.7859015459999981
  0.8535418510000028  0.5629141929999975  0.5703964830000032
  0.1678276060000030  0.5486283899999975  0.6781490449999978
  0.6249704359999981  0.3914855120000027  0.7859015459999981
  0.9963989849999990  0.4200570579999976  0.5703964830000032
  0.3106847999999971  0.4057713150000026  0.6781490449999978
  0.7678276299999993  0.2486283479999969  0.7859015459999981
  0.1392561199999989  0.2771999240000014  0.5703964830000032
  0.4535418749999991  0.2629141509999968  0.6781490449999978
  0.9106848240000005  0.1057711839999982  0.7859015459999981
  0.2821132540000022  0.1343427899999980  0.5703964830000032
  0.5963990690000003  0.1200569869999981  0.6781490449999978
  0.6035418510000028  0.0629141329999996  0.8397776480000019
  0.9749702220000032  0.0914856200000003  0.6242726449999978
  0.2892560960000026  0.0771999359999995  0.7320252060000030
  0.7463989259999977  0.9200568799999971  0.8397777079999997
  0.1178272960000015  0.9486284259999991  0.6242726449999978
  0.4321130510000017  0.9343426229999992  0.7320251459999980
  0.8892562389999981  0.7771998050000022  0.8397777079999997
  0.2606846090000019  0.8057712909999992  0.6242726449999978
  0.5749704839999978  0.7914856080000021  0.7320251459999980
  0.0321133140000001  0.6343427300000002  0.8397777079999997
  0.4035416839999968  0.6629142170000009  0.6242726449999978
  0.7178275589999998  0.6486284730000023  0.7320251459999980
  0.1749702689999992  0.4914855359999990  0.8397777079999997
  0.5463987589999988  0.5200570820000010  0.6242726449999978
  0.8606845739999969  0.5057713389999989  0.7320252060000030
  0.3178275819999996  0.3486283419999978  0.8397777079999997
  0.6892560719999992  0.3771999479999977  0.6242726449999978
  0.0035418269999994  0.3629141449999977  0.7320252060000030
  0.4606847760000008  0.2057712670000029  0.8397777079999997
  0.8321131470000012  0.2343427989999967  0.6242726449999978
  0.1463989020000014  0.2200570400000004  0.7320252060000030
  0.5535420180000017  0.9629140500000020  0.7859016060000030
  0.9249704480000034  0.9914857150000032  0.5703964830000032
  0.2392561440000023  0.9771998519999983  0.6781490449999978
  0.6963992120000029  0.8200568560000008  0.7859016060000030
  0.0678277020000024  0.8486285210000020  0.5703964830000032
  0.3821133380000035  0.8343426590000007  0.6781490449999978
  0.8392564059999970  0.6771997210000009  0.7859016060000030
  0.2106847760000008  0.7057713869999986  0.5703964830000032
  0.5249705310000010  0.6914855839999987  0.6781490449999978
  0.9821134210000011  0.5343427059999968  0.7859016060000030
  0.3535418510000028  0.5629142519999988  0.5703964830000032
  0.6678276660000009  0.5486284489999989  0.6781490449999978
  0.1249705549999973  0.3914854530000014  0.7859015459999981
  0.4963989849999990  0.4200570579999976  0.5703964830000032
  0.8106847999999971  0.4057712549999977  0.6781490449999978
  0.2678276299999993  0.2486283479999969  0.7859015459999981
  0.6392561199999989  0.2771999240000014  0.5703964830000032
  0.9535419340000004  0.2629141210000014  0.6781490449999978
  0.4106848240000005  0.1057711839999982  0.7859015459999981
  0.7821132540000022  0.1343427899999980  0.5703964830000032
  0.0963990690000003  0.1200569869999981  0.6781490449999978
  0.1035418510000028  0.0629141329999996  0.8397777079999997
  0.4749702809999974  0.0914856200000003  0.6242726449999978
  0.7892560359999976  0.0771998170000003  0.7320252060000030
  0.2463989259999977  0.9200569990000034  0.8397777079999997
  0.6178274150000007  0.9486285449999983  0.6242726449999978
  0.9321131109999996  0.9343427419999983  0.7320252060000030
  0.3892561199999989  0.7771998050000022  0.8397776480000019
  0.7606846090000019  0.8057712909999992  0.6242726449999978
  0.0749704839999978  0.7914855479999972  0.7320252060000030
  0.5321133140000001  0.6343426110000010  0.8397777079999997
  0.9035417440000018  0.6629141570000030  0.6242726449999978
  0.2178275589999998  0.6486283540000031  0.7320252060000030
  0.6749703879999984  0.4914855359999990  0.8397777079999997
  0.0463987589999988  0.5200570229999997  0.6242727039999991
  0.3606846329999982  0.5057712790000011  0.7320252060000030
  0.8178277020000024  0.3486283720000003  0.8397778269999989
  0.1892560719999992  0.3771999479999977  0.6242726449999978
  0.5035418269999994  0.3629141750000002  0.7320252060000030
  0.9606847760000008  0.2057712820000006  0.8397776480000019
  0.3321131470000012  0.2343427839999990  0.6242726449999978
  0.6463990210000006  0.2200570700000029  0.7320252060000030
 
  0.00000000E+00  0.00000000E+00  0.00000000E+00
  0.00000000E+00  0.00000000E+00  0.00000000E+00
  0.00000000E+00  0.00000000E+00  0.00000000E+00
  0.00000000E+00  0.00000000E+00  0.00000000E+00
  0.00000000E+00  0.00000000E+00  0.00000000E+00
  0.00000000E+00  0.00000000E+00  0.00000000E+00
  0.00000000E+00  0.00000000E+00  0.00000000E+00
  0.00000000E+00  0.00000000E+00  0.00000000E+00
  0.00000000E+00  0.00000000E+00  0.00000000E+00
  0.00000000E+00  0.00000000E+00  0.00000000E+00
  0.00000000E+00  0.00000000E+00  0.00000000E+00
  0.00000000E+00  0.00000000E+00  0.00000000E+00
  0.00000000E+00  0.00000000E+00  0.00000000E+00
  0.00000000E+00  0.00000000E+00  0.00000000E+00
  0.00000000E+00  0.00000000E+00  0.00000000E+00
  0.00000000E+00  0.00000000E+00  0.00000000E+00
  0.00000000E+00  0.00000000E+00  0.00000000E+00
  0.00000000E+00  0.00000000E+00  0.00000000E+00
  0.00000000E+00  0.00000000E+00  0.00000000E+00
  0.00000000E+00  0.00000000E+00  0.00000000E+00
  0.00000000E+00  0.00000000E+00  0.00000000E+00
  0.00000000E+00  0.00000000E+00  0.00000000E+00
  0.00000000E+00  0.00000000E+00  0.00000000E+00
  0.00000000E+00  0.00000000E+00  0.00000000E+00
  0.00000000E+00  0.00000000E+00  0.00000000E+00
  0.00000000E+00  0.00000000E+00  0.00000000E+00
  0.00000000E+00  0.00000000E+00  0.00000000E+00
  0.00000000E+00  0.00000000E+00  0.00000000E+00
  0.00000000E+00  0.00000000E+00  0.00000000E+00
  0.00000000E+00  0.00000000E+00  0.00000000E+00
  0.00000000E+00  0.00000000E+00  0.00000000E+00
  0.00000000E+00  0.00000000E+00  0.00000000E+00
  0.00000000E+00  0.00000000E+00  0.00000000E+00
  0.00000000E+00  0.00000000E+00  0.00000000E+00
  0.00000000E+00  0.00000000E+00  0.00000000E+00
  0.00000000E+00  0.00000000E+00  0.00000000E+00
  0.00000000E+00  0.00000000E+00  0.00000000E+00
  0.00000000E+00  0.00000000E+00  0.00000000E+00
  0.00000000E+00  0.00000000E+00  0.00000000E+00
  0.00000000E+00  0.00000000E+00  0.00000000E+00
  0.00000000E+00  0.00000000E+00  0.00000000E+00
  0.00000000E+00  0.00000000E+00  0.00000000E+00
  0.00000000E+00  0.00000000E+00  0.00000000E+00
  0.00000000E+00  0.00000000E+00  0.00000000E+00
  0.00000000E+00  0.00000000E+00  0.00000000E+00
  0.00000000E+00  0.00000000E+00  0.00000000E+00
  0.00000000E+00  0.00000000E+00  0.00000000E+00
  0.00000000E+00  0.00000000E+00  0.00000000E+00
  0.00000000E+00  0.00000000E+00  0.00000000E+00
  0.00000000E+00  0.00000000E+00  0.00000000E+00
  0.00000000E+00  0.00000000E+00  0.00000000E+00
  0.00000000E+00  0.00000000E+00  0.00000000E+00
  0.00000000E+00  0.00000000E+00  0.00000000E+00
  0.00000000E+00  0.00000000E+00  0.00000000E+00
  0.00000000E+00  0.00000000E+00  0.00000000E+00
  0.00000000E+00  0.00000000E+00  0.00000000E+00
  0.00000000E+00  0.00000000E+00  0.00000000E+00
  0.00000000E+00  0.00000000E+00  0.00000000E+00
  0.00000000E+00  0.00000000E+00  0.00000000E+00
  0.00000000E+00  0.00000000E+00  0.00000000E+00
  0.00000000E+00  0.00000000E+00  0.00000000E+00
  0.00000000E+00  0.00000000E+00  0.00000000E+00
  0.00000000E+00  0.00000000E+00  0.00000000E+00
  0.00000000E+00  0.00000000E+00  0.00000000E+00
  0.00000000E+00  0.00000000E+00  0.00000000E+00
  0.00000000E+00  0.00000000E+00  0.00000000E+00
  0.00000000E+00  0.00000000E+00  0.00000000E+00
  0.00000000E+00  0.00000000E+00  0.00000000E+00
  0.00000000E+00  0.00000000E+00  0.00000000E+00
  0.00000000E+00  0.00000000E+00  0.00000000E+00
  0.00000000E+00  0.00000000E+00  0.00000000E+00
  0.00000000E+00  0.00000000E+00  0.00000000E+00
  0.00000000E+00  0.00000000E+00  0.00000000E+00
  0.00000000E+00  0.00000000E+00  0.00000000E+00
  0.00000000E+00  0.00000000E+00  0.00000000E+00
  0.00000000E+00  0.00000000E+00  0.00000000E+00
  0.00000000E+00  0.00000000E+00  0.00000000E+00
  0.00000000E+00  0.00000000E+00  0.00000000E+00
  0.00000000E+00  0.00000000E+00  0.00000000E+00
  0.00000000E+00  0.00000000E+00  0.00000000E+00
  0.00000000E+00  0.00000000E+00  0.00000000E+00
  0.00000000E+00  0.00000000E+00  0.00000000E+00
  0.00000000E+00  0.00000000E+00  0.00000000E+00
  0.00000000E+00  0.00000000E+00  0.00000000E+00
  0.00000000E+00  0.00000000E+00  0.00000000E+00
  0.00000000E+00  0.00000000E+00  0.00000000E+00
  0.00000000E+00  0.00000000E+00  0.00000000E+00
  0.00000000E+00  0.00000000E+00  0.00000000E+00
  0.00000000E+00  0.00000000E+00  0.00000000E+00
  0.00000000E+00  0.00000000E+00  0.00000000E+00
  0.00000000E+00  0.00000000E+00  0.00000000E+00
  0.00000000E+00  0.00000000E+00  0.00000000E+00
  0.00000000E+00  0.00000000E+00  0.00000000E+00
  0.00000000E+00  0.00000000E+00  0.00000000E+00
  0.00000000E+00  0.00000000E+00  0.00000000E+00
  0.00000000E+00  0.00000000E+00  0.00000000E+00
  0.00000000E+00  0.00000000E+00  0.00000000E+00
  0.00000000E+00  0.00000000E+00  0.00000000E+00
  0.00000000E+00  0.00000000E+00  0.00000000E+00
  0.00000000E+00  0.00000000E+00  0.00000000E+00
  0.00000000E+00  0.00000000E+00  0.00000000E+00
  0.00000000E+00  0.00000000E+00  0.00000000E+00
  0.00000000E+00  0.00000000E+00  0.00000000E+00
  0.00000000E+00  0.00000000E+00  0.00000000E+00
  0.00000000E+00  0.00000000E+00  0.00000000E+00
  0.00000000E+00  0.00000000E+00  0.00000000E+00
  0.00000000E+00  0.00000000E+00  0.00000000E+00
  0.00000000E+00  0.00000000E+00  0.00000000E+00
  0.00000000E+00  0.00000000E+00  0.00000000E+00
  0.00000000E+00  0.00000000E+00  0.00000000E+00
  0.00000000E+00  0.00000000E+00  0.00000000E+00
  0.00000000E+00  0.00000000E+00  0.00000000E+00
  0.00000000E+00  0.00000000E+00  0.00000000E+00
  0.00000000E+00  0.00000000E+00  0.00000000E+00
  0.00000000E+00  0.00000000E+00  0.00000000E+00
  0.00000000E+00  0.00000000E+00  0.00000000E+00
  0.00000000E+00  0.00000000E+00  0.00000000E+00
  0.00000000E+00  0.00000000E+00  0.00000000E+00
  0.00000000E+00  0.00000000E+00  0.00000000E+00
  0.00000000E+00  0.00000000E+00  0.00000000E+00
