Si+C
    1.000000000
   13.303179741    0.000000000    0.000000000
   -6.651589394   14.873406410    0.000000000
    0.000000000    0.000000000    7.401784897
Si  C  
36     84
Direct
    0.017094348    0.991452813    0.000000000
    0.217094451    0.891452730    0.164069742
    0.417094558    0.791452646    0.328139484
    0.017094348    0.324786127    0.000000000
    0.217094451    0.224786043    0.164069742
    0.417094558    0.124785945    0.328139484
    0.017094348    0.658119500    0.000000000
    0.217094451    0.558119357    0.164069742
    0.417094558    0.458119243    0.328139484
    0.367094278    0.191452786    0.082034707
    0.567094386    0.091452695    0.246104479
    0.767094493    0.991452634    0.410174251
    0.367094278    0.524786055    0.082034707
    0.567094386    0.424786001    0.246104479
    0.767094493    0.324785918    0.410174251
    0.367094278    0.858119428    0.082034707
    0.567094386    0.758119226    0.246104479
    0.767094493    0.658119202    0.410174251
    0.517094374    0.991452813    0.000000004
    0.717094421    0.891452670    0.164069727
    0.917094529    0.791452587    0.328139484
    0.517094374    0.324786127    0.000000004
    0.717094421    0.224786013    0.164069727
    0.917094529    0.124785922    0.328139484
    0.517094374    0.658119380    0.000000004
    0.717094421    0.558119297    0.164069727
    0.917094529    0.458119243    0.328139484
    0.867094278    0.191452801    0.082034715
    0.067094445    0.091452725    0.246104494
    0.267094374    0.991452634    0.410174161
    0.867094278    0.524786115    0.082034715
    0.067094445    0.424786001    0.246104494
    0.267094374    0.324785918    0.410174161
    0.867094278    0.858119488    0.082034715
    0.067094445    0.758119345    0.246104494
    0.267094374    0.658119261    0.410174161
    0.053541899    0.962914050    0.785901546
    0.424970388    0.991485596    0.570396483
    0.739256203    0.977199912    0.678149045
    0.196398973    0.820056856    0.785901606
    0.567827463    0.848628461    0.570396483
    0.882113278    0.834342659    0.678149045
    0.339256167    0.677199781    0.785901546
    0.710684657    0.705771327    0.570396483
    0.024970531    0.691485584    0.678149045
    0.482113361    0.534342647    0.785901546
    0.853541851    0.562914193    0.570396483
    0.167827606    0.548628390    0.678149045
    0.624970436    0.391485512    0.785901546
    0.996398985    0.420057058    0.570396483
    0.310684800    0.405771315    0.678149045
    0.767827630    0.248628348    0.785901546
    0.139256120    0.277199924    0.570396483
    0.453541875    0.262914151    0.678149045
    0.910684824    0.105771184    0.785901546
    0.282113254    0.134342790    0.570396483
    0.596399069    0.120056987    0.678149045
    0.603541851    0.062914133    0.839777648
    0.974970222    0.091485620    0.624272645
    0.289256096    0.077199936    0.732025206
    0.746398926    0.920056880    0.839777708
    0.117827296    0.948628426    0.624272645
    0.432113051    0.934342623    0.732025146
    0.889256239    0.777199805    0.839777708
    0.260684609    0.805771291    0.624272645
    0.574970484    0.791485608    0.732025146
    0.032113314    0.634342730    0.839777708
    0.403541684    0.662914217    0.624272645
    0.717827559    0.648628473    0.732025146
    0.174970269    0.491485536    0.839777708
    0.546398759    0.520057082    0.624272645
    0.860684574    0.505771339    0.732025206
    0.317827582    0.348628342    0.839777708
    0.689256072    0.377199948    0.624272645
    0.003541827    0.362914145    0.732025206
    0.460684776    0.205771267    0.839777708
    0.832113147    0.234342799    0.624272645
    0.146398902    0.220057040    0.732025206
    0.553542018    0.962914050    0.785901606
    0.924970448    0.991485715    0.570396483
    0.239256144    0.977199852    0.678149045
    0.696399212    0.820056856    0.785901606
    0.067827702    0.848628521    0.570396483
    0.382113338    0.834342659    0.678149045
    0.839256406    0.677199721    0.785901606
    0.210684776    0.705771387    0.570396483
    0.524970531    0.691485584    0.678149045
    0.982113421    0.534342706    0.785901606
    0.353541851    0.562914252    0.570396483
    0.667827666    0.548628449    0.678149045
    0.124970555    0.391485453    0.785901546
    0.496398985    0.420057058    0.570396483
    0.810684800    0.405771255    0.678149045
    0.267827630    0.248628348    0.785901546
    0.639256120    0.277199924    0.570396483
    0.953541934    0.262914121    0.678149045
    0.410684824    0.105771184    0.785901546
    0.782113254    0.134342790    0.570396483
    0.096399069    0.120056987    0.678149045
    0.103541851    0.062914133    0.839777708
    0.474970281    0.091485620    0.624272645
    0.789256036    0.077199817    0.732025206
    0.246398926    0.920056999    0.839777708
    0.617827415    0.948628545    0.624272645
    0.932113111    0.934342742    0.732025206
    0.389256120    0.777199805    0.839777648
    0.760684609    0.805771291    0.624272645
    0.074970484    0.791485548    0.732025206
    0.532113314    0.634342611    0.839777708
    0.903541744    0.662914157    0.624272645
    0.217827559    0.648628354    0.732025206
    0.674970388    0.491485536    0.839777708
    0.046398759    0.520057023    0.624272704
    0.360684633    0.505771279    0.732025206
    0.817827702    0.348628372    0.839777827
    0.189256072    0.377199948    0.624272645
    0.503541827    0.362914175    0.732025206
    0.960684776    0.205771282    0.839777648
    0.332113147    0.234342784    0.624272645
    0.646399021    0.220057070    0.732025206
