Sn+Ge                                   
   1.00000000000000     
    15.8952283859999994    0.0000000000000000    0.0000000000000000
    -7.9476151469999996   13.7656726840000001    0.0000000000000000
     0.0000000000000000    0.0000000000000000   20.3040103909999985
   Sn   Ge
    72    96
Direct
  0.0000000000000000  0.0124091730000018  0.0000000200000017
  0.0000000000000000  0.3457425530000009  0.1845222860000035
  0.0000000000000000  0.6790759559999984  0.3690445720000000
  0.3333333730000021  0.6790758969999970  0.0000000000000000
  0.3333334029999975  0.0124093290000005  0.1845222709999987
  0.3333334029999975  0.3457427020000026  0.3690445129999986
  0.6666667459999971  0.3457425530000009  0.0000000160000013
  0.6666667459999971  0.6790759559999984  0.1845222709999987
  0.6666667459999971  0.0124093290000005  0.3690445129999986
  0.0000000000000000  0.3457425530000009  0.0461305859999968
  0.0000000000000000  0.6790758969999970  0.2306528689999965
  0.0000000000000000  0.0124092100000013  0.4151751400000023
  0.3333334029999975  0.0124092100000013  0.0461305640000020
  0.3333334029999975  0.3457425830000034  0.2306528390000011
  0.3333334029999975  0.6790760760000012  0.4151751400000023
  0.6666667459999971  0.6790759559999984  0.0461305979999977
  0.6666667459999971  0.0124093290000005  0.2306528689999965
  0.6666667459999971  0.3457425830000034  0.4151750799999974
  0.1666666870000029  0.3457425530000009  0.0000000160000013
  0.1666667009999969  0.6790759559999984  0.1845222860000035
  0.1666666870000029  0.0124093290000005  0.3690445720000000
  0.5000000000000000  0.0124091839999991  0.0000000229999984
  0.5000000000000000  0.3457425830000034  0.1845222860000035
  0.5000000000000000  0.6790760160000033  0.3690445720000000
  0.8333334330000000  0.6790758969999970  0.0000000000000000
  0.8333334330000000  0.0124093290000005  0.1845222560000011
  0.8333334330000000  0.3457427020000026  0.3690445720000000
  0.1666667009999969  0.6790759559999984  0.0461305529999976
  0.1666667009999969  0.0124093290000005  0.2306527940000009
  0.1666667160000017  0.3457428219999983  0.4151750799999974
  0.5000000599999979  0.3457425830000034  0.0461305529999976
  0.5000000599999979  0.6790759559999984  0.2306528390000011
  0.5000000599999979  0.0124093290000005  0.4151750799999974
  0.8333334330000000  0.0124092100000013  0.0461305159999981
  0.8333334330000000  0.3457425830000034  0.2306527940000009
  0.8333334330000000  0.6790759559999984  0.4151750799999974
  0.0000000000000000  0.5124092100000013  0.0000000149999977
  0.0000000000000000  0.8457425830000034  0.1845222560000011
  0.0000000000000000  0.1790759559999984  0.3690445720000000
  0.3333333730000021  0.1790758519999969  0.0000000160000013
  0.3333333730000021  0.5124092699999991  0.1845222860000035
  0.3333333730000021  0.8457426430000012  0.3690445720000000
  0.6666667459999971  0.8457425830000034  0.0000000000000000
  0.6666667459999971  0.1790759559999984  0.1845222560000011
  0.6666668060000021  0.5124094490000033  0.3690445720000000
  0.0000000000000000  0.8457425830000034  0.0461305529999976
  0.0000000000000000  0.1790759559999984  0.2306528089999986
  0.0000000000000000  0.5124094490000033  0.4151750799999974
  0.3333333730000021  0.5124092100000013  0.0461305529999976
  0.3333333730000021  0.8457425830000034  0.2306528089999986
  0.3333334029999975  0.1790760760000012  0.4151751400000023
  0.6666667459999971  0.1790758069999967  0.0461305489999972
  0.6666667459999971  0.5124092100000013  0.2306528240000034
  0.6666667459999971  0.8457426430000012  0.4151751400000023
  0.1666667009999969  0.8457425830000034  0.0000000300000025
  0.1666667009999969  0.1790758369999992  0.1845222560000011
  0.1666667009999969  0.5124093290000005  0.3690445129999986
  0.5000000000000000  0.5124092100000013  0.0000000140000012
  0.5000000000000000  0.8457426430000012  0.1845222860000035
  0.5000000599999979  0.1790759559999984  0.3690445129999986
  0.8333333730000021  0.1790758670000017  0.0000000300000025
  0.8333333730000021  0.5124092699999991  0.1845222860000035
  0.8333333730000021  0.8457427020000026  0.3690445129999986
  0.1666666870000029  0.1790757779999979  0.0461305899999971
  0.1666666870000029  0.5124091510000000  0.2306528840000013
  0.1666666870000029  0.8457425240000020  0.4151751400000023
  0.5000000000000000  0.8457425240000020  0.0461305939999974
  0.5000000000000000  0.1790759559999984  0.2306528840000013
  0.5000000000000000  0.5124092100000013  0.4151751400000023
  0.8333334330000000  0.5124092100000013  0.0461305640000020
  0.8333334330000000  0.8457425830000034  0.2306528390000011
  0.8333334330000000  0.1790759559999984  0.4151750799999974
  0.1693116430000003  0.5118709210000034  0.5265963080000020
  0.8359781500000025  0.3452041749999992  0.6874775289999988
  0.5026447770000004  0.1785374580000010  0.8483586309999964
  0.1693116430000003  0.0118709799999976  0.5265963080000020
  0.8359781500000025  0.8452042939999984  0.6874775289999988
  0.5026447770000004  0.6785375480000013  0.8483586910000014
  0.6693115229999975  0.5118709210000034  0.5265963080000020
  0.3359781500000025  0.3452041749999992  0.6874775289999988
  0.0026447770000004  0.1785374729999987  0.8483586910000014
  0.6693115229999975  0.0118709799999976  0.5265963080000020
  0.3359781500000025  0.8452042939999984  0.6874775289999988
  0.0026447770000004  0.6785375480000013  0.8483586910000014
  0.3359782699999982  0.8452042340000006  0.5668166279999980
  0.0026448970000033  0.6785374880000035  0.7276977300000027
  0.6693115229999975  0.5118708010000006  0.8885789509999995
  0.3359782699999982  0.3452042640000030  0.5668166279999980
  0.0026448970000033  0.1785375620000025  0.7276977300000027
  0.6693115229999975  0.0118708609999985  0.8885789509999995
  0.8359781500000025  0.8452041749999992  0.5668166279999980
  0.5026448369999983  0.6785374880000035  0.7276977300000027
  0.1693115229999975  0.5118708010000006  0.8885789509999995
  0.8359781500000025  0.3452042640000030  0.5668166279999980
  0.5026448369999983  0.1785375770000002  0.7276977300000027
  0.1693115229999975  0.0118708609999985  0.8885789509999995
  0.4193115830000025  0.7618709799999976  0.5265963080000020
  0.0859781500000025  0.5952042939999984  0.6874775289999988
  0.7526446580000012  0.4285374580000010  0.8483586910000014
  0.4193115830000025  0.2618709500000023  0.5265963080000020
  0.0859781500000025  0.0952042420000012  0.6874775289999988
  0.7526447770000004  0.9285375480000013  0.8483586910000014
  0.9193115229999975  0.7618709210000034  0.5265963080000020
  0.5859781500000025  0.5952042340000006  0.6874775289999988
  0.2526447179999991  0.4285374279999985  0.8483586910000014
  0.9193115229999975  0.2618709500000023  0.5265963080000020
  0.5859781500000025  0.0952042340000006  0.6874775289999988
  0.2526447179999991  0.9285375480000013  0.8483586910000014
  0.5859782699999982  0.5952042939999984  0.5668165680000001
  0.2526448369999983  0.4285374880000035  0.7276977300000027
  0.9193115229999975  0.2618708310000031  0.8885789509999995
  0.5859782699999982  0.0952043160000002  0.5668165680000001
  0.2526448369999983  0.9285376070000027  0.7276977300000027
  0.9193115229999975  0.7618709210000034  0.8885789509999995
  0.0859782699999982  0.5952042340000006  0.5668165680000001
  0.7526448970000033  0.4285375179999988  0.7276976699999977
  0.4193115530000000  0.2618708010000006  0.8885789509999995
  0.0859782699999982  0.0952043160000002  0.5668165680000001
  0.7526448970000033  0.9285376070000027  0.7276977300000027
  0.4193115530000000  0.7618709210000034  0.8885789509999995
  0.4193115830000025  0.5118709210000034  0.5265963080000020
  0.0859781500000025  0.3452041749999992  0.6874775289999988
  0.7526447770000004  0.1785374580000010  0.8483586910000014
  0.4193115830000025  0.0118709799999976  0.5265963080000020
  0.0859781500000025  0.8452042939999984  0.6874775289999988
  0.7526447770000004  0.6785375480000013  0.8483586910000014
  0.9193115229999975  0.5118709210000034  0.5265963080000020
  0.5859781500000025  0.3452042039999981  0.6874775289999988
  0.2526447179999991  0.1785374580000010  0.8483586910000014
  0.9193115229999975  0.0118709799999976  0.5265963080000020
  0.5859781500000025  0.8452042939999984  0.6874775289999988
  0.2526447179999991  0.6785375480000013  0.8483586910000014
  0.5859782699999982  0.8452042939999984  0.5668165680000001
  0.2526448070000029  0.6785374880000035  0.7276976699999977
  0.9193115229999975  0.5118708010000006  0.8885789509999995
  0.5859782699999982  0.3452043240000009  0.5668165680000001
  0.2526448369999983  0.1785375919999979  0.7276977300000027
  0.9193115229999975  0.0118708609999985  0.8885789509999995
  0.0859782699999982  0.8452042340000006  0.5668165680000001
  0.7526448970000033  0.6785374880000035  0.7276976699999977
  0.4193115530000000  0.5118708010000006  0.8885788320000003
  0.0859782699999982  0.3452042939999984  0.5668165680000001
  0.7526448970000033  0.1785375919999979  0.7276977300000027
  0.4193115530000000  0.0118708609999985  0.8885789509999995
  0.1693116430000003  0.7618709799999976  0.5265963080000020
  0.8359782699999982  0.5952042340000006  0.6874775289999988
  0.5026447770000004  0.4285374880000035  0.8483586309999964
  0.1693116430000003  0.2618709500000023  0.5265963080000020
  0.8359781500000025  0.0952042270000035  0.6874775289999988
  0.5026447770000004  0.9285375480000013  0.8483586910000014
  0.6693115229999975  0.7618709799999976  0.5265963080000020
  0.3359781500000025  0.5952042939999984  0.6874775289999988
  0.0026447770000004  0.4285374279999985  0.8483586910000014
  0.6693115229999975  0.2618709500000023  0.5265963080000020
  0.3359781500000025  0.0952042420000012  0.6874775289999988
  0.0026447770000004  0.9285375480000013  0.8483586910000014
  0.3359782699999982  0.5952042939999984  0.5668165680000001
  0.0026448970000033  0.4285375480000013  0.7276977300000027
  0.6693115229999975  0.2618708910000009  0.8885789509999995
  0.3359782699999982  0.0952043240000009  0.5668165680000001
  0.0026448970000033  0.9285376670000005  0.7276977300000027
  0.6693115229999975  0.7618709210000034  0.8885789509999995
  0.8359782699999982  0.5952042939999984  0.5668166279999980
  0.5026448970000033  0.4285375480000013  0.7276977300000027
  0.1693115229999975  0.2618708609999985  0.8885789509999995
  0.8359782699999982  0.0952043309999979  0.5668165680000001
  0.5026448970000033  0.9285376670000005  0.7276977300000027
  0.1693115229999975  0.7618709210000034  0.8885789509999995
 
  0.00000000E+00  0.00000000E+00  0.00000000E+00
  0.00000000E+00  0.00000000E+00  0.00000000E+00
  0.00000000E+00  0.00000000E+00  0.00000000E+00
  0.00000000E+00  0.00000000E+00  0.00000000E+00
  0.00000000E+00  0.00000000E+00  0.00000000E+00
  0.00000000E+00  0.00000000E+00  0.00000000E+00
  0.00000000E+00  0.00000000E+00  0.00000000E+00
  0.00000000E+00  0.00000000E+00  0.00000000E+00
  0.00000000E+00  0.00000000E+00  0.00000000E+00
  0.00000000E+00  0.00000000E+00  0.00000000E+00
  0.00000000E+00  0.00000000E+00  0.00000000E+00
  0.00000000E+00  0.00000000E+00  0.00000000E+00
  0.00000000E+00  0.00000000E+00  0.00000000E+00
  0.00000000E+00  0.00000000E+00  0.00000000E+00
  0.00000000E+00  0.00000000E+00  0.00000000E+00
  0.00000000E+00  0.00000000E+00  0.00000000E+00
  0.00000000E+00  0.00000000E+00  0.00000000E+00
  0.00000000E+00  0.00000000E+00  0.00000000E+00
  0.00000000E+00  0.00000000E+00  0.00000000E+00
  0.00000000E+00  0.00000000E+00  0.00000000E+00
  0.00000000E+00  0.00000000E+00  0.00000000E+00
  0.00000000E+00  0.00000000E+00  0.00000000E+00
  0.00000000E+00  0.00000000E+00  0.00000000E+00
  0.00000000E+00  0.00000000E+00  0.00000000E+00
  0.00000000E+00  0.00000000E+00  0.00000000E+00
  0.00000000E+00  0.00000000E+00  0.00000000E+00
  0.00000000E+00  0.00000000E+00  0.00000000E+00
  0.00000000E+00  0.00000000E+00  0.00000000E+00
  0.00000000E+00  0.00000000E+00  0.00000000E+00
  0.00000000E+00  0.00000000E+00  0.00000000E+00
  0.00000000E+00  0.00000000E+00  0.00000000E+00
  0.00000000E+00  0.00000000E+00  0.00000000E+00
  0.00000000E+00  0.00000000E+00  0.00000000E+00
  0.00000000E+00  0.00000000E+00  0.00000000E+00
  0.00000000E+00  0.00000000E+00  0.00000000E+00
  0.00000000E+00  0.00000000E+00  0.00000000E+00
  0.00000000E+00  0.00000000E+00  0.00000000E+00
  0.00000000E+00  0.00000000E+00  0.00000000E+00
  0.00000000E+00  0.00000000E+00  0.00000000E+00
  0.00000000E+00  0.00000000E+00  0.00000000E+00
  0.00000000E+00  0.00000000E+00  0.00000000E+00
  0.00000000E+00  0.00000000E+00  0.00000000E+00
  0.00000000E+00  0.00000000E+00  0.00000000E+00
  0.00000000E+00  0.00000000E+00  0.00000000E+00
  0.00000000E+00  0.00000000E+00  0.00000000E+00
  0.00000000E+00  0.00000000E+00  0.00000000E+00
  0.00000000E+00  0.00000000E+00  0.00000000E+00
  0.00000000E+00  0.00000000E+00  0.00000000E+00
  0.00000000E+00  0.00000000E+00  0.00000000E+00
  0.00000000E+00  0.00000000E+00  0.00000000E+00
  0.00000000E+00  0.00000000E+00  0.00000000E+00
  0.00000000E+00  0.00000000E+00  0.00000000E+00
  0.00000000E+00  0.00000000E+00  0.00000000E+00
  0.00000000E+00  0.00000000E+00  0.00000000E+00
  0.00000000E+00  0.00000000E+00  0.00000000E+00
  0.00000000E+00  0.00000000E+00  0.00000000E+00
  0.00000000E+00  0.00000000E+00  0.00000000E+00
  0.00000000E+00  0.00000000E+00  0.00000000E+00
  0.00000000E+00  0.00000000E+00  0.00000000E+00
  0.00000000E+00  0.00000000E+00  0.00000000E+00
  0.00000000E+00  0.00000000E+00  0.00000000E+00
  0.00000000E+00  0.00000000E+00  0.00000000E+00
  0.00000000E+00  0.00000000E+00  0.00000000E+00
  0.00000000E+00  0.00000000E+00  0.00000000E+00
  0.00000000E+00  0.00000000E+00  0.00000000E+00
  0.00000000E+00  0.00000000E+00  0.00000000E+00
  0.00000000E+00  0.00000000E+00  0.00000000E+00
  0.00000000E+00  0.00000000E+00  0.00000000E+00
  0.00000000E+00  0.00000000E+00  0.00000000E+00
  0.00000000E+00  0.00000000E+00  0.00000000E+00
  0.00000000E+00  0.00000000E+00  0.00000000E+00
  0.00000000E+00  0.00000000E+00  0.00000000E+00
  0.00000000E+00  0.00000000E+00  0.00000000E+00
  0.00000000E+00  0.00000000E+00  0.00000000E+00
  0.00000000E+00  0.00000000E+00  0.00000000E+00
  0.00000000E+00  0.00000000E+00  0.00000000E+00
  0.00000000E+00  0.00000000E+00  0.00000000E+00
  0.00000000E+00  0.00000000E+00  0.00000000E+00
  0.00000000E+00  0.00000000E+00  0.00000000E+00
  0.00000000E+00  0.00000000E+00  0.00000000E+00
  0.00000000E+00  0.00000000E+00  0.00000000E+00
  0.00000000E+00  0.00000000E+00  0.00000000E+00
  0.00000000E+00  0.00000000E+00  0.00000000E+00
  0.00000000E+00  0.00000000E+00  0.00000000E+00
  0.00000000E+00  0.00000000E+00  0.00000000E+00
  0.00000000E+00  0.00000000E+00  0.00000000E+00
  0.00000000E+00  0.00000000E+00  0.00000000E+00
  0.00000000E+00  0.00000000E+00  0.00000000E+00
  0.00000000E+00  0.00000000E+00  0.00000000E+00
  0.00000000E+00  0.00000000E+00  0.00000000E+00
  0.00000000E+00  0.00000000E+00  0.00000000E+00
  0.00000000E+00  0.00000000E+00  0.00000000E+00
  0.00000000E+00  0.00000000E+00  0.00000000E+00
  0.00000000E+00  0.00000000E+00  0.00000000E+00
  0.00000000E+00  0.00000000E+00  0.00000000E+00
  0.00000000E+00  0.00000000E+00  0.00000000E+00
  0.00000000E+00  0.00000000E+00  0.00000000E+00
  0.00000000E+00  0.00000000E+00  0.00000000E+00
  0.00000000E+00  0.00000000E+00  0.00000000E+00
  0.00000000E+00  0.00000000E+00  0.00000000E+00
  0.00000000E+00  0.00000000E+00  0.00000000E+00
  0.00000000E+00  0.00000000E+00  0.00000000E+00
  0.00000000E+00  0.00000000E+00  0.00000000E+00
  0.00000000E+00  0.00000000E+00  0.00000000E+00
  0.00000000E+00  0.00000000E+00  0.00000000E+00
  0.00000000E+00  0.00000000E+00  0.00000000E+00
  0.00000000E+00  0.00000000E+00  0.00000000E+00
  0.00000000E+00  0.00000000E+00  0.00000000E+00
  0.00000000E+00  0.00000000E+00  0.00000000E+00
  0.00000000E+00  0.00000000E+00  0.00000000E+00
  0.00000000E+00  0.00000000E+00  0.00000000E+00
  0.00000000E+00  0.00000000E+00  0.00000000E+00
  0.00000000E+00  0.00000000E+00  0.00000000E+00
  0.00000000E+00  0.00000000E+00  0.00000000E+00
  0.00000000E+00  0.00000000E+00  0.00000000E+00
  0.00000000E+00  0.00000000E+00  0.00000000E+00
  0.00000000E+00  0.00000000E+00  0.00000000E+00
  0.00000000E+00  0.00000000E+00  0.00000000E+00
  0.00000000E+00  0.00000000E+00  0.00000000E+00
  0.00000000E+00  0.00000000E+00  0.00000000E+00
  0.00000000E+00  0.00000000E+00  0.00000000E+00
  0.00000000E+00  0.00000000E+00  0.00000000E+00
  0.00000000E+00  0.00000000E+00  0.00000000E+00
  0.00000000E+00  0.00000000E+00  0.00000000E+00
  0.00000000E+00  0.00000000E+00  0.00000000E+00
  0.00000000E+00  0.00000000E+00  0.00000000E+00
  0.00000000E+00  0.00000000E+00  0.00000000E+00
  0.00000000E+00  0.00000000E+00  0.00000000E+00
  0.00000000E+00  0.00000000E+00  0.00000000E+00
  0.00000000E+00  0.00000000E+00  0.00000000E+00
  0.00000000E+00  0.00000000E+00  0.00000000E+00
  0.00000000E+00  0.00000000E+00  0.00000000E+00
  0.00000000E+00  0.00000000E+00  0.00000000E+00
  0.00000000E+00  0.00000000E+00  0.00000000E+00
  0.00000000E+00  0.00000000E+00  0.00000000E+00
  0.00000000E+00  0.00000000E+00  0.00000000E+00
  0.00000000E+00  0.00000000E+00  0.00000000E+00
  0.00000000E+00  0.00000000E+00  0.00000000E+00
  0.00000000E+00  0.00000000E+00  0.00000000E+00
  0.00000000E+00  0.00000000E+00  0.00000000E+00
  0.00000000E+00  0.00000000E+00  0.00000000E+00
  0.00000000E+00  0.00000000E+00  0.00000000E+00
  0.00000000E+00  0.00000000E+00  0.00000000E+00
  0.00000000E+00  0.00000000E+00  0.00000000E+00
  0.00000000E+00  0.00000000E+00  0.00000000E+00
  0.00000000E+00  0.00000000E+00  0.00000000E+00
  0.00000000E+00  0.00000000E+00  0.00000000E+00
  0.00000000E+00  0.00000000E+00  0.00000000E+00
  0.00000000E+00  0.00000000E+00  0.00000000E+00
  0.00000000E+00  0.00000000E+00  0.00000000E+00
  0.00000000E+00  0.00000000E+00  0.00000000E+00
  0.00000000E+00  0.00000000E+00  0.00000000E+00
  0.00000000E+00  0.00000000E+00  0.00000000E+00
  0.00000000E+00  0.00000000E+00  0.00000000E+00
  0.00000000E+00  0.00000000E+00  0.00000000E+00
  0.00000000E+00  0.00000000E+00  0.00000000E+00
  0.00000000E+00  0.00000000E+00  0.00000000E+00
  0.00000000E+00  0.00000000E+00  0.00000000E+00
  0.00000000E+00  0.00000000E+00  0.00000000E+00
  0.00000000E+00  0.00000000E+00  0.00000000E+00
  0.00000000E+00  0.00000000E+00  0.00000000E+00
  0.00000000E+00  0.00000000E+00  0.00000000E+00
  0.00000000E+00  0.00000000E+00  0.00000000E+00
  0.00000000E+00  0.00000000E+00  0.00000000E+00
  0.00000000E+00  0.00000000E+00  0.00000000E+00
  0.00000000E+00  0.00000000E+00  0.00000000E+00
  0.00000000E+00  0.00000000E+00  0.00000000E+00
  0.00000000E+00  0.00000000E+00  0.00000000E+00
