Ge+Si                                   
   1.00000000000000     
    16.0026760099999983    0.0000000000000000    0.0000000000000000
     0.0000000000000000   16.9734001160000005    0.0000000000000000
     0.0000000000000000    0.0000000000000000   18.0725250240000008
   Ge   Si
   144    72
Direct
  0.9896892309999998  0.9862523079999974  0.0000000209999982
  0.8646892309999998  0.8195856210000017  0.1106837319999983
  0.7396892309999998  0.6529189350000024  0.2213674930000025
  0.6146892309999998  0.4862522479999996  0.3320511880000012
  0.4896892909999977  0.3195855620000003  0.4427348669999986
  0.3646892309999998  0.1529188749999975  0.5534186360000035
  0.9896892309999998  0.3195856509999970  0.0000000209999982
  0.8646892309999998  0.1529189500000001  0.1106837319999983
  0.7396892309999998  0.9862522479999996  0.2213674930000025
  0.6146892309999998  0.8195855620000003  0.3320511880000012
  0.4896892909999977  0.6529189350000024  0.4427348669999986
  0.3646892309999998  0.4862521889999982  0.5534186360000035
  0.9896892309999998  0.6529189939999966  0.0000000209999982
  0.8646892309999998  0.4862523079999974  0.1106837319999983
  0.7396892309999998  0.3195855920000028  0.2213674930000025
  0.6146892309999998  0.1529189350000024  0.3320511880000012
  0.4896892909999977  0.9862522479999996  0.4427348669999986
  0.3646892309999998  0.8195855620000003  0.5534186360000035
  0.4896892309999998  0.9862523079999974  0.0000000189999980
  0.3646892309999998  0.8195856210000017  0.1106837470000031
  0.2396892160000021  0.6529189350000024  0.2213674930000025
  0.1146892309999998  0.4862522479999996  0.3320512179999966
  0.9896892309999998  0.3195855620000003  0.4427348970000011
  0.8646892309999998  0.1529188749999975  0.5534185770000022
  0.4896892309999998  0.3195856509999970  0.0000000189999980
  0.3646892309999998  0.1529189500000001  0.1106837470000031
  0.2396892160000021  0.9862522479999996  0.2213674930000025
  0.1146892309999998  0.8195855620000003  0.3320512179999966
  0.9896892309999998  0.6529189350000024  0.4427348970000011
  0.8646892309999998  0.4862521889999982  0.5534185770000022
  0.4896892309999998  0.6529189939999966  0.0000000189999980
  0.3646892309999998  0.4862523079999974  0.1106837470000031
  0.2396892160000021  0.3195855920000028  0.2213674930000025
  0.1146892309999998  0.1529189350000024  0.3320512179999966
  0.9896892309999998  0.9862522479999996  0.4427348970000011
  0.8646892309999998  0.8195855620000003  0.5534185770000022
  0.2396892309999998  0.9862523079999974  0.0000000260000022
  0.1146892309999998  0.8195856210000017  0.1106837470000031
  0.9896892309999998  0.6529189350000024  0.2213674930000025
  0.8646892309999998  0.4862522479999996  0.3320512179999966
  0.7396892309999998  0.3195855620000003  0.4427348970000011
  0.6146892309999998  0.1529188749999975  0.5534186360000035
  0.2396892309999998  0.3195856509999970  0.0000000260000022
  0.1146892309999998  0.1529189500000001  0.1106837470000031
  0.9896892309999998  0.9862522479999996  0.2213674930000025
  0.8646892309999998  0.8195855620000003  0.3320512179999966
  0.7396892309999998  0.6529189350000024  0.4427348970000011
  0.6146892309999998  0.4862521889999982  0.5534186360000035
  0.2396892309999998  0.6529189939999966  0.0000000260000022
  0.1146892309999998  0.4862523079999974  0.1106837470000031
  0.9896892309999998  0.3195855920000028  0.2213674930000025
  0.8646892309999998  0.1529189350000024  0.3320512179999966
  0.7396892309999998  0.9862522479999996  0.4427348970000011
  0.6146892309999998  0.8195855620000003  0.5534186360000035
  0.7396892309999998  0.9862523079999974  0.0000000120000010
  0.6146892309999998  0.8195856210000017  0.1106837470000031
  0.4896892009999974  0.6529189350000024  0.2213674630000000
  0.3646892309999998  0.4862522479999996  0.3320512179999966
  0.2396892459999975  0.3195855620000003  0.4427348970000011
  0.1146892309999998  0.1529188749999975  0.5534185770000022
  0.7396892309999998  0.3195856509999970  0.0000000120000010
  0.6146892309999998  0.1529189500000001  0.1106837470000031
  0.4896892009999974  0.9862522479999996  0.2213674630000000
  0.3646892309999998  0.8195855620000003  0.3320512179999966
  0.2396892459999975  0.6529189350000024  0.4427348970000011
  0.1146892309999998  0.4862521889999982  0.5534185770000022
  0.7396892309999998  0.6529189939999966  0.0000000120000010
  0.6146892309999998  0.4862523079999974  0.1106837470000031
  0.4896892009999974  0.3195855920000028  0.2213674630000000
  0.3646892309999998  0.1529189350000024  0.3320512179999966
  0.2396892459999975  0.9862522479999996  0.4427348970000011
  0.1146892309999998  0.8195855620000003  0.5534185770000022
  0.3646892309999998  0.2362523079999974  0.0000000120000010
  0.2396892309999998  0.0695856210000017  0.1106837319999983
  0.1146892089999980  0.9029188749999975  0.2213674630000000
  0.9896892309999998  0.7362521889999982  0.3320512179999966
  0.8646892309999998  0.5695855620000003  0.4427348970000011
  0.7396892309999998  0.4029188749999975  0.5534186360000035
  0.3646892309999998  0.5695856809999995  0.0000000120000010
  0.2396892309999998  0.4029189939999966  0.1106837319999983
  0.1146892089999980  0.2362522929999997  0.2213674630000000
  0.9896892309999998  0.0695856139999975  0.3320512179999966
  0.8646892309999998  0.9029189350000024  0.4427348970000011
  0.7396892309999998  0.7362521889999982  0.5534186360000035
  0.3646892309999998  0.9029189939999966  0.0000000120000010
  0.2396892309999998  0.7362523079999974  0.1106837319999983
  0.1146892089999980  0.5695855620000003  0.2213674630000000
  0.9896892309999998  0.4029189049999999  0.3320512179999966
  0.8646892309999998  0.2362522629999972  0.4427348970000011
  0.7396892309999998  0.0695855470000026  0.5534186360000035
  0.8646892909999977  0.2362523079999974  0.0000000000000000
  0.7396892909999977  0.0695856210000017  0.1106837319999983
  0.6146892909999977  0.9029188749999975  0.2213674630000000
  0.4896892909999977  0.7362521889999982  0.3320511880000012
  0.3646892909999977  0.5695855620000003  0.4427348669999986
  0.2396892909999977  0.4029188749999975  0.5534185770000022
  0.8646892909999977  0.5695856809999995  0.0000000000000000
  0.7396892909999977  0.4029189939999966  0.1106837319999983
  0.6146892909999977  0.2362522929999997  0.2213674630000000
  0.4896892909999977  0.0695856139999975  0.3320511880000012
  0.3646892909999977  0.9029189350000024  0.4427348669999986
  0.2396892909999977  0.7362521889999982  0.5534185770000022
  0.8646892909999977  0.9029189939999966  0.0000000000000000
  0.7396892909999977  0.7362523079999974  0.1106837319999983
  0.6146892909999977  0.5695855620000003  0.2213674630000000
  0.4896892909999977  0.4029189049999999  0.3320511880000012
  0.3646892909999977  0.2362522629999972  0.4427348669999986
  0.2396892909999977  0.0695855470000026  0.5534185770000022
  0.1146892229999992  0.2362523079999974  0.0000000240000020
  0.9896892309999998  0.0695856210000017  0.1106837470000031
  0.8646892309999998  0.9029188749999975  0.2213674630000000
  0.7396892309999998  0.7362521889999982  0.3320512179999966
  0.6146892309999998  0.5695855620000003  0.4427348970000011
  0.4896892309999998  0.4029188749999975  0.5534185770000022
  0.1146892229999992  0.5695856809999995  0.0000000240000020
  0.9896892309999998  0.4029189939999966  0.1106837470000031
  0.8646892309999998  0.2362522929999997  0.2213674630000000
  0.7396892309999998  0.0695856139999975  0.3320512179999966
  0.6146892309999998  0.9029189350000024  0.4427348970000011
  0.4896892309999998  0.7362521889999982  0.5534185770000022
  0.1146892229999992  0.9029189939999966  0.0000000240000020
  0.9896892309999998  0.7362523079999974  0.1106837470000031
  0.8646892309999998  0.5695855620000003  0.2213674630000000
  0.7396892309999998  0.4029189049999999  0.3320512179999966
  0.6146892309999998  0.2362522629999972  0.4427348970000011
  0.4896892309999998  0.0695855470000026  0.5534185770000022
  0.6146892309999998  0.2362523079999974  0.0000000060000005
  0.4896892309999998  0.0695856210000017  0.1106837470000031
  0.3646892309999998  0.9029188749999975  0.2213674630000000
  0.2396892309999998  0.7362521889999982  0.3320512179999966
  0.1146892530000017  0.5695855620000003  0.4427348669999986
  0.9896892309999998  0.4029188749999975  0.5534185770000022
  0.6146892309999998  0.5695856809999995  0.0000000060000005
  0.4896892309999998  0.4029189939999966  0.1106837470000031
  0.3646892309999998  0.2362522929999997  0.2213674630000000
  0.2396892309999998  0.0695856139999975  0.3320512179999966
  0.1146892530000017  0.9029189350000024  0.4427348669999986
  0.9896892309999998  0.7362521889999982  0.5534185770000022
  0.6146892309999998  0.9029189939999966  0.0000000060000005
  0.4896892309999998  0.7362523079999974  0.1106837470000031
  0.3646892309999998  0.5695855620000003  0.2213674630000000
  0.2396892309999998  0.4029189049999999  0.3320512179999966
  0.1146892530000017  0.2362522629999972  0.4427348669999986
  0.9896892309999998  0.0695855470000026  0.5534185770000022
  0.9794355029999977  0.4060863260000005  0.8954971430000001
  0.8127690549999969  0.6560856099999981  0.6579217310000018
  0.6461023089999998  0.0060856340000015  0.7054367659999983
  0.4794356820000019  0.3560857769999970  0.7529518600000031
  0.3127689359999977  0.7060861590000016  0.8004670139999988
  0.1461021900000006  0.0560863019999971  0.8479821090000002
  0.3127689359999977  0.4060863260000005  0.8954971430000001
  0.1461024279999990  0.6560856099999981  0.6579217310000018
  0.9794356820000019  0.0060856340000015  0.7054367659999983
  0.8127689359999977  0.3560857769999970  0.7529518600000031
  0.6461021900000006  0.7060861590000016  0.8004670139999988
  0.4794354440000035  0.0560863019999971  0.8479821090000002
  0.6461021900000006  0.4060863260000005  0.8954971430000001
  0.4794356820000019  0.6560856099999981  0.6579217310000018
  0.3127690549999969  0.0060856340000015  0.7054367659999983
  0.1461024279999990  0.3560857769999970  0.7529518600000031
  0.9794355630000027  0.7060861590000016  0.8004670139999988
  0.8127688169999985  0.0560863019999971  0.8479821090000002
  0.0627688169999985  0.1560864449999997  0.8954971430000001
  0.8961023689999976  0.4060857300000009  0.6579216720000005
  0.7294356820000019  0.7560858730000035  0.7054367659999983
  0.5627689359999977  0.1060861349999982  0.7529518010000018
  0.3961021900000006  0.4560862780000008  0.8004669549999974
  0.2294355630000027  0.8060863019999971  0.8479820490000023
  0.3961021900000006  0.1560864449999997  0.8954971430000001
  0.2294356820000019  0.4060857300000009  0.6579216720000005
  0.0627689359999977  0.7560858730000035  0.7054367659999983
  0.8961023089999998  0.1060861349999982  0.7529518010000018
  0.7294355630000027  0.4560862780000008  0.8004669549999974
  0.5627689359999977  0.8060863019999971  0.8479820490000023
  0.7294354440000035  0.1560864449999997  0.8954971430000001
  0.5627689359999977  0.4060857300000009  0.6579216720000005
  0.3961023089999998  0.7560858730000035  0.7054367659999983
  0.2294355630000027  0.1060861349999982  0.7529518010000018
  0.0627688169999985  0.4560862780000008  0.8004669549999974
  0.8961021900000006  0.8060863019999971  0.8479820490000023
  0.9794355029999977  0.9060864449999997  0.8954971430000001
  0.8127689359999977  0.1560857300000009  0.6579216720000005
  0.6461023089999998  0.5060858730000035  0.7054367659999983
  0.4794356820000019  0.8560858960000033  0.7529518010000018
  0.3127689359999977  0.2060861590000016  0.8004670139999988
  0.1461021900000006  0.5560863019999971  0.8479820490000023
  0.3127689359999977  0.9060864449999997  0.8954971430000001
  0.1461024279999990  0.1560857300000009  0.6579216720000005
  0.9794356820000019  0.5060858730000035  0.7054367659999983
  0.8127689359999977  0.8560858960000033  0.7529518010000018
  0.6461021900000006  0.2060861590000016  0.8004670139999988
  0.4794355630000027  0.5560863019999971  0.8479820490000023
  0.6461021900000006  0.9060864449999997  0.8954971430000001
  0.4794356820000019  0.1560857300000009  0.6579216720000005
  0.3127689359999977  0.5060858730000035  0.7054367659999983
  0.1461023089999998  0.8560858960000033  0.7529518010000018
  0.9794355630000027  0.2060861590000016  0.8004670139999988
  0.8127689359999977  0.5560863019999971  0.8479820490000023
  0.0627688169999985  0.6560864449999997  0.8954971430000001
  0.8961023689999976  0.9060856099999981  0.6579217310000018
  0.7294356820000019  0.2560856340000015  0.7054367659999983
  0.5627689359999977  0.6060858960000033  0.7529518010000018
  0.3961021900000006  0.9560861590000016  0.8004669549999974
  0.2294354440000035  0.3060864210000034  0.8479820490000023
  0.3961021900000006  0.6560864449999997  0.8954971430000001
  0.2294356820000019  0.9060856099999981  0.6579217310000018
  0.0627690549999969  0.2560856340000015  0.7054367659999983
  0.8961023089999998  0.6060858960000033  0.7529518010000018
  0.7294355630000027  0.9560861590000016  0.8004669549999974
  0.5627688169999985  0.3060864210000034  0.8479820490000023
  0.7294355630000027  0.6560864449999997  0.8954971430000001
  0.5627690549999969  0.9060856099999981  0.6579217310000018
  0.3961024279999990  0.2560856340000015  0.7054367659999983
  0.2294356820000019  0.6060858960000033  0.7529518010000018
  0.0627689359999977  0.9560861590000016  0.8004669549999974
  0.8961021300000027  0.3060864210000034  0.8479820490000023
 
  0.00000000E+00  0.00000000E+00  0.00000000E+00
  0.00000000E+00  0.00000000E+00  0.00000000E+00
  0.00000000E+00  0.00000000E+00  0.00000000E+00
  0.00000000E+00  0.00000000E+00  0.00000000E+00
  0.00000000E+00  0.00000000E+00  0.00000000E+00
  0.00000000E+00  0.00000000E+00  0.00000000E+00
  0.00000000E+00  0.00000000E+00  0.00000000E+00
  0.00000000E+00  0.00000000E+00  0.00000000E+00
  0.00000000E+00  0.00000000E+00  0.00000000E+00
  0.00000000E+00  0.00000000E+00  0.00000000E+00
  0.00000000E+00  0.00000000E+00  0.00000000E+00
  0.00000000E+00  0.00000000E+00  0.00000000E+00
  0.00000000E+00  0.00000000E+00  0.00000000E+00
  0.00000000E+00  0.00000000E+00  0.00000000E+00
  0.00000000E+00  0.00000000E+00  0.00000000E+00
  0.00000000E+00  0.00000000E+00  0.00000000E+00
  0.00000000E+00  0.00000000E+00  0.00000000E+00
  0.00000000E+00  0.00000000E+00  0.00000000E+00
  0.00000000E+00  0.00000000E+00  0.00000000E+00
  0.00000000E+00  0.00000000E+00  0.00000000E+00
  0.00000000E+00  0.00000000E+00  0.00000000E+00
  0.00000000E+00  0.00000000E+00  0.00000000E+00
  0.00000000E+00  0.00000000E+00  0.00000000E+00
  0.00000000E+00  0.00000000E+00  0.00000000E+00
  0.00000000E+00  0.00000000E+00  0.00000000E+00
  0.00000000E+00  0.00000000E+00  0.00000000E+00
  0.00000000E+00  0.00000000E+00  0.00000000E+00
  0.00000000E+00  0.00000000E+00  0.00000000E+00
  0.00000000E+00  0.00000000E+00  0.00000000E+00
  0.00000000E+00  0.00000000E+00  0.00000000E+00
  0.00000000E+00  0.00000000E+00  0.00000000E+00
  0.00000000E+00  0.00000000E+00  0.00000000E+00
  0.00000000E+00  0.00000000E+00  0.00000000E+00
  0.00000000E+00  0.00000000E+00  0.00000000E+00
  0.00000000E+00  0.00000000E+00  0.00000000E+00
  0.00000000E+00  0.00000000E+00  0.00000000E+00
  0.00000000E+00  0.00000000E+00  0.00000000E+00
  0.00000000E+00  0.00000000E+00  0.00000000E+00
  0.00000000E+00  0.00000000E+00  0.00000000E+00
  0.00000000E+00  0.00000000E+00  0.00000000E+00
  0.00000000E+00  0.00000000E+00  0.00000000E+00
  0.00000000E+00  0.00000000E+00  0.00000000E+00
  0.00000000E+00  0.00000000E+00  0.00000000E+00
  0.00000000E+00  0.00000000E+00  0.00000000E+00
  0.00000000E+00  0.00000000E+00  0.00000000E+00
  0.00000000E+00  0.00000000E+00  0.00000000E+00
  0.00000000E+00  0.00000000E+00  0.00000000E+00
  0.00000000E+00  0.00000000E+00  0.00000000E+00
  0.00000000E+00  0.00000000E+00  0.00000000E+00
  0.00000000E+00  0.00000000E+00  0.00000000E+00
  0.00000000E+00  0.00000000E+00  0.00000000E+00
  0.00000000E+00  0.00000000E+00  0.00000000E+00
  0.00000000E+00  0.00000000E+00  0.00000000E+00
  0.00000000E+00  0.00000000E+00  0.00000000E+00
  0.00000000E+00  0.00000000E+00  0.00000000E+00
  0.00000000E+00  0.00000000E+00  0.00000000E+00
  0.00000000E+00  0.00000000E+00  0.00000000E+00
  0.00000000E+00  0.00000000E+00  0.00000000E+00
  0.00000000E+00  0.00000000E+00  0.00000000E+00
  0.00000000E+00  0.00000000E+00  0.00000000E+00
  0.00000000E+00  0.00000000E+00  0.00000000E+00
  0.00000000E+00  0.00000000E+00  0.00000000E+00
  0.00000000E+00  0.00000000E+00  0.00000000E+00
  0.00000000E+00  0.00000000E+00  0.00000000E+00
  0.00000000E+00  0.00000000E+00  0.00000000E+00
  0.00000000E+00  0.00000000E+00  0.00000000E+00
  0.00000000E+00  0.00000000E+00  0.00000000E+00
  0.00000000E+00  0.00000000E+00  0.00000000E+00
  0.00000000E+00  0.00000000E+00  0.00000000E+00
  0.00000000E+00  0.00000000E+00  0.00000000E+00
  0.00000000E+00  0.00000000E+00  0.00000000E+00
  0.00000000E+00  0.00000000E+00  0.00000000E+00
  0.00000000E+00  0.00000000E+00  0.00000000E+00
  0.00000000E+00  0.00000000E+00  0.00000000E+00
  0.00000000E+00  0.00000000E+00  0.00000000E+00
  0.00000000E+00  0.00000000E+00  0.00000000E+00
  0.00000000E+00  0.00000000E+00  0.00000000E+00
  0.00000000E+00  0.00000000E+00  0.00000000E+00
  0.00000000E+00  0.00000000E+00  0.00000000E+00
  0.00000000E+00  0.00000000E+00  0.00000000E+00
  0.00000000E+00  0.00000000E+00  0.00000000E+00
  0.00000000E+00  0.00000000E+00  0.00000000E+00
  0.00000000E+00  0.00000000E+00  0.00000000E+00
  0.00000000E+00  0.00000000E+00  0.00000000E+00
  0.00000000E+00  0.00000000E+00  0.00000000E+00
  0.00000000E+00  0.00000000E+00  0.00000000E+00
  0.00000000E+00  0.00000000E+00  0.00000000E+00
  0.00000000E+00  0.00000000E+00  0.00000000E+00
  0.00000000E+00  0.00000000E+00  0.00000000E+00
  0.00000000E+00  0.00000000E+00  0.00000000E+00
  0.00000000E+00  0.00000000E+00  0.00000000E+00
  0.00000000E+00  0.00000000E+00  0.00000000E+00
  0.00000000E+00  0.00000000E+00  0.00000000E+00
  0.00000000E+00  0.00000000E+00  0.00000000E+00
  0.00000000E+00  0.00000000E+00  0.00000000E+00
  0.00000000E+00  0.00000000E+00  0.00000000E+00
  0.00000000E+00  0.00000000E+00  0.00000000E+00
  0.00000000E+00  0.00000000E+00  0.00000000E+00
  0.00000000E+00  0.00000000E+00  0.00000000E+00
  0.00000000E+00  0.00000000E+00  0.00000000E+00
  0.00000000E+00  0.00000000E+00  0.00000000E+00
  0.00000000E+00  0.00000000E+00  0.00000000E+00
  0.00000000E+00  0.00000000E+00  0.00000000E+00
  0.00000000E+00  0.00000000E+00  0.00000000E+00
  0.00000000E+00  0.00000000E+00  0.00000000E+00
  0.00000000E+00  0.00000000E+00  0.00000000E+00
  0.00000000E+00  0.00000000E+00  0.00000000E+00
  0.00000000E+00  0.00000000E+00  0.00000000E+00
  0.00000000E+00  0.00000000E+00  0.00000000E+00
  0.00000000E+00  0.00000000E+00  0.00000000E+00
  0.00000000E+00  0.00000000E+00  0.00000000E+00
  0.00000000E+00  0.00000000E+00  0.00000000E+00
  0.00000000E+00  0.00000000E+00  0.00000000E+00
  0.00000000E+00  0.00000000E+00  0.00000000E+00
  0.00000000E+00  0.00000000E+00  0.00000000E+00
  0.00000000E+00  0.00000000E+00  0.00000000E+00
  0.00000000E+00  0.00000000E+00  0.00000000E+00
  0.00000000E+00  0.00000000E+00  0.00000000E+00
  0.00000000E+00  0.00000000E+00  0.00000000E+00
  0.00000000E+00  0.00000000E+00  0.00000000E+00
  0.00000000E+00  0.00000000E+00  0.00000000E+00
  0.00000000E+00  0.00000000E+00  0.00000000E+00
  0.00000000E+00  0.00000000E+00  0.00000000E+00
  0.00000000E+00  0.00000000E+00  0.00000000E+00
  0.00000000E+00  0.00000000E+00  0.00000000E+00
  0.00000000E+00  0.00000000E+00  0.00000000E+00
  0.00000000E+00  0.00000000E+00  0.00000000E+00
  0.00000000E+00  0.00000000E+00  0.00000000E+00
  0.00000000E+00  0.00000000E+00  0.00000000E+00
  0.00000000E+00  0.00000000E+00  0.00000000E+00
  0.00000000E+00  0.00000000E+00  0.00000000E+00
  0.00000000E+00  0.00000000E+00  0.00000000E+00
  0.00000000E+00  0.00000000E+00  0.00000000E+00
  0.00000000E+00  0.00000000E+00  0.00000000E+00
  0.00000000E+00  0.00000000E+00  0.00000000E+00
  0.00000000E+00  0.00000000E+00  0.00000000E+00
  0.00000000E+00  0.00000000E+00  0.00000000E+00
  0.00000000E+00  0.00000000E+00  0.00000000E+00
  0.00000000E+00  0.00000000E+00  0.00000000E+00
  0.00000000E+00  0.00000000E+00  0.00000000E+00
  0.00000000E+00  0.00000000E+00  0.00000000E+00
  0.00000000E+00  0.00000000E+00  0.00000000E+00
  0.00000000E+00  0.00000000E+00  0.00000000E+00
  0.00000000E+00  0.00000000E+00  0.00000000E+00
  0.00000000E+00  0.00000000E+00  0.00000000E+00
  0.00000000E+00  0.00000000E+00  0.00000000E+00
  0.00000000E+00  0.00000000E+00  0.00000000E+00
  0.00000000E+00  0.00000000E+00  0.00000000E+00
  0.00000000E+00  0.00000000E+00  0.00000000E+00
  0.00000000E+00  0.00000000E+00  0.00000000E+00
  0.00000000E+00  0.00000000E+00  0.00000000E+00
  0.00000000E+00  0.00000000E+00  0.00000000E+00
  0.00000000E+00  0.00000000E+00  0.00000000E+00
  0.00000000E+00  0.00000000E+00  0.00000000E+00
  0.00000000E+00  0.00000000E+00  0.00000000E+00
  0.00000000E+00  0.00000000E+00  0.00000000E+00
  0.00000000E+00  0.00000000E+00  0.00000000E+00
  0.00000000E+00  0.00000000E+00  0.00000000E+00
  0.00000000E+00  0.00000000E+00  0.00000000E+00
  0.00000000E+00  0.00000000E+00  0.00000000E+00
  0.00000000E+00  0.00000000E+00  0.00000000E+00
  0.00000000E+00  0.00000000E+00  0.00000000E+00
  0.00000000E+00  0.00000000E+00  0.00000000E+00
  0.00000000E+00  0.00000000E+00  0.00000000E+00
  0.00000000E+00  0.00000000E+00  0.00000000E+00
  0.00000000E+00  0.00000000E+00  0.00000000E+00
  0.00000000E+00  0.00000000E+00  0.00000000E+00
  0.00000000E+00  0.00000000E+00  0.00000000E+00
  0.00000000E+00  0.00000000E+00  0.00000000E+00
  0.00000000E+00  0.00000000E+00  0.00000000E+00
  0.00000000E+00  0.00000000E+00  0.00000000E+00
  0.00000000E+00  0.00000000E+00  0.00000000E+00
  0.00000000E+00  0.00000000E+00  0.00000000E+00
  0.00000000E+00  0.00000000E+00  0.00000000E+00
  0.00000000E+00  0.00000000E+00  0.00000000E+00
  0.00000000E+00  0.00000000E+00  0.00000000E+00
  0.00000000E+00  0.00000000E+00  0.00000000E+00
  0.00000000E+00  0.00000000E+00  0.00000000E+00
  0.00000000E+00  0.00000000E+00  0.00000000E+00
  0.00000000E+00  0.00000000E+00  0.00000000E+00
  0.00000000E+00  0.00000000E+00  0.00000000E+00
  0.00000000E+00  0.00000000E+00  0.00000000E+00
  0.00000000E+00  0.00000000E+00  0.00000000E+00
  0.00000000E+00  0.00000000E+00  0.00000000E+00
  0.00000000E+00  0.00000000E+00  0.00000000E+00
  0.00000000E+00  0.00000000E+00  0.00000000E+00
  0.00000000E+00  0.00000000E+00  0.00000000E+00
  0.00000000E+00  0.00000000E+00  0.00000000E+00
  0.00000000E+00  0.00000000E+00  0.00000000E+00
  0.00000000E+00  0.00000000E+00  0.00000000E+00
  0.00000000E+00  0.00000000E+00  0.00000000E+00
  0.00000000E+00  0.00000000E+00  0.00000000E+00
  0.00000000E+00  0.00000000E+00  0.00000000E+00
  0.00000000E+00  0.00000000E+00  0.00000000E+00
  0.00000000E+00  0.00000000E+00  0.00000000E+00
  0.00000000E+00  0.00000000E+00  0.00000000E+00
  0.00000000E+00  0.00000000E+00  0.00000000E+00
  0.00000000E+00  0.00000000E+00  0.00000000E+00
  0.00000000E+00  0.00000000E+00  0.00000000E+00
  0.00000000E+00  0.00000000E+00  0.00000000E+00
  0.00000000E+00  0.00000000E+00  0.00000000E+00
  0.00000000E+00  0.00000000E+00  0.00000000E+00
  0.00000000E+00  0.00000000E+00  0.00000000E+00
  0.00000000E+00  0.00000000E+00  0.00000000E+00
  0.00000000E+00  0.00000000E+00  0.00000000E+00
  0.00000000E+00  0.00000000E+00  0.00000000E+00
  0.00000000E+00  0.00000000E+00  0.00000000E+00
  0.00000000E+00  0.00000000E+00  0.00000000E+00
  0.00000000E+00  0.00000000E+00  0.00000000E+00
  0.00000000E+00  0.00000000E+00  0.00000000E+00
  0.00000000E+00  0.00000000E+00  0.00000000E+00
  0.00000000E+00  0.00000000E+00  0.00000000E+00
  0.00000000E+00  0.00000000E+00  0.00000000E+00
  0.00000000E+00  0.00000000E+00  0.00000000E+00
  0.00000000E+00  0.00000000E+00  0.00000000E+00
  0.00000000E+00  0.00000000E+00  0.00000000E+00
