Si+C
    1.000000000
   13.303179741    0.000000000    0.000000000
   -6.651589394   14.873406410    0.000000000
    0.000000000    0.000000000    7.994748592
Si  C  
36     84
Direct
    0.017094348    0.991452813    0.000000000
    0.217094451    0.891452730    0.151900828
    0.417094558    0.791452646    0.303801656
    0.017094348    0.324786127    0.000000000
    0.217094451    0.224786043    0.151900828
    0.417094558    0.124785945    0.303801656
    0.017094348    0.658119500    0.000000000
    0.217094451    0.558119357    0.151900828
    0.417094558    0.458119243    0.303801656
    0.367094278    0.191452786    0.075950265
    0.567094386    0.091452695    0.227851123
    0.767094493    0.991452634    0.379751980
    0.367094278    0.524786055    0.075950265
    0.567094386    0.424786001    0.227851123
    0.767094493    0.324785918    0.379751980
    0.367094278    0.858119428    0.075950265
    0.567094386    0.758119226    0.227851123
    0.767094493    0.658119202    0.379751980
    0.517094374    0.991452813    0.000000004
    0.717094421    0.891452670    0.151900813
    0.917094529    0.791452587    0.303801656
    0.517094374    0.324786127    0.000000004
    0.717094421    0.224786013    0.151900813
    0.917094529    0.124785922    0.303801656
    0.517094374    0.658119380    0.000000004
    0.717094421    0.558119297    0.151900813
    0.917094529    0.458119243    0.303801656
    0.867094278    0.191452801    0.075950272
    0.067094445    0.091452725    0.227851138
    0.267094374    0.991452634    0.379751921
    0.867094278    0.524786115    0.075950272
    0.067094445    0.424786001    0.227851138
    0.267094374    0.324785918    0.379751921
    0.867094278    0.858119488    0.075950272
    0.067094445    0.758119345    0.227851138
    0.267094374    0.658119261    0.379751921
    0.447481394    0.851802945    0.764696479
    0.818909764    0.880374491    0.565175235
    0.133195639    0.866088808    0.664935887
    0.590338469    0.708945751    0.764696538
    0.961766839    0.737517357    0.565175235
    0.276052713    0.723231554    0.664935887
    0.733195543    0.566088676    0.764696479
    0.104624033    0.594660223    0.565175235
    0.418909788    0.580374479    0.664935887
    0.876052737    0.423231542    0.764696479
    0.247481227    0.451803088    0.565175235
    0.561767101    0.437517285    0.664935887
    0.018909812    0.280374408    0.764696479
    0.390338421    0.308945954    0.565175235
    0.704624176    0.294660211    0.664935887
    0.161767006    0.137517244    0.764696479
    0.533195496    0.166088834    0.565175235
    0.847481251    0.151803046    0.664935887
    0.304624200    0.994660079    0.764696479
    0.676052630    0.023231626    0.565175235
    0.990338445    0.008945942    0.664935887
    0.997481227    0.951802969    0.814576626
    0.368909597    0.980374515    0.615055501
    0.683195472    0.966088772    0.714816153
    0.140338302    0.808945775    0.814576685
    0.511766672    0.837517321    0.615055501
    0.826052427    0.823231518    0.714816093
    0.283195615    0.666088700    0.814576685
    0.654623985    0.694660187    0.615055501
    0.968909860    0.680374503    0.714816093
    0.426052690    0.523231626    0.814576685
    0.797481060    0.551803112    0.615055501
    0.111766934    0.537517369    0.714816093
    0.568909645    0.380374432    0.814576685
    0.940338135    0.408945978    0.615055501
    0.254623890    0.394660234    0.714816153
    0.711766958    0.237517253    0.814576685
    0.083195448    0.266088843    0.615055501
    0.397481203    0.251803041    0.714816153
    0.854624152    0.094660155    0.814576685
    0.226052523    0.123231694    0.615055501
    0.540338278    0.108945929    0.714816153
    0.947481394    0.851802945    0.764696538
    0.318909883    0.880374610    0.565175235
    0.633195639    0.866088748    0.664935887
    0.090338588    0.708945751    0.764696538
    0.461767077    0.737517416    0.565175235
    0.776052713    0.723231554    0.664935887
    0.233195782    0.566088617    0.764696538
    0.604624152    0.594660282    0.565175235
    0.918909907    0.580374479    0.664935887
    0.376052856    0.423231602    0.764696538
    0.747481227    0.451803148    0.565175235
    0.061767101    0.437517345    0.664935887
    0.518909931    0.280374348    0.764696479
    0.890338361    0.308945954    0.565175235
    0.204624176    0.294660151    0.664935887
    0.661767006    0.137517244    0.764696479
    0.033195496    0.166088805    0.565175235
    0.347481251    0.151803032    0.664935887
    0.804624200    0.994660079    0.764696479
    0.176052570    0.023231745    0.565175235
    0.490338445    0.008945942    0.664935887
    0.497481108    0.951802969    0.814576685
    0.868909657    0.980374515    0.615055501
    0.183195353    0.966088712    0.714816153
    0.640338182    0.808945894    0.814576685
    0.011766791    0.837517440    0.615055501
    0.326052427    0.823231637    0.714816153
    0.783195496    0.666088700    0.814576626
    0.154623985    0.694660187    0.615055501
    0.468909740    0.680374444    0.714816153
    0.926052690    0.523231506    0.814576685
    0.297481060    0.551803052    0.615055501
    0.611766815    0.537517250    0.714816153
    0.068909764    0.380374432    0.814576685
    0.440338135    0.408945918    0.615055561
    0.754624009    0.394660175    0.714816153
    0.211767077    0.237517267    0.814576745
    0.583195448    0.266088843    0.615055501
    0.897481203    0.251803070    0.714816153
    0.354624152    0.094660178    0.814576626
    0.726052523    0.123231687    0.615055501
    0.040338397    0.108945966    0.714816153
