Si+Sn                                   
   1.00000000000000     
    10.8620004649999995    0.0000000000000000    0.0000000000000000
     0.0000000000000000   16.2930011750000006    0.0000000000000000
     0.0000000000000000    0.0000000000000000   22.8601474760000016
   Si   Sn
    72    72
Direct
  0.0000000000000000  0.9940677290000011  0.0000000000000000
  0.0000000000000000  0.8274010419999982  0.1187875119999973
  0.0000000000000000  0.6607342960000011  0.2375750389999993
  0.5000000000000000  0.9940677290000011  0.0000000000000000
  0.5000000000000000  0.8274010419999982  0.1187875119999973
  0.5000000000000000  0.6607342960000011  0.2375750389999993
  0.0000000000000000  0.3274010720000007  0.0000000000000000
  0.0000000000000000  0.1607343849999978  0.1187875119999973
  0.0000000000000000  0.9940676690000032  0.2375750389999993
  0.5000000000000000  0.3274010720000007  0.0000000000000000
  0.5000000000000000  0.1607343849999978  0.1187875119999973
  0.5000000000000000  0.9940676690000032  0.2375750389999993
  0.0000000000000000  0.6607344749999982  0.0000000000000000
  0.0000000000000000  0.4940677290000011  0.1187875119999973
  0.0000000000000000  0.3274010419999982  0.2375750389999993
  0.5000000000000000  0.6607344749999982  0.0000000000000000
  0.5000000000000000  0.4940677290000011  0.1187875119999973
  0.5000000000000000  0.3274010419999982  0.2375750389999993
  0.1250000000000000  0.0774010570000030  0.0593937599999990
  0.1250000000000000  0.9107343550000024  0.1781812910000014
  0.1250000000000000  0.7440676690000032  0.2969688180000034
  0.6250000000000000  0.0774010570000030  0.0593937599999990
  0.6250000000000000  0.9107343550000024  0.1781812910000014
  0.6250000000000000  0.7440676690000032  0.2969688180000034
  0.1250000000000000  0.4107343849999978  0.0593937599999990
  0.1250000000000000  0.2440676690000032  0.1781812910000014
  0.1250000000000000  0.0774009530000015  0.2969688180000034
  0.6250000000000000  0.4107343849999978  0.0593937599999990
  0.6250000000000000  0.2440676690000032  0.1781812910000014
  0.6250000000000000  0.0774009530000015  0.2969688180000034
  0.1250000000000000  0.7440677880000024  0.0593937599999990
  0.1250000000000000  0.5774010419999982  0.1781812910000014
  0.1250000000000000  0.4107343259999965  0.2969688180000034
  0.6250000000000000  0.7440677880000024  0.0593937599999990
  0.6250000000000000  0.5774010419999982  0.1781812910000014
  0.6250000000000000  0.4107343259999965  0.2969688180000034
  0.2500000000000000  0.1607343849999978  0.0000000000000000
  0.2500000000000000  0.9940676690000032  0.1187875119999973
  0.2500000000000000  0.8274009820000003  0.2375750389999993
  0.7500000599999979  0.1607343849999978  0.0000000000000000
  0.7500000599999979  0.9940676690000032  0.1187875119999973
  0.7500000599999979  0.8274009820000003  0.2375750389999993
  0.2500000000000000  0.4940677290000011  0.0000000000000000
  0.2500000000000000  0.3274010419999982  0.1187875119999973
  0.2500000000000000  0.1607343259999965  0.2375750389999993
  0.7500000599999979  0.4940677290000011  0.0000000000000000
  0.7500000599999979  0.3274010419999982  0.1187875119999973
  0.7500000599999979  0.1607343259999965  0.2375750389999993
  0.2500000000000000  0.8274011020000032  0.0000000000000000
  0.2500000000000000  0.6607344150000003  0.1187875119999973
  0.2500000000000000  0.4940677290000011  0.2375750389999993
  0.7500000599999979  0.8274011020000032  0.0000000000000000
  0.7500000599999979  0.6607344150000003  0.1187875119999973
  0.7500000599999979  0.4940677290000011  0.2375750389999993
  0.3750000300000025  0.2440677290000011  0.0593937599999990
  0.3750000300000025  0.0774010200000035  0.1781812910000014
  0.3750000300000025  0.9107342960000011  0.2969688180000034
  0.8750000599999979  0.2440677290000011  0.0593937599999990
  0.8750000599999979  0.0774010200000035  0.1781812910000014
  0.8750000599999979  0.9107342960000011  0.2969688180000034
  0.3750000300000025  0.5774011609999974  0.0593937599999990
  0.3750000300000025  0.4107344749999982  0.1781812910000014
  0.3750000300000025  0.2440677140000034  0.2969688180000034
  0.8750000599999979  0.5774011609999974  0.0593937599999990
  0.8750000599999979  0.4107344749999982  0.1781812910000014
  0.8750000599999979  0.2440677140000034  0.2969688180000034
  0.3750000300000025  0.9107343550000024  0.0593937599999990
  0.3750000300000025  0.7440676690000032  0.1781812910000014
  0.3750000300000025  0.5774009229999990  0.2969688180000034
  0.8750000599999979  0.9107343550000024  0.0593937599999990
  0.8750000599999979  0.7440676690000032  0.1781812910000014
  0.8750000599999979  0.5774009229999990  0.2969688180000034
  0.1296296269999999  0.1599548310000003  0.3975805640000019
  0.1296296120000022  0.4099549060000029  0.4979420900000022
  0.1296294930000030  0.6599550250000021  0.5983036160000026
  0.1296294930000030  0.9099552630000005  0.6986652020000008
  0.1296294930000030  0.1599552930000030  0.7990266680000033
  0.1296293739999967  0.4099554120000022  0.8993881939999966
  0.4629629849999972  0.4932881889999976  0.3975805640000019
  0.4629629249999994  0.7432881590000022  0.4979420900000022
  0.4629629249999994  0.9932883979999971  0.5983036160000026
  0.4629628659999980  0.2432885469999988  0.6986652020000008
  0.4629628659999980  0.4932886659999980  0.7990266680000033
  0.4629628060000002  0.7432887550000018  0.8993881939999966
  0.7962963579999993  0.8266215319999972  0.3975805640000019
  0.7962962989999980  0.0766215319999972  0.4979420900000022
  0.7962964179999972  0.3266218010000017  0.5983036160000026
  0.7962961200000009  0.5766217709999992  0.6986652020000008
  0.7962961790000023  0.8266218899999984  0.7990266680000033
  0.7962961790000023  0.0766221279999968  0.8993881939999966
  0.1296296570000024  0.6599549060000029  0.3975805640000019
  0.1296296120000022  0.9099549060000029  0.4979420900000022
  0.1296294930000030  0.1599550549999975  0.5983036160000026
  0.1296294930000030  0.4099551739999967  0.6986651420000030
  0.1296294930000030  0.6599552630000005  0.7990266680000033
  0.1296293739999967  0.9099553819999997  0.8993881939999966
  0.4629629849999972  0.9932881590000022  0.3975805640000019
  0.4629629849999972  0.2432883079999968  0.4979420900000022
  0.4629629849999972  0.4932885469999988  0.5983036160000026
  0.4629628659999980  0.7432885170000034  0.6986651420000030
  0.4629629249999994  0.9932886360000026  0.7990266680000033
  0.4629627469999988  0.2432889040000035  0.8993881939999966
  0.7962964179999972  0.3266215319999972  0.3975805640000019
  0.7962962390000001  0.5766215319999972  0.4979420900000022
  0.7962962989999980  0.8266217709999992  0.5983036160000026
  0.7962962390000001  0.0766217709999992  0.6986651420000030
  0.7962961200000009  0.3266219200000009  0.7990266680000033
  0.7962961790000023  0.5766220089999976  0.8993881339999987
  0.2129629550000018  0.4932881590000022  0.3975805640000019
  0.2129628659999980  0.7432881590000022  0.4979420900000022
  0.2129629249999994  0.9932883979999971  0.5983036160000026
  0.2129627469999988  0.2432884279999996  0.6986652020000008
  0.2129627469999988  0.4932885469999988  0.7990266680000033
  0.2129627619999965  0.7432886360000026  0.8993881339999987
  0.5462963579999993  0.8266215319999972  0.3975805640000019
  0.5462962390000001  0.0766215319999972  0.4979420900000022
  0.5462962989999980  0.3266218010000017  0.5983036160000026
  0.5462962390000001  0.5766218899999984  0.6986651420000030
  0.5462959999999981  0.8266218899999984  0.7990266680000033
  0.5462961200000009  0.0766220089999976  0.8993881339999987
  0.8796296120000022  0.1599548610000028  0.3975805640000019
  0.8796296120000022  0.4099549060000029  0.4979420900000022
  0.8796295519999973  0.6599550250000021  0.5983036160000026
  0.8796294329999981  0.9099551440000013  0.6986651420000030
  0.8796294329999981  0.1599552930000030  0.7990266680000033
  0.8796294329999981  0.4099554120000022  0.8993881339999987
  0.2129629550000018  0.9932882789999979  0.3975805640000019
  0.2129628960000005  0.2432883079999968  0.4979421199999976
  0.2129628510000003  0.4932884279999996  0.5983036160000026
  0.2129628659999980  0.7432887550000018  0.6986652020000008
  0.2129627619999965  0.9932886360000026  0.7990267280000012
  0.2129627019999987  0.2432889040000035  0.8993881339999987
  0.5462963579999993  0.3266215319999972  0.3975805640000019
  0.5462962989999980  0.5766215319999972  0.4979420900000022
  0.5462961790000023  0.8266217709999992  0.5983036160000026
  0.5462961790000023  0.0766218899999984  0.6986652020000008
  0.5462961790000023  0.3266219200000009  0.7990266680000033
  0.5462960600000031  0.5766220089999976  0.8993881339999987
  0.8796296120000022  0.6599547860000001  0.3975805640000019
  0.8796295519999973  0.9099549060000029  0.4979420900000022
  0.8796296120000022  0.1599550549999975  0.5983036160000026
  0.8796294930000030  0.4099551739999967  0.6986652020000008
  0.8796294329999981  0.6599551440000013  0.7990266680000033
  0.8796293739999967  0.9099553819999997  0.8993881339999987
 
  0.00000000E+00  0.00000000E+00  0.00000000E+00
  0.00000000E+00  0.00000000E+00  0.00000000E+00
  0.00000000E+00  0.00000000E+00  0.00000000E+00
  0.00000000E+00  0.00000000E+00  0.00000000E+00
  0.00000000E+00  0.00000000E+00  0.00000000E+00
  0.00000000E+00  0.00000000E+00  0.00000000E+00
  0.00000000E+00  0.00000000E+00  0.00000000E+00
  0.00000000E+00  0.00000000E+00  0.00000000E+00
  0.00000000E+00  0.00000000E+00  0.00000000E+00
  0.00000000E+00  0.00000000E+00  0.00000000E+00
  0.00000000E+00  0.00000000E+00  0.00000000E+00
  0.00000000E+00  0.00000000E+00  0.00000000E+00
  0.00000000E+00  0.00000000E+00  0.00000000E+00
  0.00000000E+00  0.00000000E+00  0.00000000E+00
  0.00000000E+00  0.00000000E+00  0.00000000E+00
  0.00000000E+00  0.00000000E+00  0.00000000E+00
  0.00000000E+00  0.00000000E+00  0.00000000E+00
  0.00000000E+00  0.00000000E+00  0.00000000E+00
  0.00000000E+00  0.00000000E+00  0.00000000E+00
  0.00000000E+00  0.00000000E+00  0.00000000E+00
  0.00000000E+00  0.00000000E+00  0.00000000E+00
  0.00000000E+00  0.00000000E+00  0.00000000E+00
  0.00000000E+00  0.00000000E+00  0.00000000E+00
  0.00000000E+00  0.00000000E+00  0.00000000E+00
  0.00000000E+00  0.00000000E+00  0.00000000E+00
  0.00000000E+00  0.00000000E+00  0.00000000E+00
  0.00000000E+00  0.00000000E+00  0.00000000E+00
  0.00000000E+00  0.00000000E+00  0.00000000E+00
  0.00000000E+00  0.00000000E+00  0.00000000E+00
  0.00000000E+00  0.00000000E+00  0.00000000E+00
  0.00000000E+00  0.00000000E+00  0.00000000E+00
  0.00000000E+00  0.00000000E+00  0.00000000E+00
  0.00000000E+00  0.00000000E+00  0.00000000E+00
  0.00000000E+00  0.00000000E+00  0.00000000E+00
  0.00000000E+00  0.00000000E+00  0.00000000E+00
  0.00000000E+00  0.00000000E+00  0.00000000E+00
  0.00000000E+00  0.00000000E+00  0.00000000E+00
  0.00000000E+00  0.00000000E+00  0.00000000E+00
  0.00000000E+00  0.00000000E+00  0.00000000E+00
  0.00000000E+00  0.00000000E+00  0.00000000E+00
  0.00000000E+00  0.00000000E+00  0.00000000E+00
  0.00000000E+00  0.00000000E+00  0.00000000E+00
  0.00000000E+00  0.00000000E+00  0.00000000E+00
  0.00000000E+00  0.00000000E+00  0.00000000E+00
  0.00000000E+00  0.00000000E+00  0.00000000E+00
  0.00000000E+00  0.00000000E+00  0.00000000E+00
  0.00000000E+00  0.00000000E+00  0.00000000E+00
  0.00000000E+00  0.00000000E+00  0.00000000E+00
  0.00000000E+00  0.00000000E+00  0.00000000E+00
  0.00000000E+00  0.00000000E+00  0.00000000E+00
  0.00000000E+00  0.00000000E+00  0.00000000E+00
  0.00000000E+00  0.00000000E+00  0.00000000E+00
  0.00000000E+00  0.00000000E+00  0.00000000E+00
  0.00000000E+00  0.00000000E+00  0.00000000E+00
  0.00000000E+00  0.00000000E+00  0.00000000E+00
  0.00000000E+00  0.00000000E+00  0.00000000E+00
  0.00000000E+00  0.00000000E+00  0.00000000E+00
  0.00000000E+00  0.00000000E+00  0.00000000E+00
  0.00000000E+00  0.00000000E+00  0.00000000E+00
  0.00000000E+00  0.00000000E+00  0.00000000E+00
  0.00000000E+00  0.00000000E+00  0.00000000E+00
  0.00000000E+00  0.00000000E+00  0.00000000E+00
  0.00000000E+00  0.00000000E+00  0.00000000E+00
  0.00000000E+00  0.00000000E+00  0.00000000E+00
  0.00000000E+00  0.00000000E+00  0.00000000E+00
  0.00000000E+00  0.00000000E+00  0.00000000E+00
  0.00000000E+00  0.00000000E+00  0.00000000E+00
  0.00000000E+00  0.00000000E+00  0.00000000E+00
  0.00000000E+00  0.00000000E+00  0.00000000E+00
  0.00000000E+00  0.00000000E+00  0.00000000E+00
  0.00000000E+00  0.00000000E+00  0.00000000E+00
  0.00000000E+00  0.00000000E+00  0.00000000E+00
  0.00000000E+00  0.00000000E+00  0.00000000E+00
  0.00000000E+00  0.00000000E+00  0.00000000E+00
  0.00000000E+00  0.00000000E+00  0.00000000E+00
  0.00000000E+00  0.00000000E+00  0.00000000E+00
  0.00000000E+00  0.00000000E+00  0.00000000E+00
  0.00000000E+00  0.00000000E+00  0.00000000E+00
  0.00000000E+00  0.00000000E+00  0.00000000E+00
  0.00000000E+00  0.00000000E+00  0.00000000E+00
  0.00000000E+00  0.00000000E+00  0.00000000E+00
  0.00000000E+00  0.00000000E+00  0.00000000E+00
  0.00000000E+00  0.00000000E+00  0.00000000E+00
  0.00000000E+00  0.00000000E+00  0.00000000E+00
  0.00000000E+00  0.00000000E+00  0.00000000E+00
  0.00000000E+00  0.00000000E+00  0.00000000E+00
  0.00000000E+00  0.00000000E+00  0.00000000E+00
  0.00000000E+00  0.00000000E+00  0.00000000E+00
  0.00000000E+00  0.00000000E+00  0.00000000E+00
  0.00000000E+00  0.00000000E+00  0.00000000E+00
  0.00000000E+00  0.00000000E+00  0.00000000E+00
  0.00000000E+00  0.00000000E+00  0.00000000E+00
  0.00000000E+00  0.00000000E+00  0.00000000E+00
  0.00000000E+00  0.00000000E+00  0.00000000E+00
  0.00000000E+00  0.00000000E+00  0.00000000E+00
  0.00000000E+00  0.00000000E+00  0.00000000E+00
  0.00000000E+00  0.00000000E+00  0.00000000E+00
  0.00000000E+00  0.00000000E+00  0.00000000E+00
  0.00000000E+00  0.00000000E+00  0.00000000E+00
  0.00000000E+00  0.00000000E+00  0.00000000E+00
  0.00000000E+00  0.00000000E+00  0.00000000E+00
  0.00000000E+00  0.00000000E+00  0.00000000E+00
  0.00000000E+00  0.00000000E+00  0.00000000E+00
  0.00000000E+00  0.00000000E+00  0.00000000E+00
  0.00000000E+00  0.00000000E+00  0.00000000E+00
  0.00000000E+00  0.00000000E+00  0.00000000E+00
  0.00000000E+00  0.00000000E+00  0.00000000E+00
  0.00000000E+00  0.00000000E+00  0.00000000E+00
  0.00000000E+00  0.00000000E+00  0.00000000E+00
  0.00000000E+00  0.00000000E+00  0.00000000E+00
  0.00000000E+00  0.00000000E+00  0.00000000E+00
  0.00000000E+00  0.00000000E+00  0.00000000E+00
  0.00000000E+00  0.00000000E+00  0.00000000E+00
  0.00000000E+00  0.00000000E+00  0.00000000E+00
  0.00000000E+00  0.00000000E+00  0.00000000E+00
  0.00000000E+00  0.00000000E+00  0.00000000E+00
  0.00000000E+00  0.00000000E+00  0.00000000E+00
  0.00000000E+00  0.00000000E+00  0.00000000E+00
  0.00000000E+00  0.00000000E+00  0.00000000E+00
  0.00000000E+00  0.00000000E+00  0.00000000E+00
  0.00000000E+00  0.00000000E+00  0.00000000E+00
  0.00000000E+00  0.00000000E+00  0.00000000E+00
  0.00000000E+00  0.00000000E+00  0.00000000E+00
  0.00000000E+00  0.00000000E+00  0.00000000E+00
  0.00000000E+00  0.00000000E+00  0.00000000E+00
  0.00000000E+00  0.00000000E+00  0.00000000E+00
  0.00000000E+00  0.00000000E+00  0.00000000E+00
  0.00000000E+00  0.00000000E+00  0.00000000E+00
  0.00000000E+00  0.00000000E+00  0.00000000E+00
  0.00000000E+00  0.00000000E+00  0.00000000E+00
  0.00000000E+00  0.00000000E+00  0.00000000E+00
  0.00000000E+00  0.00000000E+00  0.00000000E+00
  0.00000000E+00  0.00000000E+00  0.00000000E+00
  0.00000000E+00  0.00000000E+00  0.00000000E+00
  0.00000000E+00  0.00000000E+00  0.00000000E+00
  0.00000000E+00  0.00000000E+00  0.00000000E+00
  0.00000000E+00  0.00000000E+00  0.00000000E+00
  0.00000000E+00  0.00000000E+00  0.00000000E+00
  0.00000000E+00  0.00000000E+00  0.00000000E+00
  0.00000000E+00  0.00000000E+00  0.00000000E+00
  0.00000000E+00  0.00000000E+00  0.00000000E+00
  0.00000000E+00  0.00000000E+00  0.00000000E+00
  0.00000000E+00  0.00000000E+00  0.00000000E+00
  0.00000000E+00  0.00000000E+00  0.00000000E+00
