Si+Sn
    1.000000000
   10.862000465    0.000000000    0.000000000
    0.000000000   16.293001175    0.000000000
    0.000000000    0.000000000   22.860147476
Si  Sn 
72     72
Direct
    0.000000000    0.994067729    0.000000000
    0.000000000    0.827401042    0.118787512
    0.000000000    0.660734296    0.237575039
    0.500000000    0.994067729    0.000000000
    0.500000000    0.827401042    0.118787512
    0.500000000    0.660734296    0.237575039
    0.000000000    0.327401072    0.000000000
    0.000000000    0.160734385    0.118787512
    0.000000000    0.994067669    0.237575039
    0.500000000    0.327401072    0.000000000
    0.500000000    0.160734385    0.118787512
    0.500000000    0.994067669    0.237575039
    0.000000000    0.660734475    0.000000000
    0.000000000    0.494067729    0.118787512
    0.000000000    0.327401042    0.237575039
    0.500000000    0.660734475    0.000000000
    0.500000000    0.494067729    0.118787512
    0.500000000    0.327401042    0.237575039
    0.125000000    0.077401057    0.059393760
    0.125000000    0.910734355    0.178181291
    0.125000000    0.744067669    0.296968818
    0.625000000    0.077401057    0.059393760
    0.625000000    0.910734355    0.178181291
    0.625000000    0.744067669    0.296968818
    0.125000000    0.410734385    0.059393760
    0.125000000    0.244067669    0.178181291
    0.125000000    0.077400953    0.296968818
    0.625000000    0.410734385    0.059393760
    0.625000000    0.244067669    0.178181291
    0.625000000    0.077400953    0.296968818
    0.125000000    0.744067788    0.059393760
    0.125000000    0.577401042    0.178181291
    0.125000000    0.410734326    0.296968818
    0.625000000    0.744067788    0.059393760
    0.625000000    0.577401042    0.178181291
    0.625000000    0.410734326    0.296968818
    0.250000000    0.160734385    0.000000000
    0.250000000    0.994067669    0.118787512
    0.250000000    0.827400982    0.237575039
    0.750000060    0.160734385    0.000000000
    0.750000060    0.994067669    0.118787512
    0.750000060    0.827400982    0.237575039
    0.250000000    0.494067729    0.000000000
    0.250000000    0.327401042    0.118787512
    0.250000000    0.160734326    0.237575039
    0.750000060    0.494067729    0.000000000
    0.750000060    0.327401042    0.118787512
    0.750000060    0.160734326    0.237575039
    0.250000000    0.827401102    0.000000000
    0.250000000    0.660734415    0.118787512
    0.250000000    0.494067729    0.237575039
    0.750000060    0.827401102    0.000000000
    0.750000060    0.660734415    0.118787512
    0.750000060    0.494067729    0.237575039
    0.375000030    0.244067729    0.059393760
    0.375000030    0.077401020    0.178181291
    0.375000030    0.910734296    0.296968818
    0.875000060    0.244067729    0.059393760
    0.875000060    0.077401020    0.178181291
    0.875000060    0.910734296    0.296968818
    0.375000030    0.577401161    0.059393760
    0.375000030    0.410734475    0.178181291
    0.375000030    0.244067714    0.296968818
    0.875000060    0.577401161    0.059393760
    0.875000060    0.410734475    0.178181291
    0.875000060    0.244067714    0.296968818
    0.375000030    0.910734355    0.059393760
    0.375000030    0.744067669    0.178181291
    0.375000030    0.577400923    0.296968818
    0.875000060    0.910734355    0.059393760
    0.875000060    0.744067669    0.178181291
    0.875000060    0.577400923    0.296968818
    0.129629627    0.159954831    0.397580564
    0.129629612    0.409954906    0.497942090
    0.129629493    0.659955025    0.598303616
    0.129629493    0.909955263    0.698665202
    0.129629493    0.159955293    0.799026668
    0.129629374    0.409955412    0.899388194
    0.462962985    0.493288189    0.397580564
    0.462962925    0.743288159    0.497942090
    0.462962925    0.993288398    0.598303616
    0.462962866    0.243288547    0.698665202
    0.462962866    0.493288666    0.799026668
    0.462962806    0.743288755    0.899388194
    0.796296358    0.826621532    0.397580564
    0.796296299    0.076621532    0.497942090
    0.796296418    0.326621801    0.598303616
    0.796296120    0.576621771    0.698665202
    0.796296179    0.826621890    0.799026668
    0.796296179    0.076622128    0.899388194
    0.129629657    0.659954906    0.397580564
    0.129629612    0.909954906    0.497942090
    0.129629493    0.159955055    0.598303616
    0.129629493    0.409955174    0.698665142
    0.129629493    0.659955263    0.799026668
    0.129629374    0.909955382    0.899388194
    0.462962985    0.993288159    0.397580564
    0.462962985    0.243288308    0.497942090
    0.462962985    0.493288547    0.598303616
    0.462962866    0.743288517    0.698665142
    0.462962925    0.993288636    0.799026668
    0.462962747    0.243288904    0.899388194
    0.796296418    0.326621532    0.397580564
    0.796296239    0.576621532    0.497942090
    0.796296299    0.826621771    0.598303616
    0.796296239    0.076621771    0.698665142
    0.796296120    0.326621920    0.799026668
    0.796296179    0.576622009    0.899388134
    0.212962955    0.493288159    0.397580564
    0.212962866    0.743288159    0.497942090
    0.212962925    0.993288398    0.598303616
    0.212962747    0.243288428    0.698665202
    0.212962747    0.493288547    0.799026668
    0.212962762    0.743288636    0.899388134
    0.546296358    0.826621532    0.397580564
    0.546296239    0.076621532    0.497942090
    0.546296299    0.326621801    0.598303616
    0.546296239    0.576621890    0.698665142
    0.546296000    0.826621890    0.799026668
    0.546296120    0.076622009    0.899388134
    0.879629612    0.159954861    0.397580564
    0.879629612    0.409954906    0.497942090
    0.879629552    0.659955025    0.598303616
    0.879629433    0.909955144    0.698665142
    0.879629433    0.159955293    0.799026668
    0.879629433    0.409955412    0.899388134
    0.212962955    0.993288279    0.397580564
    0.212962896    0.243288308    0.497942120
    0.212962851    0.493288428    0.598303616
    0.212962866    0.743288755    0.698665202
    0.212962762    0.993288636    0.799026728
    0.212962702    0.243288904    0.899388134
    0.546296358    0.326621532    0.397580564
    0.546296299    0.576621532    0.497942090
    0.546296179    0.826621771    0.598303616
    0.546296179    0.076621890    0.698665202
    0.546296179    0.326621920    0.799026668
    0.546296060    0.576622009    0.899388134
    0.879629612    0.659954786    0.397580564
    0.879629552    0.909954906    0.497942090
    0.879629612    0.159955055    0.598303616
    0.879629493    0.409955174    0.698665202
    0.879629433    0.659955144    0.799026668
    0.879629374    0.909955382    0.899388134
