Ge+Sn
    1.000000000
   16.002676010    0.000000000    0.000000000
   -8.001338005   13.858724594    0.000000000
    0.000000000    0.000000000   20.304006577
Ge  Sn 
96     72
Direct
    0.985767305    0.492883563    0.000000005
    0.652433872    0.326216847    0.160881206
    0.319100499    0.159550115    0.321762383
    0.985767305    0.992883682    0.000000012
    0.652433872    0.826216936    0.160881206
    0.319100499    0.659550190    0.321762413
    0.485767245    0.492883593    0.000000000
    0.152433842    0.326216847    0.160881206
    0.819100440    0.159550130    0.321762413
    0.485767245    0.992883682    0.000000016
    0.152433842    0.826216936    0.160881206
    0.819100440    0.659550190    0.321762413
    0.152433947    0.826216877    0.040220320
    0.819100559    0.659550130    0.201101482
    0.485767186    0.492883444    0.361982703
    0.152433947    0.326216936    0.040220320
    0.819100559    0.159550220    0.201101497
    0.485767186    0.992883503    0.361982703
    0.652433872    0.826216817    0.040220320
    0.319100529    0.659550130    0.201101482
    0.985767186    0.492883444    0.361982703
    0.652433872    0.326216936    0.040220320
    0.319100529    0.159550235    0.201101497
    0.985767186    0.992883503    0.361982703
    0.235767260    0.742883623    0.000000003
    0.902433872    0.576216936    0.160881206
    0.569100380    0.409550130    0.321762413
    0.235767290    0.242883623    0.000000011
    0.902433872    0.076216899    0.160881206
    0.569100440    0.909550190    0.321762413
    0.735767245    0.742883563    0.000000011
    0.402433842    0.576216877    0.160881206
    0.069100402    0.409550101    0.321762413
    0.735767245    0.242883608    0.000000011
    0.402433842    0.076216891    0.160881191
    0.069100417    0.909550190    0.321762413
    0.402433932    0.576216936    0.040220264
    0.069100514    0.409550160    0.201101482
    0.735767186    0.242883489    0.361982673
    0.402433932    0.076216973    0.040220264
    0.069100514    0.909550250    0.201101482
    0.735767186    0.742883563    0.361982673
    0.902433991    0.576216877    0.040220268
    0.569100618    0.409550190    0.201101467
    0.235767245    0.242883459    0.361982673
    0.902433991    0.076216973    0.040220272
    0.569100618    0.909550250    0.201101482
    0.235767245    0.742883563    0.361982673
    0.235767275    0.492883593    0.000000011
    0.902433872    0.326216847    0.160881191
    0.569100440    0.159550115    0.321762413
    0.235767290    0.992883682    0.000000019
    0.902433872    0.826216936    0.160881206
    0.569100440    0.659550190    0.321762413
    0.735767245    0.492883593    0.000000011
    0.402433842    0.326216877    0.160881191
    0.069100402    0.159550115    0.321762413
    0.735767245    0.992883682    0.000000027
    0.402433842    0.826216936    0.160881206
    0.069100417    0.659550190    0.321762413
    0.402433932    0.826216936    0.040220283
    0.069100499    0.659550130    0.201101467
    0.735767186    0.492883474    0.361982673
    0.402433932    0.326216996    0.040220283
    0.069100529    0.159550250    0.201101482
    0.735767186    0.992883563    0.361982673
    0.902433991    0.826216877    0.040220257
    0.569100559    0.659550130    0.201101437
    0.235767245    0.492883474    0.361982614
    0.902433991    0.326216966    0.040220287
    0.569100618    0.159550250    0.201101482
    0.235767245    0.992883563    0.361982673
    0.985767305    0.742883623    0.000000007
    0.652433932    0.576216877    0.160881236
    0.319100499    0.409550160    0.321762383
    0.985767305    0.242883623    0.000000008
    0.652433872    0.076216884    0.160881206
    0.319100499    0.909550190    0.321762413
    0.485767245    0.742883623    0.000000000
    0.152433842    0.576216936    0.160881206
    0.819100440    0.409550101    0.321762413
    0.485767245    0.242883623    0.000000016
    0.152433842    0.076216899    0.160881206
    0.819100440    0.909550190    0.321762413
    0.152433977    0.576216936    0.040220316
    0.819100618    0.409550220    0.201101482
    0.485767245    0.242883548    0.361982703
    0.152433977    0.076216981    0.040220316
    0.819100618    0.909550309    0.201101497
    0.485767245    0.742883563    0.361982703
    0.652433991    0.576216936    0.040220324
    0.319100618    0.409550220    0.201101497
    0.985767245    0.242883518    0.361982703
    0.652433991    0.076216988    0.040220313
    0.319100618    0.909550309    0.201101497
    0.985767245    0.742883563    0.361982703
    0.069182388    0.326874584    0.473403841
    0.069182388    0.660207987    0.657926142
    0.069182388    0.993541360    0.842448473
    0.402515769    0.993541300    0.473403811
    0.402515799    0.326874733    0.657926142
    0.402515799    0.660208106    0.842448354
    0.735849142    0.660207987    0.473403841
    0.735849142    0.993541360    0.657926142
    0.735849142    0.326874733    0.842448354
    0.069182388    0.660207987    0.519534409
    0.069182388    0.993541300    0.704056740
    0.069182388    0.326874614    0.888579011
    0.402515799    0.326874614    0.519534409
    0.402515799    0.660207987    0.704056740
    0.402515799    0.993541479    0.888579011
    0.735849142    0.993541360    0.519534409
    0.735849142    0.326874733    0.704056740
    0.735849142    0.660207987    0.888579011
    0.235849082    0.660207987    0.473403841
    0.235849082    0.993541360    0.657926142
    0.235849082    0.326874733    0.842448473
    0.569182396    0.326874584    0.473403841
    0.569182396    0.660207987    0.657926142
    0.569182396    0.993541420    0.842448473
    0.902515829    0.993541300    0.473403811
    0.902515829    0.326874733    0.657926083
    0.902515829    0.660208106    0.842448473
    0.235849082    0.993541360    0.519534349
    0.235849082    0.326874733    0.704056680
    0.235849112    0.660208225    0.888579011
    0.569182456    0.660207987    0.519534349
    0.569182456    0.993541360    0.704056740
    0.569182456    0.326874733    0.888579011
    0.902515829    0.326874614    0.519534349
    0.902515829    0.660207987    0.704056680
    0.902515829    0.993541360    0.888579011
    0.069182388    0.826874614    0.473403841
    0.069182388    0.160207987    0.657926083
    0.069182388    0.493541360    0.842448473
    0.402515769    0.493541241    0.473403841
    0.402515769    0.826874673    0.657926142
    0.402515769    0.160207987    0.842448473
    0.735849142    0.160207987    0.473403811
    0.735849142    0.493541360    0.657926083
    0.735849202    0.826874852    0.842448473
    0.069182388    0.160207987    0.519534349
    0.069182388    0.493541360    0.704056680
    0.069182388    0.826874852    0.888579011
    0.402515769    0.826874614    0.519534349
    0.402515769    0.160207987    0.704056680
    0.402515799    0.493541479    0.888579011
    0.735849142    0.493541211    0.519534349
    0.735849142    0.826874614    0.704056740
    0.735849142    0.160207987    0.888579011
    0.235849082    0.160207987    0.473403841
    0.235849082    0.493541241    0.657926083
    0.235849082    0.826874733    0.842448354
    0.569182396    0.826874614    0.473403811
    0.569182396    0.160207987    0.657926142
    0.569182456    0.493541360    0.842448354
    0.902515769    0.493541270    0.473403841
    0.902515769    0.826874673    0.657926142
    0.902515769    0.160208106    0.842448354
    0.235849082    0.493541181    0.519534409
    0.235849082    0.826874554    0.704056740
    0.235849082    0.160207987    0.888579011
    0.569182396    0.160207987    0.519534409
    0.569182396    0.493541360    0.704056740
    0.569182396    0.826874614    0.888579011
    0.902515829    0.826874614    0.519534409
    0.902515829    0.160207987    0.704056740
    0.902515829    0.493541360    0.888579011
