Si+C
    1.000000000
   16.293001175    0.000000000    0.000000000
  -10.862000465   12.144085884    0.000000000
    0.000000000    0.000000000    5.029923439
Si  C  
36     84
Direct
    0.974358499    0.982905626    0.000000003
    0.674358428    0.782905579    0.241436884
    0.374358416    0.582905531    0.482873768
    0.307691783    0.982905626    0.000000003
    0.007691726    0.782905579    0.241436884
    0.707691669    0.582905531    0.482873768
    0.641025066    0.982905626    0.000000003
    0.341025025    0.782905579    0.241436884
    0.041024987    0.582905531    0.482873768
    0.157691970    0.632905602    0.120718203
    0.857691944    0.432905525    0.362155110
    0.557691932    0.232905507    0.603591919
    0.491025209    0.632905602    0.120718203
    0.191025153    0.432905525    0.362155110
    0.891025186    0.232905507    0.603591919
    0.824358463    0.632905602    0.120718203
    0.524358392    0.432905525    0.362155110
    0.224358499    0.232905507    0.603591919
    0.141025156    0.482905596    0.000000000
    0.841025114    0.282905489    0.241436884
    0.541025102    0.082905434    0.482873768
    0.474358439    0.482905596    0.000000000
    0.174358383    0.282905489    0.241436884
    0.874358356    0.082905434    0.482873768
    0.807691693    0.482905596    0.000000000
    0.507691681    0.282905489    0.241436884
    0.207691625    0.082905434    0.482873768
    0.991025209    0.132905662    0.120718211
    0.691025138    0.932905614    0.362155110
    0.391025186    0.732905567    0.603591919
    0.324358463    0.132905662    0.120718211
    0.024358414    0.932905614    0.362155110
    0.724358439    0.732905567    0.603591919
    0.657691658    0.132905662    0.120718211
    0.357691616    0.932905614    0.362155110
    0.057691652    0.732905567    0.603591919
    0.024814771    0.997080624    0.603591919
    0.267672002    0.968509138    0.762155175
    0.510529220    0.939937651    0.920718551
    0.310529053    0.139937758    0.603591919
    0.553386271    0.111366265    0.762155175
    0.796243489    0.082794800    0.920718551
    0.596243262    0.282794863    0.603591919
    0.839100540    0.254223377    0.762155175
    0.081957817    0.225651920    0.920718551
    0.881957650    0.425652057    0.603591919
    0.124814868    0.397080570    0.762155175
    0.367672205    0.368509114    0.920718551
    0.167671904    0.568509161    0.603591919
    0.410529137    0.539937735    0.762155175
    0.653386354    0.511366248    0.920718551
    0.453386217    0.711366355    0.603591919
    0.696243465    0.682794869    0.762155175
    0.939100683    0.654223382    0.920718551
    0.739100456    0.854223490    0.603591919
    0.981957674    0.825651944    0.762155175
    0.224814892    0.797080517    0.920718551
    0.860528946    0.089937761    0.682873607
    0.103386283    0.061366286    0.841436744
    0.346243501    0.032794774    1.000000000
    0.146243155    0.232794896    0.682873487
    0.389100432    0.204223424    0.841436863
    0.631957650    0.175651908    1.000000119
    0.431957513    0.375652075    0.682873487
    0.674814761    0.347080588    0.841436863
    0.917672038    0.318509102    1.000000119
    0.717671871    0.518509209    0.682873487
    0.960529149    0.489937693    0.841436863
    0.203386426    0.461366296    1.000000119
    0.003386021    0.661366343    0.682873487
    0.246243358    0.632794857    0.841436863
    0.489100456    0.604223371    1.000000119
    0.289100468    0.804223478    0.682873607
    0.531957746    0.775651932    0.841436863
    0.774814963    0.747080505    1.000000000
    0.574814618    0.947080553    0.682873607
    0.817671835    0.918509126    0.841436863
    0.060529113    0.889937639    1.000000000
    0.667672038    0.068509206    0.603591919
    0.910529137    0.039937701    0.762155175
    0.153386474    0.011366275    0.920718551
    0.953386366    0.211366355    0.603591919
    0.196243525    0.182794839    0.762155175
    0.439100623    0.154223353    0.920718551
    0.239100501    0.354223490    0.603591919
    0.481957734    0.325652003    0.762155175
    0.724814951    0.297080517    0.920718551
    0.524814725    0.497080624    0.603591919
    0.767672002    0.468509138    0.762155175
    0.010529280    0.439937681    0.920718551
    0.810529053    0.639937758    0.603591919
    0.053386331    0.611366332    0.762155175
    0.296243429    0.582794785    0.920718551
    0.096243337    0.782794952    0.603591919
    0.339100569    0.754223526    0.762155414
    0.581957877    0.725652039    0.920718551
    0.381957620    0.925652087    0.603591919
    0.624814808    0.897080660    0.762155414
    0.867672145    0.868509173    0.920718551
    0.217671931    0.018509198    0.682873487
    0.460529178    0.989937663    0.841436863
    0.703386486    0.961366236    1.000000119
    0.503386080    0.161366343    0.682873487
    0.746243358    0.132794842    0.841436863
    0.989100575    0.104223393    1.000000000
    0.789100349    0.304223448    0.682873487
    0.031957746    0.275652021    0.841436863
    0.274814963    0.247080564    1.000000000
    0.074814558    0.447080612    0.682873487
    0.317671895    0.418509156    0.841436744
    0.560529113    0.389937639    1.000000000
    0.360529006    0.589937687    0.682873487
    0.603386343    0.561366200    0.841436863
    0.846243560    0.532794774    1.000000119
    0.646243334    0.732794881    0.682873487
    0.889100611    0.704223394    0.841436863
    0.131957889    0.675652027    1.000000119
    0.931957483    0.875652015    0.682873487
    0.174814820    0.847080588    0.841436863
    0.417672038    0.818509102    1.000000119
