Sn+Ge
    1.000000000
   14.510292053    0.000000000    0.000000000
    0.000000000   19.467601776    0.000000000
    0.000000000    0.000000000   17.404436111
Sn  Ge 
36     144
Direct
    0.982905626    0.652421296    0.000000007
    0.782905579    0.485754609    0.083371289
    0.582905412    0.319087893    0.166742548
    0.982905626    0.319088012    0.000000007
    0.782905579    0.152421325    0.083371289
    0.582905412    0.985754609    0.166742548
    0.982905626    0.985754728    0.000000007
    0.782905579    0.819088042    0.083371289
    0.582905412    0.652421296    0.166742548
    0.632905602    0.902421415    0.041685570
    0.432905525    0.735754728    0.125056848
    0.232905433    0.569088042    0.208428085
    0.632905602    0.569087982    0.041685570
    0.432905525    0.402421296    0.125056848
    0.232905433    0.235754609    0.208428085
    0.632905602    0.235754758    0.041685570
    0.432905525    0.069088064    0.125056848
    0.232905433    0.902421355    0.208428085
    0.482905596    0.819087923    0.000000000
    0.282905459    0.652421236    0.083371274
    0.082905352    0.485754579    0.166742578
    0.482905596    0.485754669    0.000000000
    0.282905459    0.319087982    0.083371274
    0.082905352    0.152421281    0.166742578
    0.482905596    0.152421355    0.000000000
    0.282905459    0.985754669    0.083371274
    0.082905352    0.819087982    0.166742578
    0.132905647    0.735754669    0.041685563
    0.932905555    0.569087982    0.125056818
    0.732905507    0.402421296    0.208428085
    0.132905647    0.402421385    0.041685563
    0.932905555    0.235754713    0.125056818
    0.732905507    0.069088012    0.208428085
    0.132905647    0.069088012    0.041685563
    0.932905555    0.902421355    0.125056818
    0.732905507    0.735754609    0.208428085
    0.979378462    0.628865957    0.316882908
    0.729378343    0.628865898    0.431815356
    0.479378223    0.628865838    0.546747804
    0.229378223    0.628865778    0.661680281
    0.979378223    0.628865719    0.776612699
    0.729377985    0.628865659    0.891545236
    0.312711775    0.795532644    0.316882879
    0.062711671    0.795532584    0.431815356
    0.812711596    0.795532525    0.546747804
    0.562711537    0.795532465    0.661680222
    0.312711477    0.795532405    0.776612639
    0.062711358    0.795532346    0.891545236
    0.646045029    0.962199271    0.316882879
    0.396044970    0.962199211    0.431815356
    0.146044835    0.962199152    0.546747804
    0.896044850    0.962199152    0.661680222
    0.646044731    0.962199032    0.776612639
    0.396044672    0.962198973    0.891545236
    0.979378462    0.128865972    0.316882908
    0.729378343    0.128865957    0.431815326
    0.479378283    0.128865838    0.546747804
    0.229378283    0.128865838    0.661680222
    0.979378223    0.128865719    0.776612639
    0.729378104    0.128865719    0.891545236
    0.312711775    0.295532644    0.316882908
    0.062711693    0.295532584    0.431815326
    0.812711596    0.295532525    0.546747744
    0.562711537    0.295532465    0.661680222
    0.312711477    0.295532405    0.776612699
    0.062711358    0.295532346    0.891545236
    0.646045148    0.462199330    0.316882908
    0.396044999    0.462199271    0.431815356
    0.146044925    0.462199211    0.546747744
    0.896044850    0.462199092    0.661680222
    0.646044850    0.462199092    0.776612699
    0.396044731    0.462199032    0.891545236
    0.146045104    0.962199330    0.316882879
    0.896044970    0.962199271    0.431815326
    0.646044850    0.962199211    0.546747804
    0.396044791    0.962199152    0.661680281
    0.146044850    0.962199092    0.776612759
    0.896044731    0.962198973    0.891545177
    0.146045104    0.462199271    0.316882908
    0.896045029    0.462199271    0.431815356
    0.646044910    0.462199211    0.546747804
    0.396044910    0.462199092    0.661680281
    0.146044850    0.462199032    0.776612639
    0.896044731    0.462198973    0.891545177
    0.479378492    0.628865957    0.316882908
    0.229378358    0.628865898    0.431815356
    0.979378223    0.628865838    0.546747804
    0.729378223    0.628865778    0.661680281
    0.479378164    0.628865719    0.776612639
    0.229378045    0.628865659    0.891545177
    0.812711656    0.795532644    0.316882908
    0.562711656    0.795532584    0.431815356
    0.312711537    0.795532465    0.546747744
    0.062711500    0.795532465    0.661680281
    0.812711418    0.795532405    0.776612699
    0.562711358    0.795532286    0.891545177
    0.479378432    0.128865972    0.316882908
    0.229378358    0.128865957    0.431815356
    0.979378223    0.128865838    0.546747744
    0.729378223    0.128865838    0.661680281
    0.479378164    0.128865719    0.776612699
    0.229378045    0.128865719    0.891545236
    0.812711775    0.295532644    0.316882908
    0.562711716    0.295532584    0.431815356
    0.312711656    0.295532525    0.546747744
    0.062711604    0.295532465    0.661680281
    0.812711596    0.295532405    0.776612639
    0.562711477    0.295532376    0.891545236
    0.146045148    0.837199330    0.316882879
    0.896044970    0.837199271    0.431815356
    0.646044910    0.837199211    0.546747804
    0.396044850    0.837199152    0.661680281
    0.146044850    0.837199092    0.776612639
    0.896044731    0.837199032    0.891545177
    0.479378432    0.003866076    0.316882879
    0.229378387    0.003865957    0.431815356
    0.979378223    0.003865957    0.546747804
    0.729378223    0.003865838    0.661680281
    0.479378223    0.003865719    0.776612639
    0.229378104    0.003865719    0.891545177
    0.146045089    0.337199301    0.316882908
    0.896045029    0.337199241    0.431815326
    0.646044910    0.337199181    0.546747744
    0.396044850    0.337199122    0.661680281
    0.146044850    0.337199092    0.776612699
    0.896044731    0.337199032    0.891545177
    0.479378492    0.503865957    0.316882908
    0.229378372    0.503865898    0.431815356
    0.979378283    0.503865838    0.546747804
    0.729378223    0.503865778    0.661680281
    0.479378223    0.503865719    0.776612699
    0.229378045    0.503865659    0.891545177
    0.812711775    0.670532644    0.316882908
    0.562711775    0.670532584    0.431815356
    0.312711626    0.670532525    0.546747804
    0.062711582    0.670532465    0.661680281
    0.812711537    0.670532405    0.776612699
    0.562711477    0.670532346    0.891545177
    0.812711835    0.170532629    0.316882879
    0.562711716    0.170532554    0.431815356
    0.312711626    0.170532495    0.546747804
    0.062711574    0.170532465    0.661680281
    0.812711537    0.170532390    0.776612699
    0.562711477    0.170532316    0.891545236
    0.979378521    0.003866076    0.316882879
    0.729378343    0.003865957    0.431815326
    0.479378283    0.003865838    0.546747804
    0.229378223    0.003865838    0.661680281
    0.979378223    0.003865719    0.776612759
    0.729378104    0.003865719    0.891545177
    0.979378462    0.503865957    0.316882879
    0.729378343    0.503865898    0.431815356
    0.479378283    0.503865838    0.546747804
    0.229378223    0.503865778    0.661680222
    0.979378223    0.503865719    0.776612639
    0.729378104    0.503865659    0.891545177
    0.312711835    0.670532644    0.316882879
    0.062711686    0.670532584    0.431815356
    0.812711596    0.670532525    0.546747804
    0.562711537    0.670532465    0.661680281
    0.312711537    0.670532405    0.776612699
    0.062711418    0.670532346    0.891545236
    0.646045089    0.837199271    0.316882879
    0.396044999    0.837199211    0.431815356
    0.146044895    0.837199152    0.546747804
    0.896044850    0.837199092    0.661680222
    0.646044850    0.837199032    0.776612639
    0.396044731    0.837198973    0.891545177
    0.312711746    0.170532614    0.316882908
    0.062711686    0.170532569    0.431815326
    0.812711596    0.170532510    0.546747744
    0.562711537    0.170532450    0.661680281
    0.312711537    0.170532405    0.776612699
    0.062711418    0.170532346    0.891545177
    0.646045208    0.337199330    0.316882908
    0.396045059    0.337199271    0.431815326
    0.146044940    0.337199181    0.546747744
    0.896044910    0.337199152    0.661680281
    0.646044850    0.337199092    0.776612699
    0.396044731    0.337199032    0.891545177
