Si+Ge
    1.000000000
   16.293001175    0.000000000    0.000000000
    0.000000000   16.293001175    0.000000000
    0.000000000    0.000000000   10.122648239
Si  Ge 
108     48
Direct
    0.000000000    0.994067729    0.000000000
    0.000000000    0.827401042    0.268259853
    0.000000000    0.660734296    0.536519766
    0.333333343    0.994067729    0.000000000
    0.333333343    0.827401042    0.268259853
    0.333333343    0.660734296    0.536519766
    0.666666687    0.994067729    0.000000000
    0.666666687    0.827401042    0.268259853
    0.666666687    0.660734296    0.536519766
    0.000000000    0.327401042    0.000000000
    0.000000000    0.160734370    0.268259853
    0.000000000    0.994067669    0.536519766
    0.333333343    0.327401042    0.000000000
    0.333333343    0.160734370    0.268259853
    0.333333343    0.994067669    0.536519766
    0.666666687    0.327401042    0.000000000
    0.666666687    0.160734370    0.268259853
    0.666666687    0.994067669    0.536519766
    0.000000000    0.660734415    0.000000000
    0.000000000    0.494067699    0.268259853
    0.000000000    0.327401042    0.536519766
    0.333333343    0.660734415    0.000000000
    0.333333343    0.494067699    0.268259853
    0.333333343    0.327401042    0.536519766
    0.666666687    0.660734415    0.000000000
    0.666666687    0.494067699    0.268259853
    0.666666687    0.327401042    0.536519766
    0.083333336    0.077401049    0.134129941
    0.083333336    0.910734355    0.402389765
    0.083333336    0.744067669    0.670649707
    0.416666687    0.077401049    0.134129941
    0.416666687    0.910734355    0.402389765
    0.416666687    0.744067669    0.670649707
    0.750000000    0.077401049    0.134129941
    0.750000000    0.910734355    0.402389765
    0.750000000    0.744067669    0.670649707
    0.083333336    0.410734355    0.134129941
    0.083333336    0.244067669    0.402389765
    0.083333336    0.077400982    0.670649707
    0.416666687    0.410734355    0.134129941
    0.416666687    0.244067669    0.402389765
    0.416666687    0.077400982    0.670649707
    0.750000000    0.410734355    0.134129941
    0.750000000    0.244067669    0.402389765
    0.750000000    0.077400982    0.670649707
    0.083333336    0.744067729    0.134129941
    0.083333336    0.577401042    0.402389765
    0.083333336    0.410734355    0.670649707
    0.416666687    0.744067729    0.134129941
    0.416666687    0.577401042    0.402389765
    0.416666687    0.410734355    0.670649707
    0.750000000    0.744067729    0.134129941
    0.750000000    0.577401042    0.402389765
    0.750000000    0.410734355    0.670649707
    0.166666672    0.160734385    0.000000000
    0.166666672    0.994067669    0.268259853
    0.166666672    0.827400982    0.536519766
    0.500000000    0.160734385    0.000000000
    0.500000000    0.994067669    0.268259853
    0.500000000    0.827400982    0.536519766
    0.833333373    0.160734385    0.000000000
    0.833333373    0.994067669    0.268259853
    0.833333373    0.827400982    0.536519766
    0.166666672    0.494067699    0.000000000
    0.166666672    0.327401042    0.268259853
    0.166666672    0.160734311    0.536519766
    0.500000000    0.494067699    0.000000000
    0.500000000    0.327401042    0.268259853
    0.500000000    0.160734311    0.536519766
    0.833333373    0.494067699    0.000000000
    0.833333373    0.327401042    0.268259853
    0.833333373    0.160734311    0.536519766
    0.166666672    0.827401042    0.000000000
    0.166666672    0.660734355    0.268259853
    0.166666672    0.494067639    0.536519766
    0.500000000    0.827401042    0.000000000
    0.500000000    0.660734355    0.268259853
    0.500000000    0.494067639    0.536519766
    0.833333373    0.827401042    0.000000000
    0.833333373    0.660734355    0.268259853
    0.833333373    0.494067639    0.536519766
    0.250000000    0.244067714    0.134129941
    0.250000000    0.077401027    0.402389765
    0.250000000    0.910734355    0.670649707
    0.583333373    0.244067714    0.134129941
    0.583333373    0.077401027    0.402389765
    0.583333373    0.910734355    0.670649707
    0.916666687    0.244067714    0.134129941
    0.916666687    0.077401027    0.402389765
    0.916666687    0.910734355    0.670649707
    0.250000000    0.577401161    0.134129941
    0.250000000    0.410734445    0.402389765
    0.250000000    0.244067743    0.670649707
    0.583333373    0.577401161    0.134129941
    0.583333373    0.410734445    0.402389765
    0.583333373    0.244067743    0.670649707
    0.916666687    0.577401161    0.134129941
    0.916666687    0.410734445    0.402389765
    0.916666687    0.244067743    0.670649707
    0.250000000    0.910734355    0.134129941
    0.250000000    0.744067669    0.402389765
    0.250000000    0.577401042    0.670649707
    0.583333373    0.910734355    0.134129941
    0.583333373    0.744067669    0.402389765
    0.583333373    0.577401042    0.670649707
    0.916666687    0.910734355    0.134129941
    0.916666687    0.744067669    0.402389765
    0.916666687    0.577401042    0.670649707
    0.913237751    0.910024285    0.670649707
    0.538237751    0.521135390    0.736519814
    0.163237810    0.132246494    0.802389801
    0.788237810    0.743357420    0.868259966
    0.413237810    0.354468584    0.934130013
    0.038237691    0.965579510    1.000000000
    0.413237691    0.910024285    0.670649707
    0.038237717    0.521135330    0.736519814
    0.663237751    0.132246435    0.802389801
    0.288237691    0.743357420    0.868259966
    0.913237810    0.354468465    0.934130013
    0.538237810    0.965579748    1.000000238
    0.038237728    0.660024226    0.670649707
    0.663237751    0.271135300    0.736519814
    0.288237810    0.882246375    0.802389801
    0.913237810    0.493357420    0.868259966
    0.538237691    0.104468405    0.934130013
    0.163237691    0.715579629    1.000000000
    0.538237691    0.660024226    0.670649707
    0.163237706    0.271135300    0.736519814
    0.788237751    0.882246375    0.802389801
    0.413237691    0.493357480    0.868259966
    0.038237751    0.104468465    0.934130013
    0.663237691    0.715579629    1.000000238
    0.288237751    0.660024226    0.670649707
    0.913237751    0.271135300    0.736519814
    0.538237810    0.882246375    0.802389801
    0.163237810    0.493357420    0.868259966
    0.788237810    0.104468465    0.934130013
    0.413237810    0.715579510    1.000000000
    0.788237691    0.660024166    0.670649707
    0.413237721    0.271135300    0.736519814
    0.038237784    0.882246375    0.802389801
    0.663237751    0.493357420    0.868259966
    0.288237691    0.104468465    0.934130013
    0.913237810    0.715579629    1.000000238
    0.163237721    0.910024285    0.670649707
    0.788237691    0.521135330    0.736519814
    0.413237810    0.132246494    0.802389920
    0.038237751    0.743357420    0.868259966
    0.663237810    0.354468584    0.934130013
    0.288237691    0.965579510    1.000000000
    0.663237691    0.910024285    0.670649707
    0.288237751    0.521135330    0.736519814
    0.913237751    0.132246494    0.802389920
    0.538237810    0.743357420    0.868259966
    0.163237691    0.354468465    0.934130013
    0.788237810    0.965579748    1.000000000
