Si+Sn                                   
   1.00000000000000     
    13.3031797409999992    0.0000000000000000    0.0000000000000000
    -6.6515893940000002   14.8734064099999994    0.0000000000000000
     0.0000000000000000    0.0000000000000000    6.6635937690000002
   Si   Sn
    36    24
Direct
  0.9971509579999989  0.9800565840000033  0.0000000000000000
  0.9638175369999971  0.7467231749999996  0.1822453890000020
  0.9304841160000024  0.5133898260000009  0.3644907770000003
  0.3304842109999981  0.3133898680000016  0.0000000000000000
  0.2971507910000000  0.0800564740000027  0.1822453890000020
  0.2638173699999982  0.8467230799999967  0.3644907770000003
  0.6638174650000011  0.6467231510000033  0.0000000000000000
  0.6304840450000029  0.4133897130000008  0.1822453890000020
  0.5971506240000011  0.1800563339999997  0.3644907770000003
  0.3138175309999980  0.9467233419999985  0.0911225150000021
  0.2804841100000033  0.7133899929999998  0.2733679119999977
  0.2471506890000015  0.4800565840000033  0.4556132559999995
  0.6471508150000034  0.2800565659999990  0.0911225150000021
  0.6138173940000016  0.0467231940000019  0.2733679119999977
  0.5804839729999998  0.8133897780000012  0.4556132849999983
  0.9804844259999967  0.6133898499999972  0.0911225449999975
  0.9471510050000020  0.3800564710000032  0.2733679119999977
  0.9138175849999968  0.1467230920000020  0.4556132559999995
  0.1638175699999991  0.6467230920000020  0.0000000020000002
  0.1304841640000021  0.4133897130000008  0.1822453890000020
  0.0971507499999973  0.1800563190000020  0.3644907770000003
  0.4971508980000010  0.9800566429999975  0.0000000060000005
  0.4638174179999979  0.7467231749999996  0.1822453289999970
  0.4304840559999974  0.5133898260000009  0.3644907469999978
  0.8304841519999968  0.3133898680000016  0.0000000060000005
  0.7971507310000021  0.0800565259999999  0.1822453289999970
  0.7638173100000003  0.8467230799999967  0.3644907469999978
  0.1471509040000001  0.2800565659999990  0.0911225299999998
  0.1138174829999983  0.0467231650000031  0.2733679119999977
  0.0804840699999971  0.8133897780000012  0.4556132849999983
  0.4804842169999972  0.6133899089999986  0.0911225299999998
  0.4471508259999979  0.3800565299999974  0.2733679119999977
  0.4138174059999997  0.1467231660000010  0.4556132849999983
  0.8138175010000026  0.9467232820000007  0.0911225150000021
  0.7804841399999987  0.7133898740000006  0.2733679119999977
  0.7471507189999969  0.4800564649999970  0.4556132849999983
  0.9642375709999982  0.0306535329999988  0.4556133150000008
  0.6142375470000019  0.3306535780000033  0.6733680959999973
  0.2642372850000001  0.6306536199999968  0.8911229969999965
  0.4642374809999978  0.0306535329999988  0.4556133150000008
  0.1142373980000002  0.3306535780000033  0.6733680959999973
  0.7642372850000001  0.6306536199999968  0.8911229969999965
  0.4142374990000022  0.6806535119999992  0.5644904380000000
  0.0642373490000026  0.9806534650000032  0.7822452190000035
  0.7142373320000033  0.2806535960000005  0.0000002379999984
  0.9142375590000000  0.6806535119999992  0.5644904380000000
  0.5642374159999974  0.9806534650000032  0.7822452190000035
  0.2142373320000033  0.2806535960000005  0.0000002379999984
  0.9642375709999982  0.5306534770000013  0.4556133150000008
  0.6142374280000027  0.8306534889999995  0.6733680959999973
  0.2642372250000022  0.1306536199999968  0.8911229969999965
  0.4642374809999978  0.5306534770000013  0.4556133150000008
  0.1142374200000020  0.8306534889999995  0.6733680959999973
  0.7642372850000001  0.1306536199999968  0.8911229969999965
  0.4142374400000008  0.1806535119999992  0.5644904380000000
  0.0642373190000001  0.4806535840000024  0.7822452190000035
  0.7142373320000033  0.7806536559999984  0.0000002379999984
  0.9142375590000000  0.1806535119999992  0.5644904380000000
  0.5642373559999996  0.4806535840000024  0.7822452190000035
  0.2142373920000011  0.7806536559999984  0.0000002379999984
 
  0.00000000E+00  0.00000000E+00  0.00000000E+00
  0.00000000E+00  0.00000000E+00  0.00000000E+00
  0.00000000E+00  0.00000000E+00  0.00000000E+00
  0.00000000E+00  0.00000000E+00  0.00000000E+00
  0.00000000E+00  0.00000000E+00  0.00000000E+00
  0.00000000E+00  0.00000000E+00  0.00000000E+00
  0.00000000E+00  0.00000000E+00  0.00000000E+00
  0.00000000E+00  0.00000000E+00  0.00000000E+00
  0.00000000E+00  0.00000000E+00  0.00000000E+00
  0.00000000E+00  0.00000000E+00  0.00000000E+00
  0.00000000E+00  0.00000000E+00  0.00000000E+00
  0.00000000E+00  0.00000000E+00  0.00000000E+00
  0.00000000E+00  0.00000000E+00  0.00000000E+00
  0.00000000E+00  0.00000000E+00  0.00000000E+00
  0.00000000E+00  0.00000000E+00  0.00000000E+00
  0.00000000E+00  0.00000000E+00  0.00000000E+00
  0.00000000E+00  0.00000000E+00  0.00000000E+00
  0.00000000E+00  0.00000000E+00  0.00000000E+00
  0.00000000E+00  0.00000000E+00  0.00000000E+00
  0.00000000E+00  0.00000000E+00  0.00000000E+00
  0.00000000E+00  0.00000000E+00  0.00000000E+00
  0.00000000E+00  0.00000000E+00  0.00000000E+00
  0.00000000E+00  0.00000000E+00  0.00000000E+00
  0.00000000E+00  0.00000000E+00  0.00000000E+00
  0.00000000E+00  0.00000000E+00  0.00000000E+00
  0.00000000E+00  0.00000000E+00  0.00000000E+00
  0.00000000E+00  0.00000000E+00  0.00000000E+00
  0.00000000E+00  0.00000000E+00  0.00000000E+00
  0.00000000E+00  0.00000000E+00  0.00000000E+00
  0.00000000E+00  0.00000000E+00  0.00000000E+00
  0.00000000E+00  0.00000000E+00  0.00000000E+00
  0.00000000E+00  0.00000000E+00  0.00000000E+00
  0.00000000E+00  0.00000000E+00  0.00000000E+00
  0.00000000E+00  0.00000000E+00  0.00000000E+00
  0.00000000E+00  0.00000000E+00  0.00000000E+00
  0.00000000E+00  0.00000000E+00  0.00000000E+00
  0.00000000E+00  0.00000000E+00  0.00000000E+00
  0.00000000E+00  0.00000000E+00  0.00000000E+00
  0.00000000E+00  0.00000000E+00  0.00000000E+00
  0.00000000E+00  0.00000000E+00  0.00000000E+00
  0.00000000E+00  0.00000000E+00  0.00000000E+00
  0.00000000E+00  0.00000000E+00  0.00000000E+00
  0.00000000E+00  0.00000000E+00  0.00000000E+00
  0.00000000E+00  0.00000000E+00  0.00000000E+00
  0.00000000E+00  0.00000000E+00  0.00000000E+00
  0.00000000E+00  0.00000000E+00  0.00000000E+00
  0.00000000E+00  0.00000000E+00  0.00000000E+00
  0.00000000E+00  0.00000000E+00  0.00000000E+00
  0.00000000E+00  0.00000000E+00  0.00000000E+00
  0.00000000E+00  0.00000000E+00  0.00000000E+00
  0.00000000E+00  0.00000000E+00  0.00000000E+00
  0.00000000E+00  0.00000000E+00  0.00000000E+00
  0.00000000E+00  0.00000000E+00  0.00000000E+00
  0.00000000E+00  0.00000000E+00  0.00000000E+00
  0.00000000E+00  0.00000000E+00  0.00000000E+00
  0.00000000E+00  0.00000000E+00  0.00000000E+00
  0.00000000E+00  0.00000000E+00  0.00000000E+00
  0.00000000E+00  0.00000000E+00  0.00000000E+00
  0.00000000E+00  0.00000000E+00  0.00000000E+00
  0.00000000E+00  0.00000000E+00  0.00000000E+00
