Ge+Sn
    1.000000000
   11.315600395    0.000000000    0.000000000
  -11.315600395   16.002676010    0.000000000
    0.000000000    0.000000000   21.473072052
Ge  Sn 
96     72
Direct
    0.469067723    0.989689231    0.000000020
    0.094067708    0.864689231    0.093155503
    0.719067633    0.739689231    0.186311007
    0.344067693    0.614689231    0.279466480
    0.969067812    0.489689291    0.372621953
    0.594067693    0.364689231    0.465777487
    0.969067693    0.989689231    0.000000020
    0.594067693    0.864689231    0.093155503
    0.219067633    0.739689231    0.186311007
    0.844067693    0.614689231    0.279466480
    0.469067812    0.489689291    0.372621953
    0.094067693    0.364689231    0.465777487
    0.469067693    0.489689231    0.000000010
    0.094067700    0.364689231    0.093155503
    0.719067574    0.239689216    0.186311007
    0.344067693    0.114689231    0.279466480
    0.969067812    0.989689231    0.372621953
    0.594067693    0.864689231    0.465777487
    0.969067693    0.489689231    0.000000010
    0.594067693    0.364689231    0.093155503
    0.219067574    0.239689216    0.186311007
    0.844067693    0.114689231    0.279466480
    0.469067693    0.989689231    0.372621953
    0.094067574    0.864689231    0.465777487
    0.719067693    0.239689231    0.000000020
    0.344067663    0.114689231    0.093155503
    0.969067574    0.989689231    0.186311007
    0.594067693    0.864689231    0.279466480
    0.219067693    0.739689231    0.372621953
    0.844067574    0.614689231    0.465777487
    0.219067678    0.239689231    0.000000020
    0.844067693    0.114689231    0.093155503
    0.469067633    0.989689231    0.186311007
    0.094067693    0.864689231    0.279466480
    0.719067812    0.739689231    0.372621953
    0.344067693    0.614689231    0.465777487
    0.719067633    0.739689231    0.000000024
    0.344067663    0.614689231    0.093155526
    0.969067574    0.489689201    0.186311021
    0.594067633    0.364689231    0.279466510
    0.219067693    0.239689246    0.372621983
    0.844067693    0.114689231    0.465777487
    0.219067693    0.739689231    0.000000024
    0.844067693    0.614689231    0.093155526
    0.469067574    0.489689201    0.186311021
    0.094067693    0.364689231    0.279466510
    0.719067693    0.239689246    0.372621983
    0.344067574    0.114689231    0.465777487
    0.469067663    0.364689231    0.000000019
    0.094067693    0.239689231    0.093155511
    0.719067633    0.114689209    0.186311021
    0.344067693    0.989689231    0.279466510
    0.969067812    0.864689231    0.372621953
    0.594067693    0.739689231    0.465777487
    0.969067693    0.364689231    0.000000019
    0.594067693    0.239689231    0.093155511
    0.219067633    0.114689209    0.186311021
    0.844067693    0.989689231    0.279466510
    0.469067812    0.864689231    0.372621953
    0.094067693    0.739689231    0.465777487
    0.469067752    0.864689291    0.000000000
    0.094067737    0.739689291    0.093155503
    0.719067693    0.614689291    0.186310992
    0.344067693    0.489689291    0.279466480
    0.969067812    0.364689291    0.372621953
    0.594067693    0.239689291    0.465777457
    0.969067693    0.864689291    0.000000000
    0.594067574    0.739689291    0.093155503
    0.219067574    0.614689291    0.186310992
    0.844067574    0.489689291    0.279466480
    0.469067574    0.364689291    0.372621953
    0.094067693    0.239689291    0.465777457
    0.719067693    0.114689223    0.000000021
    0.344067663    0.989689231    0.093155503
    0.969067633    0.864689231    0.186311007
    0.594067693    0.739689231    0.279466510
    0.219067693    0.614689231    0.372621953
    0.844067693    0.489689231    0.465777487
    0.219067678    0.114689223    0.000000021
    0.844067693    0.989689231    0.093155503
    0.469067633    0.864689231    0.186311007
    0.094067693    0.739689231    0.279466510
    0.719067812    0.614689231    0.372621953
    0.344067693    0.489689231    0.465777487
    0.719067693    0.614689231    0.000000018
    0.344067693    0.489689231    0.093155511
    0.969067633    0.364689231    0.186311007
    0.594067693    0.239689231    0.279466510
    0.219067752    0.114689253    0.372621953
    0.844067574    0.989689231    0.465777487
    0.219067723    0.614689231    0.000000018
    0.844067693    0.489689231    0.093155511
    0.469067633    0.364689231    0.186311007
    0.094067693    0.239689231    0.279466510
    0.719067812    0.114689253    0.372621953
    0.344067693    0.989689231    0.465777487
    0.351312876    0.684646308    0.465777546
    0.601312876    0.934646249    0.572621942
    0.851313055    0.184646487    0.679466486
    0.101313353    0.434646606    0.786311030
    0.351313233    0.684646606    0.893155456
    0.601313353    0.934646726    0.999999881
    0.017979518    0.017979518    0.465777546
    0.267979562    0.267979592    0.572622061
    0.517979801    0.517979741    0.679466486
    0.767979980    0.767979860    0.786311030
    0.017979980    0.017979980    0.893155456
    0.267980099    0.267980099    0.999999881
    0.684646249    0.351312876    0.465777546
    0.934646368    0.601312935    0.572622061
    0.184646487    0.851313055    0.679466486
    0.434646726    0.101313233    0.786311030
    0.684646606    0.351313233    0.893155456
    0.934646964    0.601313472    0.999999881
    0.184646204    0.851312935    0.465777487
    0.434646159    0.101312995    0.572621942
    0.684646428    0.351313114    0.679466486
    0.934646666    0.601313233    0.786311030
    0.184646487    0.851313353    0.893155456
    0.434646726    0.101313591    0.999999881
    0.517979622    0.517979562    0.465777546
    0.767979503    0.767979622    0.572622061
    0.017979741    0.017979741    0.679466486
    0.267979980    0.267979980    0.786311030
    0.517979980    0.517979860    0.893155456
    0.767979860    0.767980099    0.999999881
    0.851312995    0.184646204    0.465777546
    0.101313114    0.434646279    0.572622061
    0.351313233    0.684646428    0.679466486
    0.601313353    0.934646606    0.786311030
    0.851313233    0.184646606    0.893155456
    0.101313591    0.434646845    0.999999881
    0.101312906    0.684646189    0.465777487
    0.351312965    0.934646189    0.572622061
    0.601312995    0.184646368    0.679466486
    0.851313174    0.434646487    0.786311030
    0.101313233    0.684646487    0.893155456
    0.351313233    0.934646726    0.999999881
    0.434646249    0.351312876    0.465777546
    0.684646249    0.601312876    0.572622061
    0.934646428    0.851313055    0.679466486
    0.184646606    0.101313114    0.786311030
    0.434646487    0.351313233    0.893155456
    0.684646606    0.601313353    0.999999881
    0.767979562    0.017979519    0.465777546
    0.017979622    0.267979592    0.572622061
    0.267979741    0.517979681    0.679466486
    0.517979980    0.767979860    0.786311030
    0.767980099    0.017979980    0.893155456
    0.017980099    0.267979980    0.999999881
    0.267979532    0.517979622    0.465777546
    0.517979622    0.767979562    0.572622061
    0.767979681    0.017979741    0.679466486
    0.017979860    0.267979860    0.786311030
    0.267979860    0.517979860    0.893155456
    0.517979980    0.767980099    0.999999881
    0.934646189    0.851312876    0.465777546
    0.184646368    0.101312995    0.572622061
    0.434646487    0.351313114    0.679466486
    0.684646726    0.601313233    0.786311030
    0.934646606    0.851313233    0.893155456
    0.184647083    0.101313591    0.999999881
    0.601312935    0.184646234    0.465777546
    0.851312876    0.434646249    0.572622061
    0.101312995    0.684646428    0.679466486
    0.351313114    0.934646547    0.786311030
    0.601313114    0.184646606    0.893155456
    0.851313114    0.434646726    0.999999881
