Automatic KPOINTS generated
0
Gamma
4 4 1
0 0 0
