Sn
 1.0000000000000000
     9.1771146489514894    0.0000000000000000    0.0000000000000000
     4.5885573244757438    7.9476144194343012    0.0000000000000000
     0.0000000000000000    0.0000000000000000   61.5426128592455939
 Sn 
  48
Direct
  0.0000000000000000  0.0000000000000000  0.3249780773159908
  0.9999999999999996  0.0000000000000000  0.3706359701900802
  0.0000000000000002  0.4999999999999998  0.3249780773159908
  0.9999999999999998  0.4999999999999996  0.3706359701900802
  0.4999999999999996  0.0000000000000001  0.3249780773159908
  0.4999999999999996  0.0000000000000001  0.3706359701900801
  0.4999999999999998  0.4999999999999998  0.3249780773159908
  0.4999999999999997  0.4999999999999997  0.3706359701900801
  0.6666666666666664  0.6666666666666669  0.3858552678147766
  0.6666666666666659  0.6666666666666669  0.4315131606888660
  0.6666666666666665  0.1666666666666666  0.3858552678147766
  0.6666666666666660  0.1666666666666664  0.4315131606888660
  0.1666666666666660  0.6666666666666669  0.3858552678147766
  0.1666666666666660  0.6666666666666669  0.4315131606888660
  0.1666666666666661  0.1666666666666666  0.3858552678147766
  0.1666666666666660  0.1666666666666665  0.4315131606888660
  0.3333333333333328  0.3333333333333334  0.4467324583135625
  0.3333333333333321  0.3333333333333334  0.4923903511876519
  0.3333333333333328  0.8333333333333334  0.4467324583135625
  0.3333333333333321  0.8333333333333331  0.4923903511876518
  0.8333333333333325  0.3333333333333335  0.4467324583135625
  0.8333333333333320  0.3333333333333336  0.4923903511876518
  0.8333333333333326  0.8333333333333334  0.4467324583135625
  0.8333333333333320  0.8333333333333334  0.4923903511876518
  0.9999999999999990  0.0000000000000001  0.5076096488123483
  0.9999999999999987  0.0000000000000002  0.5532675416864377
  0.9999999999999990  0.4999999999999999  0.5076096488123483
  0.9999999999999987  0.4999999999999999  0.5532675416864377
  0.4999999999999986  0.0000000000000002  0.5076096488123483
  0.4999999999999986  0.0000000000000003  0.5532675416864377
  0.4999999999999986  0.4999999999999999  0.5076096488123483
  0.4999999999999986  0.4999999999999998  0.5532675416864377
  0.6666666666666656  0.6666666666666669  0.5684868393111341
  0.6666666666666651  0.6666666666666669  0.6141447321852235
  0.6666666666666656  0.1666666666666667  0.5684868393111341
  0.6666666666666652  0.1666666666666663  0.6141447321852235
  0.1666666666666651  0.6666666666666669  0.5684868393111341
  0.1666666666666652  0.6666666666666671  0.6141447321852234
  0.1666666666666652  0.1666666666666668  0.5684868393111341
  0.1666666666666651  0.1666666666666665  0.6141447321852235
  0.3333333333333317  0.3333333333333335  0.6293640298099199
  0.3333333333333312  0.3333333333333335  0.6750219226840093
  0.3333333333333316  0.8333333333333336  0.6293640298099199
  0.3333333333333312  0.8333333333333334  0.6750219226840093
  0.8333333333333308  0.3333333333333338  0.6293640298099199
  0.8333333333333308  0.3333333333333338  0.6750219226840093
  0.8333333333333308  0.8333333333333338  0.6293640298099199
  0.8333333333333306  0.8333333333333336  0.6750219226840093
