Si+Si
    1.000000000
   17.174331665    0.000000000    0.000000000
  -15.456897736    7.486117363    0.000000000
    0.000000283   -0.000000065   13.082564354
Si 
96
Direct
    0.812287629    0.187712371    0.476190239
    0.022813329    0.977186680    0.000000009
    0.180708200    0.819291830    0.095238052
    0.338603050    0.661396980    0.190476090
    0.496497929    0.503502071    0.285714120
    0.654392779    0.345607221    0.380952179
    0.101761341    0.898238540    0.499999762
    0.312287062    0.687712848    0.023809528
    0.470181912    0.529818058    0.119047575
    0.628076792    0.371923149    0.214285642
    0.785971642    0.214028284    0.309523642
    0.943866551    0.056133341    0.404761791
    0.312287569    0.687712312    0.476190299
    0.522813320    0.477186650    0.000000000
    0.680708170    0.319291800    0.095238045
    0.838603020    0.161396950    0.190476090
    0.996497869    0.003502096    0.285714120
    0.154392719    0.845607281    0.380952209
    0.601761341    0.398238599    0.500000000
    0.812287033    0.187712893    0.023809696
    0.970181942    0.029818015    0.119047761
    0.128076792    0.871923208    0.214285791
    0.285971642    0.714028358    0.309523851
    0.443866491    0.556133389    0.404761970
    0.312287450    0.187712491    0.476190180
    0.522813261    0.977186680    0.000000000
    0.680708170    0.819291830    0.095238067
    0.838603020    0.661396980    0.190476090
    0.996497869    0.503502131    0.285714120
    0.154392719    0.345607221    0.380952209
    0.601761580    0.898238540    0.499999911
    0.812287271    0.687712848    0.023809688
    0.970182180    0.529817998    0.119047739
    0.128077030    0.371923149    0.214285746
    0.285971880    0.214028284    0.309523791
    0.443866730    0.056133352    0.404761851
    0.812287629    0.687712371    0.476190239
    0.022813385    0.477186650    0.000000003
    0.180708244    0.319291800    0.095238045
    0.338603139    0.161396891    0.190476105
    0.496497929    0.003502091    0.285714120
    0.654392838    0.845607221    0.380952209
    0.101761341    0.398238599    0.499999911
    0.312287092    0.187712878    0.023809705
    0.470181942    0.029818008    0.119047761
    0.628076792    0.871923149    0.214285791
    0.785971701    0.714028299    0.309523821
    0.943866611    0.556133389    0.404761851
    0.812287211    0.187712491    0.976190090
    0.022813320    0.977186680    0.500000000
    0.180708140    0.819291830    0.595238090
    0.338602901    0.661396980    0.690476060
    0.496497661    0.503502131    0.785714090
    0.654392481    0.345607281    0.880952120
    0.101760983    0.898238599    0.999999642
    0.312287033    0.687712908    0.523809493
    0.470181823    0.529818058    0.619047523
    0.628076613    0.371923178    0.714285553
    0.785971403    0.214028314    0.809523702
    0.943866193    0.056133442    0.904761672
    0.312287211    0.687712431    0.976190090
    0.522813261    0.477186650    0.500000000
    0.680708051    0.319291770    0.595238090
    0.838602841    0.161396950    0.690476060
    0.996497631    0.003502135    0.785714090
    0.154392481    0.845607281    0.880952120
    0.601761103    0.398238540    1.000000000
    0.812287033    0.187712893    0.523809731
    0.970181763    0.029818030    0.619047761
    0.128076553    0.871923208    0.714285791
    0.285971403    0.714028358    0.809523880
    0.443866253    0.556133389    0.904761910
    0.812287331    0.687712431    0.976190090
    0.022813374    0.477186650    0.500000000
    0.180708155    0.319291800    0.595238090
    0.338602960    0.161396936    0.690476060
    0.496497720    0.003502135    0.785714090
    0.654392540    0.845607281    0.880952120
    0.101760983    0.398238659    0.999999881
    0.312287062    0.187712878    0.523809731
    0.470181853    0.029818030    0.619047761
    0.628076673    0.871923208    0.714285791
    0.785971463    0.714028358    0.809523880
    0.943866313    0.556133389    0.904761910
    0.312287211    0.187712431    0.976190090
    0.522813261    0.977186680    0.500000000
    0.680708051    0.819291830    0.595238090
    0.838602841    0.661396980    0.690476060
    0.996497631    0.503502131    0.785714090
    0.154392362    0.345607340    0.880952120
    0.601761103    0.898238659    0.999999881
    0.812287271    0.687712908    0.523809731
    0.970182002    0.529818058    0.619047761
    0.128076792    0.371923149    0.714285791
    0.285971642    0.214028314    0.809523880
    0.443866372    0.056133490    0.904761910
