fcc Si+fcc Ge
    1.000000000
   17.329281578    0.000000000    0.000000000
    0.000000000   17.329281578    0.000000000
    0.000000000    0.000000000   24.575000000
Si    Ge   
220     108
Direct
    0.975000000    0.825000000    0.055747711
    0.925000000    0.475000000    0.167243133
    0.875000000    0.125000000    0.278738555
    0.825000000    0.775000000    0.390233978
    0.775000000    0.425000000    0.501729400
    0.075000000    0.525000000    0.055747711
    0.025000000    0.175000000    0.167243133
    0.975000000    0.825000000    0.278738555
    0.925000000    0.475000000    0.390233978
    0.875000000    0.125000000    0.501729400
    0.175000000    0.225000000    0.055747711
    0.125000000    0.875000000    0.167243133
    0.075000000    0.525000000    0.278738555
    0.025000000    0.175000000    0.390233978
    0.975000000    0.825000000    0.501729400
    0.275000000    0.925000000    0.055747711
    0.225000000    0.575000000    0.167243133
    0.175000000    0.225000000    0.278738555
    0.125000000    0.875000000    0.390233978
    0.075000000    0.525000000    0.501729400
    0.375000000    0.625000000    0.055747711
    0.325000000    0.275000000    0.167243133
    0.275000000    0.925000000    0.278738555
    0.225000000    0.575000000    0.390233978
    0.175000000    0.225000000    0.501729400
    0.475000000    0.325000000    0.055747711
    0.425000000    0.975000000    0.167243133
    0.375000000    0.625000000    0.278738555
    0.325000000    0.275000000    0.390233978
    0.275000000    0.925000000    0.501729400
    0.575000000    0.025000000    0.055747711
    0.525000000    0.675000000    0.167243133
    0.475000000    0.325000000    0.278738555
    0.425000000    0.975000000    0.390233978
    0.375000000    0.625000000    0.501729400
    0.675000000    0.725000000    0.055747711
    0.625000000    0.375000000    0.167243133
    0.575000000    0.025000000    0.278738555
    0.525000000    0.675000000    0.390233978
    0.475000000    0.325000000    0.501729400
    0.775000000    0.425000000    0.055747711
    0.725000000    0.075000000    0.167243133
    0.675000000    0.725000000    0.278738555
    0.625000000    0.375000000    0.390233978
    0.575000000    0.025000000    0.501729400
    0.875000000    0.125000000    0.055747711
    0.825000000    0.775000000    0.167243133
    0.775000000    0.425000000    0.278738555
    0.725000000    0.075000000    0.390233978
    0.675000000    0.725000000    0.501729400
    0.975000000    0.325000000    0.055747711
    0.925000000    0.975000000    0.167243133
    0.875000000    0.625000000    0.278738555
    0.825000000    0.275000000    0.390233978
    0.775000000    0.925000000    0.501729400
    0.075000000    0.025000000    0.055747711
    0.025000000    0.675000000    0.167243133
    0.975000000    0.325000000    0.278738555
    0.925000000    0.975000000    0.390233978
    0.875000000    0.625000000    0.501729400
    0.175000000    0.725000000    0.055747711
    0.125000000    0.375000000    0.167243133
    0.075000000    0.025000000    0.278738555
    0.025000000    0.675000000    0.390233978
    0.975000000    0.325000000    0.501729400
    0.275000000    0.425000000    0.055747711
    0.225000000    0.075000000    0.167243133
    0.175000000    0.725000000    0.278738555
    0.125000000    0.375000000    0.390233978
    0.075000000    0.025000000    0.501729400
    0.375000000    0.125000000    0.055747711
    0.325000000    0.775000000    0.167243133
    0.275000000    0.425000000    0.278738555
    0.225000000    0.075000000    0.390233978
    0.175000000    0.725000000    0.501729400
    0.475000000    0.825000000    0.055747711
    0.425000000    0.475000000    0.167243133
    0.375000000    0.125000000    0.278738555
    0.325000000    0.775000000    0.390233978
    0.275000000    0.425000000    0.501729400
    0.575000000    0.525000000    0.055747711
    0.525000000    0.175000000    0.167243133
    0.475000000    0.825000000    0.278738555
    0.425000000    0.475000000    0.390233978
    0.375000000    0.125000000    0.501729400
    0.675000000    0.225000000    0.055747711
    0.625000000    0.875000000    0.167243133
    0.575000000    0.525000000    0.278738555
    0.525000000    0.175000000    0.390233978
    0.475000000    0.825000000    0.501729400
    0.775000000    0.925000000    0.055747711
    0.725000000    0.575000000    0.167243133
    0.675000000    0.225000000    0.278738555
    0.625000000    0.875000000    0.390233978
    0.575000000    0.525000000    0.501729400
    0.875000000    0.625000000    0.055747711
    0.825000000    0.275000000    0.167243133
    0.775000000    0.925000000    0.278738555
    0.725000000    0.575000000    0.390233978
    0.675000000    0.225000000    0.501729400
    0.025000000    0.425000000    0.000000000
    0.975000000    0.075000000    0.111495422
    0.925000000    0.725000000    0.222990844
    0.875000000    0.375000000    0.334486267
    0.825000000    0.025000000    0.445981689
    0.775000000    0.675000000    0.557477111
    0.125000000    0.125000000    0.000000000
    0.075000000    0.775000000    0.111495422
    0.025000000    0.425000000    0.222990844
    0.975000000    0.075000000    0.334486267
    0.925000000    0.725000000    0.445981689
    0.875000000    0.375000000    0.557477111
    0.225000000    0.825000000    0.000000000
    0.175000000    0.475000000    0.111495422
    0.125000000    0.125000000    0.222990844
    0.075000000    0.775000000    0.334486267
    0.025000000    0.425000000    0.445981689
    0.975000000    0.075000000    0.557477111
    0.325000000    0.525000000    0.000000000
    0.275000000    0.175000000    0.111495422
    0.225000000    0.825000000    0.222990844
    0.175000000    0.475000000    0.334486267
    0.125000000    0.125000000    0.445981689
    0.075000000    0.775000000    0.557477111
    0.425000000    0.225000000    0.000000000
    0.375000000    0.875000000    0.111495422
    0.325000000    0.525000000    0.222990844
    0.275000000    0.175000000    0.334486267
    0.225000000    0.825000000    0.445981689
    0.175000000    0.475000000    0.557477111
    0.525000000    0.925000000    0.000000000
    0.475000000    0.575000000    0.111495422
    0.425000000    0.225000000    0.222990844
    0.375000000    0.875000000    0.334486267
    0.325000000    0.525000000    0.445981689
    0.275000000    0.175000000    0.557477111
    0.625000000    0.625000000    0.000000000
    0.575000000    0.275000000    0.111495422
    0.525000000    0.925000000    0.222990844
    0.475000000    0.575000000    0.334486267
    0.425000000    0.225000000    0.445981689
    0.375000000    0.875000000    0.557477111
    0.725000000    0.325000000    0.000000000
    0.675000000    0.975000000    0.111495422
    0.625000000    0.625000000    0.222990844
    0.575000000    0.275000000    0.334486267
    0.525000000    0.925000000    0.445981689
    0.475000000    0.575000000    0.557477111
    0.825000000    0.025000000    0.000000000
    0.775000000    0.675000000    0.111495422
    0.725000000    0.325000000    0.222990844
    0.675000000    0.975000000    0.334486267
    0.625000000    0.625000000    0.445981689
    0.575000000    0.275000000    0.557477111
    0.925000000    0.725000000    0.000000000
    0.875000000    0.375000000    0.111495422
    0.825000000    0.025000000    0.222990844
    0.775000000    0.675000000    0.334486267
    0.725000000    0.325000000    0.445981689
    0.675000000    0.975000000    0.557477111
    0.025000000    0.925000000    0.000000000
    0.975000000    0.575000000    0.111495422
    0.925000000    0.225000000    0.222990844
    0.875000000    0.875000000    0.334486267
    0.825000000    0.525000000    0.445981689
    0.775000000    0.175000000    0.557477111
    0.125000000    0.625000000    0.000000000
    0.075000000    0.275000000    0.111495422
    0.025000000    0.925000000    0.222990844
    0.975000000    0.575000000    0.334486267
    0.925000000    0.225000000    0.445981689
    0.875000000    0.875000000    0.557477111
    0.225000000    0.325000000    0.000000000
    0.175000000    0.975000000    0.111495422
    0.125000000    0.625000000    0.222990844
    0.075000000    0.275000000    0.334486267
    0.025000000    0.925000000    0.445981689
    0.975000000    0.575000000    0.557477111
    0.325000000    0.025000000    0.000000000
    0.275000000    0.675000000    0.111495422
    0.225000000    0.325000000    0.222990844
    0.175000000    0.975000000    0.334486267
    0.125000000    0.625000000    0.445981689
    0.075000000    0.275000000    0.557477111
    0.425000000    0.725000000    0.000000000
    0.375000000    0.375000000    0.111495422
    0.325000000    0.025000000    0.222990844
    0.275000000    0.675000000    0.334486267
    0.225000000    0.325000000    0.445981689
    0.175000000    0.975000000    0.557477111
    0.525000000    0.425000000    0.000000000
    0.475000000    0.075000000    0.111495422
    0.425000000    0.725000000    0.222990844
    0.375000000    0.375000000    0.334486267
    0.325000000    0.025000000    0.445981689
    0.275000000    0.675000000    0.557477111
    0.625000000    0.125000000    0.000000000
    0.575000000    0.775000000    0.111495422
    0.525000000    0.425000000    0.222990844
    0.475000000    0.075000000    0.334486267
    0.425000000    0.725000000    0.445981689
    0.375000000    0.375000000    0.557477111
    0.725000000    0.825000000    0.000000000
    0.675000000    0.475000000    0.111495422
    0.625000000    0.125000000    0.222990844
    0.575000000    0.775000000    0.334486267
    0.525000000    0.425000000    0.445981689
    0.475000000    0.075000000    0.557477111
    0.825000000    0.525000000    0.000000000
    0.775000000    0.175000000    0.111495422
    0.725000000    0.825000000    0.222990844
    0.675000000    0.475000000    0.334486267
    0.625000000    0.125000000    0.445981689
    0.575000000    0.775000000    0.557477111
    0.925000000    0.225000000    0.000000000
    0.875000000    0.875000000    0.111495422
    0.825000000    0.525000000    0.222990844
    0.775000000    0.175000000    0.334486267
    0.725000000    0.825000000    0.445981689
    0.675000000    0.475000000    0.557477111
    0.282945736    0.174418605    0.634791455
    0.116279070    0.174418605    0.749949135
    0.949612403    0.174418605    0.865106816
    0.282945736    0.507751938    0.634791455
    0.116279070    0.507751938    0.749949135
    0.949612403    0.507751938    0.865106816
    0.282945736    0.841085271    0.634791455
    0.116279070    0.841085271    0.749949135
    0.949612403    0.841085271    0.865106816
    0.949612403    0.174418605    0.634791455
    0.782945736    0.174418605    0.749949135
    0.616279070    0.174418605    0.865106816
    0.949612403    0.507751938    0.634791455
    0.782945736    0.507751938    0.749949135
    0.616279070    0.507751938    0.865106816
    0.949612403    0.841085271    0.634791455
    0.782945736    0.841085271    0.749949135
    0.616279070    0.841085271    0.865106816
    0.616279070    0.174418605    0.634791455
    0.449612403    0.174418605    0.749949135
    0.282945736    0.174418605    0.865106816
    0.616279070    0.507751938    0.634791455
    0.449612403    0.507751938    0.749949135
    0.282945736    0.507751938    0.865106816
    0.616279070    0.841085271    0.634791455
    0.449612403    0.841085271    0.749949135
    0.282945736    0.841085271    0.865106816
    0.449612403    0.341085271    0.634791455
    0.282945736    0.341085271    0.749949135
    0.116279070    0.341085271    0.865106816
    0.449612403    0.674418605    0.634791455
    0.282945736    0.674418605    0.749949135
    0.116279070    0.674418605    0.865106816
    0.449612403    0.007751938    0.634791455
    0.282945736    0.007751938    0.749949135
    0.116279070    0.007751938    0.865106816
    0.116279070    0.341085271    0.634791455
    0.949612403    0.341085271    0.749949135
    0.782945736    0.341085271    0.865106816
    0.116279070    0.674418605    0.634791455
    0.949612403    0.674418605    0.749949135
    0.782945736    0.674418605    0.865106816
    0.116279070    0.007751938    0.634791455
    0.949612403    0.007751938    0.749949135
    0.782945736    0.007751938    0.865106816
    0.782945736    0.341085271    0.634791455
    0.616279070    0.341085271    0.749949135
    0.449612403    0.341085271    0.865106816
    0.782945736    0.674418605    0.634791455
    0.616279070    0.674418605    0.749949135
    0.449612403    0.674418605    0.865106816
    0.782945736    0.007751938    0.634791455
    0.616279070    0.007751938    0.749949135
    0.449612403    0.007751938    0.865106816
    0.532945736    0.257751938    0.692370295
    0.366279070    0.257751938    0.807527976
    0.199612403    0.257751938    0.922685656
    0.532945736    0.591085271    0.692370295
    0.366279070    0.591085271    0.807527976
    0.199612403    0.591085271    0.922685656
    0.532945736    0.924418605    0.692370295
    0.366279070    0.924418605    0.807527976
    0.199612403    0.924418605    0.922685656
    0.199612403    0.257751938    0.692370295
    0.032945736    0.257751938    0.807527976
    0.866279070    0.257751938    0.922685656
    0.199612403    0.591085271    0.692370295
    0.032945736    0.591085271    0.807527976
    0.866279070    0.591085271    0.922685656
    0.199612403    0.924418605    0.692370295
    0.032945736    0.924418605    0.807527976
    0.866279070    0.924418605    0.922685656
    0.866279070    0.257751938    0.692370295
    0.699612403    0.257751938    0.807527976
    0.532945736    0.257751938    0.922685656
    0.866279070    0.591085271    0.692370295
    0.699612403    0.591085271    0.807527976
    0.532945736    0.591085271    0.922685656
    0.866279070    0.924418605    0.692370295
    0.699612403    0.924418605    0.807527976
    0.532945736    0.924418605    0.922685656
    0.366279070    0.424418605    0.692370295
    0.199612403    0.424418605    0.807527976
    0.032945736    0.424418605    0.922685656
    0.366279070    0.757751938    0.692370295
    0.199612403    0.757751938    0.807527976
    0.032945736    0.757751938    0.922685656
    0.366279070    0.091085271    0.692370295
    0.199612403    0.091085271    0.807527976
    0.032945736    0.091085271    0.922685656
    0.032945736    0.424418605    0.692370295
    0.866279070    0.424418605    0.807527976
    0.699612403    0.424418605    0.922685656
    0.032945736    0.757751938    0.692370295
    0.866279070    0.757751938    0.807527976
    0.699612403    0.757751938    0.922685656
    0.032945736    0.091085271    0.692370295
    0.866279070    0.091085271    0.807527976
    0.699612403    0.091085271    0.922685656
    0.699612403    0.424418605    0.692370295
    0.532945736    0.424418605    0.807527976
    0.366279070    0.424418605    0.922685656
    0.699612403    0.757751938    0.692370295
    0.532945736    0.757751938    0.807527976
    0.366279070    0.757751938    0.922685656
    0.699612403    0.091085271    0.692370295
    0.532945736    0.091085271    0.807527976
    0.366279070    0.091085271    0.922685656
