Sn+Sn                                   
   1.00000000000000     
     6.4892001150000000    0.0000000000000000    0.0000000000000000
    -6.4892001150000000   12.9784002300000001    0.0000000000000000
     0.0000000000000000    0.0000000000000000   16.2229995729999992
   Sn
    48
Direct
  0.0148947109999966  0.0000000000000000  0.0000000000000000
  0.5148946640000034  0.0000000000000000  0.2000000029999995
  0.0148944849999992  0.0000000000000000  0.3999999170000024
  0.5148946640000034  0.4999999699999975  0.0000000000000000
  0.0148946050000021  0.4999999699999975  0.2000000029999995
  0.5148944849999992  0.4999999699999975  0.3999999170000024
  0.8898946050000021  0.1249999930000030  0.0999999940000009
  0.3898944849999992  0.1249999930000030  0.2999999820000028
  0.8898944849999992  0.1249999930000030  0.5000000000000000
  0.3898946340000009  0.6249999400000021  0.0999999940000009
  0.8898944849999992  0.6249999400000021  0.2999999820000028
  0.3898946050000021  0.6249999400000021  0.5000000000000000
  0.7648946050000021  0.2499999850000023  0.0000000000000000
  0.2648946050000021  0.2499999850000023  0.2000000029999995
  0.7648944849999992  0.2499999850000023  0.3999999170000024
  0.2648946640000034  0.7499999400000021  0.0000000000000000
  0.7648946640000034  0.7499999400000021  0.2000000029999995
  0.2648944849999992  0.7499999400000021  0.3999999170000024
  0.6398946640000034  0.3749999699999975  0.0999999940000009
  0.1398944849999992  0.3749999699999975  0.2999999820000028
  0.6398946050000021  0.3749999699999975  0.5000000000000000
  0.1398946050000021  0.8749999400000021  0.0999999940000009
  0.6398944849999992  0.8749999400000021  0.2999999820000028
  0.1398944849999992  0.8749999400000021  0.5000000000000000
  0.5148946640000034  0.4999999699999975  0.5000000000000000
  0.0148946050000021  0.4999999699999975  0.7000000479999997
  0.5148944849999992  0.4999999699999975  0.8999999759999966
  0.0148947109999966  0.0000000000000000  0.5000000000000000
  0.5148946640000034  0.0000000000000000  0.7000000479999997
  0.0148944849999992  0.0000000000000000  0.8999999759999966
  0.1398946050000021  0.8749999400000021  0.5999999639999984
  0.6398944849999992  0.8749999400000021  0.8000000119999982
  0.1398944849999992  0.8749999400000021  0.0000000000000000
  0.6398946640000034  0.3749999699999975  0.5999999639999984
  0.1398944849999992  0.3749999699999975  0.8000000119999982
  0.6398946050000021  0.3749999699999975  0.0000000000000000
  0.2648946640000034  0.7499999400000021  0.5000000000000000
  0.7648946640000034  0.7499999400000021  0.7000000479999997
  0.2648944849999992  0.7499999400000021  0.8999999759999966
  0.7648946050000021  0.2499999850000023  0.5000000000000000
  0.2648946050000021  0.2499999850000023  0.7000000479999997
  0.7648944849999992  0.2499999850000023  0.8999999759999966
  0.3898946340000009  0.6249999400000021  0.5999999639999984
  0.8898944849999992  0.6249999400000021  0.8000000119999982
  0.3898946050000021  0.6249999400000021  0.0000000000000000
  0.8898946050000021  0.1249999930000030  0.5999999639999984
  0.3898944849999992  0.1249999930000030  0.8000000119999982
  0.8898944849999992  0.1249999930000030  0.0000000000000000
 
  0.00000000E+00  0.00000000E+00  0.00000000E+00
  0.00000000E+00  0.00000000E+00  0.00000000E+00
  0.00000000E+00  0.00000000E+00  0.00000000E+00
  0.00000000E+00  0.00000000E+00  0.00000000E+00
  0.00000000E+00  0.00000000E+00  0.00000000E+00
  0.00000000E+00  0.00000000E+00  0.00000000E+00
  0.00000000E+00  0.00000000E+00  0.00000000E+00
  0.00000000E+00  0.00000000E+00  0.00000000E+00
  0.00000000E+00  0.00000000E+00  0.00000000E+00
  0.00000000E+00  0.00000000E+00  0.00000000E+00
  0.00000000E+00  0.00000000E+00  0.00000000E+00
  0.00000000E+00  0.00000000E+00  0.00000000E+00
  0.00000000E+00  0.00000000E+00  0.00000000E+00
  0.00000000E+00  0.00000000E+00  0.00000000E+00
  0.00000000E+00  0.00000000E+00  0.00000000E+00
  0.00000000E+00  0.00000000E+00  0.00000000E+00
  0.00000000E+00  0.00000000E+00  0.00000000E+00
  0.00000000E+00  0.00000000E+00  0.00000000E+00
  0.00000000E+00  0.00000000E+00  0.00000000E+00
  0.00000000E+00  0.00000000E+00  0.00000000E+00
  0.00000000E+00  0.00000000E+00  0.00000000E+00
  0.00000000E+00  0.00000000E+00  0.00000000E+00
  0.00000000E+00  0.00000000E+00  0.00000000E+00
  0.00000000E+00  0.00000000E+00  0.00000000E+00
  0.00000000E+00  0.00000000E+00  0.00000000E+00
  0.00000000E+00  0.00000000E+00  0.00000000E+00
  0.00000000E+00  0.00000000E+00  0.00000000E+00
  0.00000000E+00  0.00000000E+00  0.00000000E+00
  0.00000000E+00  0.00000000E+00  0.00000000E+00
  0.00000000E+00  0.00000000E+00  0.00000000E+00
  0.00000000E+00  0.00000000E+00  0.00000000E+00
  0.00000000E+00  0.00000000E+00  0.00000000E+00
  0.00000000E+00  0.00000000E+00  0.00000000E+00
  0.00000000E+00  0.00000000E+00  0.00000000E+00
  0.00000000E+00  0.00000000E+00  0.00000000E+00
  0.00000000E+00  0.00000000E+00  0.00000000E+00
  0.00000000E+00  0.00000000E+00  0.00000000E+00
  0.00000000E+00  0.00000000E+00  0.00000000E+00
  0.00000000E+00  0.00000000E+00  0.00000000E+00
  0.00000000E+00  0.00000000E+00  0.00000000E+00
  0.00000000E+00  0.00000000E+00  0.00000000E+00
  0.00000000E+00  0.00000000E+00  0.00000000E+00
  0.00000000E+00  0.00000000E+00  0.00000000E+00
  0.00000000E+00  0.00000000E+00  0.00000000E+00
  0.00000000E+00  0.00000000E+00  0.00000000E+00
  0.00000000E+00  0.00000000E+00  0.00000000E+00
  0.00000000E+00  0.00000000E+00  0.00000000E+00
  0.00000000E+00  0.00000000E+00  0.00000000E+00
