Automatic KPOINTS generated
0
Gamma
5 2 2
0 0 0
