Si+C                                    
   1.00000000000000     
    13.3031797409999992    0.0000000000000000    0.0000000000000000
     6.6515893940000002   14.8734064099999994    0.0000000000000000
     0.0000000000000000    0.0000000000000000    7.9947524070000000
   Si   C 
    36    84
Direct
  0.2832494969999999  0.6416247490000018  0.0000000470000003
  0.8165827990000025  0.4082912800000003  0.1519008280000023
  0.3499159810000023  0.1749577670000022  0.3038016559999974
  0.6165827510000028  0.3082913759999997  0.0000000570000012
  0.1499160529999983  0.0749579299999965  0.1519008280000023
  0.6832492349999981  0.8416244390000003  0.3038016260000020
  0.9499161239999978  0.9749580619999989  0.0000000400000033
  0.4832494850000018  0.7416245940000010  0.1519008280000023
  0.0165826679999981  0.5082911249999995  0.3038016260000020
  0.7999162670000004  0.7749580139999992  0.0759502869999977
  0.3332495089999981  0.5416245460000013  0.2278510929999982
  0.8665827510000028  0.3082910780000034  0.3797519510000029
  0.1332496850000027  0.4416247609999999  0.0759503020000025
  0.6665829419999980  0.2082912770000007  0.2278510929999982
  0.1999162440000006  0.9749577640000027  0.3797519510000029
  0.4665828939999983  0.1082915369999995  0.0759503020000025
  0.9999161360000031  0.8749580380000026  0.2278510929999982
  0.5332493780000007  0.6416245699999976  0.3797519510000029
  0.7832495569999978  0.6416247490000018  0.0000000000000000
  0.3165828289999979  0.4082912800000003  0.1519008129999975
  0.8499160410000002  0.1749577819999999  0.3038016559999974
  0.1165827960000030  0.3082914049999985  0.0000000570000012
  0.6499160529999983  0.0749579519999983  0.1519008579999976
  0.1832492950000031  0.8416244980000016  0.3038016559999974
  0.4499161239999978  0.9749580619999989  0.0000000570000012
  0.9832494260000004  0.7416245940000010  0.1519008579999976
  0.5165826679999981  0.5082911249999995  0.3038016559999974
  0.2999161779999966  0.7749581340000020  0.0759503020000025
  0.8332494499999967  0.5416246650000005  0.2278511519999995
  0.3665826920000015  0.3082911970000026  0.3797519210000004
  0.6332494019999970  0.4416247309999974  0.0759503170000002
  0.1665826440000018  0.2082912620000030  0.2278511519999995
  0.6999159459999973  0.9749578240000005  0.3797518909999980
  0.9665827159999978  0.1082915510000007  0.0759503020000025
  0.4999159569999989  0.8749580380000026  0.2278511519999995
  0.0332492590000015  0.6416246289999989  0.3797519510000029
  0.2567331790000011  0.8950127359999982  0.7646964790000013
  0.5995902419999979  0.9235844020000030  0.5651752950000031
  0.9281617400000002  0.9092985990000031  0.6649358869999986
  0.5424473289999980  0.7521556619999998  0.7646964790000013
  0.8853045700000024  0.7807272670000032  0.5651752950000031
  0.2138760090000034  0.7664414640000032  0.6649358869999986
  0.8281615969999976  0.6092985270000000  0.7646964790000013
  0.1710187199999993  0.6378701329999998  0.5651752950000031
  0.4995901879999991  0.6235843299999999  0.6649358869999986
  0.1138759850000000  0.4664413329999988  0.7646964790000013
  0.4567331080000017  0.4950129389999987  0.5651752349999981
  0.7853045459999990  0.4807271660000012  0.6649358869999986
  0.3995902839999985  0.3235841990000026  0.7646964790000013
  0.7424473760000012  0.3521558050000024  0.5651752349999981
  0.0710188150000022  0.3378700319999979  0.6649358869999986
  0.6853045229999992  0.1807270939999981  0.7646964790000013
  0.0281616449999973  0.2092986999999980  0.5651752349999981
  0.3567331140000007  0.1950129270000005  0.6649358869999986
  0.9710189099999980  0.0378699299999994  0.7646965380000026
  0.3138759730000018  0.0664415359999992  0.5651752349999981
  0.6424474720000006  0.0521557329999993  0.6649358869999986
  0.7067329879999988  0.9950127600000016  0.8145766849999987
  0.0495901110000005  0.0235843660000015  0.6150555010000005
  0.3781615790000004  0.0092984440000023  0.7148161530000010
  0.9924472570000020  0.8521556259999983  0.8145766849999987
  0.3353044090000026  0.8807272319999981  0.6150555010000005
  0.6638758180000011  0.8664413690000003  0.7148161530000010
  0.2781615259999981  0.7092984909999984  0.8145768050000015
  0.6210187080000011  0.7378700969999983  0.6150554419999992
  0.9495902060000034  0.7235842939999984  0.7148160930000031
  0.5638759140000005  0.5664414170000001  0.8145766849999987
  0.9067330359999985  0.5950129630000021  0.6150554419999992
  0.2353044749999995  0.5807272200000000  0.7148161530000010
  0.8495903020000029  0.4235842820000002  0.8145768050000015
  0.1924474240000009  0.4521558579999976  0.6150554419999992
  0.5210187440000027  0.4378700850000001  0.7148160930000031
  0.1353044510000032  0.2807270879999990  0.8145768050000015
  0.4781616329999991  0.3092986939999989  0.6150555010000005
  0.8067331310000014  0.2950128909999989  0.7148161530000010
  0.4210188690000010  0.1378699540000028  0.8145766849999987
  0.7638759609999966  0.1664415600000027  0.6150555010000005
  0.0924473999999975  0.1521557570000027  0.7148160930000031
  0.7567330600000020  0.8950127960000032  0.7646964790000013
  0.0995901820000000  0.9235842820000002  0.5651752349999981
  0.4281615319999972  0.9092985990000031  0.6649359459999999
  0.0424475670000035  0.7521556619999998  0.7646965380000026
  0.3853045700000024  0.7807272670000032  0.5651752349999981
  0.7138760090000034  0.7664414640000032  0.6649358869999986
  0.3281618649999984  0.6092985270000000  0.7646965380000026
  0.6710188389999985  0.6378701329999998  0.5651752349999981
  0.9995902779999994  0.6235843299999999  0.6649358869999986
  0.6138759850000000  0.4664413929999967  0.7646965380000026
  0.9567331080000017  0.4950129690000011  0.5651752349999981
  0.2853044570000023  0.4807271959999966  0.6649358869999986
  0.8995901349999968  0.3235843180000018  0.7646965380000026
  0.2424473760000012  0.3521558340000013  0.5651752349999981
  0.5710188150000022  0.3378700319999979  0.6649358869999986
  0.1853046419999984  0.1807271090000029  0.7646965380000026
  0.5281616449999973  0.2092986700000026  0.5651752950000031
  0.8567332029999974  0.1950128670000026  0.6649358869999986
  0.4710188210000013  0.0378700489999986  0.7646965380000026
  0.8138759140000005  0.0664415359999992  0.5651752950000031
  0.1424473519999978  0.0521557329999993  0.6649358869999986
  0.2067331080000017  0.9950128790000008  0.8145766849999987
  0.5495902299999997  0.0235843660000015  0.6150555010000005
  0.8781615500000015  0.0092985630000015  0.7148160930000031
  0.4924474059999966  0.8521556849999996  0.8145766849999987
  0.8353044990000029  0.8807272909999995  0.6150555010000005
  0.1638759370000002  0.8664414289999982  0.7148160930000031
  0.7781616449999973  0.7092984909999984  0.8145766849999987
  0.1210188869999982  0.7378700969999983  0.6150555010000005
  0.4495903549999980  0.7235842349999970  0.7148160930000031
  0.0638757939999977  0.5664414170000001  0.8145766259999974
  0.4067330660000010  0.5950129029999971  0.6150554419999992
  0.7353044749999995  0.5807271600000021  0.7148160930000031
  0.3495903310000017  0.4235842229999989  0.8145766849999987
  0.6924474839999988  0.4521557990000034  0.6150554419999992
  0.0210188630000019  0.4378700259999988  0.7148160930000031
  0.6353043319999969  0.2807270590000002  0.8145766849999987
  0.9781615730000013  0.3092986640000035  0.6150554419999992
  0.3067329229999984  0.2950128909999989  0.7148160930000031
  0.9210187199999993  0.1378700289999983  0.8145766849999987
  0.2638759609999966  0.1664415300000002  0.6150555010000005
  0.5924472809999983  0.1521557570000027  0.7148161530000010
 
  0.00000000E+00  0.00000000E+00  0.00000000E+00
  0.00000000E+00  0.00000000E+00  0.00000000E+00
  0.00000000E+00  0.00000000E+00  0.00000000E+00
  0.00000000E+00  0.00000000E+00  0.00000000E+00
  0.00000000E+00  0.00000000E+00  0.00000000E+00
  0.00000000E+00  0.00000000E+00  0.00000000E+00
  0.00000000E+00  0.00000000E+00  0.00000000E+00
  0.00000000E+00  0.00000000E+00  0.00000000E+00
  0.00000000E+00  0.00000000E+00  0.00000000E+00
  0.00000000E+00  0.00000000E+00  0.00000000E+00
  0.00000000E+00  0.00000000E+00  0.00000000E+00
  0.00000000E+00  0.00000000E+00  0.00000000E+00
  0.00000000E+00  0.00000000E+00  0.00000000E+00
  0.00000000E+00  0.00000000E+00  0.00000000E+00
  0.00000000E+00  0.00000000E+00  0.00000000E+00
  0.00000000E+00  0.00000000E+00  0.00000000E+00
  0.00000000E+00  0.00000000E+00  0.00000000E+00
  0.00000000E+00  0.00000000E+00  0.00000000E+00
  0.00000000E+00  0.00000000E+00  0.00000000E+00
  0.00000000E+00  0.00000000E+00  0.00000000E+00
  0.00000000E+00  0.00000000E+00  0.00000000E+00
  0.00000000E+00  0.00000000E+00  0.00000000E+00
  0.00000000E+00  0.00000000E+00  0.00000000E+00
  0.00000000E+00  0.00000000E+00  0.00000000E+00
  0.00000000E+00  0.00000000E+00  0.00000000E+00
  0.00000000E+00  0.00000000E+00  0.00000000E+00
  0.00000000E+00  0.00000000E+00  0.00000000E+00
  0.00000000E+00  0.00000000E+00  0.00000000E+00
  0.00000000E+00  0.00000000E+00  0.00000000E+00
  0.00000000E+00  0.00000000E+00  0.00000000E+00
  0.00000000E+00  0.00000000E+00  0.00000000E+00
  0.00000000E+00  0.00000000E+00  0.00000000E+00
  0.00000000E+00  0.00000000E+00  0.00000000E+00
  0.00000000E+00  0.00000000E+00  0.00000000E+00
  0.00000000E+00  0.00000000E+00  0.00000000E+00
  0.00000000E+00  0.00000000E+00  0.00000000E+00
  0.00000000E+00  0.00000000E+00  0.00000000E+00
  0.00000000E+00  0.00000000E+00  0.00000000E+00
  0.00000000E+00  0.00000000E+00  0.00000000E+00
  0.00000000E+00  0.00000000E+00  0.00000000E+00
  0.00000000E+00  0.00000000E+00  0.00000000E+00
  0.00000000E+00  0.00000000E+00  0.00000000E+00
  0.00000000E+00  0.00000000E+00  0.00000000E+00
  0.00000000E+00  0.00000000E+00  0.00000000E+00
  0.00000000E+00  0.00000000E+00  0.00000000E+00
  0.00000000E+00  0.00000000E+00  0.00000000E+00
  0.00000000E+00  0.00000000E+00  0.00000000E+00
  0.00000000E+00  0.00000000E+00  0.00000000E+00
  0.00000000E+00  0.00000000E+00  0.00000000E+00
  0.00000000E+00  0.00000000E+00  0.00000000E+00
  0.00000000E+00  0.00000000E+00  0.00000000E+00
  0.00000000E+00  0.00000000E+00  0.00000000E+00
  0.00000000E+00  0.00000000E+00  0.00000000E+00
  0.00000000E+00  0.00000000E+00  0.00000000E+00
  0.00000000E+00  0.00000000E+00  0.00000000E+00
  0.00000000E+00  0.00000000E+00  0.00000000E+00
  0.00000000E+00  0.00000000E+00  0.00000000E+00
  0.00000000E+00  0.00000000E+00  0.00000000E+00
  0.00000000E+00  0.00000000E+00  0.00000000E+00
  0.00000000E+00  0.00000000E+00  0.00000000E+00
  0.00000000E+00  0.00000000E+00  0.00000000E+00
  0.00000000E+00  0.00000000E+00  0.00000000E+00
  0.00000000E+00  0.00000000E+00  0.00000000E+00
  0.00000000E+00  0.00000000E+00  0.00000000E+00
  0.00000000E+00  0.00000000E+00  0.00000000E+00
  0.00000000E+00  0.00000000E+00  0.00000000E+00
  0.00000000E+00  0.00000000E+00  0.00000000E+00
  0.00000000E+00  0.00000000E+00  0.00000000E+00
  0.00000000E+00  0.00000000E+00  0.00000000E+00
  0.00000000E+00  0.00000000E+00  0.00000000E+00
  0.00000000E+00  0.00000000E+00  0.00000000E+00
  0.00000000E+00  0.00000000E+00  0.00000000E+00
  0.00000000E+00  0.00000000E+00  0.00000000E+00
  0.00000000E+00  0.00000000E+00  0.00000000E+00
  0.00000000E+00  0.00000000E+00  0.00000000E+00
  0.00000000E+00  0.00000000E+00  0.00000000E+00
  0.00000000E+00  0.00000000E+00  0.00000000E+00
  0.00000000E+00  0.00000000E+00  0.00000000E+00
  0.00000000E+00  0.00000000E+00  0.00000000E+00
  0.00000000E+00  0.00000000E+00  0.00000000E+00
  0.00000000E+00  0.00000000E+00  0.00000000E+00
  0.00000000E+00  0.00000000E+00  0.00000000E+00
  0.00000000E+00  0.00000000E+00  0.00000000E+00
  0.00000000E+00  0.00000000E+00  0.00000000E+00
  0.00000000E+00  0.00000000E+00  0.00000000E+00
  0.00000000E+00  0.00000000E+00  0.00000000E+00
  0.00000000E+00  0.00000000E+00  0.00000000E+00
  0.00000000E+00  0.00000000E+00  0.00000000E+00
  0.00000000E+00  0.00000000E+00  0.00000000E+00
  0.00000000E+00  0.00000000E+00  0.00000000E+00
  0.00000000E+00  0.00000000E+00  0.00000000E+00
  0.00000000E+00  0.00000000E+00  0.00000000E+00
  0.00000000E+00  0.00000000E+00  0.00000000E+00
  0.00000000E+00  0.00000000E+00  0.00000000E+00
  0.00000000E+00  0.00000000E+00  0.00000000E+00
  0.00000000E+00  0.00000000E+00  0.00000000E+00
  0.00000000E+00  0.00000000E+00  0.00000000E+00
  0.00000000E+00  0.00000000E+00  0.00000000E+00
  0.00000000E+00  0.00000000E+00  0.00000000E+00
  0.00000000E+00  0.00000000E+00  0.00000000E+00
  0.00000000E+00  0.00000000E+00  0.00000000E+00
  0.00000000E+00  0.00000000E+00  0.00000000E+00
  0.00000000E+00  0.00000000E+00  0.00000000E+00
  0.00000000E+00  0.00000000E+00  0.00000000E+00
  0.00000000E+00  0.00000000E+00  0.00000000E+00
  0.00000000E+00  0.00000000E+00  0.00000000E+00
  0.00000000E+00  0.00000000E+00  0.00000000E+00
  0.00000000E+00  0.00000000E+00  0.00000000E+00
  0.00000000E+00  0.00000000E+00  0.00000000E+00
  0.00000000E+00  0.00000000E+00  0.00000000E+00
  0.00000000E+00  0.00000000E+00  0.00000000E+00
  0.00000000E+00  0.00000000E+00  0.00000000E+00
  0.00000000E+00  0.00000000E+00  0.00000000E+00
  0.00000000E+00  0.00000000E+00  0.00000000E+00
  0.00000000E+00  0.00000000E+00  0.00000000E+00
  0.00000000E+00  0.00000000E+00  0.00000000E+00
  0.00000000E+00  0.00000000E+00  0.00000000E+00
  0.00000000E+00  0.00000000E+00  0.00000000E+00
  0.00000000E+00  0.00000000E+00  0.00000000E+00
  0.00000000E+00  0.00000000E+00  0.00000000E+00
