Si+Si                                   
   1.00000000000000     
     7.6805944439999996    0.0000000000000000    0.0000000000000000
     0.0000000000000000   16.2929992679999991    0.0000000000000000
     0.0000000000000000    0.0000000000000000    6.4005002979999999
   Si
    48
Direct
  0.9435140490000009  0.9121329780000025  0.0000000129999975
  0.6935139890000031  0.5232440229999966  0.0999999869999968
  0.4435139890000031  0.1343551280000028  0.2000000330000020
  0.1935139300000017  0.7454661129999991  0.2999999520000003
  0.9435138699999968  0.3565771580000003  0.4000000360000016
  0.6935137509999976  0.9676878450000004  0.4999998810000008
  0.1935140790000034  0.6621330380000003  0.0000000000000000
  0.9435140490000009  0.2732440229999966  0.0999999869999968
  0.6935140490000009  0.8843551280000028  0.1999999729999971
  0.4435138699999968  0.4954660530000012  0.2999999820000028
  0.1935138110000025  0.1065770390000012  0.3999999170000024
  0.9435137509999976  0.7176879639999996  0.5000000599999979
  0.6935141680000001  0.6621330380000003  0.0000000000000000
  0.4435140490000009  0.2732439939999978  0.0999999719999991
  0.1935140340000032  0.8843550679999979  0.1999999579999994
  0.9435139890000031  0.4954660530000012  0.2999999820000028
  0.6935138699999968  0.1065770390000012  0.3999999170000024
  0.4435138110000025  0.7176879639999996  0.4999999699999975
  0.4435140790000034  0.9121329780000025  0.0000000080000007
  0.1935139890000031  0.5232440229999966  0.1000000240000034
  0.9435139890000031  0.1343551280000028  0.2000000330000020
  0.6935139890000031  0.7454661129999991  0.2999999520000003
  0.4435139300000017  0.3565770390000012  0.4000000360000016
  0.1935136909999997  0.9676880840000024  0.5000000599999979
  0.0564859400000017  0.9121329780000025  0.5000001189999992
  0.3064860109999969  0.5232440229999966  0.6000000240000034
  0.5564860109999969  0.1343551280000028  0.7000000479999997
  0.8064860699999983  0.7454661129999991  0.8000000720000031
  0.0564861300000032  0.3565771580000003  0.8999999759999966
  0.3064862490000024  0.9676878450000004  0.9999998810000008
  0.8064860109999969  0.6621330380000003  0.5000001189999992
  0.0564860109999969  0.2732439939999978  0.6000000240000034
  0.3064860109999969  0.8843551280000028  0.6999999279999969
  0.5564862490000024  0.4954660530000012  0.8000000720000031
  0.8064861300000032  0.1065770390000012  0.8999998569999974
  0.0564863680000016  0.7176879639999996  0.0000000000000000
  0.3064860109999969  0.6621330380000003  0.5000001189999992
  0.5564860109999969  0.2732440229999966  0.6000000240000034
  0.8064860699999983  0.8843551280000028  0.6999999279999969
  0.0564861300000032  0.4954660530000012  0.8000000720000031
  0.3064861300000032  0.1065770390000012  0.8999998569999974
  0.5564862490000024  0.7176879639999996  0.0000000000000000
  0.5564859509999991  0.9121329780000025  0.5000001189999992
  0.8064859509999991  0.5232440229999966  0.6000000240000034
  0.0564860109999969  0.1343551280000028  0.7000000479999997
  0.3064860109999969  0.7454661129999991  0.8000000720000031
  0.5564863680000016  0.3565770390000012  0.8999998569999974
  0.8064862490000024  0.9676880840000024  0.9999998810000008
 
  0.00000000E+00  0.00000000E+00  0.00000000E+00
  0.00000000E+00  0.00000000E+00  0.00000000E+00
  0.00000000E+00  0.00000000E+00  0.00000000E+00
  0.00000000E+00  0.00000000E+00  0.00000000E+00
  0.00000000E+00  0.00000000E+00  0.00000000E+00
  0.00000000E+00  0.00000000E+00  0.00000000E+00
  0.00000000E+00  0.00000000E+00  0.00000000E+00
  0.00000000E+00  0.00000000E+00  0.00000000E+00
  0.00000000E+00  0.00000000E+00  0.00000000E+00
  0.00000000E+00  0.00000000E+00  0.00000000E+00
  0.00000000E+00  0.00000000E+00  0.00000000E+00
  0.00000000E+00  0.00000000E+00  0.00000000E+00
  0.00000000E+00  0.00000000E+00  0.00000000E+00
  0.00000000E+00  0.00000000E+00  0.00000000E+00
  0.00000000E+00  0.00000000E+00  0.00000000E+00
  0.00000000E+00  0.00000000E+00  0.00000000E+00
  0.00000000E+00  0.00000000E+00  0.00000000E+00
  0.00000000E+00  0.00000000E+00  0.00000000E+00
  0.00000000E+00  0.00000000E+00  0.00000000E+00
  0.00000000E+00  0.00000000E+00  0.00000000E+00
  0.00000000E+00  0.00000000E+00  0.00000000E+00
  0.00000000E+00  0.00000000E+00  0.00000000E+00
  0.00000000E+00  0.00000000E+00  0.00000000E+00
  0.00000000E+00  0.00000000E+00  0.00000000E+00
  0.00000000E+00  0.00000000E+00  0.00000000E+00
  0.00000000E+00  0.00000000E+00  0.00000000E+00
  0.00000000E+00  0.00000000E+00  0.00000000E+00
  0.00000000E+00  0.00000000E+00  0.00000000E+00
  0.00000000E+00  0.00000000E+00  0.00000000E+00
  0.00000000E+00  0.00000000E+00  0.00000000E+00
  0.00000000E+00  0.00000000E+00  0.00000000E+00
  0.00000000E+00  0.00000000E+00  0.00000000E+00
  0.00000000E+00  0.00000000E+00  0.00000000E+00
  0.00000000E+00  0.00000000E+00  0.00000000E+00
  0.00000000E+00  0.00000000E+00  0.00000000E+00
  0.00000000E+00  0.00000000E+00  0.00000000E+00
  0.00000000E+00  0.00000000E+00  0.00000000E+00
  0.00000000E+00  0.00000000E+00  0.00000000E+00
  0.00000000E+00  0.00000000E+00  0.00000000E+00
  0.00000000E+00  0.00000000E+00  0.00000000E+00
  0.00000000E+00  0.00000000E+00  0.00000000E+00
  0.00000000E+00  0.00000000E+00  0.00000000E+00
  0.00000000E+00  0.00000000E+00  0.00000000E+00
  0.00000000E+00  0.00000000E+00  0.00000000E+00
  0.00000000E+00  0.00000000E+00  0.00000000E+00
  0.00000000E+00  0.00000000E+00  0.00000000E+00
  0.00000000E+00  0.00000000E+00  0.00000000E+00
  0.00000000E+00  0.00000000E+00  0.00000000E+00
