Automatic KPOINTS generated
0
Gamma
4 2 5
0 0 0
