Ge+Ge                                   
   1.00000000000000     
     8.0013380049999991    0.0000000000000000    0.0000000000000000
     4.0006690029999996   12.0020065309999993    0.0000000000000000
     0.0000000000000000    0.0000000000000000    9.4296684269999993
   Ge
    48
Direct
  0.6609721179999966  0.6609721179999966  0.0000000000000000
  0.4943053719999995  0.4943054619999998  0.2999999230000014
  0.3276386260000024  0.3276387749999969  0.5999999049999971
  0.3276388049999994  0.3276388049999994  0.0000000000000000
  0.1609720889999977  0.1609721479999990  0.2999999230000014
  0.9943053129999981  0.9943054909999987  0.5999999049999971
  0.9943054909999987  0.9943054909999987  0.0000000000000000
  0.8276388049999994  0.8276388649999973  0.2999999230000014
  0.6609719989999974  0.6609721780000015  0.5999999049999971
  0.4109720889999977  0.6609720590000023  0.1499999609999989
  0.2443053719999995  0.4943054020000019  0.4499998989999980
  0.0776386260000024  0.3276387160000027  0.7499999400000021
  0.7443054909999987  0.9943054909999987  0.1499999609999989
  0.5776386860000002  0.8276388649999973  0.4499998989999980
  0.4109719400000031  0.6609721179999966  0.7499999400000021
  0.0776388419999989  0.3276388350000019  0.1499999609999989
  0.9109721179999966  0.1609721479999990  0.4499998989999980
  0.7443053719999995  0.9943054319999973  0.7499999400000021
  0.8276387450000016  0.3276388350000019  0.0000000000000000
  0.6609720590000023  0.1609721780000015  0.2999999230000014
  0.4943053129999981  0.9943054909999987  0.5999999049999971
  0.1609722079999969  0.6609721179999966  0.0000000000000000
  0.9943054909999987  0.4943054909999987  0.2999999230000014
  0.8276387450000016  0.3276387749999969  0.5999999049999971
  0.4943054319999973  0.9943054909999987  0.0000000000000000
  0.3276387160000027  0.8276388649999973  0.2999999230000014
  0.1609719989999974  0.6609721179999966  0.5999999049999971
  0.9109722970000007  0.6609720590000023  0.1499999609999989
  0.7443054909999987  0.4943054020000019  0.4499998989999980
  0.5776387450000016  0.3276387160000027  0.7499999400000021
  0.5776388049999994  0.3276388350000019  0.1499999609999989
  0.4109720289999998  0.1609721479999990  0.4499998989999980
  0.2443052830000028  0.9943054319999973  0.7499999400000021
  0.2443054769999975  0.9943054909999987  0.1499999609999989
  0.0776387229999997  0.8276388649999973  0.4499998989999980
  0.9109719989999974  0.6609721179999966  0.7499999400000021
  0.9628466369999984  0.0265381210000015  0.7499998810000008
  0.5739576819999996  0.3043159249999974  0.8499999049999971
  0.1850687860000022  0.5820937749999970  0.9499999279999969
  0.4628466070000030  0.0265381210000015  0.7499998810000008
  0.0739576889999967  0.3043159540000033  0.8499999049999971
  0.6850687270000009  0.5820937749999970  0.9499999279999969
  0.7684021000000030  0.9154270289999999  0.7999998330000011
  0.3795132640000034  0.1932047609999969  0.8999999759999966
  0.9906241890000018  0.4709826710000016  0.0000000000000000
  0.2684021000000030  0.9154270889999978  0.7999998330000011
  0.8795132640000034  0.1932047609999969  0.8999999759999966
  0.4906242489999997  0.4709826710000016  0.0000000000000000
 
  0.00000000E+00  0.00000000E+00  0.00000000E+00
  0.00000000E+00  0.00000000E+00  0.00000000E+00
  0.00000000E+00  0.00000000E+00  0.00000000E+00
  0.00000000E+00  0.00000000E+00  0.00000000E+00
  0.00000000E+00  0.00000000E+00  0.00000000E+00
  0.00000000E+00  0.00000000E+00  0.00000000E+00
  0.00000000E+00  0.00000000E+00  0.00000000E+00
  0.00000000E+00  0.00000000E+00  0.00000000E+00
  0.00000000E+00  0.00000000E+00  0.00000000E+00
  0.00000000E+00  0.00000000E+00  0.00000000E+00
  0.00000000E+00  0.00000000E+00  0.00000000E+00
  0.00000000E+00  0.00000000E+00  0.00000000E+00
  0.00000000E+00  0.00000000E+00  0.00000000E+00
  0.00000000E+00  0.00000000E+00  0.00000000E+00
  0.00000000E+00  0.00000000E+00  0.00000000E+00
  0.00000000E+00  0.00000000E+00  0.00000000E+00
  0.00000000E+00  0.00000000E+00  0.00000000E+00
  0.00000000E+00  0.00000000E+00  0.00000000E+00
  0.00000000E+00  0.00000000E+00  0.00000000E+00
  0.00000000E+00  0.00000000E+00  0.00000000E+00
  0.00000000E+00  0.00000000E+00  0.00000000E+00
  0.00000000E+00  0.00000000E+00  0.00000000E+00
  0.00000000E+00  0.00000000E+00  0.00000000E+00
  0.00000000E+00  0.00000000E+00  0.00000000E+00
  0.00000000E+00  0.00000000E+00  0.00000000E+00
  0.00000000E+00  0.00000000E+00  0.00000000E+00
  0.00000000E+00  0.00000000E+00  0.00000000E+00
  0.00000000E+00  0.00000000E+00  0.00000000E+00
  0.00000000E+00  0.00000000E+00  0.00000000E+00
  0.00000000E+00  0.00000000E+00  0.00000000E+00
  0.00000000E+00  0.00000000E+00  0.00000000E+00
  0.00000000E+00  0.00000000E+00  0.00000000E+00
  0.00000000E+00  0.00000000E+00  0.00000000E+00
  0.00000000E+00  0.00000000E+00  0.00000000E+00
  0.00000000E+00  0.00000000E+00  0.00000000E+00
  0.00000000E+00  0.00000000E+00  0.00000000E+00
  0.00000000E+00  0.00000000E+00  0.00000000E+00
  0.00000000E+00  0.00000000E+00  0.00000000E+00
  0.00000000E+00  0.00000000E+00  0.00000000E+00
  0.00000000E+00  0.00000000E+00  0.00000000E+00
  0.00000000E+00  0.00000000E+00  0.00000000E+00
  0.00000000E+00  0.00000000E+00  0.00000000E+00
  0.00000000E+00  0.00000000E+00  0.00000000E+00
  0.00000000E+00  0.00000000E+00  0.00000000E+00
  0.00000000E+00  0.00000000E+00  0.00000000E+00
  0.00000000E+00  0.00000000E+00  0.00000000E+00
  0.00000000E+00  0.00000000E+00  0.00000000E+00
  0.00000000E+00  0.00000000E+00  0.00000000E+00
