Ge+Sn                                   
   1.00000000000000     
    16.0026760099999983    0.0000000000000000    0.0000000000000000
    -8.0013380049999991   13.8587245939999999    0.0000000000000000
     0.0000000000000000    0.0000000000000000   20.3040065769999991
   Ge   Sn
    96    72
Direct
  0.9857673050000031  0.4928835629999995  0.0000000049999969
  0.6524338720000031  0.3262168469999978  0.1608812059999991
  0.3191004990000010  0.1595501150000018  0.3217623829999994
  0.9857673050000031  0.9928836819999987  0.0000000120000010
  0.6524338720000031  0.8262169360000016  0.1608812059999991
  0.3191004990000010  0.6595501899999974  0.3217624130000019
  0.4857672449999981  0.4928835930000020  0.0000000000000000
  0.1524338420000007  0.3262168469999978  0.1608812059999991
  0.8191004399999997  0.1595501299999995  0.3217624130000019
  0.4857672449999981  0.9928836819999987  0.0000000160000013
  0.1524338420000007  0.8262169360000016  0.1608812059999991
  0.8191004399999997  0.6595501899999974  0.3217624130000019
  0.1524339469999987  0.8262168770000002  0.0402203200000031
  0.8191005589999989  0.6595501299999995  0.2011014819999986
  0.4857671859999968  0.4928834440000003  0.3619827030000025
  0.1524339469999987  0.3262169360000016  0.0402203200000031
  0.8191005589999989  0.1595502199999999  0.2011014970000033
  0.4857671859999968  0.9928835030000016  0.3619827030000025
  0.6524338720000031  0.8262168170000024  0.0402203200000031
  0.3191005290000035  0.6595501299999995  0.2011014819999986
  0.9857671859999968  0.4928834440000003  0.3619827030000025
  0.6524338720000031  0.3262169360000016  0.0402203200000031
  0.3191005290000035  0.1595502349999975  0.2011014970000033
  0.9857671859999968  0.9928835030000016  0.3619827030000025
  0.2357672600000029  0.7428836229999973  0.0000000029999967
  0.9024338720000031  0.5762169360000016  0.1608812059999991
  0.5691003800000018  0.4095501299999995  0.3217624130000019
  0.2357672899999983  0.2428836229999973  0.0000000109999974
  0.9024338720000031  0.0762168990000021  0.1608812059999991
  0.5691004399999997  0.9095501899999974  0.3217624130000019
  0.7357672449999981  0.7428835629999995  0.0000000109999974
  0.4024338420000007  0.5762168770000002  0.1608812059999991
  0.0691004019999966  0.4095501010000007  0.3217624130000019
  0.7357672449999981  0.2428836079999996  0.0000000109999974
  0.4024338420000007  0.0762168910000014  0.1608811910000014
  0.0691004170000014  0.9095501899999974  0.3217624130000019
  0.4024339320000010  0.5762169360000016  0.0402202639999985
  0.0691005139999987  0.4095501600000020  0.2011014819999986
  0.7357671859999968  0.2428834890000005  0.3619826730000000
  0.4024339320000010  0.0762169730000011  0.0402202639999985
  0.0691005139999987  0.9095502500000023  0.2011014819999986
  0.7357671859999968  0.7428835629999995  0.3619826730000000
  0.9024339910000023  0.5762168770000002  0.0402202679999988
  0.5691006180000002  0.4095501899999974  0.2011014670000009
  0.2357672449999981  0.2428834589999980  0.3619826730000000
  0.9024339910000023  0.0762169730000011  0.0402202719999991
  0.5691006180000002  0.9095502500000023  0.2011014819999986
  0.2357672449999981  0.7428835629999995  0.3619826730000000
  0.2357672750000006  0.4928835930000020  0.0000000109999974
  0.9024338720000031  0.3262168469999978  0.1608811910000014
  0.5691004399999997  0.1595501150000018  0.3217624130000019
  0.2357672899999983  0.9928836819999987  0.0000000189999980
  0.9024338720000031  0.8262169360000016  0.1608812059999991
  0.5691004399999997  0.6595501899999974  0.3217624130000019
  0.7357672449999981  0.4928835930000020  0.0000000109999974
  0.4024338420000007  0.3262168770000002  0.1608811910000014
  0.0691004019999966  0.1595501150000018  0.3217624130000019
  0.7357672449999981  0.9928836819999987  0.0000000269999987
  0.4024338420000007  0.8262169360000016  0.1608812059999991
  0.0691004170000014  0.6595501899999974  0.3217624130000019
  0.4024339320000010  0.8262169360000016  0.0402202829999965
  0.0691004990000010  0.6595501299999995  0.2011014670000009
  0.7357671859999968  0.4928834740000028  0.3619826730000000
  0.4024339320000010  0.3262169959999994  0.0402202829999965
  0.0691005290000035  0.1595502500000023  0.2011014819999986
  0.7357671859999968  0.9928835629999995  0.3619826730000000
  0.9024339910000023  0.8262168770000002  0.0402202570000014
  0.5691005589999989  0.6595501299999995  0.2011014369999984
  0.2357672449999981  0.4928834740000028  0.3619826139999986
  0.9024339910000023  0.3262169659999969  0.0402202869999968
  0.5691006180000002  0.1595502500000023  0.2011014819999986
  0.2357672449999981  0.9928835629999995  0.3619826730000000
  0.9857673050000031  0.7428836229999973  0.0000000069999970
  0.6524339320000010  0.5762168770000002  0.1608812360000016
  0.3191004990000010  0.4095501600000020  0.3217623829999994
  0.9857673050000031  0.2428836229999973  0.0000000080000007
  0.6524338720000031  0.0762168839999973  0.1608812059999991
  0.3191004990000010  0.9095501899999974  0.3217624130000019
  0.4857672449999981  0.7428836229999973  0.0000000000000000
  0.1524338420000007  0.5762169360000016  0.1608812059999991
  0.8191004399999997  0.4095501010000007  0.3217624130000019
  0.4857672449999981  0.2428836229999973  0.0000000160000013
  0.1524338420000007  0.0762168990000021  0.1608812059999991
  0.8191004399999997  0.9095501899999974  0.3217624130000019
  0.1524339770000012  0.5762169360000016  0.0402203160000028
  0.8191006180000002  0.4095502199999999  0.2011014819999986
  0.4857672449999981  0.2428835480000018  0.3619827030000025
  0.1524339770000012  0.0762169810000017  0.0402203160000028
  0.8191006180000002  0.9095503089999966  0.2011014970000033
  0.4857672449999981  0.7428835629999995  0.3619827030000025
  0.6524339910000023  0.5762169360000016  0.0402203240000034
  0.3191006180000002  0.4095502199999999  0.2011014970000033
  0.9857672449999981  0.2428835179999993  0.3619827030000025
  0.6524339910000023  0.0762169879999988  0.0402203129999990
  0.3191006180000002  0.9095503089999966  0.2011014970000033
  0.9857672449999981  0.7428835629999995  0.3619827030000025
  0.0691823880000015  0.0753022580000007  0.4734038409999997
  0.0691823880000015  0.4086356460000005  0.6579261420000009
  0.0691823880000015  0.7419690489999979  0.8424484729999975
  0.4025157689999972  0.7419689890000001  0.4734038109999972
  0.4025157989999997  0.0753024150000030  0.6579261420000009
  0.4025157989999997  0.4086357950000021  0.8424483539999983
  0.7358491419999993  0.4086356460000005  0.4734038409999997
  0.7358491419999993  0.7419690489999979  0.6579261420000009
  0.7358491419999993  0.0753024150000030  0.8424483539999983
  0.0691823880000015  0.4086356460000005  0.5195344090000020
  0.0691823880000015  0.7419689890000001  0.7040567399999986
  0.0691823880000015  0.0753022950000002  0.8885790109999974
  0.4025157989999997  0.0753022950000002  0.5195344090000020
  0.4025157989999997  0.4086356760000029  0.7040567399999986
  0.4025157989999997  0.7419691679999971  0.8885790109999974
  0.7358491419999993  0.7419690489999979  0.5195344090000020
  0.7358491419999993  0.0753024150000030  0.7040567399999986
  0.7358491419999993  0.4086356760000029  0.8885790109999974
  0.2358490820000014  0.4086356460000005  0.4734038409999997
  0.2358490820000014  0.7419690489999979  0.6579261420000009
  0.2358490820000014  0.0753024150000030  0.8424484729999975
  0.5691823960000022  0.0753022729999984  0.4734038409999997
  0.5691823960000022  0.4086356760000029  0.6579261420000009
  0.5691823960000022  0.7419691090000029  0.8424484729999975
  0.9025158290000022  0.7419689890000001  0.4734038109999972
  0.9025158290000022  0.0753024150000030  0.6579260829999996
  0.9025158290000022  0.4086357950000021  0.8424484729999975
  0.2358490820000014  0.7419690489999979  0.5195343489999971
  0.2358490820000014  0.0753024150000030  0.7040566800000008
  0.2358491119999968  0.4086359140000013  0.8885790109999974
  0.5691824560000001  0.4086356760000029  0.5195343489999971
  0.5691824560000001  0.7419690489999979  0.7040567399999986
  0.5691824560000001  0.0753024150000030  0.8885790109999974
  0.9025158290000022  0.0753022950000002  0.5195343489999971
  0.9025158290000022  0.4086356760000029  0.7040566800000008
  0.9025158290000022  0.7419690489999979  0.8885790109999974
  0.0691823880000015  0.5753023030000008  0.4734038409999997
  0.0691823880000015  0.9086356760000029  0.6579260829999996
  0.0691823880000015  0.2419690489999979  0.8424484729999975
  0.4025157689999972  0.2419689299999987  0.4734038409999997
  0.4025157689999972  0.5753023620000022  0.6579261420000009
  0.4025157689999972  0.9086357360000008  0.8424484729999975
  0.7358491419999993  0.9086356760000029  0.4734038109999972
  0.7358491419999993  0.2419690489999979  0.6579260829999996
  0.7358492019999971  0.5753025409999992  0.8424484729999975
  0.0691823880000015  0.9086356760000029  0.5195343489999971
  0.0691823880000015  0.2419690489999979  0.7040566800000008
  0.0691823880000015  0.5753025409999992  0.8885790109999974
  0.4025157689999972  0.5753023030000008  0.5195343489999971
  0.4025157689999972  0.9086356760000029  0.7040566800000008
  0.4025157989999997  0.2419691679999971  0.8885790109999974
  0.7358491419999993  0.2419689000000034  0.5195343489999971
  0.7358491419999993  0.5753023030000008  0.7040567399999986
  0.7358491419999993  0.9086357360000008  0.8885790109999974
  0.2358490820000014  0.9086356760000029  0.4734038409999997
  0.2358490820000014  0.2419689299999987  0.6579260829999996
  0.2358490820000014  0.5753024220000000  0.8424483539999983
  0.5691823960000022  0.5753023030000008  0.4734038109999972
  0.5691823960000022  0.9086357360000008  0.6579261420000009
  0.5691824560000001  0.2419690489999979  0.8424483539999983
  0.9025157689999972  0.2419689600000012  0.4734038409999997
  0.9025157689999972  0.5753023620000022  0.6579261420000009
  0.9025157689999972  0.9086357950000021  0.8424483539999983
  0.2358490820000014  0.2419688700000009  0.5195344090000020
  0.2358490820000014  0.5753022430000030  0.7040567399999986
  0.2358490820000014  0.9086356159999980  0.8885790109999974
  0.5691823960000022  0.9086356159999980  0.5195344090000020
  0.5691823960000022  0.2419690489999979  0.7040567399999986
  0.5691823960000022  0.5753023030000008  0.8885790109999974
  0.9025158290000022  0.5753023030000008  0.5195344090000020
  0.9025158290000022  0.9086356760000029  0.7040567399999986
  0.9025158290000022  0.2419690489999979  0.8885790109999974
 
  0.00000000E+00  0.00000000E+00  0.00000000E+00
  0.00000000E+00  0.00000000E+00  0.00000000E+00
  0.00000000E+00  0.00000000E+00  0.00000000E+00
  0.00000000E+00  0.00000000E+00  0.00000000E+00
  0.00000000E+00  0.00000000E+00  0.00000000E+00
  0.00000000E+00  0.00000000E+00  0.00000000E+00
  0.00000000E+00  0.00000000E+00  0.00000000E+00
  0.00000000E+00  0.00000000E+00  0.00000000E+00
  0.00000000E+00  0.00000000E+00  0.00000000E+00
  0.00000000E+00  0.00000000E+00  0.00000000E+00
  0.00000000E+00  0.00000000E+00  0.00000000E+00
  0.00000000E+00  0.00000000E+00  0.00000000E+00
  0.00000000E+00  0.00000000E+00  0.00000000E+00
  0.00000000E+00  0.00000000E+00  0.00000000E+00
  0.00000000E+00  0.00000000E+00  0.00000000E+00
  0.00000000E+00  0.00000000E+00  0.00000000E+00
  0.00000000E+00  0.00000000E+00  0.00000000E+00
  0.00000000E+00  0.00000000E+00  0.00000000E+00
  0.00000000E+00  0.00000000E+00  0.00000000E+00
  0.00000000E+00  0.00000000E+00  0.00000000E+00
  0.00000000E+00  0.00000000E+00  0.00000000E+00
  0.00000000E+00  0.00000000E+00  0.00000000E+00
  0.00000000E+00  0.00000000E+00  0.00000000E+00
  0.00000000E+00  0.00000000E+00  0.00000000E+00
  0.00000000E+00  0.00000000E+00  0.00000000E+00
  0.00000000E+00  0.00000000E+00  0.00000000E+00
  0.00000000E+00  0.00000000E+00  0.00000000E+00
  0.00000000E+00  0.00000000E+00  0.00000000E+00
  0.00000000E+00  0.00000000E+00  0.00000000E+00
  0.00000000E+00  0.00000000E+00  0.00000000E+00
  0.00000000E+00  0.00000000E+00  0.00000000E+00
  0.00000000E+00  0.00000000E+00  0.00000000E+00
  0.00000000E+00  0.00000000E+00  0.00000000E+00
  0.00000000E+00  0.00000000E+00  0.00000000E+00
  0.00000000E+00  0.00000000E+00  0.00000000E+00
  0.00000000E+00  0.00000000E+00  0.00000000E+00
  0.00000000E+00  0.00000000E+00  0.00000000E+00
  0.00000000E+00  0.00000000E+00  0.00000000E+00
  0.00000000E+00  0.00000000E+00  0.00000000E+00
  0.00000000E+00  0.00000000E+00  0.00000000E+00
  0.00000000E+00  0.00000000E+00  0.00000000E+00
  0.00000000E+00  0.00000000E+00  0.00000000E+00
  0.00000000E+00  0.00000000E+00  0.00000000E+00
  0.00000000E+00  0.00000000E+00  0.00000000E+00
  0.00000000E+00  0.00000000E+00  0.00000000E+00
  0.00000000E+00  0.00000000E+00  0.00000000E+00
  0.00000000E+00  0.00000000E+00  0.00000000E+00
  0.00000000E+00  0.00000000E+00  0.00000000E+00
  0.00000000E+00  0.00000000E+00  0.00000000E+00
  0.00000000E+00  0.00000000E+00  0.00000000E+00
  0.00000000E+00  0.00000000E+00  0.00000000E+00
  0.00000000E+00  0.00000000E+00  0.00000000E+00
  0.00000000E+00  0.00000000E+00  0.00000000E+00
  0.00000000E+00  0.00000000E+00  0.00000000E+00
  0.00000000E+00  0.00000000E+00  0.00000000E+00
  0.00000000E+00  0.00000000E+00  0.00000000E+00
  0.00000000E+00  0.00000000E+00  0.00000000E+00
  0.00000000E+00  0.00000000E+00  0.00000000E+00
  0.00000000E+00  0.00000000E+00  0.00000000E+00
  0.00000000E+00  0.00000000E+00  0.00000000E+00
  0.00000000E+00  0.00000000E+00  0.00000000E+00
  0.00000000E+00  0.00000000E+00  0.00000000E+00
  0.00000000E+00  0.00000000E+00  0.00000000E+00
  0.00000000E+00  0.00000000E+00  0.00000000E+00
  0.00000000E+00  0.00000000E+00  0.00000000E+00
  0.00000000E+00  0.00000000E+00  0.00000000E+00
  0.00000000E+00  0.00000000E+00  0.00000000E+00
  0.00000000E+00  0.00000000E+00  0.00000000E+00
  0.00000000E+00  0.00000000E+00  0.00000000E+00
  0.00000000E+00  0.00000000E+00  0.00000000E+00
  0.00000000E+00  0.00000000E+00  0.00000000E+00
  0.00000000E+00  0.00000000E+00  0.00000000E+00
  0.00000000E+00  0.00000000E+00  0.00000000E+00
  0.00000000E+00  0.00000000E+00  0.00000000E+00
  0.00000000E+00  0.00000000E+00  0.00000000E+00
  0.00000000E+00  0.00000000E+00  0.00000000E+00
  0.00000000E+00  0.00000000E+00  0.00000000E+00
  0.00000000E+00  0.00000000E+00  0.00000000E+00
  0.00000000E+00  0.00000000E+00  0.00000000E+00
  0.00000000E+00  0.00000000E+00  0.00000000E+00
  0.00000000E+00  0.00000000E+00  0.00000000E+00
  0.00000000E+00  0.00000000E+00  0.00000000E+00
  0.00000000E+00  0.00000000E+00  0.00000000E+00
  0.00000000E+00  0.00000000E+00  0.00000000E+00
  0.00000000E+00  0.00000000E+00  0.00000000E+00
  0.00000000E+00  0.00000000E+00  0.00000000E+00
  0.00000000E+00  0.00000000E+00  0.00000000E+00
  0.00000000E+00  0.00000000E+00  0.00000000E+00
  0.00000000E+00  0.00000000E+00  0.00000000E+00
  0.00000000E+00  0.00000000E+00  0.00000000E+00
  0.00000000E+00  0.00000000E+00  0.00000000E+00
  0.00000000E+00  0.00000000E+00  0.00000000E+00
  0.00000000E+00  0.00000000E+00  0.00000000E+00
  0.00000000E+00  0.00000000E+00  0.00000000E+00
  0.00000000E+00  0.00000000E+00  0.00000000E+00
  0.00000000E+00  0.00000000E+00  0.00000000E+00
  0.00000000E+00  0.00000000E+00  0.00000000E+00
  0.00000000E+00  0.00000000E+00  0.00000000E+00
  0.00000000E+00  0.00000000E+00  0.00000000E+00
  0.00000000E+00  0.00000000E+00  0.00000000E+00
  0.00000000E+00  0.00000000E+00  0.00000000E+00
  0.00000000E+00  0.00000000E+00  0.00000000E+00
  0.00000000E+00  0.00000000E+00  0.00000000E+00
  0.00000000E+00  0.00000000E+00  0.00000000E+00
  0.00000000E+00  0.00000000E+00  0.00000000E+00
  0.00000000E+00  0.00000000E+00  0.00000000E+00
  0.00000000E+00  0.00000000E+00  0.00000000E+00
  0.00000000E+00  0.00000000E+00  0.00000000E+00
  0.00000000E+00  0.00000000E+00  0.00000000E+00
  0.00000000E+00  0.00000000E+00  0.00000000E+00
  0.00000000E+00  0.00000000E+00  0.00000000E+00
  0.00000000E+00  0.00000000E+00  0.00000000E+00
  0.00000000E+00  0.00000000E+00  0.00000000E+00
  0.00000000E+00  0.00000000E+00  0.00000000E+00
  0.00000000E+00  0.00000000E+00  0.00000000E+00
  0.00000000E+00  0.00000000E+00  0.00000000E+00
  0.00000000E+00  0.00000000E+00  0.00000000E+00
  0.00000000E+00  0.00000000E+00  0.00000000E+00
  0.00000000E+00  0.00000000E+00  0.00000000E+00
  0.00000000E+00  0.00000000E+00  0.00000000E+00
  0.00000000E+00  0.00000000E+00  0.00000000E+00
  0.00000000E+00  0.00000000E+00  0.00000000E+00
  0.00000000E+00  0.00000000E+00  0.00000000E+00
  0.00000000E+00  0.00000000E+00  0.00000000E+00
  0.00000000E+00  0.00000000E+00  0.00000000E+00
  0.00000000E+00  0.00000000E+00  0.00000000E+00
  0.00000000E+00  0.00000000E+00  0.00000000E+00
  0.00000000E+00  0.00000000E+00  0.00000000E+00
  0.00000000E+00  0.00000000E+00  0.00000000E+00
  0.00000000E+00  0.00000000E+00  0.00000000E+00
  0.00000000E+00  0.00000000E+00  0.00000000E+00
  0.00000000E+00  0.00000000E+00  0.00000000E+00
  0.00000000E+00  0.00000000E+00  0.00000000E+00
  0.00000000E+00  0.00000000E+00  0.00000000E+00
  0.00000000E+00  0.00000000E+00  0.00000000E+00
  0.00000000E+00  0.00000000E+00  0.00000000E+00
  0.00000000E+00  0.00000000E+00  0.00000000E+00
  0.00000000E+00  0.00000000E+00  0.00000000E+00
  0.00000000E+00  0.00000000E+00  0.00000000E+00
  0.00000000E+00  0.00000000E+00  0.00000000E+00
  0.00000000E+00  0.00000000E+00  0.00000000E+00
  0.00000000E+00  0.00000000E+00  0.00000000E+00
  0.00000000E+00  0.00000000E+00  0.00000000E+00
  0.00000000E+00  0.00000000E+00  0.00000000E+00
  0.00000000E+00  0.00000000E+00  0.00000000E+00
  0.00000000E+00  0.00000000E+00  0.00000000E+00
  0.00000000E+00  0.00000000E+00  0.00000000E+00
  0.00000000E+00  0.00000000E+00  0.00000000E+00
  0.00000000E+00  0.00000000E+00  0.00000000E+00
  0.00000000E+00  0.00000000E+00  0.00000000E+00
  0.00000000E+00  0.00000000E+00  0.00000000E+00
  0.00000000E+00  0.00000000E+00  0.00000000E+00
  0.00000000E+00  0.00000000E+00  0.00000000E+00
  0.00000000E+00  0.00000000E+00  0.00000000E+00
  0.00000000E+00  0.00000000E+00  0.00000000E+00
  0.00000000E+00  0.00000000E+00  0.00000000E+00
  0.00000000E+00  0.00000000E+00  0.00000000E+00
  0.00000000E+00  0.00000000E+00  0.00000000E+00
  0.00000000E+00  0.00000000E+00  0.00000000E+00
  0.00000000E+00  0.00000000E+00  0.00000000E+00
  0.00000000E+00  0.00000000E+00  0.00000000E+00
  0.00000000E+00  0.00000000E+00  0.00000000E+00
  0.00000000E+00  0.00000000E+00  0.00000000E+00
  0.00000000E+00  0.00000000E+00  0.00000000E+00
  0.00000000E+00  0.00000000E+00  0.00000000E+00
  0.00000000E+00  0.00000000E+00  0.00000000E+00
  0.00000000E+00  0.00000000E+00  0.00000000E+00
  0.00000000E+00  0.00000000E+00  0.00000000E+00
