fcc Si+fcc Ge
    1.000000000
   12.253652517    0.000000000    0.000000000
   -2.450730503   18.009117691    0.000000000
    0.000000000    0.000000000   23.943001579
Si    Ge   
72     154
Direct
    0.000000000    0.000000000    0.000000000
    0.694444444    0.972222222    0.046719302
    0.388888889    0.944444444    0.093438604
    0.083333333    0.916666667    0.140157905
    0.777777778    0.888888889    0.186877207
    0.472222222    0.861111111    0.233596509
    0.666666667    0.333333333    0.000000000
    0.361111111    0.305555556    0.046719302
    0.055555556    0.277777778    0.093438604
    0.750000000    0.250000000    0.140157905
    0.444444444    0.222222222    0.186877207
    0.138888889    0.194444444    0.233596509
    0.333333333    0.666666667    0.000000000
    0.027777778    0.638888889    0.046719302
    0.722222222    0.611111111    0.093438604
    0.416666667    0.583333333    0.140157905
    0.111111111    0.555555556    0.186877207
    0.805555556    0.527777778    0.233596509
    0.833333333    0.166666667    0.000000000
    0.527777778    0.138888889    0.046719302
    0.222222222    0.111111111    0.093438604
    0.916666667    0.083333333    0.140157905
    0.611111111    0.055555556    0.186877207
    0.305555556    0.027777778    0.233596509
    0.500000000    0.500000000    0.000000000
    0.194444444    0.472222222    0.046719302
    0.888888889    0.444444444    0.093438604
    0.583333333    0.416666667    0.140157905
    0.277777778    0.388888889    0.186877207
    0.972222222    0.361111111    0.233596509
    0.166666667    0.833333333    0.000000000
    0.861111111    0.805555556    0.046719302
    0.555555556    0.777777778    0.093438604
    0.250000000    0.750000000    0.140157905
    0.944444444    0.722222222    0.186877207
    0.638888889    0.694444444    0.233596509
    0.000000000    0.250000000    0.000000000
    0.694444444    0.222222222    0.046719302
    0.388888889    0.194444444    0.093438604
    0.083333333    0.166666667    0.140157905
    0.777777778    0.138888889    0.186877207
    0.472222222    0.111111111    0.233596509
    0.666666667    0.583333333    0.000000000
    0.361111111    0.555555556    0.046719302
    0.055555556    0.527777778    0.093438604
    0.750000000    0.500000000    0.140157905
    0.444444444    0.472222222    0.186877207
    0.138888889    0.444444444    0.233596509
    0.333333333    0.916666667    0.000000000
    0.027777778    0.888888889    0.046719302
    0.722222222    0.861111111    0.093438604
    0.416666667    0.833333333    0.140157905
    0.111111111    0.805555556    0.186877207
    0.805555556    0.777777778    0.233596509
    0.166666667    0.083333333    0.000000000
    0.861111111    0.055555556    0.046719302
    0.555555556    0.027777778    0.093438604
    0.250000000    0.000000000    0.140157905
    0.944444444    0.972222222    0.186877207
    0.638888889    0.944444444    0.233596509
    0.833333333    0.416666667    0.000000000
    0.527777778    0.388888889    0.046719302
    0.222222222    0.361111111    0.093438604
    0.916666667    0.333333333    0.140157905
    0.611111111    0.305555556    0.186877207
    0.305555556    0.277777778    0.233596509
    0.500000000    0.750000000    0.000000000
    0.194444444    0.722222222    0.046719302
    0.888888889    0.694444444    0.093438604
    0.583333333    0.666666667    0.140157905
    0.277777778    0.638888889    0.186877207
    0.972222222    0.611111111    0.233596509
    0.397540984    0.066298343    0.380403499
    0.897540984    0.066298343    0.498600877
    0.397540984    0.066298343    0.616798254
    0.897540984    0.066298343    0.734995632
    0.397540984    0.066298343    0.853193010
    0.826112412    0.209155485    0.380403499
    0.326112412    0.209155485    0.498600877
    0.826112412    0.209155485    0.616798254
    0.326112412    0.209155485    0.734995632
    0.826112412    0.209155485    0.853193010
    0.254683841    0.352012628    0.380403499
    0.754683841    0.352012628    0.498600877
    0.254683841    0.352012628    0.616798254
    0.754683841    0.352012628    0.734995632
    0.254683841    0.352012628    0.853193010
    0.683255269    0.494869771    0.380403499
    0.183255269    0.494869771    0.498600877
    0.683255269    0.494869771    0.616798254
    0.183255269    0.494869771    0.734995632
    0.683255269    0.494869771    0.853193010
    0.111826698    0.637726914    0.380403499
    0.611826698    0.637726914    0.498600877
    0.111826698    0.637726914    0.616798254
    0.611826698    0.637726914    0.734995632
    0.111826698    0.637726914    0.853193010
    0.540398126    0.780584057    0.380403499
    0.040398126    0.780584057    0.498600877
    0.540398126    0.780584057    0.616798254
    0.040398126    0.780584057    0.734995632
    0.540398126    0.780584057    0.853193010
    0.968969555    0.923441200    0.380403499
    0.468969555    0.923441200    0.498600877
    0.968969555    0.923441200    0.616798254
    0.468969555    0.923441200    0.734995632
    0.968969555    0.923441200    0.853193010
    0.111826698    0.137726914    0.380403499
    0.611826698    0.137726914    0.498600877
    0.111826698    0.137726914    0.616798254
    0.611826698    0.137726914    0.734995632
    0.111826698    0.137726914    0.853193010
    0.540398126    0.280584057    0.380403499
    0.040398126    0.280584057    0.498600877
    0.540398126    0.280584057    0.616798254
    0.040398126    0.280584057    0.734995632
    0.540398126    0.280584057    0.853193010
    0.968969555    0.423441200    0.380403499
    0.468969555    0.423441200    0.498600877
    0.968969555    0.423441200    0.616798254
    0.468969555    0.423441200    0.734995632
    0.968969555    0.423441200    0.853193010
    0.397540984    0.566298343    0.380403499
    0.897540984    0.566298343    0.498600877
    0.397540984    0.566298343    0.616798254
    0.897540984    0.566298343    0.734995632
    0.397540984    0.566298343    0.853193010
    0.826112412    0.709155485    0.380403499
    0.326112412    0.709155485    0.498600877
    0.826112412    0.709155485    0.616798254
    0.326112412    0.709155485    0.734995632
    0.826112412    0.709155485    0.853193010
    0.254683841    0.852012628    0.380403499
    0.754683841    0.852012628    0.498600877
    0.254683841    0.852012628    0.616798254
    0.754683841    0.852012628    0.734995632
    0.254683841    0.852012628    0.853193010
    0.683255269    0.994869771    0.380403499
    0.183255269    0.994869771    0.498600877
    0.683255269    0.994869771    0.616798254
    0.183255269    0.994869771    0.734995632
    0.683255269    0.994869771    0.853193010
    0.968969555    0.173441200    0.321304810
    0.468969555    0.173441200    0.439502188
    0.968969555    0.173441200    0.557699566
    0.468969555    0.173441200    0.675896943
    0.968969555    0.173441200    0.794094321
    0.468969555    0.173441200    0.912291699
    0.397540984    0.316298343    0.321304810
    0.897540984    0.316298343    0.439502188
    0.397540984    0.316298343    0.557699566
    0.897540984    0.316298343    0.675896943
    0.397540984    0.316298343    0.794094321
    0.897540984    0.316298343    0.912291699
    0.826112412    0.459155485    0.321304810
    0.326112412    0.459155485    0.439502188
    0.826112412    0.459155485    0.557699566
    0.326112412    0.459155485    0.675896943
    0.826112412    0.459155485    0.794094321
    0.326112412    0.459155485    0.912291699
    0.254683841    0.602012628    0.321304810
    0.754683841    0.602012628    0.439502188
    0.254683841    0.602012628    0.557699566
    0.754683841    0.602012628    0.675896943
    0.254683841    0.602012628    0.794094321
    0.754683841    0.602012628    0.912291699
    0.683255269    0.744869771    0.321304810
    0.183255269    0.744869771    0.439502188
    0.683255269    0.744869771    0.557699566
    0.183255269    0.744869771    0.675896943
    0.683255269    0.744869771    0.794094321
    0.183255269    0.744869771    0.912291699
    0.111826698    0.887726914    0.321304810
    0.611826698    0.887726914    0.439502188
    0.111826698    0.887726914    0.557699566
    0.611826698    0.887726914    0.675896943
    0.111826698    0.887726914    0.794094321
    0.611826698    0.887726914    0.912291699
    0.540398126    0.030584057    0.321304810
    0.040398126    0.030584057    0.439502188
    0.540398126    0.030584057    0.557699566
    0.040398126    0.030584057    0.675896943
    0.540398126    0.030584057    0.794094321
    0.040398126    0.030584057    0.912291699
    0.254683841    0.102012628    0.321304810
    0.754683841    0.102012628    0.439502188
    0.254683841    0.102012628    0.557699566
    0.754683841    0.102012628    0.675896943
    0.254683841    0.102012628    0.794094321
    0.754683841    0.102012628    0.912291699
    0.683255269    0.244869771    0.321304810
    0.183255269    0.244869771    0.439502188
    0.683255269    0.244869771    0.557699566
    0.183255269    0.244869771    0.675896943
    0.683255269    0.244869771    0.794094321
    0.183255269    0.244869771    0.912291699
    0.111826698    0.387726914    0.321304810
    0.611826698    0.387726914    0.439502188
    0.111826698    0.387726914    0.557699566
    0.611826698    0.387726914    0.675896943
    0.111826698    0.387726914    0.794094321
    0.611826698    0.387726914    0.912291699
    0.540398126    0.530584057    0.321304810
    0.040398126    0.530584057    0.439502188
    0.540398126    0.530584057    0.557699566
    0.040398126    0.530584057    0.675896943
    0.540398126    0.530584057    0.794094321
    0.040398126    0.530584057    0.912291699
    0.968969555    0.673441200    0.321304810
    0.468969555    0.673441200    0.439502188
    0.968969555    0.673441200    0.557699566
    0.468969555    0.673441200    0.675896943
    0.968969555    0.673441200    0.794094321
    0.468969555    0.673441200    0.912291699
    0.397540984    0.816298343    0.321304810
    0.897540984    0.816298343    0.439502188
    0.397540984    0.816298343    0.557699566
    0.897540984    0.816298343    0.675896943
    0.397540984    0.816298343    0.794094321
    0.897540984    0.816298343    0.912291699
    0.826112412    0.959155485    0.321304810
    0.326112412    0.959155485    0.439502188
    0.826112412    0.959155485    0.557699566
    0.326112412    0.959155485    0.675896943
    0.826112412    0.959155485    0.794094321
    0.326112412    0.959155485    0.912291699
