Ge+Si
    1.000000000
    5.657800198    0.000000000    0.000000000
    0.000000000   16.002676010    0.000000000
    0.000000000    0.000000000   16.790424347
Ge  Si 
48     36
Direct
    0.058674481    0.455994159    0.000000028
    0.558674514    0.080994137    0.119135447
    0.058674455    0.705994129    0.238270894
    0.558674216    0.330994248    0.357406288
    0.058674574    0.955994129    0.476541728
    0.558674574    0.580994129    0.595677197
    0.058674481    0.955994129    0.000000024
    0.558674514    0.580994129    0.119135477
    0.058674455    0.205994129    0.238270879
    0.558674216    0.830994368    0.357406288
    0.058674574    0.455994129    0.476541758
    0.558674574    0.080994129    0.595677137
    0.058674481    0.705994129    0.000000032
    0.558674514    0.330994129    0.119135447
    0.058674455    0.955994129    0.238270879
    0.558674216    0.580994248    0.357406318
    0.058674574    0.205994189    0.476541758
    0.558674574    0.830994129    0.595677197
    0.058674481    0.205994144    0.000000027
    0.558674514    0.830994129    0.119135447
    0.058674455    0.455994129    0.238270879
    0.558674216    0.080994248    0.357406318
    0.058674574    0.705994248    0.476541728
    0.558674574    0.330994129    0.595677137
    0.808674455    0.580994189    0.000000040
    0.308674455    0.205994159    0.119135447
    0.808674574    0.830994129    0.238270879
    0.308674335    0.455994248    0.357406288
    0.808674574    0.080994189    0.476541758
    0.308674335    0.705994129    0.595677197
    0.808674455    0.080994137    0.000000020
    0.308674455    0.705994129    0.119135447
    0.808674574    0.330994129    0.238270879
    0.308674335    0.955994248    0.357406318
    0.808674574    0.580994248    0.476541728
    0.308674335    0.205994010    0.595677137
    0.808674455    0.830994189    0.000000000
    0.308674455    0.455994189    0.119135447
    0.808674574    0.080994174    0.238270879
    0.308674335    0.705994308    0.357406288
    0.808674574    0.330994248    0.476541728
    0.308674335    0.955994129    0.595677137
    0.808674455    0.330994129    0.000000028
    0.308674455    0.955994129    0.119135477
    0.808674574    0.580994129    0.238270879
    0.308674335    0.205994248    0.357406318
    0.808674574    0.830994129    0.476541728
    0.308674335    0.455994129    0.595677137
    0.017796859    0.666666746    0.595677257
    0.517796874    0.666666746    0.757406414
    0.017796874    0.666666746    0.919135451
    0.017796859    0.333333373    0.595677257
    0.517796874    0.333333373    0.757406414
    0.017796874    0.333333373    0.919135451
    0.017796859    0.000000000    0.595677257
    0.517796874    0.000000000    0.757406414
    0.017796874    0.000000000    0.919135451
    0.267796874    0.916666746    0.676541746
    0.767796934    0.916666746    0.838270903
    0.267796993    0.916666746    1.000000000
    0.267796874    0.583333433    0.676541746
    0.767796934    0.583333433    0.838270903
    0.267796993    0.583333433    1.000000000
    0.267796874    0.250000000    0.676541746
    0.767796934    0.250000000    0.838270903
    0.267796993    0.250000000    1.000000000
    0.517796874    0.833333313    0.595677257
    0.017796874    0.833333313    0.757406414
    0.517796993    0.833333313    0.919135451
    0.517796874    0.500000000    0.595677257
    0.017796874    0.500000000    0.757406414
    0.517796993    0.500000000    0.919135451
    0.517796874    0.166666687    0.595677257
    0.017796874    0.166666687    0.757406414
    0.517796993    0.166666687    0.919135451
    0.767796934    0.750000060    0.676541746
    0.267796874    0.750000060    0.838270903
    0.767796993    0.750000060    1.000000000
    0.767796934    0.416666687    0.676541746
    0.267796874    0.416666687    0.838270903
    0.767796993    0.416666687    1.000000000
    0.767796934    0.083333351    0.676541746
    0.267796874    0.083333351    0.838270903
    0.767796993    0.083333351    1.000000000
