fcc Si+fcc Ge
    1.000000000
   12.253652517    0.000000000    0.000000000
  -12.253652517   12.253652517    0.000000000
    0.000000000    0.000000000   32.050000000
Si    Ge   
110     110
Direct
    0.450000000    0.900000000    0.042745710
    0.550000000    0.100000000    0.128237129
    0.650000000    0.300000000    0.213728549
    0.750000000    0.500000000    0.299219969
    0.850000000    0.700000000    0.384711388
    0.250000000    0.500000000    0.042745710
    0.350000000    0.700000000    0.128237129
    0.450000000    0.900000000    0.213728549
    0.550000000    0.100000000    0.299219969
    0.650000000    0.300000000    0.384711388
    0.850000000    0.700000000    0.042745710
    0.950000000    0.900000000    0.128237129
    0.050000000    0.100000000    0.213728549
    0.150000000    0.300000000    0.299219969
    0.250000000    0.500000000    0.384711388
    0.050000000    0.100000000    0.042745710
    0.150000000    0.300000000    0.128237129
    0.250000000    0.500000000    0.213728549
    0.350000000    0.700000000    0.299219969
    0.450000000    0.900000000    0.384711388
    0.650000000    0.300000000    0.042745710
    0.750000000    0.500000000    0.128237129
    0.850000000    0.700000000    0.213728549
    0.950000000    0.900000000    0.299219969
    0.050000000    0.100000000    0.384711388
    0.250000000    0.000000000    0.042745710
    0.350000000    0.200000000    0.128237129
    0.450000000    0.400000000    0.213728549
    0.550000000    0.600000000    0.299219969
    0.650000000    0.800000000    0.384711388
    0.050000000    0.600000000    0.042745710
    0.150000000    0.800000000    0.128237129
    0.250000000    0.000000000    0.213728549
    0.350000000    0.200000000    0.299219969
    0.450000000    0.400000000    0.384711388
    0.650000000    0.800000000    0.042745710
    0.750000000    0.000000000    0.128237129
    0.850000000    0.200000000    0.213728549
    0.950000000    0.400000000    0.299219969
    0.050000000    0.600000000    0.384711388
    0.450000000    0.400000000    0.042745710
    0.550000000    0.600000000    0.128237129
    0.650000000    0.800000000    0.213728549
    0.750000000    0.000000000    0.299219969
    0.850000000    0.200000000    0.384711388
    0.850000000    0.200000000    0.042745710
    0.950000000    0.400000000    0.128237129
    0.050000000    0.600000000    0.213728549
    0.150000000    0.800000000    0.299219969
    0.250000000    0.000000000    0.384711388
    0.050000000    0.850000000    0.000000000
    0.150000000    0.050000000    0.085491420
    0.250000000    0.250000000    0.170982839
    0.350000000    0.450000000    0.256474259
    0.450000000    0.650000000    0.341965679
    0.550000000    0.850000000    0.427457098
    0.450000000    0.650000000    0.000000000
    0.550000000    0.850000000    0.085491420
    0.650000000    0.050000000    0.170982839
    0.750000000    0.250000000    0.256474259
    0.850000000    0.450000000    0.341965679
    0.950000000    0.650000000    0.427457098
    0.250000000    0.250000000    0.000000000
    0.350000000    0.450000000    0.085491420
    0.450000000    0.650000000    0.170982839
    0.550000000    0.850000000    0.256474259
    0.650000000    0.050000000    0.341965679
    0.750000000    0.250000000    0.427457098
    0.850000000    0.450000000    0.000000000
    0.950000000    0.650000000    0.085491420
    0.050000000    0.850000000    0.170982839
    0.150000000    0.050000000    0.256474259
    0.250000000    0.250000000    0.341965679
    0.350000000    0.450000000    0.427457098
    0.650000000    0.050000000    0.000000000
    0.750000000    0.250000000    0.085491420
    0.850000000    0.450000000    0.170982839
    0.950000000    0.650000000    0.256474259
    0.050000000    0.850000000    0.341965679
    0.150000000    0.050000000    0.427457098
    0.250000000    0.750000000    0.000000000
    0.350000000    0.950000000    0.085491420
    0.450000000    0.150000000    0.170982839
    0.550000000    0.350000000    0.256474259
    0.650000000    0.550000000    0.341965679
    0.750000000    0.750000000    0.427457098
    0.050000000    0.350000000    0.000000000
    0.150000000    0.550000000    0.085491420
    0.250000000    0.750000000    0.170982839
    0.350000000    0.950000000    0.256474259
    0.450000000    0.150000000    0.341965679
    0.550000000    0.350000000    0.427457098
    0.650000000    0.550000000    0.000000000
    0.750000000    0.750000000    0.085491420
    0.850000000    0.950000000    0.170982839
    0.950000000    0.150000000    0.256474259
    0.050000000    0.350000000    0.341965679
    0.150000000    0.550000000    0.427457098
    0.450000000    0.150000000    0.000000000
    0.550000000    0.350000000    0.085491420
    0.650000000    0.550000000    0.170982839
    0.750000000    0.750000000    0.256474259
    0.850000000    0.950000000    0.341965679
    0.950000000    0.150000000    0.427457098
    0.850000000    0.950000000    0.000000000
    0.950000000    0.150000000    0.085491420
    0.050000000    0.350000000    0.170982839
    0.150000000    0.550000000    0.256474259
    0.250000000    0.750000000    0.341965679
    0.350000000    0.950000000    0.427457098
    0.249180328    0.846511628    0.492979719
    0.349180328    0.746511628    0.581279251
    0.449180328    0.646511628    0.669578783
    0.549180328    0.546511628    0.757878315
    0.649180328    0.446511628    0.846177847
    0.749180328    0.346511628    0.934477379
    0.449180328    0.646511628    0.492979719
    0.549180328    0.546511628    0.581279251
    0.649180328    0.446511628    0.669578783
    0.749180328    0.346511628    0.757878315
    0.849180328    0.246511628    0.846177847
    0.949180328    0.146511628    0.934477379
    0.049180328    0.046511628    0.492979719
    0.149180328    0.946511628    0.581279251
    0.249180328    0.846511628    0.669578783
    0.349180328    0.746511628    0.757878315
    0.449180328    0.646511628    0.846177847
    0.549180328    0.546511628    0.934477379
    0.649180328    0.446511628    0.492979719
    0.749180328    0.346511628    0.581279251
    0.849180328    0.246511628    0.669578783
    0.949180328    0.146511628    0.757878315
    0.049180328    0.046511628    0.846177847
    0.149180328    0.946511628    0.934477379
    0.849180328    0.246511628    0.492979719
    0.949180328    0.146511628    0.581279251
    0.049180328    0.046511628    0.669578783
    0.149180328    0.946511628    0.757878315
    0.249180328    0.846511628    0.846177847
    0.349180328    0.746511628    0.934477379
    0.049180328    0.546511628    0.492979719
    0.149180328    0.446511628    0.581279251
    0.249180328    0.346511628    0.669578783
    0.349180328    0.246511628    0.757878315
    0.449180328    0.146511628    0.846177847
    0.549180328    0.046511628    0.934477379
    0.649180328    0.946511628    0.492979719
    0.749180328    0.846511628    0.581279251
    0.849180328    0.746511628    0.669578783
    0.949180328    0.646511628    0.757878315
    0.049180328    0.546511628    0.846177847
    0.149180328    0.446511628    0.934477379
    0.249180328    0.346511628    0.492979719
    0.349180328    0.246511628    0.581279251
    0.449180328    0.146511628    0.669578783
    0.549180328    0.046511628    0.757878315
    0.649180328    0.946511628    0.846177847
    0.749180328    0.846511628    0.934477379
    0.849180328    0.746511628    0.492979719
    0.949180328    0.646511628    0.581279251
    0.049180328    0.546511628    0.669578783
    0.149180328    0.446511628    0.757878315
    0.249180328    0.346511628    0.846177847
    0.349180328    0.246511628    0.934477379
    0.449180328    0.146511628    0.492979719
    0.549180328    0.046511628    0.581279251
    0.649180328    0.946511628    0.669578783
    0.749180328    0.846511628    0.757878315
    0.849180328    0.746511628    0.846177847
    0.949180328    0.646511628    0.934477379
    0.449180328    0.896511628    0.537129485
    0.549180328    0.796511628    0.625429017
    0.649180328    0.696511628    0.713728549
    0.749180328    0.596511628    0.802028081
    0.849180328    0.496511628    0.890327613
    0.049180328    0.296511628    0.537129485
    0.149180328    0.196511628    0.625429017
    0.249180328    0.096511628    0.713728549
    0.349180328    0.996511628    0.802028081
    0.449180328    0.896511628    0.890327613
    0.649180328    0.696511628    0.537129485
    0.749180328    0.596511628    0.625429017
    0.849180328    0.496511628    0.713728549
    0.949180328    0.396511628    0.802028081
    0.049180328    0.296511628    0.890327613
    0.249180328    0.096511628    0.537129485
    0.349180328    0.996511628    0.625429017
    0.449180328    0.896511628    0.713728549
    0.549180328    0.796511628    0.802028081
    0.649180328    0.696511628    0.890327613
    0.849180328    0.496511628    0.537129485
    0.949180328    0.396511628    0.625429017
    0.049180328    0.296511628    0.713728549
    0.149180328    0.196511628    0.802028081
    0.249180328    0.096511628    0.890327613
    0.049180328    0.796511628    0.537129485
    0.149180328    0.696511628    0.625429017
    0.249180328    0.596511628    0.713728549
    0.349180328    0.496511628    0.802028081
    0.449180328    0.396511628    0.890327613
    0.249180328    0.596511628    0.537129485
    0.349180328    0.496511628    0.625429017
    0.449180328    0.396511628    0.713728549
    0.549180328    0.296511628    0.802028081
    0.649180328    0.196511628    0.890327613
    0.849180328    0.996511628    0.537129485
    0.949180328    0.896511628    0.625429017
    0.049180328    0.796511628    0.713728549
    0.149180328    0.696511628    0.802028081
    0.249180328    0.596511628    0.890327613
    0.449180328    0.396511628    0.537129485
    0.549180328    0.296511628    0.625429017
    0.649180328    0.196511628    0.713728549
    0.749180328    0.096511628    0.802028081
    0.849180328    0.996511628    0.890327613
    0.649180328    0.196511628    0.537129485
    0.749180328    0.096511628    0.625429017
    0.849180328    0.996511628    0.713728549
    0.949180328    0.896511628    0.802028081
    0.049180328    0.796511628    0.890327613
