Sn+Si                                   
   1.00000000000000     
    12.9784002300000001    0.0000000000000000    0.0000000000000000
   -12.9784002300000001    9.1771144870000008    0.0000000000000000
     0.0000000000000000    0.0000000000000000   21.0721416469999987
   Sn   Si
    48    72
Direct
  0.0000000000000000  0.0179795080000034  0.0000000140000012
  0.0000000000000000  0.2679795029999994  0.1088773310000022
  0.0000000169999979  0.5179795620000007  0.2177547069999974
  0.0000000249999985  0.7679795620000007  0.3266320230000019
  0.0000000000000000  0.0179796219999986  0.4355093839999995
  0.0000000539999974  0.2679796219999986  0.5443867440000005
  0.5000000000000000  0.0179795080000034  0.0000000140000012
  0.4999999699999975  0.2679795029999994  0.1088773310000022
  0.5000000000000000  0.5179795620000007  0.2177547069999974
  0.4999999400000021  0.7679795620000007  0.3266320230000019
  0.4999999699999975  0.0179796219999986  0.4355093839999995
  0.5000000000000000  0.2679796219999986  0.5443867440000005
  0.0000000550000010  0.5179795029999994  0.0000000160000013
  0.0000000000000000  0.7679795029999994  0.1088773459999999
  0.0000000850000035  0.0179796219999986  0.2177547069999974
  0.0000000920000005  0.2679796219999986  0.3266320230000019
  0.0000000269999987  0.5179795029999994  0.4355093839999995
  0.9999999400000021  0.7679796219999986  0.5443867440000005
  0.4999999699999975  0.5179795029999994  0.0000000160000013
  0.5000000000000000  0.7679795029999994  0.1088773459999999
  0.5000000000000000  0.0179796219999986  0.2177547069999974
  0.5000000599999979  0.2679796219999986  0.3266320230000019
  0.4999999110000033  0.5179795029999994  0.4355093839999995
  0.5000000599999979  0.7679796219999986  0.5443867440000005
  0.1249999930000030  0.2679795029999994  0.0000000149999977
  0.1250000000000000  0.5179795029999994  0.1088773459999999
  0.1250000149999977  0.7679795620000007  0.2177547069999974
  0.1250000300000025  0.0179796219999986  0.3266320230000019
  0.1249999779999982  0.2679796219999986  0.4355094129999983
  0.1249999850000023  0.5179796219999986  0.5443867440000005
  0.6249999400000021  0.2679795029999994  0.0000000149999977
  0.6249999400000021  0.5179795029999994  0.1088773459999999
  0.6249999400000021  0.7679795620000007  0.2177547069999974
  0.6249998810000008  0.0179796219999986  0.3266320230000019
  0.6249999400000021  0.2679796219999986  0.4355094129999983
  0.6249998810000008  0.5179796219999986  0.5443867440000005
  0.1249999930000030  0.7679794430000015  0.0000000000000000
  0.1250000599999979  0.0179795029999994  0.1088773459999999
  0.1250000149999977  0.2679795029999994  0.2177546919999997
  0.1249999779999982  0.5179796219999986  0.3266320230000019
  0.1249999850000023  0.7679796219999986  0.4355094129999983
  0.1249999930000030  0.0179796219999986  0.5443867440000005
  0.6249998810000008  0.7679794430000015  0.0000000000000000
  0.6249999400000021  0.0179795029999994  0.1088773459999999
  0.6249999400000021  0.2679795029999994  0.2177546919999997
  0.6249999400000021  0.5179796219999986  0.3266320230000019
  0.6250000000000000  0.7679796219999986  0.4355094129999983
  0.6249998810000008  0.0179796219999986  0.5443867440000005
  0.3118506069999967  0.6666666870000029  0.5443867440000005
  0.0618505440000021  0.6666666269999979  0.6355093720000013
  0.8118504879999975  0.6666666269999979  0.7266319989999985
  0.5618505480000024  0.6666666269999979  0.8177545670000015
  0.3118503090000004  0.6666665670000000  0.9088771939999987
  0.0618503689999983  0.6666666269999979  0.9999998210000030
  0.9785172939999995  0.0000000000000000  0.5443867440000005
  0.7285171750000003  0.0000000000000000  0.6355093720000013
  0.4785171150000025  0.9999999400000021  0.7266319989999985
  0.2285171750000003  0.9999999400000021  0.8177545670000015
  0.9785170560000012  0.9999999400000021  0.9088771939999987
  0.7285170560000012  0.9999999400000021  0.9999998210000030
  0.6451839799999988  0.3333333429999996  0.5443867440000005
  0.3951839509999999  0.3333333429999996  0.6355093720000013
  0.1451838759999973  0.3333333429999996  0.7266319989999985
  0.8951839209999974  0.3333333429999996  0.8177545670000015
  0.6451838019999983  0.3333333129999971  0.9088771939999987
  0.3951838019999983  0.3333333429999996  0.9999998210000030
  0.1451839509999999  0.3333333429999996  0.5443867440000005
  0.8951838609999996  0.3333333129999971  0.6355093720000013
  0.6451838019999983  0.3333333129999971  0.7266319989999985
  0.3951838019999983  0.3333332839999983  0.8177545670000015
  0.1451837420000004  0.3333332839999983  0.9088771939999987
  0.8951838019999983  0.3333333730000021  0.9999998210000030
  0.8118506069999967  0.6666666870000029  0.5443867440000005
  0.5618506069999967  0.6666666870000029  0.6355093720000013
  0.3118505180000000  0.6666666870000029  0.7266319989999985
  0.0618505440000021  0.6666666269999979  0.8177545670000015
  0.8118503689999983  0.6666666269999979  0.9088771939999987
  0.5618503090000004  0.6666666870000029  0.9999998210000030
  0.4785172639999971  0.0000000000000000  0.5443867440000005
  0.2285172340000017  0.0000000000000000  0.6355093720000013
  0.9785171750000003  0.9999999400000021  0.7266319989999985
  0.7285171750000003  0.9999999400000021  0.8177545670000015
  0.4785171150000025  0.9999999400000021  0.9088771939999987
  0.2285169359999983  0.9999999400000021  0.9999998210000030
  0.2285173089999972  0.7500000000000000  0.5443867440000005
  0.9785172340000017  0.7500000000000000  0.6355093720000013
  0.7285171750000003  0.7500000000000000  0.7266319989999985
  0.4785170560000012  0.7499998810000008  0.8177545670000015
  0.2285171150000025  0.7499999400000021  0.9088770749999995
  0.9785170560000012  0.7500000000000000  0.9999998210000030
  0.5618506670000016  0.4166666870000029  0.5443867440000005
  0.3118505779999978  0.4166666570000004  0.6355093720000013
  0.0618504919999978  0.4166666269999979  0.7266319989999985
  0.8118504879999975  0.4166666269999979  0.8177545670000015
  0.5618504290000033  0.4166666269999979  0.9088771939999987
  0.3118501900000012  0.4166665380000012  0.9999998210000030
  0.8951840399999966  0.0833333659999980  0.5443867440000005
  0.6451838609999996  0.0833332990000031  0.6355093720000013
  0.3951838609999996  0.0833332990000031  0.7266319989999985
  0.1451838609999996  0.0833332759999976  0.8177545670000015
  0.8951837420000004  0.0833332609999999  0.9088771939999987
  0.6451836820000025  0.0833332320000011  0.9999998210000030
  0.0618506040000000  0.4166666570000004  0.5443867440000005
  0.8118505480000024  0.4166666870000029  0.6355093720000013
  0.5618504290000033  0.4166666570000004  0.7266319989999985
  0.3118504290000033  0.4166665670000000  0.8177545670000015
  0.0618504290000033  0.4166665970000025  0.9088771939999987
  0.8118501900000012  0.4166665670000000  0.9999998210000030
  0.7285172939999995  0.7499999400000021  0.5443867440000005
  0.4785172050000028  0.7500000000000000  0.6355093720000013
  0.2285171300000002  0.7499999400000021  0.7266319390000007
  0.9785171750000003  0.7499999400000021  0.8177545670000015
  0.7285171150000025  0.7499999400000021  0.9088771939999987
  0.4785168769999970  0.7499998210000030  0.9999998210000030
  0.3951839509999999  0.0833333280000019  0.5443867440000005
  0.1451838309999971  0.0833332910000024  0.6355093720000013
  0.8951837420000004  0.0833332910000024  0.7266319989999985
  0.6451838019999983  0.0833332320000011  0.8177545670000015
  0.3951836820000025  0.0833332910000024  0.9088771939999987
  0.1451836230000012  0.0833332540000029  0.9999998210000030
 
  0.00000000E+00  0.00000000E+00  0.00000000E+00
  0.00000000E+00  0.00000000E+00  0.00000000E+00
  0.00000000E+00  0.00000000E+00  0.00000000E+00
  0.00000000E+00  0.00000000E+00  0.00000000E+00
  0.00000000E+00  0.00000000E+00  0.00000000E+00
  0.00000000E+00  0.00000000E+00  0.00000000E+00
  0.00000000E+00  0.00000000E+00  0.00000000E+00
  0.00000000E+00  0.00000000E+00  0.00000000E+00
  0.00000000E+00  0.00000000E+00  0.00000000E+00
  0.00000000E+00  0.00000000E+00  0.00000000E+00
  0.00000000E+00  0.00000000E+00  0.00000000E+00
  0.00000000E+00  0.00000000E+00  0.00000000E+00
  0.00000000E+00  0.00000000E+00  0.00000000E+00
  0.00000000E+00  0.00000000E+00  0.00000000E+00
  0.00000000E+00  0.00000000E+00  0.00000000E+00
  0.00000000E+00  0.00000000E+00  0.00000000E+00
  0.00000000E+00  0.00000000E+00  0.00000000E+00
  0.00000000E+00  0.00000000E+00  0.00000000E+00
  0.00000000E+00  0.00000000E+00  0.00000000E+00
  0.00000000E+00  0.00000000E+00  0.00000000E+00
  0.00000000E+00  0.00000000E+00  0.00000000E+00
  0.00000000E+00  0.00000000E+00  0.00000000E+00
  0.00000000E+00  0.00000000E+00  0.00000000E+00
  0.00000000E+00  0.00000000E+00  0.00000000E+00
  0.00000000E+00  0.00000000E+00  0.00000000E+00
  0.00000000E+00  0.00000000E+00  0.00000000E+00
  0.00000000E+00  0.00000000E+00  0.00000000E+00
  0.00000000E+00  0.00000000E+00  0.00000000E+00
  0.00000000E+00  0.00000000E+00  0.00000000E+00
  0.00000000E+00  0.00000000E+00  0.00000000E+00
  0.00000000E+00  0.00000000E+00  0.00000000E+00
  0.00000000E+00  0.00000000E+00  0.00000000E+00
  0.00000000E+00  0.00000000E+00  0.00000000E+00
  0.00000000E+00  0.00000000E+00  0.00000000E+00
  0.00000000E+00  0.00000000E+00  0.00000000E+00
  0.00000000E+00  0.00000000E+00  0.00000000E+00
  0.00000000E+00  0.00000000E+00  0.00000000E+00
  0.00000000E+00  0.00000000E+00  0.00000000E+00
  0.00000000E+00  0.00000000E+00  0.00000000E+00
  0.00000000E+00  0.00000000E+00  0.00000000E+00
  0.00000000E+00  0.00000000E+00  0.00000000E+00
  0.00000000E+00  0.00000000E+00  0.00000000E+00
  0.00000000E+00  0.00000000E+00  0.00000000E+00
  0.00000000E+00  0.00000000E+00  0.00000000E+00
  0.00000000E+00  0.00000000E+00  0.00000000E+00
  0.00000000E+00  0.00000000E+00  0.00000000E+00
  0.00000000E+00  0.00000000E+00  0.00000000E+00
  0.00000000E+00  0.00000000E+00  0.00000000E+00
  0.00000000E+00  0.00000000E+00  0.00000000E+00
  0.00000000E+00  0.00000000E+00  0.00000000E+00
  0.00000000E+00  0.00000000E+00  0.00000000E+00
  0.00000000E+00  0.00000000E+00  0.00000000E+00
  0.00000000E+00  0.00000000E+00  0.00000000E+00
  0.00000000E+00  0.00000000E+00  0.00000000E+00
  0.00000000E+00  0.00000000E+00  0.00000000E+00
  0.00000000E+00  0.00000000E+00  0.00000000E+00
  0.00000000E+00  0.00000000E+00  0.00000000E+00
  0.00000000E+00  0.00000000E+00  0.00000000E+00
  0.00000000E+00  0.00000000E+00  0.00000000E+00
  0.00000000E+00  0.00000000E+00  0.00000000E+00
  0.00000000E+00  0.00000000E+00  0.00000000E+00
  0.00000000E+00  0.00000000E+00  0.00000000E+00
  0.00000000E+00  0.00000000E+00  0.00000000E+00
  0.00000000E+00  0.00000000E+00  0.00000000E+00
  0.00000000E+00  0.00000000E+00  0.00000000E+00
  0.00000000E+00  0.00000000E+00  0.00000000E+00
  0.00000000E+00  0.00000000E+00  0.00000000E+00
  0.00000000E+00  0.00000000E+00  0.00000000E+00
  0.00000000E+00  0.00000000E+00  0.00000000E+00
  0.00000000E+00  0.00000000E+00  0.00000000E+00
  0.00000000E+00  0.00000000E+00  0.00000000E+00
  0.00000000E+00  0.00000000E+00  0.00000000E+00
  0.00000000E+00  0.00000000E+00  0.00000000E+00
  0.00000000E+00  0.00000000E+00  0.00000000E+00
  0.00000000E+00  0.00000000E+00  0.00000000E+00
  0.00000000E+00  0.00000000E+00  0.00000000E+00
  0.00000000E+00  0.00000000E+00  0.00000000E+00
  0.00000000E+00  0.00000000E+00  0.00000000E+00
  0.00000000E+00  0.00000000E+00  0.00000000E+00
  0.00000000E+00  0.00000000E+00  0.00000000E+00
  0.00000000E+00  0.00000000E+00  0.00000000E+00
  0.00000000E+00  0.00000000E+00  0.00000000E+00
  0.00000000E+00  0.00000000E+00  0.00000000E+00
  0.00000000E+00  0.00000000E+00  0.00000000E+00
  0.00000000E+00  0.00000000E+00  0.00000000E+00
  0.00000000E+00  0.00000000E+00  0.00000000E+00
  0.00000000E+00  0.00000000E+00  0.00000000E+00
  0.00000000E+00  0.00000000E+00  0.00000000E+00
  0.00000000E+00  0.00000000E+00  0.00000000E+00
  0.00000000E+00  0.00000000E+00  0.00000000E+00
  0.00000000E+00  0.00000000E+00  0.00000000E+00
  0.00000000E+00  0.00000000E+00  0.00000000E+00
  0.00000000E+00  0.00000000E+00  0.00000000E+00
  0.00000000E+00  0.00000000E+00  0.00000000E+00
  0.00000000E+00  0.00000000E+00  0.00000000E+00
  0.00000000E+00  0.00000000E+00  0.00000000E+00
  0.00000000E+00  0.00000000E+00  0.00000000E+00
  0.00000000E+00  0.00000000E+00  0.00000000E+00
  0.00000000E+00  0.00000000E+00  0.00000000E+00
  0.00000000E+00  0.00000000E+00  0.00000000E+00
  0.00000000E+00  0.00000000E+00  0.00000000E+00
  0.00000000E+00  0.00000000E+00  0.00000000E+00
  0.00000000E+00  0.00000000E+00  0.00000000E+00
  0.00000000E+00  0.00000000E+00  0.00000000E+00
  0.00000000E+00  0.00000000E+00  0.00000000E+00
  0.00000000E+00  0.00000000E+00  0.00000000E+00
  0.00000000E+00  0.00000000E+00  0.00000000E+00
  0.00000000E+00  0.00000000E+00  0.00000000E+00
  0.00000000E+00  0.00000000E+00  0.00000000E+00
  0.00000000E+00  0.00000000E+00  0.00000000E+00
  0.00000000E+00  0.00000000E+00  0.00000000E+00
  0.00000000E+00  0.00000000E+00  0.00000000E+00
  0.00000000E+00  0.00000000E+00  0.00000000E+00
  0.00000000E+00  0.00000000E+00  0.00000000E+00
  0.00000000E+00  0.00000000E+00  0.00000000E+00
  0.00000000E+00  0.00000000E+00  0.00000000E+00
  0.00000000E+00  0.00000000E+00  0.00000000E+00
  0.00000000E+00  0.00000000E+00  0.00000000E+00
  0.00000000E+00  0.00000000E+00  0.00000000E+00
  0.00000000E+00  0.00000000E+00  0.00000000E+00
