Ge+Sn
    1.000000000
   19.599195480    0.000000000    0.000000000
   -6.533064842   18.478298187    0.000000000
    0.000000000    0.000000000   21.473070145
Ge  Sn 
192     144
Direct
    0.984533846    0.494844645    0.000000018
    0.797033846    0.432344615    0.093155518
    0.609533787    0.369844615    0.186311066
    0.422033846    0.307344615    0.279466540
    0.234533906    0.244844630    0.372622013
    0.047033846    0.182344645    0.465777546
    0.234533846    0.744844615    0.000000018
    0.047033850    0.682344615    0.093155518
    0.859533787    0.619844615    0.186311066
    0.672033846    0.557344615    0.279466540
    0.484533906    0.494844615    0.372622013
    0.297033846    0.432344645    0.465777546
    0.984533846    0.994844615    0.000000022
    0.797033846    0.932344615    0.093155526
    0.609533787    0.869844615    0.186311051
    0.422033846    0.807344615    0.279466540
    0.234533906    0.744844675    0.372621983
    0.047033846    0.682344615    0.465777546
    0.234533861    0.244844630    0.000000022
    0.047033854    0.182344630    0.093155526
    0.859533787    0.119844601    0.186311051
    0.672033906    0.057344597    0.279466540
    0.484533906    0.994844615    0.372621983
    0.297033846    0.932344615    0.465777546
    0.484533846    0.494844615    0.000000022
    0.297033846    0.432344615    0.093155526
    0.109533817    0.369844615    0.186311051
    0.922033846    0.307344615    0.279466540
    0.734533906    0.244844615    0.372621983
    0.547033846    0.182344615    0.465777546
    0.734533846    0.744844615    0.000000022
    0.547033846    0.682344615    0.093155526
    0.359533787    0.619844615    0.186311051
    0.172033831    0.557344615    0.279466540
    0.984533846    0.494844645    0.372622013
    0.797033846    0.432344615    0.465777546
    0.484533876    0.994844615    0.000000010
    0.297033876    0.932344615    0.093155518
    0.109533831    0.869844615    0.186311051
    0.922033846    0.807344615    0.279466540
    0.734533906    0.744844675    0.372622013
    0.547033846    0.682344615    0.465777487
    0.734533846    0.244844615    0.000000009
    0.547033846    0.182344645    0.093155518
    0.359533817    0.119844623    0.186311051
    0.172033846    0.057344630    0.279466540
    0.984533846    0.994844615    0.372622013
    0.797033846    0.932344615    0.465777546
    0.109533846    0.869844615    0.000000004
    0.922033846    0.807344615    0.093155518
    0.734533787    0.744844615    0.186311036
    0.547033846    0.682344615    0.279466510
    0.359533906    0.619844615    0.372621983
    0.172033846    0.557344615    0.465777546
    0.109533854    0.369844645    0.000000024
    0.922033846    0.307344615    0.093155533
    0.734533787    0.244844615    0.186311051
    0.547033846    0.182344615    0.279466540
    0.359533906    0.119844623    0.372622013
    0.172033846    0.057344612    0.465777487
    0.359533846    0.619844615    0.000000023
    0.172033831    0.557344615    0.093155533
    0.984533787    0.494844645    0.186311051
    0.797033846    0.432344615    0.279466540
    0.609533906    0.369844615    0.372621983
    0.422033846    0.307344615    0.465777487
    0.609533846    0.869844615    0.000000024
    0.422033846    0.807344615    0.093155541
    0.234533802    0.744844556    0.186311066
    0.047033843    0.682344615    0.279466540
    0.859533906    0.619844615    0.372622013
    0.672033846    0.557344556    0.465777546
    0.359533846    0.119844638    0.000000020
    0.172033861    0.057344627    0.093155526
    0.984533787    0.994844615    0.186311051
    0.797033846    0.932344615    0.279466540
    0.609533906    0.869844675    0.372622013
    0.422033846    0.807344615    0.465777487
    0.609533846    0.369844615    0.000000021
    0.422033846    0.307344615    0.093155526
    0.234533846    0.244844586    0.186311051
    0.047033876    0.182344601    0.279466540
    0.859533906    0.119844601    0.372621983
    0.672033906    0.057344589    0.465777546
    0.859533846    0.619844615    0.000000021
    0.672033846    0.557344615    0.093155526
    0.484533846    0.494844586    0.186311051
    0.297033876    0.432344586    0.279466540
    0.109533899    0.369844586    0.372621983
    0.922033846    0.307344586    0.465777546
    0.859533846    0.119844563    0.000000027
    0.672033846    0.057344586    0.093155541
    0.484533846    0.994844556    0.186311051
    0.297033906    0.932344556    0.279466540
    0.109533928    0.869844556    0.372622073
    0.922033906    0.807344556    0.465777546
    0.109533869    0.744844675    0.000000010
    0.922033846    0.682344615    0.093155526
    0.734533846    0.619844615    0.186311051
    0.547033906    0.557344615    0.279466540
    0.359533906    0.494844645    0.372621983
    0.172033846    0.432344645    0.465777546
    0.109533839    0.244844615    0.000000023
    0.922033846    0.182344615    0.093155518
    0.734533787    0.119844608    0.186311051
    0.547033787    0.057344612    0.279466540
    0.359533846    0.994844615    0.372622013
    0.172033787    0.932344615    0.465777487
    0.359533846    0.494844615    0.000000023
    0.172033802    0.432344586    0.093155533
    0.984533787    0.369844586    0.186311051
    0.797033787    0.307344586    0.279466540
    0.609533846    0.244844601    0.372622013
    0.422033846    0.182344586    0.465777487
    0.609533846    0.744844615    0.000000023
    0.422033846    0.682344615    0.093155526
    0.234533831    0.619844615    0.186311051
    0.047033835    0.557344615    0.279466540
    0.859533906    0.494844615    0.372622013
    0.672033846    0.432344615    0.465777546
    0.359533846    0.994844615    0.000000019
    0.172033846    0.932344615    0.093155526
    0.984533846    0.869844615    0.186311066
    0.797033846    0.807344615    0.279466540
    0.609533906    0.744844615    0.372622013
    0.422033787    0.682344556    0.465777546
    0.609533846    0.244844645    0.000000019
    0.422033846    0.182344615    0.093155526
    0.234533831    0.119844623    0.186311066
    0.047033869    0.057344630    0.279466540
    0.859533906    0.994844615    0.372622013
    0.672033906    0.932344675    0.465777546
    0.859533846    0.494844615    0.000000020
    0.672033846    0.432344615    0.093155526
    0.484533846    0.369844586    0.186311066
    0.297033876    0.307344586    0.279466540
    0.109533891    0.244844586    0.372622013
    0.922033846    0.182344586    0.465777546
    0.859533906    0.994844615    0.000000000
    0.672033846    0.932344615    0.093155518
    0.484533846    0.869844615    0.186311007
    0.297033876    0.807344615    0.279466510
    0.109533943    0.744844556    0.372622013
    0.922033906    0.682344615    0.465777487
    0.984533846    0.869844675    0.000000029
    0.797033787    0.807344615    0.093155541
    0.609533787    0.744844615    0.186311051
    0.422033787    0.682344675    0.279466569
    0.234533906    0.619844675    0.372622073
    0.047033846    0.557344615    0.465777546
    0.984533846    0.369844615    0.000000009
    0.797033846    0.307344615    0.093155526
    0.609533787    0.244844601    0.186311051
    0.422033846    0.182344586    0.279466540
    0.234533846    0.119844586    0.372621983
    0.047033846    0.057344574    0.465777487
    0.234533876    0.619844615    0.000000009
    0.047033843    0.557344615    0.093155526
    0.859533846    0.494844615    0.186311051
    0.672033906    0.432344615    0.279466540
    0.484533906    0.369844615    0.372621983
    0.297033906    0.307344615    0.465777487
    0.484533846    0.869844615    0.000000009
    0.297033846    0.807344615    0.093155526
    0.109533831    0.744844615    0.186311051
    0.922033846    0.682344615    0.279466540
    0.734533906    0.619844615    0.372621983
    0.547033906    0.557344615    0.465777487
    0.234533846    0.119844615    0.000000021
    0.047033846    0.057344612    0.093155526
    0.859533787    0.994844615    0.186311036
    0.672033846    0.932344615    0.279466540
    0.484533846    0.869844615    0.372622013
    0.297033846    0.807344556    0.465777487
    0.484533876    0.369844645    0.000000021
    0.297033846    0.307344615    0.093155526
    0.109533839    0.244844630    0.186311036
    0.922033846    0.182344630    0.279466540
    0.734533906    0.119844630    0.372622013
    0.547033906    0.057344627    0.465777487
    0.734533846    0.619844615    0.000000021
    0.547033846    0.557344615    0.093155526
    0.359533817    0.494844645    0.186311051
    0.172033846    0.432344615    0.279466540
    0.984533846    0.369844615    0.372621983
    0.797033846    0.307344615    0.465777546
    0.734533846    0.119844615    0.000000017
    0.547033787    0.057344597    0.093155533
    0.359533787    0.994844556    0.186311051
    0.172033817    0.932344615    0.279466540
    0.984533846    0.869844615    0.372622013
    0.797033846    0.807344556    0.465777487
    0.170929775    0.461632222    0.465777546
    0.212596521    0.086632162    0.572622061
    0.254263312    0.711632133    0.679466605
    0.295929968    0.336632192    0.786311030
    0.337596744    0.961632013    0.893155575
    0.379263520    0.586632133    1.000000000
    0.504263103    0.461632222    0.465777546
    0.545929849    0.086632162    0.572622061
    0.587596595    0.711632133    0.679466605
    0.629263401    0.336632192    0.786311030
    0.670930147    0.961632013    0.893155575
    0.712596834    0.586632133    1.000000000
    0.837596416    0.461632222    0.465777546
    0.879263163    0.086632162    0.572622061
    0.920929909    0.711632133    0.679466605
    0.962596714    0.336632192    0.786311030
    0.004263401    0.961632013    0.893155575
    0.045930266    0.586632133    1.000000000
    0.004263098    0.961632192    0.465777546
    0.045929834    0.586632133    0.572622061
    0.087596603    0.211632133    0.679466605
    0.129263297    0.836632133    0.786311030
    0.170930058    0.461632013    0.893155575
    0.212596893    0.086632013    1.000000000
    0.337596446    0.961632192    0.465777546
    0.379263252    0.586632133    0.572622061
    0.420929968    0.211632133    0.679466605
    0.462596655    0.836632133    0.786311030
    0.504263401    0.461632013    0.893155575
    0.545930207    0.086632013    1.000000000
    0.670929730    0.961632192    0.465777546
    0.712596655    0.586632133    0.572622061
    0.754263222    0.211632133    0.679466605
    0.795930088    0.836632133    0.786311030
    0.837596774    0.461632013    0.893155575
    0.879263520    0.086632013    1.000000000
    0.254263103    0.711632192    0.465777606
    0.295929849    0.336632162    0.572622061
    0.337596595    0.961632133    0.679466605
    0.379263312    0.586632133    0.786311030
    0.420930088    0.211632073    0.893155575
    0.462596893    0.836632013    1.000000000
    0.587596536    0.711632192    0.465777606
    0.629263282    0.336632162    0.572622061
    0.670929968    0.961632133    0.679466605
    0.712596655    0.586632133    0.786311030
    0.754263461    0.211632073    0.893155575
    0.795930207    0.836632013    1.000000000
    0.920929730    0.711632192    0.465777606
    0.962596655    0.336632162    0.572622061
    0.004263163    0.961632133    0.679466605
    0.045930147    0.586632133    0.786311030
    0.087596774    0.211632073    0.893155575
    0.129263520    0.836632013    1.000000000
    0.087596439    0.211632192    0.465777546
    0.129263178    0.836632133    0.572622061
    0.170929939    0.461632133    0.679466605
    0.212596625    0.086632133    0.786311030
    0.254263401    0.711632013    0.893155575
    0.295930207    0.336632133    1.000000000
    0.420929819    0.211632192    0.465777546
    0.462596565    0.836632133    0.572622061
    0.504263341    0.461632133    0.679466605
    0.545930028    0.086632133    0.786311030
    0.587596774    0.711632013    0.893155575
    0.629263520    0.336632133    1.000000000
    0.754263103    0.211632192    0.465777546
    0.795929968    0.836632133    0.572622061
    0.837596595    0.461632133    0.679466605
    0.879263461    0.086632133    0.786311030
    0.920930088    0.711632013    0.893155575
    0.962596893    0.336632133    1.000000000
    0.129263103    0.586632192    0.465777546
    0.170929849    0.211632147    0.572622061
    0.212596595    0.836632133    0.679466605
    0.254263341    0.461632133    0.786311030
    0.295930058    0.086631954    0.893155575
    0.337596834    0.711632013    1.000000000
    0.462596476    0.586632192    0.465777546
    0.504263222    0.211632147    0.572622061
    0.545929968    0.836632133    0.679466605
    0.587596714    0.461632133    0.786311030
    0.629263461    0.086631954    0.893155575
    0.670930207    0.711632013    1.000000000
    0.795929849    0.586632192    0.465777546
    0.837596655    0.211632147    0.572622061
    0.879263461    0.836632133    0.679466605
    0.920930088    0.461632133    0.786311030
    0.962596834    0.086631954    0.893155575
    0.004263639    0.711632013    1.000000000
    0.295929819    0.086632192    0.465777546
    0.337596536    0.711632133    0.572622061
    0.379263252    0.336632133    0.679466605
    0.420930058    0.961632133    0.786311030
    0.462596834    0.586632013    0.893155575
    0.504263461    0.211632013    1.000000000
    0.629263163    0.086632192    0.465777546
    0.670929849    0.711632133    0.572622061
    0.712596655    0.336632133    0.679466605
    0.754263461    0.961632133    0.786311030
    0.795930147    0.586632013    0.893155575
    0.837596834    0.211632013    1.000000000
    0.962596536    0.086632192    0.465777546
    0.004263282    0.711632133    0.572622061
    0.045930028    0.336632133    0.679466605
    0.087596774    0.961632133    0.786311030
    0.129263520    0.586632013    0.893155575
    0.170930147    0.211632013    1.000000000
    0.212596431    0.836632252    0.465777606
    0.254263163    0.461632162    0.572622061
    0.295929939    0.086632155    0.679466605
    0.337596655    0.711632133    0.786311030
    0.379263371    0.336632073    0.893155575
    0.420930177    0.961632013    1.000000000
    0.545929790    0.836632252    0.465777606
    0.587596476    0.461632162    0.572622061
    0.629263222    0.086632155    0.679466605
    0.670929968    0.711632133    0.786311030
    0.712596774    0.336632073    0.893155575
    0.754263461    0.961632013    1.000000000
    0.879263103    0.836632252    0.465777606
    0.920929849    0.461632162    0.572622061
    0.962596536    0.086632155    0.679466605
    0.004263401    0.711632133    0.786311030
    0.045930147    0.336632073    0.893155575
    0.087596774    0.961632013    1.000000000
    0.045929752    0.336632192    0.465777546
    0.087596498    0.961632133    0.572622061
    0.129263252    0.586632133    0.679466605
    0.170929983    0.211632133    0.786311030
    0.212596700    0.836632013    0.893155575
    0.254263461    0.461632013    1.000000000
    0.379263133    0.336632192    0.465777546
    0.420929879    0.961632133    0.572622061
    0.462596625    0.586632133    0.679466605
    0.504263341    0.211632133    0.786311030
    0.545930028    0.836632013    0.893155575
    0.587596834    0.461632013    1.000000000
    0.712596476    0.336632192    0.465777546
    0.754263282    0.961632133    0.572622061
    0.795929968    0.586632133    0.679466605
    0.837596714    0.211632133    0.786311030
    0.879263520    0.836632013    0.893155575
    0.920930147    0.461632013    1.000000000
