Si+C
    1.000000000
   13.303179741    0.000000000    0.000000000
    6.651589394   11.520891190    0.000000000
    0.000000000    0.000000000   21.679414749
Si  C  
72     308
Direct
    0.000000000    0.681493819    0.289268851
    0.000000000    0.014827055    0.000000008
    0.000000000    0.348160446    0.144634441
    0.333333343    0.014827132    0.289268851
    0.333333343    0.348160386    0.000000009
    0.333333343    0.681493819    0.144634441
    0.666666687    0.348160386    0.289268821
    0.666666687    0.681493759    0.000000006
    0.666666687    0.014827132    0.144634441
    0.000000000    0.014827251    0.325427473
    0.000000000    0.348160416    0.036158621
    0.000000000    0.681493819    0.180793047
    0.333333343    0.348160505    0.325427443
    0.333333343    0.681493819    0.036158621
    0.333333343    0.014827132    0.180793032
    0.666666746    0.681493998    0.325427473
    0.666666746    0.014827132    0.036158621
    0.666666746    0.348160505    0.180793062
    0.166666672    0.848160446    0.289268821
    0.166666672    0.181493714    0.000000004
    0.166666672    0.514827132    0.144634441
    0.500000060    0.181493759    0.289268821
    0.500000000    0.514827073    0.000000001
    0.500000000    0.848160505    0.144634441
    0.833333373    0.514827251    0.289268851
    0.833333373    0.848160446    0.000000000
    0.833333373    0.181493759    0.144634411
    0.166666687    0.181493759    0.325427383
    0.166666687    0.514827073    0.036158580
    0.166666687    0.848160505    0.180793002
    0.500000000    0.514827132    0.325427383
    0.500000000    0.848160326    0.036158577
    0.500000000    0.181493759    0.180793017
    0.833333313    0.848160446    0.325427383
    0.833333313    0.181493714    0.036158577
    0.833333313    0.514827132    0.180793047
    0.000000000    0.181493759    0.289268821
    0.000000000    0.514827073    0.000000011
    0.000000000    0.848160446    0.144634441
    0.333333343    0.514827251    0.289268851
    0.333333343    0.848160505    0.000000016
    0.333333343    0.181493878    0.144634470
    0.666666687    0.848160446    0.289268821
    0.666666687    0.181493714    0.000000001
    0.666666687    0.514827132    0.144634441
    0.000000014    0.514827251    0.325427443
    0.000000014    0.848160446    0.036158580
    0.000000014    0.181493878    0.180793032
    0.333333373    0.848160446    0.325427443
    0.333333373    0.181493714    0.036158580
    0.333333373    0.514827073    0.180793002
    0.666666746    0.181493878    0.325427443
    0.666666746    0.514827073    0.036158580
    0.666666746    0.848160505    0.180793017
    0.166666672    0.348160386    0.289268821
    0.166666672    0.681493759    0.000000009
    0.166666672    0.014827132    0.144634470
    0.500000000    0.681493759    0.289268851
    0.500000000    0.014827051    0.000000009
    0.500000000    0.348160475    0.144634441
    0.833333313    0.014827132    0.289268821
    0.833333313    0.348160416    0.000000006
    0.833333313    0.681493759    0.144634426
    0.166666687    0.681493878    0.325427473
    0.166666687    0.014827132    0.036158640
    0.166666687    0.348160386    0.180793032
    0.500000000    0.014827251    0.325427473
    0.500000000    0.348160416    0.036158610
    0.500000000    0.681493759    0.180793032
    0.833333373    0.348160505    0.325427443
    0.833333373    0.681493700    0.036158621
    0.833333373    0.014827013    0.180793032
    0.171375155    0.851555586    0.900184870
    0.123756289    0.089651227    0.425242722
    0.933280051    0.042032123    0.520231128
    0.742803812    0.994412899    0.615219593
    0.552327573    0.946793795    0.710208058
    0.361851394    0.899174690    0.805196404
    0.314232290    0.137269825    0.900184870
    0.266613454    0.375365496    0.425242722
    0.076137185    0.327746332    0.520231187
    0.885661006    0.280127227    0.615219593
    0.695184708    0.232508078    0.710208058
    0.504708529    0.184888944    0.805196464
    0.457089424    0.422984093    0.900184870
    0.409470588    0.661079764    0.425242752
    0.218994334    0.613460660    0.520231187
    0.028518200    0.565841496    0.615219593
    0.838041782    0.518222332    0.710208058
    0.647565663    0.470603228    0.805196404
    0.742803693    0.994412661    0.900184870
    0.695184827    0.232508346    0.425242752
    0.504708648    0.184889197    0.520231128
    0.314232409    0.137270093    0.615219593
    0.123756170    0.089650869    0.710208058
    0.933279932    0.042031765    0.805196404
    0.599946499    0.708698273    0.900184870
    0.552327693    0.946794033    0.425242722
    0.361851484    0.899174929    0.520231128
    0.171375245    0.851555705    0.615219593
    0.980899096    0.803936601    0.710207939
    0.790422797    0.756317496    0.805196464
    0.885660827    0.280126929    0.900184870
    0.838041961    0.518222570    0.425242752
    0.647565782    0.470603466    0.520231128
    0.457089543    0.422984332    0.615219593
    0.266613364    0.375365198    0.710207999
    0.076137066    0.327746034    0.805196464
    0.028517962    0.565841198    0.900184870
    0.980899096    0.803936839    0.425242722
    0.790422857    0.756317735    0.520231128
    0.599946618    0.708698630    0.615219593
    0.409470320    0.661079526    0.710208058
    0.218994141    0.613460422    0.805196404
    0.218994394    0.613460660    0.448989779
    0.028518200    0.565841556    0.543978274
    0.838041902    0.518222451    0.638966739
    0.647565663    0.470603317    0.733955085
    0.457089305    0.422984123    0.828943610
    0.504708648    0.184889302    0.448989779
    0.314232409    0.137270153    0.543978274
    0.123756170    0.089650989    0.638966739
    0.933279932    0.042031884    0.733955085
    0.742803574    0.994412780    0.828943610
    0.361851513    0.899175048    0.448989809
    0.171375290    0.851555824    0.543978274
    0.980899096    0.803936720    0.638966739
    0.790422797    0.756317616    0.733955085
    0.599946499    0.708698392    0.828943610
    0.647565782    0.470603555    0.448989779
    0.457089573    0.422984451    0.543978274
    0.266613364    0.375365317    0.638966739
    0.076137066    0.327746153    0.733955085
    0.885660768    0.280126989    0.828943610
    0.790422916    0.756317854    0.448989809
    0.599946737    0.708698630    0.543978333
    0.409470469    0.661079526    0.638966739
    0.218994200    0.613460422    0.733955085
    0.028517962    0.565841317    0.828943610
    0.076137304    0.327746391    0.448989809
    0.885661006    0.280127287    0.543978274
    0.695184827    0.232508138    0.638966739
    0.504708529    0.184888989    0.733955085
    0.314232230    0.137269825    0.828943610
    0.933280051    0.042032123    0.448989809
    0.742803812    0.994412899    0.543978274
    0.552327514    0.946793795    0.638966739
    0.361851335    0.899174690    0.733955085
    0.171375096    0.851555586    0.828943551
    0.242803693    0.994412661    0.900184929
    0.195184872    0.232508332    0.425242752
    0.004708648    0.184889182    0.520231128
    0.814232409    0.137270063    0.615219593
    0.623756111    0.089650869    0.710208058
    0.433279932    0.042031765    0.805196464
    0.385660827    0.280126959    0.900184870
    0.338042021    0.518222630    0.425242752
    0.147565767    0.470603526    0.520231187
    0.957089543    0.422984362    0.615219593
    0.766613245    0.375365227    0.710208058
    0.576137066    0.327746123    0.805196404
    0.671375096    0.851555586    0.900184870
    0.623756289    0.089651227    0.425242752
    0.433280021    0.042032123    0.520231128
    0.242803812    0.994412899    0.615219593
    0.052327514    0.946793795    0.710208058
    0.861851335    0.899174690    0.805196404
    0.528517902    0.565841198    0.900184929
    0.480899096    0.803936839    0.425242752
    0.290422887    0.756317735    0.520231187
    0.099946618    0.708698630    0.615219593
    0.909470439    0.661079526    0.710207999
    0.718994141    0.613460302    0.805196464
    0.814232230    0.137269780    0.900184870
    0.766613424    0.375365466    0.425242722
    0.576137245    0.327746332    0.520231128
    0.385660976    0.280127198    0.615219593
    0.195184827    0.232508078    0.710207939
    0.004708529    0.184888929    0.805196404
    0.957089424    0.422984093    0.900184810
    0.909470618    0.661079764    0.425242692
    0.718994379    0.613460660    0.520231128
    0.528518140    0.565841496    0.615219593
    0.338041842    0.518222332    0.710208058
    0.147565678    0.470603228    0.805196404
    0.099946618    0.708698273    0.900184870
    0.052327752    0.946794033    0.425242722
    0.861851513    0.899174809    0.520231128
    0.671375334    0.851555705    0.615219593
    0.480899006    0.803936601    0.710208058
    0.290422827    0.756317496    0.805196404
    0.147565827    0.470603526    0.448989779
    0.957089543    0.422984421    0.543978274
    0.766613364    0.375365257    0.638966739
    0.576137125    0.327746153    0.733955085
    0.385660887    0.280126989    0.828943491
    0.290422976    0.756317854    0.448989779
    0.099946737    0.708698630    0.543978274
    0.909470499    0.661079526    0.638966739
    0.718994260    0.613460422    0.733955026
    0.528518021    0.565841317    0.828943491
    0.576137185    0.327746391    0.448989779
    0.385660976    0.280127257    0.543978274
    0.195184737    0.232508153    0.638966739
    0.004708529    0.184889019    0.733955085
    0.814232349    0.137269869    0.828943491
    0.433280081    0.042032123    0.448989809
    0.242803842    0.994413018    0.543978274
    0.052327633    0.946793914    0.638966739
    0.861851394    0.899174690    0.733955085
    0.671375155    0.851555586    0.828943551
    0.718994319    0.613460779    0.448989809
    0.528518081    0.565841615    0.543978274
    0.338041902    0.518222511    0.638966739
    0.147565648    0.470603347    0.733955085
    0.957089424    0.422984213    0.828943551
    0.004708767    0.184889287    0.448989779
    0.814232469    0.137270182    0.543978274
    0.623756289    0.089650989    0.638966739
    0.433280021    0.042031884    0.733955026
    0.242803752    0.994412780    0.828943491
    0.861851513    0.899174929    0.448989779
    0.671375275    0.851555824    0.543978274
    0.480899006    0.803936720    0.638966739
    0.290422797    0.756317496    0.733955026
    0.099946499    0.708698392    0.828943551
    0.242803693    0.494412631    0.900184870
    0.195184872    0.732508302    0.425242752
    0.004708648    0.684889197    0.520231128
    0.814232469    0.637270093    0.615219593
    0.623756111    0.589650929    0.710208058
    0.433279991    0.542031825    0.805196404
    0.528517962    0.065841198    0.900184870
    0.480899125    0.303936899    0.425242752
    0.290422916    0.256317765    0.520231128
    0.099946737    0.208698630    0.615219593
    0.909470379    0.161079466    0.710208058
    0.718994260    0.113460355    0.805196404
    0.385660827    0.780126929    0.900184870
    0.338042021    0.018222570    0.425242722
    0.147565812    0.970603466    0.520231128
    0.957089543    0.922984362    0.615219593
    0.766613364    0.875365138    0.710207939
    0.576137066    0.827746034    0.805196404
    0.671375036    0.351555437    0.900184870
    0.623756289    0.589651108    0.425242722
    0.433280021    0.542032003    0.520231128
    0.242803782    0.494412869    0.615219593
    0.052327633    0.446793765    0.710207939
    0.861851335    0.399174571    0.805196464
    0.957089305    0.922984123    0.900184870
    0.909470499    0.161079735    0.425242722
    0.718994319    0.113460615    0.520231128
    0.528518081    0.065841436    0.615219593
    0.338041902    0.018222332    0.710207939
    0.147565573    0.970603228    0.805196464
    0.814232290    0.637269855    0.900184810
    0.766613483    0.875365496    0.425242722
    0.576137185    0.827746391    0.520231128
    0.385661006    0.780127287    0.615219593
    0.195184708    0.732508063    0.710208058
    0.004708529    0.684888959    0.805196404
    0.099946499    0.208698392    0.900184870
    0.052327752    0.446794063    0.425242752
    0.861851454    0.399174929    0.520231187
    0.671375275    0.351555765    0.615219653
    0.480898947    0.303936660    0.710208058
    0.290422797    0.256317496    0.805196464
    0.290422946    0.256317854    0.448989779
    0.099946737    0.208698720    0.543978274
    0.909470499    0.161079586    0.638966739
    0.718994260    0.113460466    0.733955026
    0.528518021    0.065841317    0.828943491
    0.147565827    0.970603585    0.448989779
    0.957089543    0.922984362    0.543978274
    0.766613364    0.875365257    0.638966739
    0.576137125    0.827746153    0.733955085
    0.385660887    0.780127048    0.828943491
    0.433280110    0.542032123    0.448989779
    0.242803842    0.494413018    0.543978274
    0.052327633    0.446793884    0.638966739
    0.861851454    0.399174750    0.733955085
    0.671375155    0.351555616    0.828943491
    0.718994379    0.113460734    0.448989779
    0.528518081    0.065841556    0.543978274
    0.338041902    0.018222451    0.638966739
    0.147565663    0.970603347    0.733955085
    0.957089424    0.922984242    0.828943491
    0.576137185    0.827746391    0.448989779
    0.385660976    0.780127287    0.543978274
    0.195184752    0.732508183    0.638966739
    0.004708529    0.684888959    0.733955026
    0.814232230    0.637269855    0.828943551
    0.861851513    0.399174988    0.448989779
    0.671375215    0.351555884    0.543978274
    0.480899066    0.303936750    0.638966739
    0.290422797    0.256317616    0.733955026
    0.099946499    0.208698481    0.828943551
    0.004708529    0.684889317    0.448989809
    0.814232290    0.637270212    0.543978274
    0.623756051    0.589650989    0.638966739
    0.433279842    0.542031884    0.733955085
    0.242803603    0.494412780    0.828943491
    0.171375155    0.351555496    0.900184929
    0.123756289    0.589651167    0.425242722
    0.933280051    0.542032003    0.520231128
    0.742803872    0.494412899    0.615219593
    0.552327573    0.446793735    0.710208058
    0.361851394    0.399174631    0.805196404
    0.457089424    0.922984123    0.900184870
    0.409470588    0.161079779    0.425242722
    0.218994349    0.113460638    0.520231128
    0.028518200    0.065841556    0.615219593
    0.838041842    0.018222332    0.710208058
    0.647565603    0.970603228    0.805196404
    0.314232230    0.637269735    0.900184870
    0.266613424    0.875365376    0.425242722
    0.076137185    0.827746272    0.520231128
    0.885660946    0.780127168    0.615219593
    0.695184827    0.732507944    0.710207999
    0.504708469    0.684888840    0.805196464
    0.599946499    0.208698332    0.900184870
    0.552327752    0.446794003    0.425242722
    0.361851513    0.399174899    0.520231128
    0.171375260    0.351555735    0.615219593
    0.980899096    0.303936630    0.710207939
    0.790422797    0.256317437    0.805196404
    0.742803693    0.494412661    0.900184810
    0.695184886    0.732508302    0.425242722
    0.504708648    0.684889197    0.520231128
    0.314232409    0.637270093    0.615219593
    0.123756170    0.589650929    0.710208058
    0.933279932    0.542031765    0.805196404
    0.028517962    0.065841198    0.900184870
    0.980899096    0.303936899    0.425242722
    0.790422857    0.256317765    0.520231128
    0.599946678    0.208698645    0.615219593
    0.409470320    0.161079496    0.710208058
    0.218994170    0.113460384    0.805196464
    0.885660768    0.780126929    0.900184929
    0.838041961    0.018222570    0.425242752
    0.647565722    0.970603466    0.520231128
    0.457089484    0.922984242    0.615219653
    0.266613185    0.875365138    0.710208058
    0.076137066    0.827746034    0.805196404
    0.218994409    0.113460734    0.448989809
    0.028518200    0.065841556    0.543978274
    0.838041961    0.018222451    0.638966739
    0.647565722    0.970603347    0.733955085
    0.457089365    0.922984123    0.828943610
    0.361851573    0.399174958    0.448989779
    0.171375319    0.351555854    0.543978333
    0.980899096    0.303936720    0.638966739
    0.790422797    0.256317586    0.733955085
    0.599946499    0.208698422    0.828943610
    0.504708648    0.684889317    0.448989809
    0.314232409    0.637270212    0.543978274
    0.123756170    0.589651048    0.638966739
    0.933279932    0.542031884    0.733955085
    0.742803574    0.494412750    0.828943610
    0.790422916    0.256317854    0.448989779
    0.599946737    0.208698750    0.543978274
    0.409470499    0.161079586    0.638966739
    0.218994230    0.113460451    0.733955085
    0.028517962    0.065841317    0.828943610
    0.647565782    0.970603585    0.448989809
    0.457089543    0.922984362    0.543978333
    0.266613305    0.875365257    0.638966739
    0.076137066    0.827746153    0.733955085
    0.885660768    0.780127048    0.828943610
    0.933280051    0.542032123    0.448989809
    0.742803812    0.494413018    0.543978274
    0.552327633    0.446793824    0.638966739
    0.361851335    0.399174690    0.733955085
    0.171375006    0.351555556    0.828943610
    0.076137304    0.827746391    0.448989809
    0.885661125    0.780127287    0.543978274
    0.695184886    0.732508183    0.638966739
    0.504708588    0.684888959    0.733955085
    0.314232349    0.637269855    0.828943610
