Si+Ge
    1.000000000
   16.293001175    0.000000000    0.000000000
    0.000000000   16.293001175    0.000000000
    0.000000000    0.000000000   13.293916702
Si  Ge 
108     48
Direct
    0.000000000    0.994067729    0.000000000
    0.000000000    0.827401042    0.204266384
    0.000000000    0.660734296    0.408532798
    0.333333343    0.994067729    0.000000000
    0.333333343    0.827401042    0.204266384
    0.333333343    0.660734296    0.408532798
    0.666666687    0.994067729    0.000000000
    0.666666687    0.827401042    0.204266384
    0.666666687    0.660734296    0.408532798
    0.000000000    0.327401042    0.000000000
    0.000000000    0.160734370    0.204266384
    0.000000000    0.994067669    0.408532798
    0.333333343    0.327401042    0.000000000
    0.333333343    0.160734370    0.204266384
    0.333333343    0.994067669    0.408532798
    0.666666687    0.327401042    0.000000000
    0.666666687    0.160734370    0.204266384
    0.666666687    0.994067669    0.408532798
    0.000000000    0.660734415    0.000000000
    0.000000000    0.494067699    0.204266384
    0.000000000    0.327401042    0.408532798
    0.333333343    0.660734415    0.000000000
    0.333333343    0.494067699    0.204266384
    0.333333343    0.327401042    0.408532798
    0.666666687    0.660734415    0.000000000
    0.666666687    0.494067699    0.204266384
    0.666666687    0.327401042    0.408532798
    0.083333336    0.077401049    0.102133200
    0.083333336    0.910734355    0.306399524
    0.083333336    0.744067669    0.510666013
    0.416666687    0.077401049    0.102133200
    0.416666687    0.910734355    0.306399524
    0.416666687    0.744067669    0.510666013
    0.750000000    0.077401049    0.102133200
    0.750000000    0.910734355    0.306399524
    0.750000000    0.744067669    0.510666013
    0.083333336    0.410734355    0.102133200
    0.083333336    0.244067669    0.306399524
    0.083333336    0.077400982    0.510666013
    0.416666687    0.410734355    0.102133200
    0.416666687    0.244067669    0.306399524
    0.416666687    0.077400982    0.510666013
    0.750000000    0.410734355    0.102133200
    0.750000000    0.244067669    0.306399524
    0.750000000    0.077400982    0.510666013
    0.083333336    0.744067729    0.102133200
    0.083333336    0.577401042    0.306399524
    0.083333336    0.410734355    0.510666013
    0.416666687    0.744067729    0.102133200
    0.416666687    0.577401042    0.306399524
    0.416666687    0.410734355    0.510666013
    0.750000000    0.744067729    0.102133200
    0.750000000    0.577401042    0.306399524
    0.750000000    0.410734355    0.510666013
    0.166666672    0.160734385    0.000000000
    0.166666672    0.994067669    0.204266384
    0.166666672    0.827400982    0.408532798
    0.500000000    0.160734385    0.000000000
    0.500000000    0.994067669    0.204266384
    0.500000000    0.827400982    0.408532798
    0.833333373    0.160734385    0.000000000
    0.833333373    0.994067669    0.204266384
    0.833333373    0.827400982    0.408532798
    0.166666672    0.494067699    0.000000000
    0.166666672    0.327401042    0.204266384
    0.166666672    0.160734311    0.408532798
    0.500000000    0.494067699    0.000000000
    0.500000000    0.327401042    0.204266384
    0.500000000    0.160734311    0.408532798
    0.833333373    0.494067699    0.000000000
    0.833333373    0.327401042    0.204266384
    0.833333373    0.160734311    0.408532798
    0.166666672    0.827401042    0.000000000
    0.166666672    0.660734355    0.204266384
    0.166666672    0.494067639    0.408532798
    0.500000000    0.827401042    0.000000000
    0.500000000    0.660734355    0.204266384
    0.500000000    0.494067639    0.408532798
    0.833333373    0.827401042    0.000000000
    0.833333373    0.660734355    0.204266384
    0.833333373    0.494067639    0.408532798
    0.250000000    0.244067714    0.102133200
    0.250000000    0.077401027    0.306399524
    0.250000000    0.910734355    0.510666013
    0.583333373    0.244067714    0.102133200
    0.583333373    0.077401027    0.306399524
    0.583333373    0.910734355    0.510666013
    0.916666687    0.244067714    0.102133200
    0.916666687    0.077401027    0.306399524
    0.916666687    0.910734355    0.510666013
    0.250000000    0.577401161    0.102133200
    0.250000000    0.410734445    0.306399524
    0.250000000    0.244067743    0.510666013
    0.583333373    0.577401161    0.102133200
    0.583333373    0.410734445    0.306399524
    0.583333373    0.244067743    0.510666013
    0.916666687    0.577401161    0.102133200
    0.916666687    0.410734445    0.306399524
    0.916666687    0.244067743    0.510666013
    0.250000000    0.910734355    0.102133200
    0.250000000    0.744067669    0.306399524
    0.250000000    0.577401042    0.510666013
    0.583333373    0.910734355    0.102133200
    0.583333373    0.744067669    0.306399524
    0.583333373    0.577401042    0.510666013
    0.916666687    0.910734355    0.102133200
    0.916666687    0.744067669    0.306399524
    0.916666687    0.577401042    0.510666013
    0.002616882    0.666324139    0.629941165
    0.613727927    0.291324139    0.680097997
    0.224838972    0.916324198    0.730254650
    0.835949898    0.541324258    0.780411422
    0.447061062    0.166324258    0.830568075
    0.058172107    0.791324139    0.880724847
    0.002616882    0.166324139    0.629941165
    0.613727927    0.791324079    0.680097997
    0.224838972    0.416324139    0.730254710
    0.835949898    0.041324139    0.780411422
    0.447061062    0.666324258    0.830568075
    0.058172107    0.291324139    0.880724788
    0.752616763    0.791324139    0.629941165
    0.363727808    0.416324139    0.680097997
    0.974838912    0.041324139    0.730254650
    0.585949957    0.666324258    0.780411363
    0.197061002    0.291324258    0.830568135
    0.808171868    0.916324258    0.880724788
    0.752616823    0.291324139    0.629941165
    0.363727838    0.916324079    0.680097997
    0.974838912    0.541324139    0.730254650
    0.585949957    0.166324139    0.780411363
    0.197061002    0.791324198    0.830568135
    0.808171988    0.416324019    0.880724788
    0.752616823    0.041324139    0.629941225
    0.363727838    0.666324139    0.680097997
    0.974838912    0.291324139    0.730254650
    0.585949898    0.916324198    0.780411363
    0.197061062    0.541324258    0.830568135
    0.808171988    0.166324258    0.880724847
    0.752616823    0.541324139    0.629941165
    0.363727838    0.166324019    0.680097997
    0.974838912    0.791324139    0.730254650
    0.585949957    0.416324139    0.780411363
    0.197061062    0.041324139    0.830568135
    0.808171868    0.666324019    0.880724788
    0.002616882    0.916324139    0.629941165
    0.613727927    0.541324139    0.680097997
    0.224838972    0.166324258    0.730254710
    0.835949898    0.791324198    0.780411422
    0.447061300    0.416324377    0.830568135
    0.058172107    0.041324139    0.880724847
    0.002616882    0.416324139    0.629941165
    0.613727927    0.041324139    0.680097997
    0.224838972    0.666324139    0.730254710
    0.835950017    0.291324139    0.780411422
    0.447061181    0.916324258    0.830568075
    0.058171868    0.541324019    0.880724788
