Sn+Si
    1.000000000
   19.467599869    0.000000000    0.000000000
    0.000000000   19.467599869    0.000000000
    0.000000000    0.000000000   19.100252151
Sn  Si 
108     156
Direct
    0.977058530    0.560826957    0.890053868
    0.828368425    0.666666687    0.169872105
    0.573212624    0.580057681    0.534626484
    0.957827806    0.656980813    0.818968296
    0.828368425    0.333333343    0.169872105
    0.661701739    0.333333343    0.339744180
    0.746289313    0.714673102    0.890053868
    0.828368425    0.000000000    0.169872105
    0.661701739    0.000000000    0.339744180
    0.328368455    0.666666687    0.000000000
    0.161701739    0.666666687    0.169872105
    0.150135666    0.695442200    0.534626484
    0.630904794    0.291596174    0.890053868
    0.161701739    0.333333343    0.169872105
    0.995035112    0.333333343    0.339744180
    0.328368455    0.000000000    0.000000000
    0.207827836    0.406980783    0.890053868
    0.995035112    0.000000000    0.339744180
    0.661701798    0.666666687    0.000000000
    0.130904704    0.791596234    0.890053868
    0.328368455    0.666666687    0.339744180
    0.661701798    0.333333343    0.000000000
    0.784750760    0.522365391    0.890053868
    0.328368455    0.333333343    0.339744180
    0.900135458    0.945442319    0.890053868
    0.015520096    0.368519217    0.890053868
    0.073212504    0.580057681    0.676797330
    0.078368433    0.916666746    0.084936053
    0.911701798    0.916666746    0.254808098
    0.727058709    0.810826838    0.534626484
    0.515520096    0.868519247    0.890053868
    0.911701798    0.583333433    0.254808098
    0.707828045    0.906980753    0.605711937
    0.553981781    0.676211536    0.890053868
    0.957828045    0.656980753    0.534626484
    0.496289581    0.964673042    0.534626484
    0.411701769    0.916666746    0.084936053
    0.880904913    0.041596174    0.534626484
    0.078368381    0.916666746    0.424680233
    0.323212415    0.830057681    0.890053868
    0.534751117    0.772365212    0.534626484
    0.380904943    0.541596115    0.534626484
    0.411701769    0.250000000    0.084936053
    0.765520275    0.618519127    0.534626484
    0.078368381    0.250000000    0.424680233
    0.745035172    0.916666746    0.084936053
    0.578368545    0.916666746    0.254808098
    0.411701798    0.916666746    0.424680233
    0.745035172    0.583333433    0.084936053
    0.578368545    0.583333433    0.254808098
    0.411701798    0.583333433    0.424680233
    0.745035172    0.250000000    0.084936053
    0.578368545    0.250000000    0.254808098
    0.650135636    0.195442230    0.534626484
    0.092443161    0.983903885    0.890053868
    0.995035052    0.833333313    0.169872105
    0.265520334    0.118519127    0.534626484
    0.161701769    0.500000000    0.000000000
    0.995035052    0.500000000    0.169872105
    0.303981870    0.926211417    0.534626484
    0.592443287    0.483903885    0.890053868
    0.995035052    0.166666672    0.169872105
    0.828368425    0.166666672    0.339744180
    0.495035112    0.833333313    0.000000000
    0.938596964    0.753134608    0.890053868
    0.073212624    0.080057569    0.534626484
    0.495035112    0.500000000    0.000000000
    0.669366241    0.099288546    0.890053868
    0.161701754    0.500000000    0.339744180
    0.495035112    0.166666672    0.000000000
    0.328368425    0.166666672    0.169872105
    0.161701754    0.166666672    0.339744180
    0.828368545    0.833333313    0.000000000
    0.661701858    0.833333313    0.169872105
    0.495035201    0.833333313    0.339744180
    0.828368545    0.500000000    0.000000000
    0.661701858    0.500000000    0.169872105
    0.495035201    0.500000000    0.339744180
    0.828368545    0.166666672    0.000000000
    0.661701858    0.166666672    0.169872105
    0.495035201    0.166666672    0.339744180
    0.245035097    0.750000060    0.084936053
    0.419366509    0.349288404    0.534626484
    0.911701739    0.750000060    0.424680233
    0.400135577    0.445442349    0.890053868
    0.078368433    0.416666716    0.254808098
    0.342443407    0.733903825    0.534626484
    0.245035097    0.083333343    0.084936053
    0.688597202    0.003134608    0.534626484
    0.842443466    0.233903736    0.534626484
    0.323212564    0.330057651    0.747882783
    0.411701858    0.750000060    0.254808098
    0.245035127    0.750000060    0.424680233
    0.578368485    0.416666716    0.084936053
    0.411701858    0.416666716    0.254808098
    0.245035127    0.416666716    0.424680233
    0.578368485    0.083333343    0.084936053
    0.411701858    0.083333343    0.254808098
    0.245035127    0.083333343    0.424680233
    0.911701739    0.750000060    0.084936053
    0.745035052    0.750000060    0.254808098
    0.578368366    0.750000060    0.424680233
    0.823212326    0.330057740    0.890053868
    0.745035052    0.416666716    0.254808098
    0.578368366    0.416666716    0.424680233
    0.911701739    0.083333343    0.084936053
    0.745035052    0.083333343    0.254808098
    0.578368366    0.083333343    0.424680233
    0.911701739    0.083333343    0.424680233
    0.727058768    0.310826868    0.676797330
    0.611674070    0.387750030    0.818968296
    0.996289611    0.464672953    0.534626484
    0.880904913    0.541596055    0.676797330
    0.765520215    0.618519187    0.818968296
    0.457828045    0.156980664    0.534626484
    0.342443347    0.233903795    0.676797330
    0.227058649    0.310826927    0.818968296
    0.611674190    0.387749940    0.534626484
    0.496289492    0.464673072    0.676797330
    0.380904794    0.541596174    0.818968296
    0.245035097    0.250000000    0.254808098
    0.650135577    0.695442259    0.676797330
    0.534750879    0.772365391    0.818968296
    0.919366419    0.849288464    0.534626484
    0.803981721    0.926211596    0.676797330
    0.688597023    0.003134727    0.818968296
    0.161701754    0.833333313    0.339744180
    0.957827866    0.156980693    0.676797330
    0.842443168    0.233903825    0.818968296
    0.227058768    0.310826838    0.534626484
    0.111674070    0.387749970    0.676797330
    0.996289313    0.464673102    0.818968296
    0.078368381    0.583333433    0.424680233
    0.265520215    0.618519187    0.676797330
    0.150135517    0.695442319    0.818968296
    0.245035097    0.583333433    0.254808098
    0.419366419    0.849288344    0.676797330
    0.303981692    0.926211476    0.818968296
    0.078368433    0.083333343    0.254808098
    0.573212504    0.080057703    0.676797330
    0.457827836    0.156980842    0.818968296
    0.995035112    0.666666687    0.339744180
    0.034750938    0.772365332    0.676797330
    0.919366241    0.849288523    0.818968296
    0.828368425    0.500000000    0.339744180
    0.188597172    0.003134489    0.676797330
    0.073212385    0.080057703    0.818968296
    0.053981781    0.176211447    0.605711937
    0.938597083    0.253134578    0.747882783
    0.911701739    0.416666716    0.084936053
    0.669366419    0.099288426    0.605711937
    0.553981781    0.176211566    0.747882783
    0.438597023    0.253134698    0.890053868
    0.823212683    0.330057591    0.605711937
    0.707827985    0.406980753    0.747882783
    0.161701769    0.166666672    0.000000000
    0.977058768    0.560826838    0.605711937
    0.861674070    0.637749970    0.747882783
    0.995035112    0.000000000    0.000000000
    0.438597262    0.253134519    0.605711937
    0.578368485    0.750000060    0.084936053
    0.161701739    0.000000000    0.169872105
    0.592443347    0.483903825    0.605711937
    0.477058679    0.560826957    0.747882783
    0.361673951    0.637750089    0.890053868
    0.746289492    0.714672983    0.605711937
    0.630904794    0.791596115    0.747882783
    0.078368433    0.583333433    0.084936053
    0.900135636    0.945442259    0.605711937
    0.784750938    0.022365451    0.747882783
    0.328368425    0.500000000    0.169872105
    0.207827985    0.406980693    0.605711937
    0.092443295    0.483903795    0.747882783
    0.995035112    0.666666687    0.000000000
    0.361674130    0.637749970    0.605711937
    0.246289432    0.714673042    0.747882783
    0.495035112    0.666666687    0.169872105
    0.515520275    0.868519127    0.605711937
    0.400135577    0.945442259    0.747882783
    0.284750849    0.022365451    0.890053868
    0.130904898    0.791596055    0.605711937
    0.015520215    0.868519247    0.747882783
    0.661701798    0.000000000    0.000000000
    0.284751058    0.022365332    0.605711937
    0.169366330    0.099288426    0.747882783
    0.053981662    0.176211566    0.890053868
    0.034751058    0.272365332    0.534626484
    0.919366360    0.349288464    0.676797330
    0.803981662    0.426211625    0.818968296
    0.411701798    0.250000000    0.424680233
    0.534750938    0.272365361    0.676797330
    0.419366270    0.349288493    0.818968296
    0.803981900    0.426211536    0.534626484
    0.688597143    0.503134668    0.676797330
    0.573212504    0.580057800    0.818968296
    0.911701798    0.250000000    0.254808098
    0.842443287    0.733903885    0.676797330
    0.727058589    0.810827017    0.818968296
    0.828368425    0.833333313    0.339744180
    0.150135636    0.195442259    0.676797330
    0.034750938    0.272365391    0.818968296
    0.078368433    0.750000060    0.254808098
    0.303981811    0.426211536    0.676797330
    0.188597083    0.503134668    0.818968296
    0.661701739    0.666666687    0.339744180
    0.457827926    0.656980813    0.676797330
    0.342443228    0.733903944    0.818968296
    0.745035052    0.916666746    0.424680233
    0.611674011    0.887749970    0.676797330
    0.496289343    0.964673102    0.818968296
    0.245035097    0.916666746    0.254808098
    0.765520215    0.118519269    0.676797330
    0.650135517    0.195442408    0.818968296
    0.188597232    0.503134549    0.534626484
    0.328368455    0.000000000    0.339744180
    0.995035112    0.333333343    0.000000000
    0.911701739    0.416666716    0.424680233
    0.227058709    0.810826957    0.676797330
    0.111674003    0.887750089    0.818968296
    0.745035052    0.250000000    0.424680233
    0.380904853    0.041596174    0.676797330
    0.265520155    0.118519269    0.818968296
    0.111674130    0.887749910    0.534626484
    0.996289432    0.964673042    0.676797330
    0.880904675    0.041596174    0.818968296
    0.861674249    0.137749895    0.605711937
    0.746289492    0.214673042    0.747882783
    0.328368455    0.333333343    0.000000000
    0.015520215    0.368519127    0.605711937
    0.900135517    0.445442289    0.747882783
    0.495035112    0.333333343    0.169872105
    0.630904973    0.291596055    0.605711937
    0.515520275    0.368519187    0.747882783
    0.245035097    0.416666716    0.084936053
    0.784751177    0.522365272    0.605711937
    0.669366479    0.599288404    0.747882783
    0.078368433    0.250000000    0.084936053
    0.938597381    0.753134549    0.605711937
    0.823212683    0.830057681    0.747882783
    0.707827926    0.906980813    0.890053868
    0.246289551    0.214672923    0.605711937
    0.130904838    0.291596055    0.747882783
    0.495035112    0.000000000    0.169872105
    0.400135726    0.445442230    0.605711937
    0.284751028    0.522365332    0.747882783
    0.169366300    0.599288464    0.890053868
    0.553981841    0.676211417    0.605711937
    0.438597172    0.753134549    0.747882783
    0.411701769    0.583333433    0.084936053
    0.745035052    0.583333433    0.424680233
    0.592443347    0.983903885    0.747882783
    0.477058619    0.060827017    0.890053868
    0.169366419    0.599288344    0.605711937
    0.053981781    0.676211476    0.747882783
    0.328368425    0.833333313    0.169872105
    0.323212594    0.830057561    0.605711937
    0.207827896    0.906980693    0.747882783
    0.161701769    0.833333313    0.000000000
    0.477058828    0.060826898    0.605711937
    0.361674130    0.137750119    0.747882783
    0.246289402    0.214673251    0.890053868
    0.092443362    0.983903706    0.605711937
    0.977058589    0.060826898    0.747882783
    0.861673892    0.137750000    0.890053868
