C+Si                                    
   1.00000000000000     
     7.9756073949999999    0.0000000000000000    0.0000000000000000
   -11.1658506390000003    6.3804864879999998    0.0000000000000000
     0.0000000000000000    0.0000000000000000   11.5135812760000000
   C    Si
    48    24
Direct
  0.0369844809999975  0.0000000000000000  0.0000000000000000
  0.5369845029999993  0.0000000000000000  0.1548953650000016
  0.0369845629999972  0.0000000140000012  0.3097907300000031
  0.7869845029999993  0.2499999850000023  0.0000000000000000
  0.2869845629999972  0.2500000000000000  0.1548953650000016
  0.7869844439999980  0.2499999549999998  0.3097907300000031
  0.5369844439999980  0.4999999699999975  0.0000000000000000
  0.0369844439999980  0.4999999699999975  0.1548953650000016
  0.5369845629999972  0.4999999699999975  0.3097907300000031
  0.2869844439999980  0.7500000000000000  0.0000000000000000
  0.7869844439999980  0.7500000000000000  0.1548953650000016
  0.2869844439999980  0.7499999400000021  0.3097907300000031
  0.3494844729999969  0.1874999850000023  0.0774476830000026
  0.8494844439999980  0.1874999699999975  0.2323430329999994
  0.3494845629999972  0.1874999699999975  0.3872384129999986
  0.0994844439999980  0.4374999400000021  0.0774476830000026
  0.5994843240000023  0.4374999400000021  0.2323430329999994
  0.0994844439999980  0.4374999699999975  0.3872384129999986
  0.8494844439999980  0.6874999400000021  0.0774476830000026
  0.3494844439999980  0.6874999400000021  0.2323430329999994
  0.8494844439999980  0.6874999400000021  0.3872384129999986
  0.5994843840000001  0.9375000000000000  0.0774476830000026
  0.0994844439999980  0.9374999400000021  0.2323430329999994
  0.5994844439999980  0.9374999400000021  0.3872384129999986
  0.9119845629999972  0.1250000149999977  0.0000000000000000
  0.4119845629999972  0.1250000149999977  0.1548953650000016
  0.9119844439999980  0.1249999400000021  0.3097907300000031
  0.6619844439999980  0.3749999699999975  0.0000000000000000
  0.1619844439999980  0.3749999699999975  0.1548953650000016
  0.6619845629999972  0.3750000000000000  0.3097907300000031
  0.4119844729999969  0.6250000000000000  0.0000000000000000
  0.9119844439999980  0.6249999400000021  0.1548953650000016
  0.4119845629999972  0.6249999400000021  0.3097907300000031
  0.1619844140000026  0.8749999400000021  0.0000000000000000
  0.6619843840000001  0.8749998810000008  0.1548953650000016
  0.1619844439999980  0.8749998810000008  0.3097907300000031
  0.4744845029999993  0.0625000000000000  0.0774476830000026
  0.9744844439999980  0.0624999739999978  0.2323430329999994
  0.4744846820000035  0.0624999549999998  0.3872384129999986
  0.2244845629999972  0.3125000000000000  0.0774476830000026
  0.7244844439999980  0.3124999400000021  0.2323430329999994
  0.2244846820000035  0.3124999699999975  0.3872384129999986
  0.9744844439999980  0.5624999400000021  0.0774476830000026
  0.4744844439999980  0.5624999400000021  0.2323430329999994
  0.9744845629999972  0.5624999400000021  0.3872384129999986
  0.7244845029999993  0.8124999400000021  0.0774476830000026
  0.2244844439999980  0.8124999400000021  0.2323430329999994
  0.7244845629999972  0.8124999400000021  0.3872384129999986
  0.0000000000000000  0.9851729869999986  0.3872384430000011
  0.0000000000000000  0.6518396139999965  0.6595768330000027
  0.0000000000000000  0.3185061220000023  0.9319153430000000
  0.0000000000000000  0.6518396740000014  0.4553230400000032
  0.0000000000000000  0.3185062709999968  0.7276613709999964
  0.0000000000000000  0.9851727490000002  0.0000000000000000
  0.0000000140000012  0.4851729869999986  0.3872384430000011
  0.0000000140000012  0.1518396290000013  0.6595768330000027
  0.0000000140000012  0.8185061220000023  0.9319153430000000
  0.0000000000000000  0.1518396589999966  0.4553229810000019
  0.0000000000000000  0.8185062410000015  0.7276613709999964
  0.0000000000000000  0.4851728679999994  0.9999999400000021
  0.5000000000000000  0.4851729869999986  0.3872384430000011
  0.5000000000000000  0.1518396139999965  0.6595768330000027
  0.5000000000000000  0.8185061220000023  0.9319153430000000
  0.5000000000000000  0.1518396589999966  0.4553229810000019
  0.5000000000000000  0.8185061810000036  0.7276613709999964
  0.5000000000000000  0.4851728679999994  0.9999998210000030
  0.5000000000000000  0.9851729869999986  0.3872384430000011
  0.5000000000000000  0.6518396139999965  0.6595768330000027
  0.5000000000000000  0.3185061809999965  0.9319153430000000
  0.5000000599999979  0.6518396139999965  0.4553230400000032
  0.5000000599999979  0.3185062709999968  0.7276613709999964
  0.5000000599999979  0.9851727490000002  0.0000000000000000
 
  0.00000000E+00  0.00000000E+00  0.00000000E+00
  0.00000000E+00  0.00000000E+00  0.00000000E+00
  0.00000000E+00  0.00000000E+00  0.00000000E+00
  0.00000000E+00  0.00000000E+00  0.00000000E+00
  0.00000000E+00  0.00000000E+00  0.00000000E+00
  0.00000000E+00  0.00000000E+00  0.00000000E+00
  0.00000000E+00  0.00000000E+00  0.00000000E+00
  0.00000000E+00  0.00000000E+00  0.00000000E+00
  0.00000000E+00  0.00000000E+00  0.00000000E+00
  0.00000000E+00  0.00000000E+00  0.00000000E+00
  0.00000000E+00  0.00000000E+00  0.00000000E+00
  0.00000000E+00  0.00000000E+00  0.00000000E+00
  0.00000000E+00  0.00000000E+00  0.00000000E+00
  0.00000000E+00  0.00000000E+00  0.00000000E+00
  0.00000000E+00  0.00000000E+00  0.00000000E+00
  0.00000000E+00  0.00000000E+00  0.00000000E+00
  0.00000000E+00  0.00000000E+00  0.00000000E+00
  0.00000000E+00  0.00000000E+00  0.00000000E+00
  0.00000000E+00  0.00000000E+00  0.00000000E+00
  0.00000000E+00  0.00000000E+00  0.00000000E+00
  0.00000000E+00  0.00000000E+00  0.00000000E+00
  0.00000000E+00  0.00000000E+00  0.00000000E+00
  0.00000000E+00  0.00000000E+00  0.00000000E+00
  0.00000000E+00  0.00000000E+00  0.00000000E+00
  0.00000000E+00  0.00000000E+00  0.00000000E+00
  0.00000000E+00  0.00000000E+00  0.00000000E+00
  0.00000000E+00  0.00000000E+00  0.00000000E+00
  0.00000000E+00  0.00000000E+00  0.00000000E+00
  0.00000000E+00  0.00000000E+00  0.00000000E+00
  0.00000000E+00  0.00000000E+00  0.00000000E+00
  0.00000000E+00  0.00000000E+00  0.00000000E+00
  0.00000000E+00  0.00000000E+00  0.00000000E+00
  0.00000000E+00  0.00000000E+00  0.00000000E+00
  0.00000000E+00  0.00000000E+00  0.00000000E+00
  0.00000000E+00  0.00000000E+00  0.00000000E+00
  0.00000000E+00  0.00000000E+00  0.00000000E+00
  0.00000000E+00  0.00000000E+00  0.00000000E+00
  0.00000000E+00  0.00000000E+00  0.00000000E+00
  0.00000000E+00  0.00000000E+00  0.00000000E+00
  0.00000000E+00  0.00000000E+00  0.00000000E+00
  0.00000000E+00  0.00000000E+00  0.00000000E+00
  0.00000000E+00  0.00000000E+00  0.00000000E+00
  0.00000000E+00  0.00000000E+00  0.00000000E+00
  0.00000000E+00  0.00000000E+00  0.00000000E+00
  0.00000000E+00  0.00000000E+00  0.00000000E+00
  0.00000000E+00  0.00000000E+00  0.00000000E+00
  0.00000000E+00  0.00000000E+00  0.00000000E+00
  0.00000000E+00  0.00000000E+00  0.00000000E+00
  0.00000000E+00  0.00000000E+00  0.00000000E+00
  0.00000000E+00  0.00000000E+00  0.00000000E+00
  0.00000000E+00  0.00000000E+00  0.00000000E+00
  0.00000000E+00  0.00000000E+00  0.00000000E+00
  0.00000000E+00  0.00000000E+00  0.00000000E+00
  0.00000000E+00  0.00000000E+00  0.00000000E+00
  0.00000000E+00  0.00000000E+00  0.00000000E+00
  0.00000000E+00  0.00000000E+00  0.00000000E+00
  0.00000000E+00  0.00000000E+00  0.00000000E+00
  0.00000000E+00  0.00000000E+00  0.00000000E+00
  0.00000000E+00  0.00000000E+00  0.00000000E+00
  0.00000000E+00  0.00000000E+00  0.00000000E+00
  0.00000000E+00  0.00000000E+00  0.00000000E+00
  0.00000000E+00  0.00000000E+00  0.00000000E+00
  0.00000000E+00  0.00000000E+00  0.00000000E+00
  0.00000000E+00  0.00000000E+00  0.00000000E+00
  0.00000000E+00  0.00000000E+00  0.00000000E+00
  0.00000000E+00  0.00000000E+00  0.00000000E+00
  0.00000000E+00  0.00000000E+00  0.00000000E+00
  0.00000000E+00  0.00000000E+00  0.00000000E+00
  0.00000000E+00  0.00000000E+00  0.00000000E+00
  0.00000000E+00  0.00000000E+00  0.00000000E+00
  0.00000000E+00  0.00000000E+00  0.00000000E+00
  0.00000000E+00  0.00000000E+00  0.00000000E+00
