Sn+Si
    1.000000000
   19.467599869    0.000000000    0.000000000
    0.000000000   19.467599869    0.000000000
    0.000000000    0.000000000   19.300252914
Sn  Si 
108     156
Direct
    0.111079216    0.591754794    0.886011779
    0.828368425    0.666666687    0.168111786
    0.661701739    0.666666687    0.336223543
    0.341848433    0.437908620    0.886011779
    0.828368425    0.333333343    0.168111786
    0.661701739    0.333333343    0.336223543
    0.995035112    0.000000000    0.000000000
    0.572617650    0.284062535    0.886011779
    0.476464033    0.764831662    0.534267545
    0.328368455    0.666666687    0.000000000
    0.161701739    0.666666687    0.168111786
    0.995035112    0.666666687    0.336223543
    0.328368455    0.333333343    0.000000000
    0.457233042    0.860985518    0.886011779
    0.995035112    0.333333343    0.336223543
    0.418771476    0.053293228    0.886011779
    0.161701739    0.000000000    0.168111786
    0.995035112    0.000000000    0.336223543
    0.661701798    0.666666687    0.000000000
    0.957232952    0.360985577    0.886011779
    0.328368455    0.666666687    0.336223543
    0.661701798    0.333333343    0.000000000
    0.880309939    0.745600939    0.886011779
    0.328368455    0.333333343    0.336223543
    0.495694578    0.668677926    0.886011779
    0.957233310    0.860985518    0.745314062
    0.328368455    0.000000000    0.336223543
    0.078368433    0.916666746    0.084055893
    0.911701798    0.916666746    0.252167612
    0.861079335    0.841754675    0.534267545
    0.078368433    0.583333433    0.084055893
    0.207233191    0.110985406    0.534267545
    0.091848731    0.687908590    0.534267545
    0.078368433    0.250000000    0.084055893
    0.911701798    0.250000000    0.252167612
    0.745035052    0.250000000    0.420279443
    0.411701769    0.916666746    0.084055893
    0.707233250    0.610985518    0.534267545
    0.078368381    0.916666746    0.420279443
    0.803386867    0.130216390    0.886011779
    0.630310178    0.995600879    0.534267545
    0.078368381    0.583333433    0.420279443
    0.411701769    0.250000000    0.084055893
    0.707233131    0.110985540    0.674965203
    0.168771744    0.303293169    0.534267545
    0.745035172    0.916666746    0.084055893
    0.578368545    0.916666746    0.252167612
    0.411701798    0.916666746    0.420279443
    0.841848552    0.937908649    0.886011779
    0.578368545    0.583333433    0.252167612
    0.411701798    0.583333433    0.420279443
    0.745035172    0.250000000    0.084055893
    0.322617829    0.534062386    0.534267545
    0.245694757    0.918677747    0.534267545
    0.161701769    0.833333313    0.000000000
    0.995035052    0.833333313    0.168111786
    0.828368425    0.833333313    0.336223543
    0.161701769    0.500000000    0.000000000
    0.995035052    0.500000000    0.168111786
    0.828368425    0.500000000    0.336223543
    0.161701769    0.166666672    0.000000000
    0.264925331    0.822524071    0.886011779
    0.828368425    0.166666672    0.336223543
    0.072617650    0.784062445    0.886011779
    0.476463854    0.764831781    0.815662920
    0.553387105    0.380216241    0.534267545
    0.495035112    0.500000000    0.000000000
    0.328368425    0.500000000    0.168111786
    0.161701754    0.500000000    0.336223543
    0.495035112    0.166666672    0.000000000
    0.303386927    0.630216300    0.886011779
    0.161701754    0.166666672    0.336223543
    0.828368545    0.833333313    0.000000000
    0.918771386    0.553293228    0.886011779
    0.591848671    0.187908500    0.534267545
    0.995694518    0.168677837    0.886011779
    0.661701858    0.500000000    0.168111786
    0.495035201    0.500000000    0.336223543
    0.828368545    0.166666672    0.000000000
    0.149540782    0.399447054    0.886011779
    0.495035201    0.166666672    0.336223543
    0.245035097    0.750000060    0.084055893
    0.078368433    0.750000060    0.252167612
    0.911701739    0.750000060    0.420279443
    0.245035097    0.416666716    0.084055893
    0.053387046    0.880216300    0.534267545
    0.911701739    0.416666716    0.420279443
    0.245035097    0.083333343    0.084055893
    0.226463988    0.014831543    0.604616404
    0.911701739    0.083333343    0.420279443
    0.578368485    0.750000060    0.084055893
    0.411701858    0.750000060    0.252167612
    0.245035127    0.750000060    0.420279443
    0.578368485    0.416666716    0.084055893
    0.899540901    0.649446964    0.534267545
    0.245035127    0.416666716    0.420279443
    0.578368485    0.083333343    0.084055893
    0.668771744    0.803293049    0.534267545
    0.822617829    0.034062505    0.534267545
    0.726463914    0.514831722    0.886011779
    0.745035052    0.750000060    0.252167612
    0.745694816    0.418677777    0.534267545
    0.911701739    0.416666716    0.084055893
    0.014925599    0.072524071    0.534267545
    0.578368366    0.416666716    0.420279443
    0.911701739    0.083333343    0.084055893
    0.745035052    0.083333343    0.252167612
    0.578368366    0.083333343    0.420279443
    0.976464093    0.264831573    0.534267545
    0.861079395    0.341754705    0.674965203
    0.745694697    0.418677866    0.815662920
    0.130310297    0.495600790    0.534267545
    0.014925599    0.572523892    0.674965203
    0.899540842    0.649447024    0.815662920
    0.495035201    0.833333313    0.336223543
    0.476463974    0.264831632    0.674965203
    0.361079276    0.341754764    0.815662920
    0.578368366    0.750000060    0.420279443
    0.630310118    0.495600909    0.674965203
    0.514925420    0.572524011    0.815662920
    0.411701858    0.416666716    0.252167612
    0.784156203    0.726370096    0.674965203
    0.668771505    0.803293228    0.815662920
    0.078368433    0.416666716    0.252167612
    0.938002348    0.957139432    0.674965203
    0.822617650    0.034062624    0.815662920
    0.911701798    0.583333433    0.252167612
    0.091848493    0.187908530    0.674965203
    0.976463795    0.264831662    0.815662920
    0.361079395    0.341754675    0.534267545
    0.245694697    0.418677807    0.674965203
    0.130309939    0.495600939    0.815662920
    0.514925539    0.572523952    0.534267545
    0.399540842    0.649447024    0.674965203
    0.284156144    0.726370156    0.815662920
    0.411701858    0.083333343    0.252167612
    0.553387046    0.880216181    0.674965203
    0.438002318    0.957139313    0.815662920
    0.245035127    0.083333343    0.420279443
    0.245035097    0.250000000    0.252167612
    0.591848433    0.187908679    0.815662920
    0.284156293    0.726370037    0.534267545
    0.168771625    0.803293169    0.674965203
    0.053386927    0.880216360    0.815662920
    0.438002467    0.957139254    0.534267545
    0.322617769    0.034062386    0.674965203
    0.207233071    0.110985540    0.815662920
    0.188002467    0.207139283    0.604616404
    0.072617769    0.284062415    0.745314062
    0.495035112    0.666666687    0.168111786
    0.803387046    0.130216271    0.604616404
    0.688002408    0.207139403    0.745314062
    0.828368425    0.000000000    0.168111786
    0.957233310    0.360985428    0.604616404
    0.841848612    0.437908590    0.745314062
    0.911701739    0.750000060    0.084055893
    0.111079454    0.591754675    0.604616404
    0.995694697    0.668677807    0.745314062
    0.495035112    0.333333343    0.168111786
    0.572617888    0.284062356    0.604616404
    0.457233191    0.360985488    0.745314062
    0.995035112    0.333333343    0.000000000
    0.726463974    0.514831662    0.604616404
    0.611079276    0.591754794    0.745314062
    0.661701798    0.000000000    0.000000000
    0.880310118    0.745600820    0.604616404
    0.764925420    0.822523952    0.745314062
    0.649540722    0.899447083    0.886011779
    0.034156322    0.976370096    0.604616404
    0.918771565    0.053293228    0.745314062
    0.411701769    0.583333433    0.084055893
    0.341848612    0.437908530    0.604616404
    0.226463914    0.514831603    0.745314062
    0.995035112    0.666666687    0.000000000
    0.495694757    0.668677807    0.604616404
    0.380310059    0.745600879    0.745314062
    0.995035052    0.166666672    0.168111786
    0.649540901    0.899446964    0.604616404
    0.534156203    0.976370096    0.745314062
    0.328368455    0.000000000    0.000000000
    0.264925510    0.822523892    0.604616404
    0.149540782    0.899447083    0.745314062
    0.034156084    0.976370156    0.886011779
    0.418771684    0.053293109    0.604616404
    0.303386956    0.130216271    0.745314062
    0.188002229    0.207139403    0.886011779
    0.078368381    0.250000000    0.420279443
    0.053387046    0.380216300    0.674965203
    0.938002288    0.457139462    0.815662920
    0.784156263    0.226370066    0.534267545
    0.668771565    0.303293198    0.674965203
    0.553386867    0.380216330    0.815662920
    0.938002527    0.457139373    0.534267545
    0.822617769    0.534062505    0.674965203
    0.707233131    0.610985637    0.815662920
    0.745035052    0.583333433    0.420279443
    0.976463914    0.764831722    0.674965203
    0.861079216    0.841754854    0.815662920
    0.399540961    0.149446964    0.534267545
    0.284156263    0.226370096    0.674965203
    0.168771505    0.303293228    0.815662920
    0.161701754    0.833333313    0.336223543
    0.438002408    0.457139373    0.674965203
    0.322617710    0.534062505    0.815662920
    0.245035097    0.916666746    0.252167612
    0.591848552    0.687908649    0.674965203
    0.328368425    0.833333313    0.168111786
    0.745035052    0.916666746    0.420279443
    0.745694637    0.918677807    0.674965203
    0.630309939    0.995600939    0.815662920
    0.745035052    0.416666716    0.252167612
    0.899540842    0.149447113    0.674965203
    0.784156144    0.226370245    0.815662920
    0.578368545    0.250000000    0.252167612
    0.207233191    0.610985518    0.674965203
    0.091848493    0.687908649    0.815662920
    0.661701739    0.000000000    0.336223543
    0.361079335    0.841754794    0.674965203
    0.245694622    0.918677926    0.815662920
    0.245035097    0.583333433    0.252167612
    0.514925480    0.072524071    0.674965203
    0.399540782    0.149447113    0.815662920
    0.411701798    0.250000000    0.420279443
    0.130310059    0.995600879    0.674965203
    0.014925361    0.072524071    0.815662920
    0.995694876    0.168677732    0.604616404
    0.880310118    0.245600879    0.745314062
    0.764925420    0.322524011    0.886011779
    0.149540901    0.399446964    0.604616404
    0.034156203    0.476370126    0.745314062
    0.661701858    0.833333313    0.168111786
    0.764925599    0.322523892    0.604616404
    0.649540901    0.399447024    0.745314062
    0.534156203    0.476370186    0.886011779
    0.918771803    0.553293109    0.604616404
    0.803387105    0.630216241    0.745314062
    0.688002408    0.707139373    0.886011779
    0.072618008    0.784062386    0.604616404
    0.495035112    0.000000000    0.168111786
    0.745035172    0.583333433    0.084055893
    0.380310178    0.245600760    0.604616404
    0.264925450    0.322523892    0.745314062
    0.661701858    0.166666672    0.168111786
    0.534156322    0.476370066    0.604616404
    0.418771625    0.553293169    0.745314062
    0.328368425    0.166666672    0.168111786
    0.688002467    0.707139254    0.604616404
    0.572617769    0.784062386    0.745314062
    0.161701739    0.333333343    0.168111786
    0.841848671    0.937908590    0.604616404
    0.726463974    0.014831781    0.745314062
    0.611079216    0.091754913    0.886011779
    0.303387046    0.630216181    0.604616404
    0.188002348    0.707139313    0.745314062
    0.495035112    0.833333313    0.000000000
    0.457233220    0.860985398    0.604616404
    0.341848493    0.937908530    0.745314062
    0.226463780    0.014831781    0.886011779
    0.611079454    0.091754794    0.604616404
    0.495694757    0.168677956    0.745314062
    0.380310029    0.245601088    0.886011779
    0.078368433    0.083333343    0.252167612
    0.111079216    0.091754794    0.745314062
    0.828368545    0.500000000    0.000000000
