Ge+Si
    1.000000000
   16.002676010    0.000000000    0.000000000
    0.000000000   16.973400116    0.000000000
    0.000000000    0.000000000   18.072525024
Ge  Si 
144     72
Direct
    0.989689231    0.986252308    0.000000021
    0.864689231    0.819585621    0.110683732
    0.739689231    0.652918935    0.221367493
    0.614689231    0.486252248    0.332051188
    0.489689291    0.319585562    0.442734867
    0.364689231    0.152918875    0.553418636
    0.989689231    0.319585651    0.000000021
    0.864689231    0.152918950    0.110683732
    0.739689231    0.986252248    0.221367493
    0.614689231    0.819585562    0.332051188
    0.489689291    0.652918935    0.442734867
    0.364689231    0.486252189    0.553418636
    0.989689231    0.652918994    0.000000021
    0.864689231    0.486252308    0.110683732
    0.739689231    0.319585592    0.221367493
    0.614689231    0.152918935    0.332051188
    0.489689291    0.986252248    0.442734867
    0.364689231    0.819585562    0.553418636
    0.489689231    0.986252308    0.000000019
    0.364689231    0.819585621    0.110683747
    0.239689216    0.652918935    0.221367493
    0.114689231    0.486252248    0.332051218
    0.989689231    0.319585562    0.442734897
    0.864689231    0.152918875    0.553418577
    0.489689231    0.319585651    0.000000019
    0.364689231    0.152918950    0.110683747
    0.239689216    0.986252248    0.221367493
    0.114689231    0.819585562    0.332051218
    0.989689231    0.652918935    0.442734897
    0.864689231    0.486252189    0.553418577
    0.489689231    0.652918994    0.000000019
    0.364689231    0.486252308    0.110683747
    0.239689216    0.319585592    0.221367493
    0.114689231    0.152918935    0.332051218
    0.989689231    0.986252248    0.442734897
    0.864689231    0.819585562    0.553418577
    0.239689231    0.986252308    0.000000026
    0.114689231    0.819585621    0.110683747
    0.989689231    0.652918935    0.221367493
    0.864689231    0.486252248    0.332051218
    0.739689231    0.319585562    0.442734897
    0.614689231    0.152918875    0.553418636
    0.239689231    0.319585651    0.000000026
    0.114689231    0.152918950    0.110683747
    0.989689231    0.986252248    0.221367493
    0.864689231    0.819585562    0.332051218
    0.739689231    0.652918935    0.442734897
    0.614689231    0.486252189    0.553418636
    0.239689231    0.652918994    0.000000026
    0.114689231    0.486252308    0.110683747
    0.989689231    0.319585592    0.221367493
    0.864689231    0.152918935    0.332051218
    0.739689231    0.986252248    0.442734897
    0.614689231    0.819585562    0.553418636
    0.739689231    0.986252308    0.000000012
    0.614689231    0.819585621    0.110683747
    0.489689201    0.652918935    0.221367463
    0.364689231    0.486252248    0.332051218
    0.239689246    0.319585562    0.442734897
    0.114689231    0.152918875    0.553418577
    0.739689231    0.319585651    0.000000012
    0.614689231    0.152918950    0.110683747
    0.489689201    0.986252248    0.221367463
    0.364689231    0.819585562    0.332051218
    0.239689246    0.652918935    0.442734897
    0.114689231    0.486252189    0.553418577
    0.739689231    0.652918994    0.000000012
    0.614689231    0.486252308    0.110683747
    0.489689201    0.319585592    0.221367463
    0.364689231    0.152918935    0.332051218
    0.239689246    0.986252248    0.442734897
    0.114689231    0.819585562    0.553418577
    0.364689231    0.236252308    0.000000012
    0.239689231    0.069585621    0.110683732
    0.114689209    0.902918875    0.221367463
    0.989689231    0.736252189    0.332051218
    0.864689231    0.569585562    0.442734897
    0.739689231    0.402918875    0.553418636
    0.364689231    0.569585681    0.000000012
    0.239689231    0.402918994    0.110683732
    0.114689209    0.236252293    0.221367463
    0.989689231    0.069585614    0.332051218
    0.864689231    0.902918935    0.442734897
    0.739689231    0.736252189    0.553418636
    0.364689231    0.902918994    0.000000012
    0.239689231    0.736252308    0.110683732
    0.114689209    0.569585562    0.221367463
    0.989689231    0.402918905    0.332051218
    0.864689231    0.236252263    0.442734897
    0.739689231    0.069585547    0.553418636
    0.864689291    0.236252308    0.000000000
    0.739689291    0.069585621    0.110683732
    0.614689291    0.902918875    0.221367463
    0.489689291    0.736252189    0.332051188
    0.364689291    0.569585562    0.442734867
    0.239689291    0.402918875    0.553418577
    0.864689291    0.569585681    0.000000000
    0.739689291    0.402918994    0.110683732
    0.614689291    0.236252293    0.221367463
    0.489689291    0.069585614    0.332051188
    0.364689291    0.902918935    0.442734867
    0.239689291    0.736252189    0.553418577
    0.864689291    0.902918994    0.000000000
    0.739689291    0.736252308    0.110683732
    0.614689291    0.569585562    0.221367463
    0.489689291    0.402918905    0.332051188
    0.364689291    0.236252263    0.442734867
    0.239689291    0.069585547    0.553418577
    0.114689223    0.236252308    0.000000024
    0.989689231    0.069585621    0.110683747
    0.864689231    0.902918875    0.221367463
    0.739689231    0.736252189    0.332051218
    0.614689231    0.569585562    0.442734897
    0.489689231    0.402918875    0.553418577
    0.114689223    0.569585681    0.000000024
    0.989689231    0.402918994    0.110683747
    0.864689231    0.236252293    0.221367463
    0.739689231    0.069585614    0.332051218
    0.614689231    0.902918935    0.442734897
    0.489689231    0.736252189    0.553418577
    0.114689223    0.902918994    0.000000024
    0.989689231    0.736252308    0.110683747
    0.864689231    0.569585562    0.221367463
    0.739689231    0.402918905    0.332051218
    0.614689231    0.236252263    0.442734897
    0.489689231    0.069585547    0.553418577
    0.614689231    0.236252308    0.000000006
    0.489689231    0.069585621    0.110683747
    0.364689231    0.902918875    0.221367463
    0.239689231    0.736252189    0.332051218
    0.114689253    0.569585562    0.442734867
    0.989689231    0.402918875    0.553418577
    0.614689231    0.569585681    0.000000006
    0.489689231    0.402918994    0.110683747
    0.364689231    0.236252293    0.221367463
    0.239689231    0.069585614    0.332051218
    0.114689253    0.902918935    0.442734867
    0.989689231    0.736252189    0.553418577
    0.614689231    0.902918994    0.000000006
    0.489689231    0.736252308    0.110683747
    0.364689231    0.569585562    0.221367463
    0.239689231    0.402918905    0.332051218
    0.114689253    0.236252263    0.442734867
    0.989689231    0.069585547    0.553418577
    0.470001549    0.068808198    0.895497143
    0.303335071    0.318807483    0.657921731
    0.136668324    0.668807566    0.705436766
    0.970001698    0.018807769    0.752951860
    0.803334951    0.368808031    0.800467014
    0.636668205    0.718808174    0.847982109
    0.803334951    0.068808198    0.895497143
    0.636668444    0.318807483    0.657921731
    0.470001727    0.668807566    0.705436766
    0.303335071    0.018807769    0.752951860
    0.136668205    0.368808031    0.800467014
    0.970001459    0.718808174    0.847982109
    0.136668205    0.068808198    0.895497143
    0.970001817    0.318807483    0.657921731
    0.803335071    0.668807566    0.705436766
    0.636668444    0.018807769    0.752951860
    0.470001638    0.368808031    0.800467014
    0.303334832    0.718808174    0.847982109
    0.553334832    0.818808317    0.895497143
    0.386668414    0.068807602    0.657921672
    0.220001698    0.418807745    0.705436766
    0.053334951    0.768808007    0.752951801
    0.886668205    0.118808150    0.800466955
    0.720001578    0.468808174    0.847982049
    0.886668205    0.818808317    0.895497143
    0.720001698    0.068807602    0.657921672
    0.553335011    0.418807745    0.705436766
    0.386668324    0.768808007    0.752951801
    0.220001578    0.118808150    0.800466955
    0.053334951    0.468808174    0.847982049
    0.220001578    0.818808317    0.895497143
    0.053335071    0.068807602    0.657921672
    0.886668324    0.418807745    0.705436766
    0.720001638    0.768808007    0.752951801
    0.553334892    0.118808150    0.800466955
    0.386668235    0.468808174    0.847982049
    0.470001549    0.568808317    0.895497143
    0.303335071    0.818807542    0.657921672
    0.136668324    0.168807745    0.705436766
    0.970001698    0.518807769    0.752951801
    0.803334951    0.868808031    0.800467014
    0.636668324    0.218808174    0.847982049
    0.803334951    0.568808317    0.895497143
    0.636668444    0.818807542    0.657921672
    0.470001698    0.168807745    0.705436766
    0.303335071    0.518807769    0.752951801
    0.136668205    0.868808031    0.800467014
    0.970001578    0.218808174    0.847982049
    0.136668205    0.568808317    0.895497143
    0.970001817    0.818807542    0.657921672
    0.803335071    0.168807745    0.705436766
    0.636668384    0.518807769    0.752951801
    0.470001638    0.868808031    0.800467014
    0.303334951    0.218808174    0.847982049
    0.553334832    0.318808317    0.895497143
    0.386668414    0.568807483    0.657921731
    0.220001698    0.918807566    0.705436766
    0.053335071    0.268807769    0.752951801
    0.886668205    0.618808031    0.800466955
    0.720001459    0.968808293    0.847982049
    0.886668205    0.318808317    0.895497143
    0.720001757    0.568807483    0.657921731
    0.553335071    0.918807566    0.705436766
    0.386668384    0.268807769    0.752951801
    0.220001578    0.618808031    0.800466955
    0.053334832    0.968808293    0.847982049
    0.220001578    0.318808317    0.895497143
    0.053335071    0.568807483    0.657921731
    0.886668444    0.918807566    0.705436766
    0.720001698    0.268807769    0.752951801
    0.553334951    0.618808031    0.800466955
    0.386668175    0.968808293    0.847982049
