Si+Si                                   
   1.00000000000000     
     7.6805944439999996    0.0000000000000000    0.0000000000000000
     3.8402969840000001   11.5208911900000004    0.0000000000000000
     0.0000000000000000    0.0000000000000000    9.0516672130000000
   Si
    48
Direct
  0.6607342960000011  0.6607342960000011  0.0000000000000000
  0.4940675799999994  0.4940676390000007  0.2999999230000014
  0.3274008329999987  0.3274009530000015  0.5999999049999971
  0.3274010120000028  0.3274010120000028  0.0000000000000000
  0.1607342659999986  0.1607343259999965  0.2999999230000014
  0.9940675499999969  0.9940676690000032  0.5999999049999971
  0.9940677290000011  0.9940677290000011  0.0000000000000000
  0.8274009820000003  0.8274010419999982  0.2999999230000014
  0.6607342360000032  0.6607343550000024  0.5999999049999971
  0.4107343259999965  0.6607342960000011  0.1499999910000014
  0.2440675799999994  0.4940676089999982  0.4499999279999969
  0.0774008109999968  0.3274009229999990  0.7499998810000008
  0.7440676089999982  0.9940676690000032  0.1499999910000014
  0.5774008630000012  0.8274010419999982  0.4499999279999969
  0.4107340870000016  0.6607342960000011  0.7499998810000008
  0.0774010200000035  0.3274010120000028  0.1499999910000014
  0.9107342960000011  0.1607343410000013  0.4499999279999969
  0.7440675499999969  0.9940676690000032  0.7499998810000008
  0.8274009820000003  0.3274010120000028  0.0000000000000000
  0.6607342360000032  0.1607343550000024  0.2999999230000014
  0.4940675200000015  0.9940676690000032  0.5999999049999971
  0.1607343550000024  0.6607343550000024  0.0000000000000000
  0.9940676089999982  0.4940676690000032  0.2999999230000014
  0.8274008630000012  0.3274009820000003  0.5999999049999971
  0.4940676690000032  0.9940677290000011  0.0000000000000000
  0.3274009229999990  0.8274010419999982  0.2999999230000014
  0.1607341919999996  0.6607343550000024  0.5999999049999971
  0.9107344749999982  0.6607342360000032  0.1499999910000014
  0.7440677290000011  0.4940675799999994  0.4499999279999969
  0.5774009229999990  0.3274008929999965  0.7499998810000008
  0.5774009820000003  0.3274009820000003  0.1499999910000014
  0.4107342659999986  0.1607343109999988  0.4499999279999969
  0.2440674899999991  0.9940676089999982  0.7499998810000008
  0.2440676690000032  0.9940677290000011  0.1499999910000014
  0.0774009379999967  0.8274010419999982  0.4499999279999969
  0.9107341770000019  0.6607342960000011  0.7499998810000008
  0.9628466369999984  0.0265381170000012  0.7499998810000008
  0.5739576220000018  0.3043159540000033  0.8499999639999984
  0.1850686069999981  0.5820937749999970  0.9499999880000018
  0.4628466070000030  0.0265381130000009  0.7499998810000008
  0.0739575919999993  0.3043159540000033  0.8499998449999993
  0.6850686069999981  0.5820937749999970  0.9499999880000018
  0.7684021000000030  0.9154269699999986  0.7999998929999990
  0.3795130849999993  0.1932049990000024  0.9000000360000016
  0.9906240700000026  0.4709826710000016  0.9999999400000021
  0.2684021000000030  0.9154270289999999  0.7999998929999990
  0.8795130250000014  0.1932048800000032  0.8999999170000024
  0.4906240110000013  0.4709826710000016  0.9999999400000021
 
  0.00000000E+00  0.00000000E+00  0.00000000E+00
  0.00000000E+00  0.00000000E+00  0.00000000E+00
  0.00000000E+00  0.00000000E+00  0.00000000E+00
  0.00000000E+00  0.00000000E+00  0.00000000E+00
  0.00000000E+00  0.00000000E+00  0.00000000E+00
  0.00000000E+00  0.00000000E+00  0.00000000E+00
  0.00000000E+00  0.00000000E+00  0.00000000E+00
  0.00000000E+00  0.00000000E+00  0.00000000E+00
  0.00000000E+00  0.00000000E+00  0.00000000E+00
  0.00000000E+00  0.00000000E+00  0.00000000E+00
  0.00000000E+00  0.00000000E+00  0.00000000E+00
  0.00000000E+00  0.00000000E+00  0.00000000E+00
  0.00000000E+00  0.00000000E+00  0.00000000E+00
  0.00000000E+00  0.00000000E+00  0.00000000E+00
  0.00000000E+00  0.00000000E+00  0.00000000E+00
  0.00000000E+00  0.00000000E+00  0.00000000E+00
  0.00000000E+00  0.00000000E+00  0.00000000E+00
  0.00000000E+00  0.00000000E+00  0.00000000E+00
  0.00000000E+00  0.00000000E+00  0.00000000E+00
  0.00000000E+00  0.00000000E+00  0.00000000E+00
  0.00000000E+00  0.00000000E+00  0.00000000E+00
  0.00000000E+00  0.00000000E+00  0.00000000E+00
  0.00000000E+00  0.00000000E+00  0.00000000E+00
  0.00000000E+00  0.00000000E+00  0.00000000E+00
  0.00000000E+00  0.00000000E+00  0.00000000E+00
  0.00000000E+00  0.00000000E+00  0.00000000E+00
  0.00000000E+00  0.00000000E+00  0.00000000E+00
  0.00000000E+00  0.00000000E+00  0.00000000E+00
  0.00000000E+00  0.00000000E+00  0.00000000E+00
  0.00000000E+00  0.00000000E+00  0.00000000E+00
  0.00000000E+00  0.00000000E+00  0.00000000E+00
  0.00000000E+00  0.00000000E+00  0.00000000E+00
  0.00000000E+00  0.00000000E+00  0.00000000E+00
  0.00000000E+00  0.00000000E+00  0.00000000E+00
  0.00000000E+00  0.00000000E+00  0.00000000E+00
  0.00000000E+00  0.00000000E+00  0.00000000E+00
  0.00000000E+00  0.00000000E+00  0.00000000E+00
  0.00000000E+00  0.00000000E+00  0.00000000E+00
  0.00000000E+00  0.00000000E+00  0.00000000E+00
  0.00000000E+00  0.00000000E+00  0.00000000E+00
  0.00000000E+00  0.00000000E+00  0.00000000E+00
  0.00000000E+00  0.00000000E+00  0.00000000E+00
  0.00000000E+00  0.00000000E+00  0.00000000E+00
  0.00000000E+00  0.00000000E+00  0.00000000E+00
  0.00000000E+00  0.00000000E+00  0.00000000E+00
  0.00000000E+00  0.00000000E+00  0.00000000E+00
  0.00000000E+00  0.00000000E+00  0.00000000E+00
  0.00000000E+00  0.00000000E+00  0.00000000E+00
