Si+Si
    1.000000000
    7.680594444    0.000000000    0.000000000
    3.840296984   11.520891190    0.000000000
    0.000000000    0.000000000    9.051667213
Si 
48
Direct
    0.660734296    0.660734296    0.000000000
    0.494067580    0.494067639    0.299999923
    0.327400833    0.327400953    0.599999905
    0.327401012    0.327401012    0.000000000
    0.160734266    0.160734326    0.299999923
    0.994067550    0.994067669    0.599999905
    0.994067729    0.994067729    0.000000000
    0.827400982    0.827401042    0.299999923
    0.660734236    0.660734355    0.599999905
    0.410734326    0.660734296    0.149999991
    0.244067580    0.494067609    0.449999928
    0.077400811    0.327400923    0.749999881
    0.744067609    0.994067669    0.149999991
    0.577400863    0.827401042    0.449999928
    0.410734087    0.660734296    0.749999881
    0.077401020    0.327401012    0.149999991
    0.910734296    0.160734341    0.449999928
    0.744067550    0.994067669    0.749999881
    0.827400982    0.327401012    0.000000000
    0.660734236    0.160734355    0.299999923
    0.494067520    0.994067669    0.599999905
    0.160734355    0.660734355    0.000000000
    0.994067609    0.494067669    0.299999923
    0.827400863    0.327400982    0.599999905
    0.494067669    0.994067729    0.000000000
    0.327400923    0.827401042    0.299999923
    0.160734192    0.660734355    0.599999905
    0.910734475    0.660734236    0.149999991
    0.744067729    0.494067580    0.449999928
    0.577400923    0.327400893    0.749999881
    0.577400982    0.327400982    0.149999991
    0.410734266    0.160734311    0.449999928
    0.244067490    0.994067609    0.749999881
    0.244067669    0.994067729    0.149999991
    0.077400938    0.827401042    0.449999928
    0.910734177    0.660734296    0.749999881
    0.962846637    0.026538117    0.749999881
    0.573957622    0.304315954    0.849999964
    0.185068607    0.582093775    0.949999988
    0.462846607    0.026538113    0.749999881
    0.073957592    0.304315954    0.849999845
    0.685068607    0.582093775    0.949999988
    0.768402100    0.915426970    0.799999893
    0.379513085    0.193204999    0.900000036
    0.990624070    0.470982671    0.999999940
    0.268402100    0.915427029    0.799999893
    0.879513025    0.193204880    0.899999917
    0.490624011    0.470982671    0.999999940
