Ge+Si
    1.000000000
   16.002676010    0.000000000    0.000000000
    0.000000000   16.973402023    0.000000000
    0.000000000    0.000000000   10.600553513
Ge  Si 
48     72
Direct
    0.913237751    0.910024285    0.000000024
    0.538237751    0.521135390    0.062900461
    0.163237810    0.132246494    0.125800863
    0.788237810    0.743357420    0.188701361
    0.413237810    0.354468584    0.251601785
    0.038237691    0.965579510    0.314502209
    0.413237691    0.910024285    0.000000027
    0.038237717    0.521135330    0.062900461
    0.663237751    0.132246435    0.125800863
    0.288237691    0.743357420    0.188701302
    0.913237810    0.354468465    0.251601785
    0.538237810    0.965579748    0.314502329
    0.038237728    0.660024226    0.000000024
    0.663237751    0.271135300    0.062900439
    0.288237810    0.882246375    0.125800878
    0.913237810    0.493357420    0.188701302
    0.538237691    0.104468405    0.251601756
    0.163237691    0.715579629    0.314502209
    0.538237691    0.660024226    0.000000024
    0.163237706    0.271135300    0.062900439
    0.788237751    0.882246375    0.125800878
    0.413237691    0.493357480    0.188701302
    0.038237751    0.104468465    0.251601815
    0.663237691    0.715579629    0.314502239
    0.288237751    0.660024226    0.000000024
    0.913237751    0.271135300    0.062900439
    0.538237810    0.882246375    0.125800878
    0.163237810    0.493357420    0.188701302
    0.788237810    0.104468465    0.251601756
    0.413237810    0.715579510    0.314502209
    0.788237691    0.660024166    0.000000000
    0.413237721    0.271135300    0.062900439
    0.038237784    0.882246375    0.125800878
    0.663237751    0.493357420    0.188701287
    0.288237691    0.104468465    0.251601756
    0.913237810    0.715579629    0.314502239
    0.163237721    0.910024285    0.000000024
    0.788237691    0.521135330    0.062900461
    0.413237810    0.132246494    0.125800908
    0.038237751    0.743357420    0.188701361
    0.663237810    0.354468584    0.251601726
    0.288237691    0.965579510    0.314502209
    0.663237691    0.910024285    0.000000034
    0.288237751    0.521135330    0.062900439
    0.913237751    0.132246494    0.125800908
    0.538237810    0.743357420    0.188701361
    0.163237691    0.354468465    0.251601726
    0.788237810    0.965579748    0.314502209
    0.419687092    0.867624760    0.859768391
    0.253020644    0.117624030    0.454733998
    0.086353898    0.467624128    0.535740912
    0.919687271    0.817624271    0.616747677
    0.753020465    0.167624608    0.697754622
    0.586353719    0.517624736    0.778761506
    0.753020465    0.867624760    0.859768391
    0.586354017    0.117624030    0.454733998
    0.419687271    0.467624128    0.535740912
    0.253020525    0.817624271    0.616747677
    0.086353779    0.167624608    0.697754622
    0.919687033    0.517624736    0.778761506
    0.086353779    0.867624760    0.859768391
    0.919687331    0.117624030    0.454733998
    0.753020644    0.467624128    0.535740912
    0.586353958    0.817624271    0.616747677
    0.419687152    0.167624608    0.697754622
    0.253020406    0.517624736    0.778761506
    0.503020406    0.617624879    0.859768271
    0.336353958    0.867624104    0.454733878
    0.169687271    0.217624322    0.535740852
    0.003020525    0.567624569    0.616747618
    0.836353779    0.917624712    0.697754562
    0.669687152    0.267624736    0.778761387
    0.836353779    0.617624879    0.859768271
    0.669687271    0.867624104    0.454733878
    0.503020585    0.217624322    0.535740852
    0.336353898    0.567624569    0.616747618
    0.169687152    0.917624712    0.697754562
    0.003020525    0.267624736    0.778761387
    0.169687033    0.617624879    0.859768271
    0.003020525    0.867624104    0.454733878
    0.836353898    0.217624322    0.535740852
    0.669687152    0.567624569    0.616747618
    0.503020406    0.917624712    0.697754562
    0.336353779    0.267624736    0.778761387
    0.419687092    0.367624879    0.859768391
    0.253020525    0.617624104    0.454733938
    0.086353898    0.967624247    0.535740852
    0.919687212    0.317624331    0.616747618
    0.753020465    0.667624593    0.697754622
    0.586353838    0.017624736    0.778761387
    0.753020465    0.367624879    0.859768391
    0.586353958    0.617624104    0.454733938
    0.419687241    0.967624247    0.535740852
    0.253020525    0.317624331    0.616747618
    0.086353779    0.667624593    0.697754622
    0.919687152    0.017624736    0.778761387
    0.086353779    0.367624879    0.859768391
    0.919687331    0.617624104    0.454733938
    0.753020585    0.967624247    0.535740852
    0.586353898    0.317624331    0.616747618
    0.419687152    0.667624593    0.697754622
    0.253020525    0.017624736    0.778761387
    0.503020406    0.117624894    0.859768271
    0.336353958    0.367624044    0.454733998
    0.169687271    0.717624128    0.535740852
    0.003020525    0.067624345    0.616747677
    0.836353779    0.417624593    0.697754562
    0.669687033    0.767624855    0.778761387
    0.836353779    0.117624894    0.859768271
    0.669687271    0.367624044    0.454733998
    0.503020585    0.717624128    0.535740852
    0.336353928    0.067624345    0.616747677
    0.169687152    0.417624593    0.697754562
    0.003020406    0.767624855    0.778761387
    0.169687152    0.117624894    0.859768271
    0.003020644    0.367624044    0.454733998
    0.836353958    0.717624128    0.535740852
    0.669687271    0.067624345    0.616747677
    0.503020465    0.417624593    0.697754562
    0.336353719    0.767624855    0.778761387
