Ge+Ge                                   
   1.00000000000000     
     8.0013380049999991    0.0000000000000000    0.0000000000000000
     4.0006690029999996   12.0020065309999993    0.0000000000000000
     0.0000000000000000    0.0000000000000000   11.6117439269999991
   Ge
    48
Direct
  0.9943054909999987  0.9943054909999987  0.0000000000000000
  0.8276388649999973  0.8276388649999973  0.2436240319999996
  0.6609721179999966  0.6609721179999966  0.4872480929999981
  0.3276388049999994  0.3276388049999994  0.0000000000000000
  0.1609721479999990  0.1609721479999990  0.2436240319999996
  0.9943054319999973  0.9943054319999973  0.4872480929999981
  0.6609721179999966  0.6609721179999966  0.0000000000000000
  0.4943054319999973  0.4943054319999973  0.2436240319999996
  0.3276387450000016  0.3276387450000016  0.4872480929999981
  0.2443054769999975  0.9943054909999987  0.1218120159999998
  0.0776387900000017  0.8276388649999973  0.3654360769999982
  0.9109721179999966  0.6609721179999966  0.6090602279999970
  0.5776388049999994  0.3276388049999994  0.1218120159999998
  0.4109721179999966  0.1609721330000013  0.3654360769999982
  0.2443054319999973  0.9943054319999973  0.6090602279999970
  0.9109721780000015  0.6609721179999966  0.1218120159999998
  0.7443054909999987  0.4943054619999998  0.3654360769999982
  0.5776388049999994  0.3276387749999969  0.6090602279999970
  0.4943054319999973  0.9943054909999987  0.0000000000000000
  0.3276387749999969  0.8276388649999973  0.2436240319999996
  0.1609720889999977  0.6609721179999966  0.4872480929999981
  0.1609721780000015  0.6609721179999966  0.0000000000000000
  0.9943054909999987  0.4943054619999998  0.2436240319999996
  0.8276388049999994  0.3276387749999969  0.4872480929999981
  0.8276387450000016  0.3276388350000019  0.0000000000000000
  0.6609721179999966  0.1609721629999967  0.2436240319999996
  0.4943054020000019  0.9943054909999987  0.4872480929999981
  0.0776388270000012  0.3276388350000019  0.1218120159999998
  0.9109721179999966  0.1609721479999990  0.3654360769999982
  0.7443054909999987  0.9943054909999987  0.6090602279999970
  0.7443054909999987  0.9943054909999987  0.1218120159999998
  0.5776388049999994  0.8276388049999994  0.3654360769999982
  0.4109720889999977  0.6609721179999966  0.6090602279999970
  0.4109721479999990  0.6609721179999966  0.1218120159999998
  0.2443054470000021  0.4943054020000019  0.3654360769999982
  0.0776387450000016  0.3276387160000027  0.6090602279999970
  0.2033529280000010  0.5979667309999996  0.7030200359999981
  0.8144640330000001  0.8757445219999980  0.7842280859999988
  0.4255751370000027  0.1535223719999976  0.8654361370000032
  0.7033529280000010  0.5979667309999996  0.7030200359999981
  0.3144640330000001  0.8757445809999993  0.7842280859999988
  0.9255750780000014  0.1535223719999976  0.8654361370000032
  0.0089083909999985  0.4868556260000005  0.7436240910000009
  0.6200196149999968  0.7646333579999975  0.8248321410000017
  0.2311304810000010  0.0424113270000035  0.9060401919999990
  0.5089084510000035  0.4868557449999997  0.7436240910000009
  0.1200195549999989  0.7646333579999975  0.8248321410000017
  0.7311306000000002  0.0424113270000035  0.9060401919999990
 
  0.00000000E+00  0.00000000E+00  0.00000000E+00
  0.00000000E+00  0.00000000E+00  0.00000000E+00
  0.00000000E+00  0.00000000E+00  0.00000000E+00
  0.00000000E+00  0.00000000E+00  0.00000000E+00
  0.00000000E+00  0.00000000E+00  0.00000000E+00
  0.00000000E+00  0.00000000E+00  0.00000000E+00
  0.00000000E+00  0.00000000E+00  0.00000000E+00
  0.00000000E+00  0.00000000E+00  0.00000000E+00
  0.00000000E+00  0.00000000E+00  0.00000000E+00
  0.00000000E+00  0.00000000E+00  0.00000000E+00
  0.00000000E+00  0.00000000E+00  0.00000000E+00
  0.00000000E+00  0.00000000E+00  0.00000000E+00
  0.00000000E+00  0.00000000E+00  0.00000000E+00
  0.00000000E+00  0.00000000E+00  0.00000000E+00
  0.00000000E+00  0.00000000E+00  0.00000000E+00
  0.00000000E+00  0.00000000E+00  0.00000000E+00
  0.00000000E+00  0.00000000E+00  0.00000000E+00
  0.00000000E+00  0.00000000E+00  0.00000000E+00
  0.00000000E+00  0.00000000E+00  0.00000000E+00
  0.00000000E+00  0.00000000E+00  0.00000000E+00
  0.00000000E+00  0.00000000E+00  0.00000000E+00
  0.00000000E+00  0.00000000E+00  0.00000000E+00
  0.00000000E+00  0.00000000E+00  0.00000000E+00
  0.00000000E+00  0.00000000E+00  0.00000000E+00
  0.00000000E+00  0.00000000E+00  0.00000000E+00
  0.00000000E+00  0.00000000E+00  0.00000000E+00
  0.00000000E+00  0.00000000E+00  0.00000000E+00
  0.00000000E+00  0.00000000E+00  0.00000000E+00
  0.00000000E+00  0.00000000E+00  0.00000000E+00
  0.00000000E+00  0.00000000E+00  0.00000000E+00
  0.00000000E+00  0.00000000E+00  0.00000000E+00
  0.00000000E+00  0.00000000E+00  0.00000000E+00
  0.00000000E+00  0.00000000E+00  0.00000000E+00
  0.00000000E+00  0.00000000E+00  0.00000000E+00
  0.00000000E+00  0.00000000E+00  0.00000000E+00
  0.00000000E+00  0.00000000E+00  0.00000000E+00
  0.00000000E+00  0.00000000E+00  0.00000000E+00
  0.00000000E+00  0.00000000E+00  0.00000000E+00
  0.00000000E+00  0.00000000E+00  0.00000000E+00
  0.00000000E+00  0.00000000E+00  0.00000000E+00
  0.00000000E+00  0.00000000E+00  0.00000000E+00
  0.00000000E+00  0.00000000E+00  0.00000000E+00
  0.00000000E+00  0.00000000E+00  0.00000000E+00
  0.00000000E+00  0.00000000E+00  0.00000000E+00
  0.00000000E+00  0.00000000E+00  0.00000000E+00
  0.00000000E+00  0.00000000E+00  0.00000000E+00
  0.00000000E+00  0.00000000E+00  0.00000000E+00
  0.00000000E+00  0.00000000E+00  0.00000000E+00
