Ge+Ge
    1.000000000
    8.001338005    0.000000000    0.000000000
    4.000669003   12.002006531    0.000000000
    0.000000000    0.000000000   11.611743927
Ge 
48
Direct
    0.994305491    0.994305491    0.000000000
    0.827638865    0.827638865    0.243624032
    0.660972118    0.660972118    0.487248093
    0.327638805    0.327638805    0.000000000
    0.160972148    0.160972148    0.243624032
    0.994305432    0.994305432    0.487248093
    0.660972118    0.660972118    0.000000000
    0.494305432    0.494305432    0.243624032
    0.327638745    0.327638745    0.487248093
    0.244305477    0.994305491    0.121812016
    0.077638790    0.827638865    0.365436077
    0.910972118    0.660972118    0.609060228
    0.577638805    0.327638805    0.121812016
    0.410972118    0.160972133    0.365436077
    0.244305432    0.994305432    0.609060228
    0.910972178    0.660972118    0.121812016
    0.744305491    0.494305462    0.365436077
    0.577638805    0.327638775    0.609060228
    0.494305432    0.994305491    0.000000000
    0.327638775    0.827638865    0.243624032
    0.160972089    0.660972118    0.487248093
    0.160972178    0.660972118    0.000000000
    0.994305491    0.494305462    0.243624032
    0.827638805    0.327638775    0.487248093
    0.827638745    0.327638835    0.000000000
    0.660972118    0.160972163    0.243624032
    0.494305402    0.994305491    0.487248093
    0.077638827    0.327638835    0.121812016
    0.910972118    0.160972148    0.365436077
    0.744305491    0.994305491    0.609060228
    0.744305491    0.994305491    0.121812016
    0.577638805    0.827638805    0.365436077
    0.410972089    0.660972118    0.609060228
    0.410972148    0.660972118    0.121812016
    0.244305447    0.494305402    0.365436077
    0.077638745    0.327638716    0.609060228
    0.203352928    0.597966731    0.703020036
    0.814464033    0.875744522    0.784228086
    0.425575137    0.153522372    0.865436137
    0.703352928    0.597966731    0.703020036
    0.314464033    0.875744581    0.784228086
    0.925575078    0.153522372    0.865436137
    0.008908391    0.486855626    0.743624091
    0.620019615    0.764633358    0.824832141
    0.231130481    0.042411327    0.906040192
    0.508908451    0.486855745    0.743624091
    0.120019555    0.764633358    0.824832141
    0.731130600    0.042411327    0.906040192
