Sn+Ge                                   
   1.00000000000000     
    14.5102920530000006    0.0000000000000000    0.0000000000000000
     0.0000000000000000   19.4676017759999986    0.0000000000000000
     0.0000000000000000    0.0000000000000000   17.4044361109999990
   Sn   Ge
    36   144
Direct
  0.9829056259999973  0.6524212960000000  0.0000000069999970
  0.7829055790000012  0.4857546089999971  0.0833712889999987
  0.5829054120000023  0.3190878930000025  0.1667425480000020
  0.9829056259999973  0.3190880120000017  0.0000000069999970
  0.7829055790000012  0.1524213249999988  0.0833712889999987
  0.5829054120000023  0.9857546089999971  0.1667425480000020
  0.9829056259999973  0.9857547280000034  0.0000000069999970
  0.7829055790000012  0.8190880419999971  0.0833712889999987
  0.5829054120000023  0.6524212960000000  0.1667425480000020
  0.6329056020000010  0.9024214149999992  0.0416855699999985
  0.4329055250000025  0.7357547280000034  0.1250568479999998
  0.2329054329999991  0.5690880419999971  0.2084280850000013
  0.6329056020000010  0.5690879819999992  0.0416855699999985
  0.4329055250000025  0.4024212960000000  0.1250568479999998
  0.2329054329999991  0.2357546089999971  0.2084280850000013
  0.6329056020000010  0.2357547579999988  0.0416855699999985
  0.4329055250000025  0.0690880639999989  0.1250568479999998
  0.2329054329999991  0.9024213550000013  0.2084280850000013
  0.4829055960000019  0.8190879229999979  0.0000000000000000
  0.2829054589999984  0.6524212360000021  0.0833712740000010
  0.0829053519999974  0.4857545790000017  0.1667425779999974
  0.4829055960000019  0.4857546690000021  0.0000000000000000
  0.2829054589999984  0.3190879819999992  0.0833712740000010
  0.0829053519999974  0.1524212810000023  0.1667425779999974
  0.4829055960000019  0.1524213550000013  0.0000000000000000
  0.2829054589999984  0.9857546690000021  0.0833712740000010
  0.0829053519999974  0.8190879819999992  0.1667425779999974
  0.1329056470000012  0.7357546690000021  0.0416855630000015
  0.9329055549999978  0.5690879819999992  0.1250568179999973
  0.7329055069999981  0.4024212960000000  0.2084280850000013
  0.1329056470000012  0.4024213849999967  0.0416855630000015
  0.9329055549999978  0.2357547129999986  0.1250568179999973
  0.7329055069999981  0.0690880120000017  0.2084280850000013
  0.1329056470000012  0.0690880120000017  0.0416855630000015
  0.9329055549999978  0.9024213550000013  0.1250568179999973
  0.7329055069999981  0.7357546089999971  0.2084280850000013
  0.4863228800000030  0.1391752509999975  0.3168829079999966
  0.2363227609999967  0.1391751769999985  0.4318153560000013
  0.9863227009999989  0.1391751769999985  0.5467477440000010
  0.7363226410000010  0.1391750570000028  0.6616802220000011
  0.4863227609999967  0.1391749379999965  0.7766126389999997
  0.2363225220000018  0.1391749379999965  0.8915451769999976
  0.1529895070000009  0.3058418930000002  0.3168829079999966
  0.9029894470000031  0.3058418629999977  0.4318153560000013
  0.6529893880000017  0.3058417740000010  0.5467477440000010
  0.4029893880000017  0.3058416840000007  0.6616802220000011
  0.1529893880000017  0.3058416249999993  0.7766126389999997
  0.9029892089999976  0.3058415650000015  0.8915451769999976
  0.8196561339999988  0.4725085500000006  0.3168829079999966
  0.5696561339999988  0.4725084900000027  0.4318153560000013
  0.3196560140000031  0.4725084299999978  0.5467477440000010
  0.0696560140000031  0.4725083710000035  0.6616802220000011
  0.8196559550000018  0.4725082519999972  0.7766126389999997
  0.5696558949999968  0.4725082519999972  0.8915451769999976
  0.4863228800000030  0.6391752359999998  0.3168829079999966
  0.2363227609999967  0.6391751769999985  0.4318153560000013
  0.9863226410000010  0.6391751170000006  0.5467477440000010
  0.7363227009999989  0.6391749980000014  0.6616802220000011
  0.4863226410000010  0.6391749379999965  0.7766126389999997
  0.2363225220000018  0.6391748790000022  0.8915451769999976
  0.1529895070000009  0.8058419230000027  0.3168828789999978
  0.9029894470000031  0.8058418040000035  0.4318153259999988
  0.6529893279999968  0.8058417439999985  0.5467477440000010
  0.4029893880000017  0.8058416840000007  0.6616802220000011
  0.1529892679999989  0.8058416249999993  0.7766126389999997
  0.9029892089999976  0.8058415650000015  0.8915451769999976
  0.8196561930000001  0.9725085500000006  0.3168828789999978
  0.5696561339999988  0.9725084900000027  0.4318153259999988
  0.3196560140000031  0.9725084299999978  0.5467477440000010
  0.0696560140000031  0.9725083109999986  0.6616802220000011
  0.8196559550000018  0.9725083109999986  0.7766126389999997
  0.5696558949999968  0.9725081919999994  0.8915451769999976
  0.9863228800000030  0.1391752959999977  0.3168829079999966
  0.7363227609999967  0.1391751769999985  0.4318153560000013
  0.4863226410000010  0.1391751769999985  0.5467477440000010
  0.2363226410000010  0.1391750570000028  0.6616802220000011
  0.9863226410000010  0.1391749379999965  0.7766126389999997
  0.7363225220000018  0.1391749379999965  0.8915451769999976
  0.6529895070000009  0.3058419230000027  0.3168829079999966
  0.4029893880000017  0.3058418330000023  0.4318153560000013
  0.1529893880000017  0.3058417740000010  0.5467477440000010
  0.9029893279999968  0.3058416840000007  0.6616802220000011
  0.6529893279999968  0.3058416249999993  0.7766126389999997
  0.4029892679999989  0.3058415650000015  0.8915451769999976
  0.3196562529999980  0.4725086090000019  0.3168829079999966
  0.0696561339999988  0.4725085500000006  0.4318153560000013
  0.8196561339999988  0.4725084900000027  0.5467477440000010
  0.5696560740000010  0.4725084299999978  0.6616802810000024
  0.3196560140000031  0.4725083109999986  0.7766126389999997
  0.0696558949999968  0.4725082519999972  0.8915451169999997
  0.9863228800000030  0.6391752359999998  0.3168829079999966
  0.7363227609999967  0.6391751170000006  0.4318153560000013
  0.4863226410000010  0.6391750570000028  0.5467477440000010
  0.2363226410000010  0.6391749980000014  0.6616802810000024
  0.9863227009999989  0.6391748790000022  0.7766126389999997
  0.7363225220000018  0.6391748189999973  0.8915451169999997
  0.6529895070000009  0.8058418629999977  0.3168829079999966
  0.4029893880000017  0.8058418040000035  0.4318153560000013
  0.1529893880000017  0.8058417439999985  0.5467477440000010
  0.9029893279999968  0.8058416840000007  0.6616802810000024
  0.6529892089999976  0.8058415650000015  0.7766126389999997
  0.4029892679999989  0.8058415060000002  0.8915451169999997
  0.3196561339999988  0.9725085500000006  0.3168829079999966
  0.0696561339999988  0.9725085500000006  0.4318153560000013
  0.8196560140000031  0.9725083710000035  0.5467478039999989
  0.5696560140000031  0.9725083710000035  0.6616802810000024
  0.3196560140000031  0.9725082519999972  0.7766126389999997
  0.0696558949999968  0.9725081919999994  0.8915451769999976
  0.1529896260000001  0.1808418930000002  0.3168829079999966
  0.9029895070000009  0.1808418330000023  0.4318153560000013
  0.6529894470000031  0.1808417590000033  0.5467477440000010
  0.4029893880000017  0.1808416840000007  0.6616802220000011
  0.1529893880000017  0.1808416399999970  0.7766126389999997
  0.9029893279999968  0.1808415499999967  0.8915451769999976
  0.8196561339999988  0.3475085500000006  0.3168829079999966
  0.5696561339999988  0.3475084900000027  0.4318153560000013
  0.3196560140000031  0.3475084009999989  0.5467477440000010
  0.0696560140000031  0.3475083710000035  0.6616802220000011
  0.8196560140000031  0.3475082810000032  0.7766126389999997
  0.5696558949999968  0.3475081919999994  0.8915452359999989
  0.4863228800000030  0.5141751769999985  0.3168829079999966
  0.2363228800000030  0.5141751769999985  0.4318153560000013
  0.9863227009999989  0.5141750570000028  0.5467477440000010
  0.7363227009999989  0.5141749980000014  0.6616802220000011
  0.4863227609999967  0.5141749379999965  0.7766126389999997
  0.2363225220000018  0.5141748189999973  0.8915452359999989
  0.1529896260000001  0.6808419230000027  0.3168828789999978
  0.9029895070000009  0.6808418040000035  0.4318153560000013
  0.6529894470000031  0.6808417439999985  0.5467478039999989
  0.4029893880000017  0.6808416840000007  0.6616802220000011
  0.1529893880000017  0.6808415650000015  0.7766126389999997
  0.9029892679999989  0.6808415060000002  0.8915451169999997
  0.8196561930000001  0.8475084900000027  0.3168828789999978
  0.5696560740000010  0.8475084299999978  0.4318153560000013
  0.3196560140000031  0.8475083710000035  0.5467477440000010
  0.0696560140000031  0.8475082519999972  0.6616802220000011
  0.8196560140000031  0.8475081919999994  0.7766126389999997
  0.5696558949999968  0.8475081320000015  0.8915451169999997
  0.4863228800000030  0.0141752959999977  0.3168828789999978
  0.2363228800000030  0.0141751769999985  0.4318153560000013
  0.9863228199999980  0.0141751769999985  0.5467478039999989
  0.7363227609999967  0.0141750570000028  0.6616802220000011
  0.4863227609999967  0.0141749379999965  0.7766126389999997
  0.2363226410000010  0.0141748189999973  0.8915451169999997
  0.6529895070000009  0.1808419079999979  0.3168829079999966
  0.4029893880000017  0.1808418330000023  0.4318153560000013
  0.1529893880000017  0.1808417740000010  0.5467477440000010
  0.9029893279999968  0.1808416840000007  0.6616802220000011
  0.6529893279999968  0.1808416100000017  0.7766126389999997
  0.4029892679999989  0.1808415499999967  0.8915451169999997
  0.3196561339999988  0.3475085500000006  0.3168829079999966
  0.0696561339999988  0.3475084900000027  0.4318153560000013
  0.8196560140000031  0.3475084299999978  0.5467477440000010
  0.5696559550000018  0.3475083410000011  0.6616802220000011
  0.3196558949999968  0.3475082519999972  0.7766126389999997
  0.0696558949999968  0.3475081919999994  0.8915451769999976
  0.9863228800000030  0.5141752359999998  0.3168829079999966
  0.7363227609999967  0.5141751769999985  0.4318153560000013
  0.4863226410000010  0.5141750570000028  0.5467477440000010
  0.2363226410000010  0.5141750570000028  0.6616802220000011
  0.9863227009999989  0.5141749379999965  0.7766126389999997
  0.7363226410000010  0.5141748790000022  0.8915451769999976
  0.6529895070000009  0.6808419230000027  0.3168829079999966
  0.4029893880000017  0.6808418629999977  0.4318153560000013
  0.1529893880000017  0.6808417439999985  0.5467477440000010
  0.9029893279999968  0.6808416840000007  0.6616802220000011
  0.6529893279999968  0.6808416249999993  0.7766126389999997
  0.4029891489999997  0.6808416249999993  0.8915451769999976
  0.3196562529999980  0.8475086090000019  0.3168828789999978
  0.0696561339999988  0.8475085500000006  0.4318153259999988
  0.8196560740000010  0.8475084299999978  0.5467478039999989
  0.5696560140000031  0.8475083710000035  0.6616802810000024
  0.3196560140000031  0.8475083109999986  0.7766126389999997
  0.0696558949999968  0.8475081919999994  0.8915451769999976
  0.9863228800000030  0.0141752959999977  0.3168828789999978
  0.7363227609999967  0.0141751769999985  0.4318153259999988
  0.4863226410000010  0.0141751769999985  0.5467478039999989
  0.2363227609999967  0.0141750570000028  0.6616802810000024
  0.9863227009999989  0.0141750570000028  0.7766126389999997
  0.7363224630000005  0.0141749379999965  0.8915451769999976
 
  0.00000000E+00  0.00000000E+00  0.00000000E+00
  0.00000000E+00  0.00000000E+00  0.00000000E+00
  0.00000000E+00  0.00000000E+00  0.00000000E+00
  0.00000000E+00  0.00000000E+00  0.00000000E+00
  0.00000000E+00  0.00000000E+00  0.00000000E+00
  0.00000000E+00  0.00000000E+00  0.00000000E+00
  0.00000000E+00  0.00000000E+00  0.00000000E+00
  0.00000000E+00  0.00000000E+00  0.00000000E+00
  0.00000000E+00  0.00000000E+00  0.00000000E+00
  0.00000000E+00  0.00000000E+00  0.00000000E+00
  0.00000000E+00  0.00000000E+00  0.00000000E+00
  0.00000000E+00  0.00000000E+00  0.00000000E+00
  0.00000000E+00  0.00000000E+00  0.00000000E+00
  0.00000000E+00  0.00000000E+00  0.00000000E+00
  0.00000000E+00  0.00000000E+00  0.00000000E+00
  0.00000000E+00  0.00000000E+00  0.00000000E+00
  0.00000000E+00  0.00000000E+00  0.00000000E+00
  0.00000000E+00  0.00000000E+00  0.00000000E+00
  0.00000000E+00  0.00000000E+00  0.00000000E+00
  0.00000000E+00  0.00000000E+00  0.00000000E+00
  0.00000000E+00  0.00000000E+00  0.00000000E+00
  0.00000000E+00  0.00000000E+00  0.00000000E+00
  0.00000000E+00  0.00000000E+00  0.00000000E+00
  0.00000000E+00  0.00000000E+00  0.00000000E+00
  0.00000000E+00  0.00000000E+00  0.00000000E+00
  0.00000000E+00  0.00000000E+00  0.00000000E+00
  0.00000000E+00  0.00000000E+00  0.00000000E+00
  0.00000000E+00  0.00000000E+00  0.00000000E+00
  0.00000000E+00  0.00000000E+00  0.00000000E+00
  0.00000000E+00  0.00000000E+00  0.00000000E+00
  0.00000000E+00  0.00000000E+00  0.00000000E+00
  0.00000000E+00  0.00000000E+00  0.00000000E+00
  0.00000000E+00  0.00000000E+00  0.00000000E+00
  0.00000000E+00  0.00000000E+00  0.00000000E+00
  0.00000000E+00  0.00000000E+00  0.00000000E+00
  0.00000000E+00  0.00000000E+00  0.00000000E+00
  0.00000000E+00  0.00000000E+00  0.00000000E+00
  0.00000000E+00  0.00000000E+00  0.00000000E+00
  0.00000000E+00  0.00000000E+00  0.00000000E+00
  0.00000000E+00  0.00000000E+00  0.00000000E+00
  0.00000000E+00  0.00000000E+00  0.00000000E+00
  0.00000000E+00  0.00000000E+00  0.00000000E+00
  0.00000000E+00  0.00000000E+00  0.00000000E+00
  0.00000000E+00  0.00000000E+00  0.00000000E+00
  0.00000000E+00  0.00000000E+00  0.00000000E+00
  0.00000000E+00  0.00000000E+00  0.00000000E+00
  0.00000000E+00  0.00000000E+00  0.00000000E+00
  0.00000000E+00  0.00000000E+00  0.00000000E+00
  0.00000000E+00  0.00000000E+00  0.00000000E+00
  0.00000000E+00  0.00000000E+00  0.00000000E+00
  0.00000000E+00  0.00000000E+00  0.00000000E+00
  0.00000000E+00  0.00000000E+00  0.00000000E+00
  0.00000000E+00  0.00000000E+00  0.00000000E+00
  0.00000000E+00  0.00000000E+00  0.00000000E+00
  0.00000000E+00  0.00000000E+00  0.00000000E+00
  0.00000000E+00  0.00000000E+00  0.00000000E+00
  0.00000000E+00  0.00000000E+00  0.00000000E+00
  0.00000000E+00  0.00000000E+00  0.00000000E+00
  0.00000000E+00  0.00000000E+00  0.00000000E+00
  0.00000000E+00  0.00000000E+00  0.00000000E+00
  0.00000000E+00  0.00000000E+00  0.00000000E+00
  0.00000000E+00  0.00000000E+00  0.00000000E+00
  0.00000000E+00  0.00000000E+00  0.00000000E+00
  0.00000000E+00  0.00000000E+00  0.00000000E+00
  0.00000000E+00  0.00000000E+00  0.00000000E+00
  0.00000000E+00  0.00000000E+00  0.00000000E+00
  0.00000000E+00  0.00000000E+00  0.00000000E+00
  0.00000000E+00  0.00000000E+00  0.00000000E+00
  0.00000000E+00  0.00000000E+00  0.00000000E+00
  0.00000000E+00  0.00000000E+00  0.00000000E+00
  0.00000000E+00  0.00000000E+00  0.00000000E+00
  0.00000000E+00  0.00000000E+00  0.00000000E+00
  0.00000000E+00  0.00000000E+00  0.00000000E+00
  0.00000000E+00  0.00000000E+00  0.00000000E+00
  0.00000000E+00  0.00000000E+00  0.00000000E+00
  0.00000000E+00  0.00000000E+00  0.00000000E+00
  0.00000000E+00  0.00000000E+00  0.00000000E+00
  0.00000000E+00  0.00000000E+00  0.00000000E+00
  0.00000000E+00  0.00000000E+00  0.00000000E+00
  0.00000000E+00  0.00000000E+00  0.00000000E+00
  0.00000000E+00  0.00000000E+00  0.00000000E+00
  0.00000000E+00  0.00000000E+00  0.00000000E+00
  0.00000000E+00  0.00000000E+00  0.00000000E+00
  0.00000000E+00  0.00000000E+00  0.00000000E+00
  0.00000000E+00  0.00000000E+00  0.00000000E+00
  0.00000000E+00  0.00000000E+00  0.00000000E+00
  0.00000000E+00  0.00000000E+00  0.00000000E+00
  0.00000000E+00  0.00000000E+00  0.00000000E+00
  0.00000000E+00  0.00000000E+00  0.00000000E+00
  0.00000000E+00  0.00000000E+00  0.00000000E+00
  0.00000000E+00  0.00000000E+00  0.00000000E+00
  0.00000000E+00  0.00000000E+00  0.00000000E+00
  0.00000000E+00  0.00000000E+00  0.00000000E+00
  0.00000000E+00  0.00000000E+00  0.00000000E+00
  0.00000000E+00  0.00000000E+00  0.00000000E+00
  0.00000000E+00  0.00000000E+00  0.00000000E+00
  0.00000000E+00  0.00000000E+00  0.00000000E+00
  0.00000000E+00  0.00000000E+00  0.00000000E+00
  0.00000000E+00  0.00000000E+00  0.00000000E+00
  0.00000000E+00  0.00000000E+00  0.00000000E+00
  0.00000000E+00  0.00000000E+00  0.00000000E+00
  0.00000000E+00  0.00000000E+00  0.00000000E+00
  0.00000000E+00  0.00000000E+00  0.00000000E+00
  0.00000000E+00  0.00000000E+00  0.00000000E+00
  0.00000000E+00  0.00000000E+00  0.00000000E+00
  0.00000000E+00  0.00000000E+00  0.00000000E+00
  0.00000000E+00  0.00000000E+00  0.00000000E+00
  0.00000000E+00  0.00000000E+00  0.00000000E+00
  0.00000000E+00  0.00000000E+00  0.00000000E+00
  0.00000000E+00  0.00000000E+00  0.00000000E+00
  0.00000000E+00  0.00000000E+00  0.00000000E+00
  0.00000000E+00  0.00000000E+00  0.00000000E+00
  0.00000000E+00  0.00000000E+00  0.00000000E+00
  0.00000000E+00  0.00000000E+00  0.00000000E+00
  0.00000000E+00  0.00000000E+00  0.00000000E+00
  0.00000000E+00  0.00000000E+00  0.00000000E+00
  0.00000000E+00  0.00000000E+00  0.00000000E+00
  0.00000000E+00  0.00000000E+00  0.00000000E+00
  0.00000000E+00  0.00000000E+00  0.00000000E+00
  0.00000000E+00  0.00000000E+00  0.00000000E+00
  0.00000000E+00  0.00000000E+00  0.00000000E+00
  0.00000000E+00  0.00000000E+00  0.00000000E+00
  0.00000000E+00  0.00000000E+00  0.00000000E+00
  0.00000000E+00  0.00000000E+00  0.00000000E+00
  0.00000000E+00  0.00000000E+00  0.00000000E+00
  0.00000000E+00  0.00000000E+00  0.00000000E+00
  0.00000000E+00  0.00000000E+00  0.00000000E+00
  0.00000000E+00  0.00000000E+00  0.00000000E+00
  0.00000000E+00  0.00000000E+00  0.00000000E+00
  0.00000000E+00  0.00000000E+00  0.00000000E+00
  0.00000000E+00  0.00000000E+00  0.00000000E+00
  0.00000000E+00  0.00000000E+00  0.00000000E+00
  0.00000000E+00  0.00000000E+00  0.00000000E+00
  0.00000000E+00  0.00000000E+00  0.00000000E+00
  0.00000000E+00  0.00000000E+00  0.00000000E+00
  0.00000000E+00  0.00000000E+00  0.00000000E+00
  0.00000000E+00  0.00000000E+00  0.00000000E+00
  0.00000000E+00  0.00000000E+00  0.00000000E+00
  0.00000000E+00  0.00000000E+00  0.00000000E+00
  0.00000000E+00  0.00000000E+00  0.00000000E+00
  0.00000000E+00  0.00000000E+00  0.00000000E+00
  0.00000000E+00  0.00000000E+00  0.00000000E+00
  0.00000000E+00  0.00000000E+00  0.00000000E+00
  0.00000000E+00  0.00000000E+00  0.00000000E+00
  0.00000000E+00  0.00000000E+00  0.00000000E+00
  0.00000000E+00  0.00000000E+00  0.00000000E+00
  0.00000000E+00  0.00000000E+00  0.00000000E+00
  0.00000000E+00  0.00000000E+00  0.00000000E+00
  0.00000000E+00  0.00000000E+00  0.00000000E+00
  0.00000000E+00  0.00000000E+00  0.00000000E+00
  0.00000000E+00  0.00000000E+00  0.00000000E+00
  0.00000000E+00  0.00000000E+00  0.00000000E+00
  0.00000000E+00  0.00000000E+00  0.00000000E+00
  0.00000000E+00  0.00000000E+00  0.00000000E+00
  0.00000000E+00  0.00000000E+00  0.00000000E+00
  0.00000000E+00  0.00000000E+00  0.00000000E+00
  0.00000000E+00  0.00000000E+00  0.00000000E+00
  0.00000000E+00  0.00000000E+00  0.00000000E+00
  0.00000000E+00  0.00000000E+00  0.00000000E+00
  0.00000000E+00  0.00000000E+00  0.00000000E+00
  0.00000000E+00  0.00000000E+00  0.00000000E+00
  0.00000000E+00  0.00000000E+00  0.00000000E+00
  0.00000000E+00  0.00000000E+00  0.00000000E+00
  0.00000000E+00  0.00000000E+00  0.00000000E+00
  0.00000000E+00  0.00000000E+00  0.00000000E+00
  0.00000000E+00  0.00000000E+00  0.00000000E+00
  0.00000000E+00  0.00000000E+00  0.00000000E+00
  0.00000000E+00  0.00000000E+00  0.00000000E+00
  0.00000000E+00  0.00000000E+00  0.00000000E+00
  0.00000000E+00  0.00000000E+00  0.00000000E+00
  0.00000000E+00  0.00000000E+00  0.00000000E+00
  0.00000000E+00  0.00000000E+00  0.00000000E+00
  0.00000000E+00  0.00000000E+00  0.00000000E+00
  0.00000000E+00  0.00000000E+00  0.00000000E+00
  0.00000000E+00  0.00000000E+00  0.00000000E+00
  0.00000000E+00  0.00000000E+00  0.00000000E+00
  0.00000000E+00  0.00000000E+00  0.00000000E+00
  0.00000000E+00  0.00000000E+00  0.00000000E+00
  0.00000000E+00  0.00000000E+00  0.00000000E+00
  0.00000000E+00  0.00000000E+00  0.00000000E+00
