Sn+Ge
    1.000000000
   14.510292053    0.000000000    0.000000000
    0.000000000   19.467601776    0.000000000
    0.000000000    0.000000000   17.404436111
Sn  Ge 
36     144
Direct
    0.982905626    0.652421296    0.000000007
    0.782905579    0.485754609    0.083371289
    0.582905412    0.319087893    0.166742548
    0.982905626    0.319088012    0.000000007
    0.782905579    0.152421325    0.083371289
    0.582905412    0.985754609    0.166742548
    0.982905626    0.985754728    0.000000007
    0.782905579    0.819088042    0.083371289
    0.582905412    0.652421296    0.166742548
    0.632905602    0.902421415    0.041685570
    0.432905525    0.735754728    0.125056848
    0.232905433    0.569088042    0.208428085
    0.632905602    0.569087982    0.041685570
    0.432905525    0.402421296    0.125056848
    0.232905433    0.235754609    0.208428085
    0.632905602    0.235754758    0.041685570
    0.432905525    0.069088064    0.125056848
    0.232905433    0.902421355    0.208428085
    0.482905596    0.819087923    0.000000000
    0.282905459    0.652421236    0.083371274
    0.082905352    0.485754579    0.166742578
    0.482905596    0.485754669    0.000000000
    0.282905459    0.319087982    0.083371274
    0.082905352    0.152421281    0.166742578
    0.482905596    0.152421355    0.000000000
    0.282905459    0.985754669    0.083371274
    0.082905352    0.819087982    0.166742578
    0.132905647    0.735754669    0.041685563
    0.932905555    0.569087982    0.125056818
    0.732905507    0.402421296    0.208428085
    0.132905647    0.402421385    0.041685563
    0.932905555    0.235754713    0.125056818
    0.732905507    0.069088012    0.208428085
    0.132905647    0.069088012    0.041685563
    0.932905555    0.902421355    0.125056818
    0.732905507    0.735754609    0.208428085
    0.486322880    0.139175251    0.316882908
    0.236322761    0.139175177    0.431815356
    0.986322701    0.139175177    0.546747744
    0.736322641    0.139175057    0.661680222
    0.486322761    0.139174938    0.776612639
    0.236322522    0.139174938    0.891545177
    0.152989507    0.305841893    0.316882908
    0.902989447    0.305841863    0.431815356
    0.652989388    0.305841774    0.546747744
    0.402989388    0.305841684    0.661680222
    0.152989388    0.305841625    0.776612639
    0.902989209    0.305841565    0.891545177
    0.819656134    0.472508550    0.316882908
    0.569656134    0.472508490    0.431815356
    0.319656014    0.472508430    0.546747744
    0.069656014    0.472508371    0.661680222
    0.819655955    0.472508252    0.776612639
    0.569655895    0.472508252    0.891545177
    0.486322880    0.639175236    0.316882908
    0.236322761    0.639175177    0.431815356
    0.986322641    0.639175117    0.546747744
    0.736322701    0.639174998    0.661680222
    0.486322641    0.639174938    0.776612639
    0.236322522    0.639174879    0.891545177
    0.152989507    0.805841923    0.316882879
    0.902989447    0.805841804    0.431815326
    0.652989328    0.805841744    0.546747744
    0.402989388    0.805841684    0.661680222
    0.152989268    0.805841625    0.776612639
    0.902989209    0.805841565    0.891545177
    0.819656193    0.972508550    0.316882879
    0.569656134    0.972508490    0.431815326
    0.319656014    0.972508430    0.546747744
    0.069656014    0.972508311    0.661680222
    0.819655955    0.972508311    0.776612639
    0.569655895    0.972508192    0.891545177
    0.986322880    0.139175296    0.316882908
    0.736322761    0.139175177    0.431815356
    0.486322641    0.139175177    0.546747744
    0.236322641    0.139175057    0.661680222
    0.986322641    0.139174938    0.776612639
    0.736322522    0.139174938    0.891545177
    0.652989507    0.305841923    0.316882908
    0.402989388    0.305841833    0.431815356
    0.152989388    0.305841774    0.546747744
    0.902989328    0.305841684    0.661680222
    0.652989328    0.305841625    0.776612639
    0.402989268    0.305841565    0.891545177
    0.319656253    0.472508609    0.316882908
    0.069656134    0.472508550    0.431815356
    0.819656134    0.472508490    0.546747744
    0.569656074    0.472508430    0.661680281
    0.319656014    0.472508311    0.776612639
    0.069655895    0.472508252    0.891545117
    0.986322880    0.639175236    0.316882908
    0.736322761    0.639175117    0.431815356
    0.486322641    0.639175057    0.546747744
    0.236322641    0.639174998    0.661680281
    0.986322701    0.639174879    0.776612639
    0.736322522    0.639174819    0.891545117
    0.652989507    0.805841863    0.316882908
    0.402989388    0.805841804    0.431815356
    0.152989388    0.805841744    0.546747744
    0.902989328    0.805841684    0.661680281
    0.652989209    0.805841565    0.776612639
    0.402989268    0.805841506    0.891545117
    0.319656134    0.972508550    0.316882908
    0.069656134    0.972508550    0.431815356
    0.819656014    0.972508371    0.546747804
    0.569656014    0.972508371    0.661680281
    0.319656014    0.972508252    0.776612639
    0.069655895    0.972508192    0.891545177
    0.152989626    0.180841893    0.316882908
    0.902989507    0.180841833    0.431815356
    0.652989447    0.180841759    0.546747744
    0.402989388    0.180841684    0.661680222
    0.152989388    0.180841640    0.776612639
    0.902989328    0.180841550    0.891545177
    0.819656134    0.347508550    0.316882908
    0.569656134    0.347508490    0.431815356
    0.319656014    0.347508401    0.546747744
    0.069656014    0.347508371    0.661680222
    0.819656014    0.347508281    0.776612639
    0.569655895    0.347508192    0.891545236
    0.486322880    0.514175177    0.316882908
    0.236322880    0.514175177    0.431815356
    0.986322701    0.514175057    0.546747744
    0.736322701    0.514174998    0.661680222
    0.486322761    0.514174938    0.776612639
    0.236322522    0.514174819    0.891545236
    0.152989626    0.680841923    0.316882879
    0.902989507    0.680841804    0.431815356
    0.652989447    0.680841744    0.546747804
    0.402989388    0.680841684    0.661680222
    0.152989388    0.680841565    0.776612639
    0.902989268    0.680841506    0.891545117
    0.819656193    0.847508490    0.316882879
    0.569656074    0.847508430    0.431815356
    0.319656014    0.847508371    0.546747744
    0.069656014    0.847508252    0.661680222
    0.819656014    0.847508192    0.776612639
    0.569655895    0.847508132    0.891545117
    0.486322880    0.014175296    0.316882879
    0.236322880    0.014175177    0.431815356
    0.986322820    0.014175177    0.546747804
    0.736322761    0.014175057    0.661680222
    0.486322761    0.014174938    0.776612639
    0.236322641    0.014174819    0.891545117
    0.652989507    0.180841908    0.316882908
    0.402989388    0.180841833    0.431815356
    0.152989388    0.180841774    0.546747744
    0.902989328    0.180841684    0.661680222
    0.652989328    0.180841610    0.776612639
    0.402989268    0.180841550    0.891545117
    0.319656134    0.347508550    0.316882908
    0.069656134    0.347508490    0.431815356
    0.819656014    0.347508430    0.546747744
    0.569655955    0.347508341    0.661680222
    0.319655895    0.347508252    0.776612639
    0.069655895    0.347508192    0.891545177
    0.986322880    0.514175236    0.316882908
    0.736322761    0.514175177    0.431815356
    0.486322641    0.514175057    0.546747744
    0.236322641    0.514175057    0.661680222
    0.986322701    0.514174938    0.776612639
    0.736322641    0.514174879    0.891545177
    0.652989507    0.680841923    0.316882908
    0.402989388    0.680841863    0.431815356
    0.152989388    0.680841744    0.546747744
    0.902989328    0.680841684    0.661680222
    0.652989328    0.680841625    0.776612639
    0.402989149    0.680841625    0.891545177
    0.319656253    0.847508609    0.316882879
    0.069656134    0.847508550    0.431815326
    0.819656074    0.847508430    0.546747804
    0.569656014    0.847508371    0.661680281
    0.319656014    0.847508311    0.776612639
    0.069655895    0.847508192    0.891545177
    0.986322880    0.014175296    0.316882879
    0.736322761    0.014175177    0.431815326
    0.486322641    0.014175177    0.546747804
    0.236322761    0.014175057    0.661680281
    0.986322701    0.014175057    0.776612639
    0.736322463    0.014174938    0.891545177
