Ge+Ge                                   
   1.00000000000000     
     8.0013380049999991    0.0000000000000000    0.0000000000000000
     4.0006690029999996    6.9293622969999999    0.0000000000000000
     0.0000000000000000    0.0000000000000000   14.6993942260000008
   Ge
    48
Direct
  0.0142326679999982  0.0142326679999982  0.0000000000000000
  0.3475660089999977  0.3475660089999977  0.2222222389999970
  0.6808993819999998  0.6808993819999998  0.4444445370000025
  0.3475659489999998  0.3475659489999998  0.0555555600000019
  0.6808992619999970  0.6808992619999970  0.2777778210000008
  0.0142325159999999  0.0142325159999999  0.5000000599999979
  0.5142325759999977  0.5142325759999977  0.0000000000000000
  0.8475660089999977  0.8475659489999998  0.2222222830000007
  0.1808992619999970  0.1808992619999970  0.4444444780000012
  0.8475658890000020  0.8475659489999998  0.0555554849999993
  0.1808991429999978  0.1808992619999970  0.2777777610000030
  0.5142325159999999  0.5142325159999999  0.5000000599999979
  0.0142326679999982  0.5142325759999977  0.0000000000000000
  0.3475660089999977  0.8475658890000020  0.2222222689999995
  0.6808993220000019  0.1808992619999970  0.4444444780000012
  0.3475658300000006  0.8475658890000020  0.0555554849999993
  0.6808992030000027  0.1808992619999970  0.2777778210000008
  0.0142325159999999  0.5142325159999999  0.5000000599999979
  0.5142325759999977  0.0142326679999982  0.0000000000000000
  0.8475658890000020  0.3475660089999977  0.2222222689999995
  0.1808992619999970  0.6808993220000019  0.4444444780000012
  0.8475657700000028  0.3475659489999998  0.0555555600000019
  0.1808990239999986  0.6808992619999970  0.2777778210000008
  0.5142323970000007  0.0142326349999990  0.5000000599999979
  0.9857673050000031  0.9857673050000031  0.5000000599999979
  0.6524339910000023  0.6524339910000023  0.7222223879999987
  0.3191006180000002  0.3191006779999981  0.9444445370000025
  0.6524338720000031  0.6524339320000010  0.5555557010000030
  0.3191005890000014  0.3191006180000002  0.7777779099999975
  0.9857672449999981  0.9857673650000010  0.0000001189999992
  0.9857673050000031  0.4857672449999981  0.5000000599999979
  0.6524339910000023  0.1524339170000033  0.7222223879999987
  0.3191006779999981  0.8191006180000002  0.9444445370000025
  0.6524339320000010  0.1524339910000023  0.5555556420000016
  0.3191005589999989  0.8191006180000002  0.7777779099999975
  0.9857672449999981  0.4857673650000010  0.0000001189999992
  0.4857672449999981  0.4857672750000006  0.5000000599999979
  0.1524338569999983  0.1524339469999987  0.7222223879999987
  0.8191004990000010  0.8191006180000002  0.9444445370000025
  0.1524339770000012  0.1524339770000012  0.5555556420000016
  0.8191006180000002  0.8191006180000002  0.7777779099999975
  0.4857673050000031  0.4857673650000010  0.0000001189999992
  0.4857672449999981  0.9857673050000031  0.5000000599999979
  0.1524338870000008  0.6524339910000023  0.7222223879999987
  0.8191005589999989  0.3191006779999981  0.9444445370000025
  0.1524340209999977  0.6524339320000010  0.5555556420000016
  0.8191006779999981  0.3191006180000002  0.7777779099999975
  0.4857673650000010  0.9857673050000031  0.0000001189999992
 
  0.00000000E+00  0.00000000E+00  0.00000000E+00
  0.00000000E+00  0.00000000E+00  0.00000000E+00
  0.00000000E+00  0.00000000E+00  0.00000000E+00
  0.00000000E+00  0.00000000E+00  0.00000000E+00
  0.00000000E+00  0.00000000E+00  0.00000000E+00
  0.00000000E+00  0.00000000E+00  0.00000000E+00
  0.00000000E+00  0.00000000E+00  0.00000000E+00
  0.00000000E+00  0.00000000E+00  0.00000000E+00
  0.00000000E+00  0.00000000E+00  0.00000000E+00
  0.00000000E+00  0.00000000E+00  0.00000000E+00
  0.00000000E+00  0.00000000E+00  0.00000000E+00
  0.00000000E+00  0.00000000E+00  0.00000000E+00
  0.00000000E+00  0.00000000E+00  0.00000000E+00
  0.00000000E+00  0.00000000E+00  0.00000000E+00
  0.00000000E+00  0.00000000E+00  0.00000000E+00
  0.00000000E+00  0.00000000E+00  0.00000000E+00
  0.00000000E+00  0.00000000E+00  0.00000000E+00
  0.00000000E+00  0.00000000E+00  0.00000000E+00
  0.00000000E+00  0.00000000E+00  0.00000000E+00
  0.00000000E+00  0.00000000E+00  0.00000000E+00
  0.00000000E+00  0.00000000E+00  0.00000000E+00
  0.00000000E+00  0.00000000E+00  0.00000000E+00
  0.00000000E+00  0.00000000E+00  0.00000000E+00
  0.00000000E+00  0.00000000E+00  0.00000000E+00
  0.00000000E+00  0.00000000E+00  0.00000000E+00
  0.00000000E+00  0.00000000E+00  0.00000000E+00
  0.00000000E+00  0.00000000E+00  0.00000000E+00
  0.00000000E+00  0.00000000E+00  0.00000000E+00
  0.00000000E+00  0.00000000E+00  0.00000000E+00
  0.00000000E+00  0.00000000E+00  0.00000000E+00
  0.00000000E+00  0.00000000E+00  0.00000000E+00
  0.00000000E+00  0.00000000E+00  0.00000000E+00
  0.00000000E+00  0.00000000E+00  0.00000000E+00
  0.00000000E+00  0.00000000E+00  0.00000000E+00
  0.00000000E+00  0.00000000E+00  0.00000000E+00
  0.00000000E+00  0.00000000E+00  0.00000000E+00
  0.00000000E+00  0.00000000E+00  0.00000000E+00
  0.00000000E+00  0.00000000E+00  0.00000000E+00
  0.00000000E+00  0.00000000E+00  0.00000000E+00
  0.00000000E+00  0.00000000E+00  0.00000000E+00
  0.00000000E+00  0.00000000E+00  0.00000000E+00
  0.00000000E+00  0.00000000E+00  0.00000000E+00
  0.00000000E+00  0.00000000E+00  0.00000000E+00
  0.00000000E+00  0.00000000E+00  0.00000000E+00
  0.00000000E+00  0.00000000E+00  0.00000000E+00
  0.00000000E+00  0.00000000E+00  0.00000000E+00
  0.00000000E+00  0.00000000E+00  0.00000000E+00
  0.00000000E+00  0.00000000E+00  0.00000000E+00
