Ge+Ge
    1.000000000
    8.001338005    0.000000000    0.000000000
    4.000669003    6.929362297    0.000000000
    0.000000000    0.000000000   14.699394226
Ge 
48
Direct
    0.014232668    0.014232668    0.000000000
    0.347566009    0.347566009    0.222222239
    0.680899382    0.680899382    0.444444537
    0.347565949    0.347565949    0.055555560
    0.680899262    0.680899262    0.277777821
    0.014232516    0.014232516    0.500000060
    0.514232576    0.514232576    0.000000000
    0.847566009    0.847565949    0.222222283
    0.180899262    0.180899262    0.444444478
    0.847565889    0.847565949    0.055555485
    0.180899143    0.180899262    0.277777761
    0.514232516    0.514232516    0.500000060
    0.014232668    0.514232576    0.000000000
    0.347566009    0.847565889    0.222222269
    0.680899322    0.180899262    0.444444478
    0.347565830    0.847565889    0.055555485
    0.680899203    0.180899262    0.277777821
    0.014232516    0.514232516    0.500000060
    0.514232576    0.014232668    0.000000000
    0.847565889    0.347566009    0.222222269
    0.180899262    0.680899322    0.444444478
    0.847565770    0.347565949    0.055555560
    0.180899024    0.680899262    0.277777821
    0.514232397    0.014232635    0.500000060
    0.985767305    0.985767305    0.500000060
    0.652433991    0.652433991    0.722222388
    0.319100618    0.319100678    0.944444537
    0.652433872    0.652433932    0.555555701
    0.319100589    0.319100618    0.777777910
    0.985767245    0.985767365    1.000000119
    0.985767305    0.485767245    0.500000060
    0.652433991    0.152433917    0.722222388
    0.319100678    0.819100618    0.944444537
    0.652433932    0.152433991    0.555555642
    0.319100559    0.819100618    0.777777910
    0.985767245    0.485767365    1.000000119
    0.485767245    0.485767275    0.500000060
    0.152433857    0.152433947    0.722222388
    0.819100499    0.819100618    0.944444537
    0.152433977    0.152433977    0.555555642
    0.819100618    0.819100618    0.777777910
    0.485767305    0.485767365    1.000000119
    0.485767245    0.985767305    0.500000060
    0.152433887    0.652433991    0.722222388
    0.819100559    0.319100678    0.944444537
    0.152434021    0.652433932    0.555555642
    0.819100678    0.319100618    0.777777910
    0.485767365    0.985767305    1.000000119
