C+Si
    1.000000000
   13.345743179    0.000000000    0.000000000
   -6.672873020   14.920996666    0.000000000
    0.000000000    0.000000000    7.994749546
C   Si 
84     36
Direct
    0.803541958    0.827111602    0.199521214
    0.174970403    0.855683148    0.000000032
    0.489256203    0.841397464    0.099760644
    0.946399033    0.684254408    0.199521288
    0.317827493    0.712826014    0.000000006
    0.632113278    0.698540211    0.099760644
    0.089256167    0.541397333    0.199521214
    0.460684687    0.569968879    0.000000032
    0.774970472    0.555683136    0.099760644
    0.232113361    0.398540169    0.199521214
    0.603541851    0.427111745    0.000000032
    0.917827666    0.412825942    0.099760644
    0.374970436    0.255683035    0.199521214
    0.746398985    0.284254611    0.000000032
    0.060684800    0.269968837    0.099760644
    0.517827630    0.112825885    0.199521214
    0.889256120    0.141397476    0.000000032
    0.203541875    0.127111688    0.099760644
    0.660684824    0.969968736    0.199521229
    0.032113254    0.998540282    0.000000020
    0.346399039    0.984254539    0.099760644
    0.353541851    0.927111626    0.249401376
    0.724970222    0.955683172    0.049880221
    0.039256096    0.941397429    0.149640843
    0.496398926    0.784254432    0.249401435
    0.867827296    0.812825978    0.049880225
    0.182113051    0.798540175    0.149640799
    0.639256239    0.641397357    0.249401435
    0.010684609    0.669968843    0.049880218
    0.324970484    0.655683160    0.149640799
    0.782113314    0.498540282    0.249401435
    0.153541684    0.527111769    0.049880218
    0.467827559    0.512826025    0.149640799
    0.924970269    0.355683059    0.249401465
    0.296398789    0.384254605    0.049880244
    0.610684574    0.369968861    0.149640813
    0.067827582    0.212825894    0.249401465
    0.439256072    0.241397485    0.049880236
    0.753541827    0.227111697    0.149640813
    0.210684776    0.069968797    0.249401465
    0.582113147    0.098540336    0.049880240
    0.896398902    0.084254570    0.149640843
    0.303542018    0.827111602    0.199521288
    0.674970448    0.855683267    0.000000000
    0.989256203    0.841397405    0.099760644
    0.446399212    0.684254408    0.199521288
    0.817827702    0.712826073    0.000000000
    0.132113338    0.698540211    0.099760644
    0.589256406    0.541397274    0.199521288
    0.960684776    0.569968939    0.000000000
    0.274970531    0.555683136    0.099760644
    0.732113421    0.398540229    0.199521288
    0.103541844    0.427111775    0.000000013
    0.417827666    0.412825972    0.099760629
    0.874970555    0.255683005    0.199521214
    0.246398970    0.284254581    0.000000016
    0.560684800    0.269968808    0.099760629
    0.017827630    0.112825878    0.199521214
    0.389256120    0.141397446    0.000000015
    0.703541934    0.127111673    0.099760629
    0.160684824    0.969968736    0.199521214
    0.532113254    0.998540342    0.000000015
    0.846399069    0.984254539    0.099760629
    0.853541791    0.927111626    0.249401435
    0.224970296    0.955683172    0.049880244
    0.539256036    0.941397369    0.149640843
    0.996398866    0.784254551    0.249401435
    0.367827386    0.812826097    0.049880244
    0.682113111    0.798540294    0.149640843
    0.139256120    0.641397357    0.249401376
    0.510684609    0.669968843    0.049880244
    0.824970424    0.655683100    0.149640843
    0.282113314    0.498540163    0.249401435
    0.653541744    0.527111709    0.049880244
    0.967827499    0.512825906    0.149640843
    0.424970388    0.355683088    0.249401435
    0.796398759    0.384254575    0.049880255
    0.110684633    0.369968832    0.149640843
    0.567827702    0.212825909    0.249401495
    0.939256072    0.241397485    0.049880240
    0.253541827    0.227111712    0.149640843
    0.710684776    0.069968820    0.249401376
    0.082113147    0.098540328    0.049880244
    0.396399021    0.084254608    0.149640843
    0.619269252    0.764007151    0.434824765
    0.419269204    0.530673683    0.586725533
    0.219269037    0.297340214    0.738626361
    0.619269252    0.430673838    0.434824765
    0.419269204    0.197340384    0.586725533
    0.219269037    0.964006901    0.738626361
    0.619269252    0.097340584    0.434824765
    0.419269204    0.864007056    0.586725533
    0.219269037    0.630673587    0.738626361
    0.269269228    0.897340536    0.510775030
    0.069269180    0.664007068    0.662675798
    0.869269133    0.430673629    0.814576626
    0.269269228    0.564007282    0.510775030
    0.069269180    0.330673784    0.662675798
    0.869269133    0.097340345    0.814576626
    0.269269228    0.230674013    0.510775030
    0.069269180    0.997340560    0.662675798
    0.869269133    0.764007092    0.814576626
    0.119269252    0.764007092    0.434824765
    0.919269204    0.530673683    0.586725533
    0.719269037    0.297340214    0.738626361
    0.119269252    0.430673838    0.434824765
    0.919269204    0.197340399    0.586725533
    0.719269037    0.964006901    0.738626361
    0.119269252    0.097340584    0.434824765
    0.919269204    0.864007056    0.586725533
    0.719269037    0.630673528    0.738626361
    0.769269288    0.897340417    0.510775030
    0.569269180    0.664006948    0.662675798
    0.369269133    0.430673510    0.814576626
    0.769269288    0.564007103    0.510775030
    0.569269180    0.330673635    0.662675798
    0.369269133    0.097340226    0.814576626
    0.769269288    0.230674013    0.510775030
    0.569269180    0.997340500    0.662675798
    0.369269133    0.764007092    0.814576626
