Ge+Sn                                   
   1.00000000000000     
    11.3156003950000006    0.0000000000000000    0.0000000000000000
     0.0000000000000000   17.8915348049999992    0.0000000000000000
     0.0000000000000000   -0.0000003160000000   13.6694154739999991
   Ge   Sn
    48    48
Direct
  0.9455687399999988  0.0762038009999984  0.0000000129999975
  0.6955686809999975  0.4262039070000014  0.0654437840000028
  0.4455686809999975  0.7762039899999991  0.1308875530000009
  0.1955686209999996  0.1262041330000017  0.1963313819999968
  0.9455686809999975  0.4762041569999980  0.2617751359999971
  0.6955686809999975  0.8262043000000006  0.3272188310000033
  0.4455687399999988  0.0762038009999984  0.0000000129999975
  0.1955687110000000  0.4262039070000014  0.0654437840000028
  0.9455686809999975  0.7762039899999991  0.1308875530000009
  0.6955686809999975  0.1262041330000017  0.1963313819999968
  0.4455686809999975  0.4762041569999980  0.2617751359999971
  0.1955686209999996  0.8262043000000006  0.3272188310000033
  0.0705687250000011  0.8262039419999994  0.0000000300000025
  0.8205686809999975  0.1762040850000020  0.0654437620000010
  0.5705686809999975  0.5262041089999983  0.1308874930000030
  0.3205686209999996  0.8762041330000017  0.1963313520000014
  0.0705686209999996  0.2262041569999980  0.2617751659999996
  0.8205685619999983  0.5762043000000006  0.3272188899999975
  0.5705687399999988  0.8262039419999994  0.0000000300000025
  0.3205687399999988  0.1762040850000020  0.0654437620000010
  0.0705687110000000  0.5262041089999983  0.1308874930000030
  0.8205686809999975  0.8762041330000017  0.1963313520000014
  0.5705686809999975  0.2262041569999980  0.2617751659999996
  0.3205686209999996  0.5762043000000006  0.3272188899999975
  0.9455687399999988  0.5762038230000002  0.0000000160000013
  0.6955686809999975  0.9262039070000014  0.0654437470000033
  0.4455686809999975  0.2762039899999991  0.1308875679999986
  0.1955686209999996  0.6262041330000017  0.1963313070000012
  0.9455686809999975  0.9762041569999980  0.2617751359999971
  0.6955686809999975  0.3262043000000006  0.3272188899999975
  0.4455687399999988  0.5762038230000002  0.0000000160000013
  0.1955687110000000  0.9262039070000014  0.0654437470000033
  0.9455686809999975  0.2762039899999991  0.1308875679999986
  0.6955686809999975  0.6262041330000017  0.1963313070000012
  0.4455686809999975  0.9762041569999980  0.2617751359999971
  0.1955686209999996  0.3262043000000006  0.3272188899999975
  0.0705687250000011  0.3262038230000002  0.0000000000000000
  0.8205686809999975  0.6762039660000028  0.0654437909999999
  0.5705686809999975  0.0262039899999991  0.1308875530000009
  0.3205686209999996  0.3762041330000017  0.1963313070000012
  0.0705686209999996  0.7262041569999980  0.2617751060000018
  0.8205685619999983  0.0762043000000006  0.3272188010000008
  0.5705687399999988  0.3262038230000002  0.0000000000000000
  0.3205687399999988  0.6762039660000028  0.0654437909999999
  0.0705687110000000  0.0262039899999991  0.1308875530000009
  0.8205686809999975  0.3762041330000017  0.1963313070000012
  0.5705686809999975  0.7262041569999980  0.2617751060000018
  0.3205686209999996  0.0762043000000006  0.3272188010000008
  0.0647253989999967  0.7086633440000014  0.4213527440000036
  0.7313919070000026  0.3336632250000022  0.5182554129999986
  0.3980585039999980  0.9586632250000022  0.6151580809999970
  0.0647250410000026  0.5836632250000022  0.7120607499999991
  0.7313915490000014  0.2086629869999967  0.8089634780000026
  0.3980582060000017  0.8336630459999981  0.9058660860000032
  0.0647253989999967  0.2086633440000014  0.4213527440000036
  0.7313919070000026  0.8336632850000001  0.5182554129999986
  0.3980585039999980  0.4586632250000022  0.6151580809999970
  0.0647251609999984  0.0836632250000022  0.7120607499999991
  0.7313915490000014  0.7086629869999967  0.8089634780000026
  0.3980580870000026  0.3336629869999967  0.9058662059999989
  0.3147253989999967  0.9586633440000014  0.4213527440000036
  0.9813919070000026  0.5836632250000022  0.5182554129999986
  0.6480585340000005  0.2086632250000022  0.6151580809999970
  0.3147251310000030  0.8336632250000022  0.7120606900000013
  0.9813915490000014  0.4586629869999967  0.8089634780000026
  0.6480581759999993  0.0836629869999967  0.9058660860000032
  0.3147253989999967  0.4586633440000014  0.4213527440000036
  0.9813919070000026  0.0836632250000022  0.5182554129999986
  0.6480585340000005  0.7086632250000022  0.6151580809999970
  0.3147251310000030  0.3336632250000022  0.7120606900000013
  0.9813915490000014  0.9586630459999981  0.8089634780000026
  0.6480581759999993  0.5836629869999967  0.9058660860000032
  0.0647253989999967  0.9586633440000014  0.4213527440000036
  0.7313919070000026  0.5836632250000022  0.5182554129999986
  0.3980585039999980  0.2086632250000022  0.6151580809999970
  0.0647251609999984  0.8336632250000022  0.7120607499999991
  0.7313915490000014  0.4586629869999967  0.8089634780000026
  0.3980580870000026  0.0836629869999967  0.9058660860000032
  0.0647253989999967  0.4586633440000014  0.4213527440000036
  0.7313919070000026  0.0836632250000022  0.5182554129999986
  0.3980585039999980  0.7086632250000022  0.6151580809999970
  0.0647250410000026  0.3336632250000022  0.7120607499999991
  0.7313915490000014  0.9586630459999981  0.8089634780000026
  0.3980580870000026  0.5836629869999967  0.9058662059999989
  0.3147254590000017  0.7086632250000022  0.4213527440000036
  0.9813920260000017  0.3336632250000022  0.5182554129999986
  0.6480585340000005  0.9586631660000009  0.6151580809999970
  0.3147251310000030  0.5836632250000022  0.7120606900000013
  0.9813915490000014  0.2086629869999967  0.8089634780000026
  0.6480581759999993  0.8336630459999981  0.9058660860000032
  0.3147254590000017  0.2086633440000014  0.4213527739999989
  0.9813920260000017  0.8336632850000001  0.5182554129999986
  0.6480585340000005  0.4586632250000022  0.6151580809999970
  0.3147251310000030  0.0836632250000022  0.7120606900000013
  0.9813915490000014  0.7086629869999967  0.8089634780000026
  0.6480581759999993  0.3336629869999967  0.9058660860000032
 
  0.00000000E+00  0.00000000E+00  0.00000000E+00
  0.00000000E+00  0.00000000E+00  0.00000000E+00
  0.00000000E+00  0.00000000E+00  0.00000000E+00
  0.00000000E+00  0.00000000E+00  0.00000000E+00
  0.00000000E+00  0.00000000E+00  0.00000000E+00
  0.00000000E+00  0.00000000E+00  0.00000000E+00
  0.00000000E+00  0.00000000E+00  0.00000000E+00
  0.00000000E+00  0.00000000E+00  0.00000000E+00
  0.00000000E+00  0.00000000E+00  0.00000000E+00
  0.00000000E+00  0.00000000E+00  0.00000000E+00
  0.00000000E+00  0.00000000E+00  0.00000000E+00
  0.00000000E+00  0.00000000E+00  0.00000000E+00
  0.00000000E+00  0.00000000E+00  0.00000000E+00
  0.00000000E+00  0.00000000E+00  0.00000000E+00
  0.00000000E+00  0.00000000E+00  0.00000000E+00
  0.00000000E+00  0.00000000E+00  0.00000000E+00
  0.00000000E+00  0.00000000E+00  0.00000000E+00
  0.00000000E+00  0.00000000E+00  0.00000000E+00
  0.00000000E+00  0.00000000E+00  0.00000000E+00
  0.00000000E+00  0.00000000E+00  0.00000000E+00
  0.00000000E+00  0.00000000E+00  0.00000000E+00
  0.00000000E+00  0.00000000E+00  0.00000000E+00
  0.00000000E+00  0.00000000E+00  0.00000000E+00
  0.00000000E+00  0.00000000E+00  0.00000000E+00
  0.00000000E+00  0.00000000E+00  0.00000000E+00
  0.00000000E+00  0.00000000E+00  0.00000000E+00
  0.00000000E+00  0.00000000E+00  0.00000000E+00
  0.00000000E+00  0.00000000E+00  0.00000000E+00
  0.00000000E+00  0.00000000E+00  0.00000000E+00
  0.00000000E+00  0.00000000E+00  0.00000000E+00
  0.00000000E+00  0.00000000E+00  0.00000000E+00
  0.00000000E+00  0.00000000E+00  0.00000000E+00
  0.00000000E+00  0.00000000E+00  0.00000000E+00
  0.00000000E+00  0.00000000E+00  0.00000000E+00
  0.00000000E+00  0.00000000E+00  0.00000000E+00
  0.00000000E+00  0.00000000E+00  0.00000000E+00
  0.00000000E+00  0.00000000E+00  0.00000000E+00
  0.00000000E+00  0.00000000E+00  0.00000000E+00
  0.00000000E+00  0.00000000E+00  0.00000000E+00
  0.00000000E+00  0.00000000E+00  0.00000000E+00
  0.00000000E+00  0.00000000E+00  0.00000000E+00
  0.00000000E+00  0.00000000E+00  0.00000000E+00
  0.00000000E+00  0.00000000E+00  0.00000000E+00
  0.00000000E+00  0.00000000E+00  0.00000000E+00
  0.00000000E+00  0.00000000E+00  0.00000000E+00
  0.00000000E+00  0.00000000E+00  0.00000000E+00
  0.00000000E+00  0.00000000E+00  0.00000000E+00
  0.00000000E+00  0.00000000E+00  0.00000000E+00
  0.00000000E+00  0.00000000E+00  0.00000000E+00
  0.00000000E+00  0.00000000E+00  0.00000000E+00
  0.00000000E+00  0.00000000E+00  0.00000000E+00
  0.00000000E+00  0.00000000E+00  0.00000000E+00
  0.00000000E+00  0.00000000E+00  0.00000000E+00
  0.00000000E+00  0.00000000E+00  0.00000000E+00
  0.00000000E+00  0.00000000E+00  0.00000000E+00
  0.00000000E+00  0.00000000E+00  0.00000000E+00
  0.00000000E+00  0.00000000E+00  0.00000000E+00
  0.00000000E+00  0.00000000E+00  0.00000000E+00
  0.00000000E+00  0.00000000E+00  0.00000000E+00
  0.00000000E+00  0.00000000E+00  0.00000000E+00
  0.00000000E+00  0.00000000E+00  0.00000000E+00
  0.00000000E+00  0.00000000E+00  0.00000000E+00
  0.00000000E+00  0.00000000E+00  0.00000000E+00
  0.00000000E+00  0.00000000E+00  0.00000000E+00
  0.00000000E+00  0.00000000E+00  0.00000000E+00
  0.00000000E+00  0.00000000E+00  0.00000000E+00
  0.00000000E+00  0.00000000E+00  0.00000000E+00
  0.00000000E+00  0.00000000E+00  0.00000000E+00
  0.00000000E+00  0.00000000E+00  0.00000000E+00
  0.00000000E+00  0.00000000E+00  0.00000000E+00
  0.00000000E+00  0.00000000E+00  0.00000000E+00
  0.00000000E+00  0.00000000E+00  0.00000000E+00
  0.00000000E+00  0.00000000E+00  0.00000000E+00
  0.00000000E+00  0.00000000E+00  0.00000000E+00
  0.00000000E+00  0.00000000E+00  0.00000000E+00
  0.00000000E+00  0.00000000E+00  0.00000000E+00
  0.00000000E+00  0.00000000E+00  0.00000000E+00
  0.00000000E+00  0.00000000E+00  0.00000000E+00
  0.00000000E+00  0.00000000E+00  0.00000000E+00
  0.00000000E+00  0.00000000E+00  0.00000000E+00
  0.00000000E+00  0.00000000E+00  0.00000000E+00
  0.00000000E+00  0.00000000E+00  0.00000000E+00
  0.00000000E+00  0.00000000E+00  0.00000000E+00
  0.00000000E+00  0.00000000E+00  0.00000000E+00
  0.00000000E+00  0.00000000E+00  0.00000000E+00
  0.00000000E+00  0.00000000E+00  0.00000000E+00
  0.00000000E+00  0.00000000E+00  0.00000000E+00
  0.00000000E+00  0.00000000E+00  0.00000000E+00
  0.00000000E+00  0.00000000E+00  0.00000000E+00
  0.00000000E+00  0.00000000E+00  0.00000000E+00
  0.00000000E+00  0.00000000E+00  0.00000000E+00
  0.00000000E+00  0.00000000E+00  0.00000000E+00
  0.00000000E+00  0.00000000E+00  0.00000000E+00
  0.00000000E+00  0.00000000E+00  0.00000000E+00
  0.00000000E+00  0.00000000E+00  0.00000000E+00
  0.00000000E+00  0.00000000E+00  0.00000000E+00
