Si+C                                    
   1.00000000000000     
    13.3031797409999992    0.0000000000000000    0.0000000000000000
     6.6515893940000002   14.8734064099999994    0.0000000000000000
     0.0000000000000000    0.0000000000000000    5.0299248700000003
   Si   C 
    36    84
Direct
  0.9829056259999973  0.6581194999999980  0.0000000080000007
  0.7829055790000012  0.5581192969999975  0.2414368089999996
  0.5829054120000023  0.4581190939999971  0.4828736190000029
  0.9829056259999973  0.3247861270000030  0.0000000080000007
  0.7829055790000012  0.2247859690000027  0.2414368089999996
  0.5829054120000023  0.1247858030000017  0.4828736190000029
  0.9829056259999973  0.9914528130000022  0.0000000080000007
  0.7829055790000012  0.8914526699999996  0.2414368089999996
  0.5829054120000023  0.7914525269999970  0.4828736190000029
  0.6329056619999989  0.6914526819999978  0.1207181509999984
  0.4329055850000003  0.5914524789999973  0.3621549900000005
  0.2329055220000029  0.4914524260000022  0.6035917999999967
  0.6329056619999989  0.3581194280000020  0.1207181509999984
  0.4329055850000003  0.2581192849999994  0.3621549900000005
  0.2329055220000029  0.1581191419999968  0.6035917999999967
  0.6329056619999989  0.0247861369999995  0.1207181509999984
  0.4329055850000003  0.9247859720000022  0.3621549900000005
  0.2329055220000029  0.8247858289999996  0.6035917999999967
  0.4829056259999973  0.6581194999999980  0.0000000000000000
  0.2829055489999988  0.5581192969999975  0.2414368089999996
  0.0829054419999977  0.4581190939999971  0.4828736190000029
  0.4829056259999973  0.3247861270000030  0.0000000000000000
  0.2829055489999988  0.2247859539999979  0.2414368089999996
  0.0829054419999977  0.1247858110000024  0.4828736190000029
  0.4829056259999973  0.9914528130000022  0.0000000000000000
  0.2829055489999988  0.8914526699999996  0.2414368089999996
  0.0829054419999977  0.7914525269999970  0.4828736190000029
  0.1329056769999966  0.6914527420000027  0.1207181810000009
  0.9329055549999978  0.5914524789999973  0.3621549900000005
  0.7329055069999981  0.4914523959999997  0.6035917999999967
  0.1329056769999966  0.3581194879999998  0.1207181810000009
  0.9329055549999978  0.2581192849999994  0.3621549900000005
  0.7329055069999981  0.1581191269999991  0.6035917999999967
  0.1329056769999966  0.0247861369999995  0.1207181810000009
  0.9329055549999978  0.9247859720000022  0.3621549900000005
  0.7329055069999981  0.8247858289999996  0.6035917999999967
  0.9764301180000032  0.8271114830000030  0.9207184309999974
  0.3192872110000025  0.8556831479999971  0.6035919190000030
  0.6478586790000023  0.8413973449999972  0.7621550559999974
  0.2621443270000015  0.6842544080000010  0.9207184309999974
  0.6050015089999974  0.7128260140000009  0.6035919190000030
  0.9335729479999983  0.6985402110000010  0.7621550559999974
  0.5478585959999975  0.5413972739999977  0.9207184309999974
  0.8907157180000027  0.5699688790000010  0.6035919190000030
  0.2192871569999966  0.5556830760000011  0.7621550559999974
  0.8335729839999999  0.3985401090000025  0.9207183119999982
  0.1764300760000026  0.4271117150000023  0.6035917999999967
  0.5050015449999989  0.4128259419999978  0.7621550559999974
  0.1192872519999995  0.2556829749999991  0.9207183119999982
  0.4621443150000033  0.2842545809999990  0.6035917999999967
  0.7907157539999972  0.2699688080000016  0.7621550559999974
  0.4050015210000026  0.1128258560000006  0.9207183119999982
  0.7478585839999994  0.1413974609999968  0.6035917999999967
  0.0764300820000017  0.1271116879999994  0.7621550559999974
  0.6907159089999979  0.9699687359999984  0.9207184309999974
  0.0335729419999993  0.9985402820000004  0.6035917999999967
  0.3621444110000027  0.9842545389999984  0.7621551749999966
  0.4264299869999988  0.9271115060000028  0.9999998810000008
  0.7692871089999969  0.9556831120000027  0.6828733680000028
  0.0978585479999978  0.9413972500000014  0.8414367439999992
  0.7121442560000020  0.7842543719999995  0.9999998810000008
  0.0550013780000000  0.8128259779999993  0.6828733680000028
  0.3835728170000010  0.7985401150000015  0.8414367439999992
  0.9978585240000015  0.6413972380000033  0.0000000000000000
  0.3407156769999986  0.6699688429999995  0.6828732489999965
  0.6692871449999984  0.6556830410000032  0.8414366250000000
  0.2835729119999968  0.4985401630000013  0.9999997620000016
  0.6264300349999985  0.5271117090000033  0.6828732489999965
  0.9550014140000016  0.5128259660000012  0.8414366250000000
  0.5692872999999992  0.3556830590000004  0.0000000000000000
  0.9121443630000030  0.3842546340000013  0.6828732489999965
  0.2407157419999990  0.3699688609999967  0.8414365049999972
  0.8550014500000032  0.2128258649999992  0.0000000000000000
  0.1978586170000014  0.2413974549999978  0.6828733680000028
  0.5264300700000035  0.2271116519999978  0.8414366250000000
  0.1407158370000019  0.0699687230000023  0.9999997620000016
  0.4835729599999965  0.0985403210000015  0.6828733680000028
  0.8121443389999996  0.0842545329999993  0.8414366250000000
  0.4764300579999983  0.8271115419999973  0.9207183119999982
  0.8192871810000000  0.8556830289999979  0.6035917999999967
  0.1478584999999981  0.8413973449999972  0.7621551749999966
  0.7621445059999985  0.6842544080000010  0.9207184309999974
  0.1050015389999999  0.7128260140000009  0.6035917999999967
  0.4335729780000008  0.6985402110000010  0.7621550559999974
  0.0478588340000030  0.5413972739999977  0.9207184309999974
  0.3907158080000031  0.5699688790000010  0.6035917999999967
  0.7192872760000029  0.5556830760000011  0.7621550559999974
  0.3335729839999999  0.3985401690000003  0.9207184309999974
  0.6764300469999966  0.4271117449999977  0.6035917999999967
  0.0050014259999998  0.4128259720000003  0.7621550559999974
  0.6192871330000003  0.2556830939999983  0.9207184309999974
  0.9621443150000033  0.2842546110000015  0.6035917999999967
  0.2907158140000021  0.2699688080000016  0.7621550559999974
  0.9050015810000005  0.1128258780000024  0.9207184309999974
  0.2478586289999996  0.1413974310000015  0.6035919190000030
  0.5764301419999995  0.1271116440000029  0.7621551749999966
  0.1907157899999987  0.9699687960000034  0.9207184309999974
  0.5335728530000026  0.9985403419999983  0.6035919190000030
  0.8621443509999978  0.9842545389999984  0.7621551749999966
  0.9264300469999966  0.9271116259999985  0.9999998810000008
  0.2692871690000018  0.9556831720000005  0.6828733680000028
  0.5978585479999978  0.9413973090000027  0.8414366250000000
  0.2121443750000012  0.7842544319999973  0.9999998810000008
  0.5550014969999992  0.8128260370000007  0.6828733680000028
  0.8835728760000023  0.7985401749999994  0.8414366250000000
  0.4978586439999972  0.6413972380000033  0.9999998810000008
  0.8407158260000003  0.6699688429999995  0.6828733680000028
  0.1692873240000026  0.6556829809999982  0.8414366250000000
  0.7835727929999976  0.4985401630000013  0.9999997620000016
  0.1264300349999985  0.5271116500000019  0.6828732489999965
  0.4550014730000029  0.5128259060000033  0.8414366250000000
  0.0692872999999992  0.3556829990000026  0.9999997620000016
  0.4121444519999997  0.3842545749999999  0.6828732489999965
  0.7407158609999982  0.3699688020000025  0.8414366250000000
  0.3550013300000003  0.2128258199999991  0.9999998810000008
  0.6978585120000034  0.2413974259999989  0.6828732489999965
  0.0264298920000030  0.2271116519999978  0.8414366250000000
  0.6407157180000027  0.0699687970000014  0.9999997620000016
  0.9835729600000036  0.0985402989999997  0.6828733680000028
  0.3121442790000017  0.0842545260000023  0.8414366250000000
 
  0.00000000E+00  0.00000000E+00  0.00000000E+00
  0.00000000E+00  0.00000000E+00  0.00000000E+00
  0.00000000E+00  0.00000000E+00  0.00000000E+00
  0.00000000E+00  0.00000000E+00  0.00000000E+00
  0.00000000E+00  0.00000000E+00  0.00000000E+00
  0.00000000E+00  0.00000000E+00  0.00000000E+00
  0.00000000E+00  0.00000000E+00  0.00000000E+00
  0.00000000E+00  0.00000000E+00  0.00000000E+00
  0.00000000E+00  0.00000000E+00  0.00000000E+00
  0.00000000E+00  0.00000000E+00  0.00000000E+00
  0.00000000E+00  0.00000000E+00  0.00000000E+00
  0.00000000E+00  0.00000000E+00  0.00000000E+00
  0.00000000E+00  0.00000000E+00  0.00000000E+00
  0.00000000E+00  0.00000000E+00  0.00000000E+00
  0.00000000E+00  0.00000000E+00  0.00000000E+00
  0.00000000E+00  0.00000000E+00  0.00000000E+00
  0.00000000E+00  0.00000000E+00  0.00000000E+00
  0.00000000E+00  0.00000000E+00  0.00000000E+00
  0.00000000E+00  0.00000000E+00  0.00000000E+00
  0.00000000E+00  0.00000000E+00  0.00000000E+00
  0.00000000E+00  0.00000000E+00  0.00000000E+00
  0.00000000E+00  0.00000000E+00  0.00000000E+00
  0.00000000E+00  0.00000000E+00  0.00000000E+00
  0.00000000E+00  0.00000000E+00  0.00000000E+00
  0.00000000E+00  0.00000000E+00  0.00000000E+00
  0.00000000E+00  0.00000000E+00  0.00000000E+00
  0.00000000E+00  0.00000000E+00  0.00000000E+00
  0.00000000E+00  0.00000000E+00  0.00000000E+00
  0.00000000E+00  0.00000000E+00  0.00000000E+00
  0.00000000E+00  0.00000000E+00  0.00000000E+00
  0.00000000E+00  0.00000000E+00  0.00000000E+00
  0.00000000E+00  0.00000000E+00  0.00000000E+00
  0.00000000E+00  0.00000000E+00  0.00000000E+00
  0.00000000E+00  0.00000000E+00  0.00000000E+00
  0.00000000E+00  0.00000000E+00  0.00000000E+00
  0.00000000E+00  0.00000000E+00  0.00000000E+00
  0.00000000E+00  0.00000000E+00  0.00000000E+00
  0.00000000E+00  0.00000000E+00  0.00000000E+00
  0.00000000E+00  0.00000000E+00  0.00000000E+00
  0.00000000E+00  0.00000000E+00  0.00000000E+00
  0.00000000E+00  0.00000000E+00  0.00000000E+00
  0.00000000E+00  0.00000000E+00  0.00000000E+00
  0.00000000E+00  0.00000000E+00  0.00000000E+00
  0.00000000E+00  0.00000000E+00  0.00000000E+00
  0.00000000E+00  0.00000000E+00  0.00000000E+00
  0.00000000E+00  0.00000000E+00  0.00000000E+00
  0.00000000E+00  0.00000000E+00  0.00000000E+00
  0.00000000E+00  0.00000000E+00  0.00000000E+00
  0.00000000E+00  0.00000000E+00  0.00000000E+00
  0.00000000E+00  0.00000000E+00  0.00000000E+00
  0.00000000E+00  0.00000000E+00  0.00000000E+00
  0.00000000E+00  0.00000000E+00  0.00000000E+00
  0.00000000E+00  0.00000000E+00  0.00000000E+00
  0.00000000E+00  0.00000000E+00  0.00000000E+00
  0.00000000E+00  0.00000000E+00  0.00000000E+00
  0.00000000E+00  0.00000000E+00  0.00000000E+00
  0.00000000E+00  0.00000000E+00  0.00000000E+00
  0.00000000E+00  0.00000000E+00  0.00000000E+00
  0.00000000E+00  0.00000000E+00  0.00000000E+00
  0.00000000E+00  0.00000000E+00  0.00000000E+00
  0.00000000E+00  0.00000000E+00  0.00000000E+00
  0.00000000E+00  0.00000000E+00  0.00000000E+00
  0.00000000E+00  0.00000000E+00  0.00000000E+00
  0.00000000E+00  0.00000000E+00  0.00000000E+00
  0.00000000E+00  0.00000000E+00  0.00000000E+00
  0.00000000E+00  0.00000000E+00  0.00000000E+00
  0.00000000E+00  0.00000000E+00  0.00000000E+00
  0.00000000E+00  0.00000000E+00  0.00000000E+00
  0.00000000E+00  0.00000000E+00  0.00000000E+00
  0.00000000E+00  0.00000000E+00  0.00000000E+00
  0.00000000E+00  0.00000000E+00  0.00000000E+00
  0.00000000E+00  0.00000000E+00  0.00000000E+00
  0.00000000E+00  0.00000000E+00  0.00000000E+00
  0.00000000E+00  0.00000000E+00  0.00000000E+00
  0.00000000E+00  0.00000000E+00  0.00000000E+00
  0.00000000E+00  0.00000000E+00  0.00000000E+00
  0.00000000E+00  0.00000000E+00  0.00000000E+00
  0.00000000E+00  0.00000000E+00  0.00000000E+00
  0.00000000E+00  0.00000000E+00  0.00000000E+00
  0.00000000E+00  0.00000000E+00  0.00000000E+00
  0.00000000E+00  0.00000000E+00  0.00000000E+00
  0.00000000E+00  0.00000000E+00  0.00000000E+00
  0.00000000E+00  0.00000000E+00  0.00000000E+00
  0.00000000E+00  0.00000000E+00  0.00000000E+00
  0.00000000E+00  0.00000000E+00  0.00000000E+00
  0.00000000E+00  0.00000000E+00  0.00000000E+00
  0.00000000E+00  0.00000000E+00  0.00000000E+00
  0.00000000E+00  0.00000000E+00  0.00000000E+00
  0.00000000E+00  0.00000000E+00  0.00000000E+00
  0.00000000E+00  0.00000000E+00  0.00000000E+00
  0.00000000E+00  0.00000000E+00  0.00000000E+00
  0.00000000E+00  0.00000000E+00  0.00000000E+00
  0.00000000E+00  0.00000000E+00  0.00000000E+00
  0.00000000E+00  0.00000000E+00  0.00000000E+00
  0.00000000E+00  0.00000000E+00  0.00000000E+00
  0.00000000E+00  0.00000000E+00  0.00000000E+00
  0.00000000E+00  0.00000000E+00  0.00000000E+00
  0.00000000E+00  0.00000000E+00  0.00000000E+00
  0.00000000E+00  0.00000000E+00  0.00000000E+00
  0.00000000E+00  0.00000000E+00  0.00000000E+00
  0.00000000E+00  0.00000000E+00  0.00000000E+00
  0.00000000E+00  0.00000000E+00  0.00000000E+00
  0.00000000E+00  0.00000000E+00  0.00000000E+00
  0.00000000E+00  0.00000000E+00  0.00000000E+00
  0.00000000E+00  0.00000000E+00  0.00000000E+00
  0.00000000E+00  0.00000000E+00  0.00000000E+00
  0.00000000E+00  0.00000000E+00  0.00000000E+00
  0.00000000E+00  0.00000000E+00  0.00000000E+00
  0.00000000E+00  0.00000000E+00  0.00000000E+00
  0.00000000E+00  0.00000000E+00  0.00000000E+00
  0.00000000E+00  0.00000000E+00  0.00000000E+00
  0.00000000E+00  0.00000000E+00  0.00000000E+00
  0.00000000E+00  0.00000000E+00  0.00000000E+00
  0.00000000E+00  0.00000000E+00  0.00000000E+00
  0.00000000E+00  0.00000000E+00  0.00000000E+00
  0.00000000E+00  0.00000000E+00  0.00000000E+00
  0.00000000E+00  0.00000000E+00  0.00000000E+00
  0.00000000E+00  0.00000000E+00  0.00000000E+00
  0.00000000E+00  0.00000000E+00  0.00000000E+00
  0.00000000E+00  0.00000000E+00  0.00000000E+00
