Si+Ge                                   
   1.00000000000000     
    16.2930011750000006    0.0000000000000000    0.0000000000000000
     0.0000000000000000   16.2930011750000006    0.0000000000000000
     0.0000000000000000    0.0000000000000000   13.2939167020000006
   Si   Ge
   108    48
Direct
  0.0000000000000000  0.9940677290000011  0.0000000000000000
  0.0000000000000000  0.8274010419999982  0.2042663840000003
  0.0000000000000000  0.6607342960000011  0.4085327980000031
  0.3333333429999996  0.9940677290000011  0.0000000000000000
  0.3333333429999996  0.8274010419999982  0.2042663840000003
  0.3333333429999996  0.6607342960000011  0.4085327980000031
  0.6666666870000029  0.9940677290000011  0.0000000000000000
  0.6666666870000029  0.8274010419999982  0.2042663840000003
  0.6666666870000029  0.6607342960000011  0.4085327980000031
  0.0000000000000000  0.3274010419999982  0.0000000000000000
  0.0000000000000000  0.1607343700000001  0.2042663840000003
  0.0000000000000000  0.9940676690000032  0.4085327980000031
  0.3333333429999996  0.3274010419999982  0.0000000000000000
  0.3333333429999996  0.1607343700000001  0.2042663840000003
  0.3333333429999996  0.9940676690000032  0.4085327980000031
  0.6666666870000029  0.3274010419999982  0.0000000000000000
  0.6666666870000029  0.1607343700000001  0.2042663840000003
  0.6666666870000029  0.9940676690000032  0.4085327980000031
  0.0000000000000000  0.6607344150000003  0.0000000000000000
  0.0000000000000000  0.4940676989999986  0.2042663840000003
  0.0000000000000000  0.3274010419999982  0.4085327980000031
  0.3333333429999996  0.6607344150000003  0.0000000000000000
  0.3333333429999996  0.4940676989999986  0.2042663840000003
  0.3333333429999996  0.3274010419999982  0.4085327980000031
  0.6666666870000029  0.6607344150000003  0.0000000000000000
  0.6666666870000029  0.4940676989999986  0.2042663840000003
  0.6666666870000029  0.3274010419999982  0.4085327980000031
  0.0833333360000026  0.0774010490000023  0.1021331999999973
  0.0833333360000026  0.9107343550000024  0.3063995239999997
  0.0833333360000026  0.7440676690000032  0.5106660129999980
  0.4166666870000029  0.0774010490000023  0.1021331999999973
  0.4166666870000029  0.9107343550000024  0.3063995239999997
  0.4166666870000029  0.7440676690000032  0.5106660129999980
  0.7500000000000000  0.0774010490000023  0.1021331999999973
  0.7500000000000000  0.9107343550000024  0.3063995239999997
  0.7500000000000000  0.7440676690000032  0.5106660129999980
  0.0833333360000026  0.4107343550000024  0.1021331999999973
  0.0833333360000026  0.2440676690000032  0.3063995239999997
  0.0833333360000026  0.0774009820000003  0.5106660129999980
  0.4166666870000029  0.4107343550000024  0.1021331999999973
  0.4166666870000029  0.2440676690000032  0.3063995239999997
  0.4166666870000029  0.0774009820000003  0.5106660129999980
  0.7500000000000000  0.4107343550000024  0.1021331999999973
  0.7500000000000000  0.2440676690000032  0.3063995239999997
  0.7500000000000000  0.0774009820000003  0.5106660129999980
  0.0833333360000026  0.7440677290000011  0.1021331999999973
  0.0833333360000026  0.5774010419999982  0.3063995239999997
  0.0833333360000026  0.4107343550000024  0.5106660129999980
  0.4166666870000029  0.7440677290000011  0.1021331999999973
  0.4166666870000029  0.5774010419999982  0.3063995239999997
  0.4166666870000029  0.4107343550000024  0.5106660129999980
  0.7500000000000000  0.7440677290000011  0.1021331999999973
  0.7500000000000000  0.5774010419999982  0.3063995239999997
  0.7500000000000000  0.4107343550000024  0.5106660129999980
  0.1666666719999981  0.1607343849999978  0.0000000000000000
  0.1666666719999981  0.9940676690000032  0.2042663840000003
  0.1666666719999981  0.8274009820000003  0.4085327980000031
  0.5000000000000000  0.1607343849999978  0.0000000000000000
  0.5000000000000000  0.9940676690000032  0.2042663840000003
  0.5000000000000000  0.8274009820000003  0.4085327980000031
  0.8333333730000021  0.1607343849999978  0.0000000000000000
  0.8333333730000021  0.9940676690000032  0.2042663840000003
  0.8333333730000021  0.8274009820000003  0.4085327980000031
  0.1666666719999981  0.4940676989999986  0.0000000000000000
  0.1666666719999981  0.3274010419999982  0.2042663840000003
  0.1666666719999981  0.1607343109999988  0.4085327980000031
  0.5000000000000000  0.4940676989999986  0.0000000000000000
  0.5000000000000000  0.3274010419999982  0.2042663840000003
  0.5000000000000000  0.1607343109999988  0.4085327980000031
  0.8333333730000021  0.4940676989999986  0.0000000000000000
  0.8333333730000021  0.3274010419999982  0.2042663840000003
  0.8333333730000021  0.1607343109999988  0.4085327980000031
  0.1666666719999981  0.8274010419999982  0.0000000000000000
  0.1666666719999981  0.6607343550000024  0.2042663840000003
  0.1666666719999981  0.4940676390000007  0.4085327980000031
  0.5000000000000000  0.8274010419999982  0.0000000000000000
  0.5000000000000000  0.6607343550000024  0.2042663840000003
  0.5000000000000000  0.4940676390000007  0.4085327980000031
  0.8333333730000021  0.8274010419999982  0.0000000000000000
  0.8333333730000021  0.6607343550000024  0.2042663840000003
  0.8333333730000021  0.4940676390000007  0.4085327980000031
  0.2500000000000000  0.2440677140000034  0.1021331999999973
  0.2500000000000000  0.0774010270000005  0.3063995239999997
  0.2500000000000000  0.9107343550000024  0.5106660129999980
  0.5833333730000021  0.2440677140000034  0.1021331999999973
  0.5833333730000021  0.0774010270000005  0.3063995239999997
  0.5833333730000021  0.9107343550000024  0.5106660129999980
  0.9166666870000029  0.2440677140000034  0.1021331999999973
  0.9166666870000029  0.0774010270000005  0.3063995239999997
  0.9166666870000029  0.9107343550000024  0.5106660129999980
  0.2500000000000000  0.5774011609999974  0.1021331999999973
  0.2500000000000000  0.4107344450000028  0.3063995239999997
  0.2500000000000000  0.2440677430000022  0.5106660129999980
  0.5833333730000021  0.5774011609999974  0.1021331999999973
  0.5833333730000021  0.4107344450000028  0.3063995239999997
  0.5833333730000021  0.2440677430000022  0.5106660129999980
  0.9166666870000029  0.5774011609999974  0.1021331999999973
  0.9166666870000029  0.4107344450000028  0.3063995239999997
  0.9166666870000029  0.2440677430000022  0.5106660129999980
  0.2500000000000000  0.9107343550000024  0.1021331999999973
  0.2500000000000000  0.7440676690000032  0.3063995239999997
  0.2500000000000000  0.5774010419999982  0.5106660129999980
  0.5833333730000021  0.9107343550000024  0.1021331999999973
  0.5833333730000021  0.7440676690000032  0.3063995239999997
  0.5833333730000021  0.5774010419999982  0.5106660129999980
  0.9166666870000029  0.9107343550000024  0.1021331999999973
  0.9166666870000029  0.7440676690000032  0.3063995239999997
  0.9166666870000029  0.5774010419999982  0.5106660129999980
  0.2557033300000029  0.2033612729999987  0.6299411649999982
  0.8668143749999970  0.8283611539999995  0.6800979969999972
  0.4779253900000029  0.4533612130000009  0.7302546499999991
  0.0890363449999967  0.0783612729999987  0.7804114220000002
  0.7001475100000008  0.7033612729999987  0.8305680750000022
  0.3112585539999984  0.3283611539999995  0.8807248470000033
  0.2557033300000029  0.7033611539999995  0.6299411649999982
  0.8668143749999970  0.3283611239999971  0.6800979969999972
  0.4779253900000029  0.9533611539999995  0.7302547099999970
  0.0890363449999967  0.5783611539999995  0.7804114220000002
  0.7001475100000008  0.2033612729999987  0.8305680750000022
  0.3112585539999984  0.8283611539999995  0.8807247880000020
  0.0057032109999966  0.3283611539999995  0.6299411649999982
  0.6168142559999978  0.9533611539999995  0.6800979969999972
  0.2279253009999991  0.5783612130000009  0.7302546499999991
  0.8390363449999967  0.2033612729999987  0.7804113629999989
  0.4501474200000004  0.8283612729999987  0.8305681350000000
  0.0612583160000000  0.4533612729999987  0.8807247880000020
  0.0057032109999966  0.8283610940000017  0.6299411649999982
  0.6168142559999978  0.4533610940000017  0.6800979969999972
  0.2279253009999991  0.0783610339999967  0.7302546499999991
  0.8390363449999967  0.7033610940000017  0.7804113629999989
  0.4501474200000004  0.3283612130000009  0.8305681350000000
  0.0612584349999992  0.9533610339999967  0.8807247880000020
  0.0057032109999966  0.5783611539999995  0.6299412250000032
  0.6168142559999978  0.2033611539999995  0.6800979969999972
  0.2279253009999991  0.8283612130000009  0.7302546499999991
  0.8390363449999967  0.4533612130000009  0.7804113629999989
  0.4501474799999983  0.0783612729999987  0.8305681350000000
  0.0612584349999992  0.7033612729999987  0.8807248470000033
  0.0057032109999966  0.0783610339999967  0.6299411649999982
  0.6168142559999978  0.7033610339999967  0.6800979969999972
  0.2279253009999991  0.3283611239999971  0.7302546499999991
  0.8390363449999967  0.9533611539999995  0.7804113629999989
  0.4501474799999983  0.5783612130000009  0.8305681350000000
  0.0612583160000000  0.2033610339999967  0.8807247880000020
  0.2557033300000029  0.4533611539999995  0.6299411649999982
  0.8668143749999970  0.0783611539999995  0.6800979969999972
  0.4779253900000029  0.7033612729999987  0.7302547099999970
  0.0890363449999967  0.3283612130000009  0.7804114220000002
  0.7001477479999991  0.9533613919999979  0.8305681350000000
  0.3112585539999984  0.5783611539999995  0.8807248470000033
  0.2557033300000029  0.9533610940000017  0.6299411649999982
  0.8668143749999970  0.5783611539999995  0.6800979969999972
  0.4779253900000029  0.2033612729999987  0.7302547099999970
  0.0890364649999995  0.8283612130000009  0.7804114220000002
  0.7001476289999999  0.4533612729999987  0.8305680750000022
  0.3112583160000000  0.0783610339999967  0.8807247880000020
 
  0.00000000E+00  0.00000000E+00  0.00000000E+00
  0.00000000E+00  0.00000000E+00  0.00000000E+00
  0.00000000E+00  0.00000000E+00  0.00000000E+00
  0.00000000E+00  0.00000000E+00  0.00000000E+00
  0.00000000E+00  0.00000000E+00  0.00000000E+00
  0.00000000E+00  0.00000000E+00  0.00000000E+00
  0.00000000E+00  0.00000000E+00  0.00000000E+00
  0.00000000E+00  0.00000000E+00  0.00000000E+00
  0.00000000E+00  0.00000000E+00  0.00000000E+00
  0.00000000E+00  0.00000000E+00  0.00000000E+00
  0.00000000E+00  0.00000000E+00  0.00000000E+00
  0.00000000E+00  0.00000000E+00  0.00000000E+00
  0.00000000E+00  0.00000000E+00  0.00000000E+00
  0.00000000E+00  0.00000000E+00  0.00000000E+00
  0.00000000E+00  0.00000000E+00  0.00000000E+00
  0.00000000E+00  0.00000000E+00  0.00000000E+00
  0.00000000E+00  0.00000000E+00  0.00000000E+00
  0.00000000E+00  0.00000000E+00  0.00000000E+00
  0.00000000E+00  0.00000000E+00  0.00000000E+00
  0.00000000E+00  0.00000000E+00  0.00000000E+00
  0.00000000E+00  0.00000000E+00  0.00000000E+00
  0.00000000E+00  0.00000000E+00  0.00000000E+00
  0.00000000E+00  0.00000000E+00  0.00000000E+00
  0.00000000E+00  0.00000000E+00  0.00000000E+00
  0.00000000E+00  0.00000000E+00  0.00000000E+00
  0.00000000E+00  0.00000000E+00  0.00000000E+00
  0.00000000E+00  0.00000000E+00  0.00000000E+00
  0.00000000E+00  0.00000000E+00  0.00000000E+00
  0.00000000E+00  0.00000000E+00  0.00000000E+00
  0.00000000E+00  0.00000000E+00  0.00000000E+00
  0.00000000E+00  0.00000000E+00  0.00000000E+00
  0.00000000E+00  0.00000000E+00  0.00000000E+00
  0.00000000E+00  0.00000000E+00  0.00000000E+00
  0.00000000E+00  0.00000000E+00  0.00000000E+00
  0.00000000E+00  0.00000000E+00  0.00000000E+00
  0.00000000E+00  0.00000000E+00  0.00000000E+00
  0.00000000E+00  0.00000000E+00  0.00000000E+00
  0.00000000E+00  0.00000000E+00  0.00000000E+00
  0.00000000E+00  0.00000000E+00  0.00000000E+00
  0.00000000E+00  0.00000000E+00  0.00000000E+00
  0.00000000E+00  0.00000000E+00  0.00000000E+00
  0.00000000E+00  0.00000000E+00  0.00000000E+00
  0.00000000E+00  0.00000000E+00  0.00000000E+00
  0.00000000E+00  0.00000000E+00  0.00000000E+00
  0.00000000E+00  0.00000000E+00  0.00000000E+00
  0.00000000E+00  0.00000000E+00  0.00000000E+00
  0.00000000E+00  0.00000000E+00  0.00000000E+00
  0.00000000E+00  0.00000000E+00  0.00000000E+00
  0.00000000E+00  0.00000000E+00  0.00000000E+00
  0.00000000E+00  0.00000000E+00  0.00000000E+00
  0.00000000E+00  0.00000000E+00  0.00000000E+00
  0.00000000E+00  0.00000000E+00  0.00000000E+00
  0.00000000E+00  0.00000000E+00  0.00000000E+00
  0.00000000E+00  0.00000000E+00  0.00000000E+00
  0.00000000E+00  0.00000000E+00  0.00000000E+00
  0.00000000E+00  0.00000000E+00  0.00000000E+00
  0.00000000E+00  0.00000000E+00  0.00000000E+00
  0.00000000E+00  0.00000000E+00  0.00000000E+00
  0.00000000E+00  0.00000000E+00  0.00000000E+00
  0.00000000E+00  0.00000000E+00  0.00000000E+00
  0.00000000E+00  0.00000000E+00  0.00000000E+00
  0.00000000E+00  0.00000000E+00  0.00000000E+00
  0.00000000E+00  0.00000000E+00  0.00000000E+00
  0.00000000E+00  0.00000000E+00  0.00000000E+00
  0.00000000E+00  0.00000000E+00  0.00000000E+00
  0.00000000E+00  0.00000000E+00  0.00000000E+00
  0.00000000E+00  0.00000000E+00  0.00000000E+00
  0.00000000E+00  0.00000000E+00  0.00000000E+00
  0.00000000E+00  0.00000000E+00  0.00000000E+00
  0.00000000E+00  0.00000000E+00  0.00000000E+00
  0.00000000E+00  0.00000000E+00  0.00000000E+00
  0.00000000E+00  0.00000000E+00  0.00000000E+00
  0.00000000E+00  0.00000000E+00  0.00000000E+00
  0.00000000E+00  0.00000000E+00  0.00000000E+00
  0.00000000E+00  0.00000000E+00  0.00000000E+00
  0.00000000E+00  0.00000000E+00  0.00000000E+00
  0.00000000E+00  0.00000000E+00  0.00000000E+00
  0.00000000E+00  0.00000000E+00  0.00000000E+00
  0.00000000E+00  0.00000000E+00  0.00000000E+00
  0.00000000E+00  0.00000000E+00  0.00000000E+00
  0.00000000E+00  0.00000000E+00  0.00000000E+00
  0.00000000E+00  0.00000000E+00  0.00000000E+00
  0.00000000E+00  0.00000000E+00  0.00000000E+00
  0.00000000E+00  0.00000000E+00  0.00000000E+00
  0.00000000E+00  0.00000000E+00  0.00000000E+00
  0.00000000E+00  0.00000000E+00  0.00000000E+00
  0.00000000E+00  0.00000000E+00  0.00000000E+00
  0.00000000E+00  0.00000000E+00  0.00000000E+00
  0.00000000E+00  0.00000000E+00  0.00000000E+00
  0.00000000E+00  0.00000000E+00  0.00000000E+00
  0.00000000E+00  0.00000000E+00  0.00000000E+00
  0.00000000E+00  0.00000000E+00  0.00000000E+00
  0.00000000E+00  0.00000000E+00  0.00000000E+00
  0.00000000E+00  0.00000000E+00  0.00000000E+00
  0.00000000E+00  0.00000000E+00  0.00000000E+00
  0.00000000E+00  0.00000000E+00  0.00000000E+00
  0.00000000E+00  0.00000000E+00  0.00000000E+00
  0.00000000E+00  0.00000000E+00  0.00000000E+00
  0.00000000E+00  0.00000000E+00  0.00000000E+00
  0.00000000E+00  0.00000000E+00  0.00000000E+00
  0.00000000E+00  0.00000000E+00  0.00000000E+00
  0.00000000E+00  0.00000000E+00  0.00000000E+00
  0.00000000E+00  0.00000000E+00  0.00000000E+00
  0.00000000E+00  0.00000000E+00  0.00000000E+00
  0.00000000E+00  0.00000000E+00  0.00000000E+00
  0.00000000E+00  0.00000000E+00  0.00000000E+00
  0.00000000E+00  0.00000000E+00  0.00000000E+00
  0.00000000E+00  0.00000000E+00  0.00000000E+00
  0.00000000E+00  0.00000000E+00  0.00000000E+00
  0.00000000E+00  0.00000000E+00  0.00000000E+00
  0.00000000E+00  0.00000000E+00  0.00000000E+00
  0.00000000E+00  0.00000000E+00  0.00000000E+00
  0.00000000E+00  0.00000000E+00  0.00000000E+00
  0.00000000E+00  0.00000000E+00  0.00000000E+00
  0.00000000E+00  0.00000000E+00  0.00000000E+00
  0.00000000E+00  0.00000000E+00  0.00000000E+00
  0.00000000E+00  0.00000000E+00  0.00000000E+00
  0.00000000E+00  0.00000000E+00  0.00000000E+00
  0.00000000E+00  0.00000000E+00  0.00000000E+00
  0.00000000E+00  0.00000000E+00  0.00000000E+00
  0.00000000E+00  0.00000000E+00  0.00000000E+00
  0.00000000E+00  0.00000000E+00  0.00000000E+00
  0.00000000E+00  0.00000000E+00  0.00000000E+00
  0.00000000E+00  0.00000000E+00  0.00000000E+00
  0.00000000E+00  0.00000000E+00  0.00000000E+00
  0.00000000E+00  0.00000000E+00  0.00000000E+00
  0.00000000E+00  0.00000000E+00  0.00000000E+00
  0.00000000E+00  0.00000000E+00  0.00000000E+00
  0.00000000E+00  0.00000000E+00  0.00000000E+00
  0.00000000E+00  0.00000000E+00  0.00000000E+00
  0.00000000E+00  0.00000000E+00  0.00000000E+00
  0.00000000E+00  0.00000000E+00  0.00000000E+00
  0.00000000E+00  0.00000000E+00  0.00000000E+00
  0.00000000E+00  0.00000000E+00  0.00000000E+00
  0.00000000E+00  0.00000000E+00  0.00000000E+00
  0.00000000E+00  0.00000000E+00  0.00000000E+00
  0.00000000E+00  0.00000000E+00  0.00000000E+00
  0.00000000E+00  0.00000000E+00  0.00000000E+00
  0.00000000E+00  0.00000000E+00  0.00000000E+00
  0.00000000E+00  0.00000000E+00  0.00000000E+00
  0.00000000E+00  0.00000000E+00  0.00000000E+00
  0.00000000E+00  0.00000000E+00  0.00000000E+00
  0.00000000E+00  0.00000000E+00  0.00000000E+00
  0.00000000E+00  0.00000000E+00  0.00000000E+00
  0.00000000E+00  0.00000000E+00  0.00000000E+00
  0.00000000E+00  0.00000000E+00  0.00000000E+00
  0.00000000E+00  0.00000000E+00  0.00000000E+00
  0.00000000E+00  0.00000000E+00  0.00000000E+00
  0.00000000E+00  0.00000000E+00  0.00000000E+00
  0.00000000E+00  0.00000000E+00  0.00000000E+00
  0.00000000E+00  0.00000000E+00  0.00000000E+00
  0.00000000E+00  0.00000000E+00  0.00000000E+00
  0.00000000E+00  0.00000000E+00  0.00000000E+00
  0.00000000E+00  0.00000000E+00  0.00000000E+00
  0.00000000E+00  0.00000000E+00  0.00000000E+00
  0.00000000E+00  0.00000000E+00  0.00000000E+00
