Si+Ge
    1.000000000
   16.293001175    0.000000000    0.000000000
    0.000000000   16.293001175    0.000000000
    0.000000000    0.000000000   13.888529778
Si  Ge 
108     48
Direct
    0.000000000    0.994067729    0.000000000
    0.000000000    0.827401042    0.195521072
    0.000000000    0.660734296    0.391042173
    0.333333343    0.994067729    0.000000000
    0.333333343    0.827401042    0.195521072
    0.333333343    0.660734296    0.391042173
    0.666666687    0.994067729    0.000000000
    0.666666687    0.827401042    0.195521072
    0.666666687    0.660734296    0.391042173
    0.000000000    0.327401042    0.000000000
    0.000000000    0.160734370    0.195521072
    0.000000000    0.994067669    0.391042173
    0.333333343    0.327401042    0.000000000
    0.333333343    0.160734370    0.195521072
    0.333333343    0.994067669    0.391042173
    0.666666687    0.327401042    0.000000000
    0.666666687    0.160734370    0.195521072
    0.666666687    0.994067669    0.391042173
    0.000000000    0.660734415    0.000000000
    0.000000000    0.494067699    0.195521072
    0.000000000    0.327401042    0.391042173
    0.333333343    0.660734415    0.000000000
    0.333333343    0.494067699    0.195521072
    0.333333343    0.327401042    0.391042173
    0.666666687    0.660734415    0.000000000
    0.666666687    0.494067699    0.195521072
    0.666666687    0.327401042    0.391042173
    0.083333336    0.077401049    0.097760543
    0.083333336    0.910734355    0.293281555
    0.083333336    0.744067669    0.488802701
    0.416666687    0.077401049    0.097760543
    0.416666687    0.910734355    0.293281555
    0.416666687    0.744067669    0.488802701
    0.750000000    0.077401049    0.097760543
    0.750000000    0.910734355    0.293281555
    0.750000000    0.744067669    0.488802701
    0.083333336    0.410734355    0.097760543
    0.083333336    0.244067669    0.293281555
    0.083333336    0.077400982    0.488802701
    0.416666687    0.410734355    0.097760543
    0.416666687    0.244067669    0.293281555
    0.416666687    0.077400982    0.488802701
    0.750000000    0.410734355    0.097760543
    0.750000000    0.244067669    0.293281555
    0.750000000    0.077400982    0.488802701
    0.083333336    0.744067729    0.097760543
    0.083333336    0.577401042    0.293281555
    0.083333336    0.410734355    0.488802701
    0.416666687    0.744067729    0.097760543
    0.416666687    0.577401042    0.293281555
    0.416666687    0.410734355    0.488802701
    0.750000000    0.744067729    0.097760543
    0.750000000    0.577401042    0.293281555
    0.750000000    0.410734355    0.488802701
    0.166666672    0.160734385    0.000000000
    0.166666672    0.994067669    0.195521072
    0.166666672    0.827400982    0.391042173
    0.500000000    0.160734385    0.000000000
    0.500000000    0.994067669    0.195521072
    0.500000000    0.827400982    0.391042173
    0.833333373    0.160734385    0.000000000
    0.833333373    0.994067669    0.195521072
    0.833333373    0.827400982    0.391042173
    0.166666672    0.494067699    0.000000000
    0.166666672    0.327401042    0.195521072
    0.166666672    0.160734311    0.391042173
    0.500000000    0.494067699    0.000000000
    0.500000000    0.327401042    0.195521072
    0.500000000    0.160734311    0.391042173
    0.833333373    0.494067699    0.000000000
    0.833333373    0.327401042    0.195521072
    0.833333373    0.160734311    0.391042173
    0.166666672    0.827401042    0.000000000
    0.166666672    0.660734355    0.195521072
    0.166666672    0.494067639    0.391042173
    0.500000000    0.827401042    0.000000000
    0.500000000    0.660734355    0.195521072
    0.500000000    0.494067639    0.391042173
    0.833333373    0.827401042    0.000000000
    0.833333373    0.660734355    0.195521072
    0.833333373    0.494067639    0.391042173
    0.250000000    0.244067714    0.097760543
    0.250000000    0.077401027    0.293281555
    0.250000000    0.910734355    0.488802701
    0.583333373    0.244067714    0.097760543
    0.583333373    0.077401027    0.293281555
    0.583333373    0.910734355    0.488802701
    0.916666687    0.244067714    0.097760543
    0.916666687    0.077401027    0.293281555
    0.916666687    0.910734355    0.488802701
    0.250000000    0.577401161    0.097760543
    0.250000000    0.410734445    0.293281555
    0.250000000    0.244067743    0.488802701
    0.583333373    0.577401161    0.097760543
    0.583333373    0.410734445    0.293281555
    0.583333373    0.244067743    0.488802701
    0.916666687    0.577401161    0.097760543
    0.916666687    0.410734445    0.293281555
    0.916666687    0.244067743    0.488802701
    0.250000000    0.910734355    0.097760543
    0.250000000    0.744067669    0.293281555
    0.250000000    0.577401042    0.488802701
    0.583333373    0.910734355    0.097760543
    0.583333373    0.744067669    0.293281555
    0.583333373    0.577401042    0.488802701
    0.916666687    0.910734355    0.097760543
    0.916666687    0.744067669    0.293281555
    0.916666687    0.577401042    0.488802701
    0.082863808    0.499657512    0.624377966
    0.693974853    0.124657393    0.672387362
    0.305085897    0.749657512    0.720396698
    0.916196823    0.374657631    0.768406093
    0.527307987    0.999657571    0.816415370
    0.138419032    0.624657452    0.864424765
    0.082863808    0.999657393    0.624377966
    0.693974853    0.624657393    0.672387362
    0.305085897    0.249657393    0.720396757
    0.916196823    0.874657452    0.768406093
    0.527307987    0.499657631    0.816415370
    0.138419032    0.124657393    0.864424706
    0.832863688    0.624657452    0.624377966
    0.443974733    0.249657393    0.672387362
    0.055085778    0.874657512    0.720396698
    0.666196883    0.499657631    0.768406034
    0.277307928    0.124657631    0.816415429
    0.888418794    0.749657571    0.864424706
    0.832863748    0.124657393    0.624377966
    0.443974733    0.749657393    0.672387362
    0.055085778    0.374657393    0.720396698
    0.666196883    0.999657393    0.768406034
    0.277307928    0.624657512    0.816415429
    0.888418913    0.249657393    0.864424706
    0.832863748    0.874657512    0.624378026
    0.443974733    0.499657393    0.672387362
    0.055085778    0.124657512    0.720396698
    0.666196823    0.749657512    0.768406034
    0.277307987    0.374657631    0.816415429
    0.888418913    0.999657571    0.864424765
    0.832863748    0.374657393    0.624377966
    0.443974733    0.999657393    0.672387362
    0.055085778    0.624657393    0.720396698
    0.666196883    0.249657393    0.768406034
    0.277307987    0.874657512    0.816415429
    0.888418794    0.499657393    0.864424706
    0.082863808    0.749657452    0.624377966
    0.693974853    0.374657393    0.672387362
    0.305085897    0.999657571    0.720396757
    0.916196823    0.624657512    0.768406093
    0.527308226    0.249657631    0.816415429
    0.138419032    0.874657452    0.864424765
    0.082863808    0.249657393    0.624377966
    0.693974853    0.874657393    0.672387362
    0.305085897    0.499657512    0.720396757
    0.916196942    0.124657512    0.768406093
    0.527308106    0.749657571    0.816415370
    0.138418794    0.374657393    0.864424706
