Sn+Ge
    1.000000000
   15.895228386    0.000000000    0.000000000
   -7.947615147   13.765672684    0.000000000
    0.000000000    0.000000000   15.779419899
Sn  Ge 
72     96
Direct
    0.000000000    0.012409173    0.000000025
    0.000000000    0.345742553    0.237432212
    0.000000000    0.679075956    0.474864423
    0.333333373    0.679075897    0.000000000
    0.333333403    0.012409329    0.237432197
    0.333333403    0.345742702    0.474864364
    0.666666746    0.345742553    0.000000021
    0.666666746    0.679075956    0.237432197
    0.666666746    0.012409329    0.474864364
    0.000000000    0.345742553    0.059358072
    0.000000000    0.679075897    0.296790272
    0.000000000    0.012409210    0.534222484
    0.333333403    0.012409210    0.059358045
    0.333333403    0.345742583    0.296790242
    0.333333403    0.679076076    0.534222484
    0.666666746    0.679075956    0.059358086
    0.666666746    0.012409329    0.296790272
    0.666666746    0.345742583    0.534222424
    0.166666687    0.345742553    0.000000021
    0.166666701    0.679075956    0.237432212
    0.166666687    0.012409329    0.474864423
    0.500000000    0.012409184    0.000000030
    0.500000000    0.345742583    0.237432212
    0.500000000    0.679076016    0.474864423
    0.833333433    0.679075897    0.000000000
    0.833333433    0.012409329    0.237432182
    0.833333433    0.345742702    0.474864423
    0.166666701    0.679075956    0.059358027
    0.166666701    0.012409329    0.296790183
    0.166666716    0.345742822    0.534222424
    0.500000060    0.345742583    0.059358027
    0.500000060    0.679075956    0.296790242
    0.500000060    0.012409329    0.534222424
    0.833333433    0.012409210    0.059357978
    0.833333433    0.345742583    0.296790183
    0.833333433    0.679075956    0.534222424
    0.000000000    0.512409210    0.000000019
    0.000000000    0.845742583    0.237432182
    0.000000000    0.179075956    0.474864423
    0.333333373    0.179075852    0.000000021
    0.333333373    0.512409270    0.237432212
    0.333333373    0.845742643    0.474864423
    0.666666746    0.845742583    0.000000000
    0.666666746    0.179075956    0.237432182
    0.666666806    0.512409449    0.474864423
    0.000000000    0.845742583    0.059358027
    0.000000000    0.179075956    0.296790212
    0.000000000    0.512409449    0.534222424
    0.333333373    0.512409210    0.059358027
    0.333333373    0.845742583    0.296790212
    0.333333403    0.179076076    0.534222484
    0.666666746    0.179075807    0.059358023
    0.666666746    0.512409210    0.296790212
    0.666666746    0.845742643    0.534222484
    0.166666701    0.845742583    0.000000039
    0.166666701    0.179075837    0.237432182
    0.166666701    0.512409329    0.474864364
    0.500000000    0.512409210    0.000000018
    0.500000000    0.845742643    0.237432212
    0.500000060    0.179075956    0.474864364
    0.833333373    0.179075867    0.000000039
    0.833333373    0.512409270    0.237432212
    0.833333373    0.845742702    0.474864364
    0.166666687    0.179075778    0.059358075
    0.166666687    0.512409151    0.296790302
    0.166666687    0.845742524    0.534222484
    0.500000000    0.845742524    0.059358079
    0.500000000    0.179075956    0.296790302
    0.500000000    0.512409210    0.534222484
    0.833333433    0.512409210    0.059358045
    0.833333433    0.845742583    0.296790242
    0.833333433    0.179075956    0.534222424
    0.985767305    0.492883563    0.534222484
    0.652433872    0.326216847    0.741234779
    0.319100499    0.159550115    0.948246837
    0.985767305    0.992883682    0.534222484
    0.652433872    0.826216936    0.741234779
    0.319100499    0.659550190    0.948246956
    0.485767245    0.492883593    0.534222484
    0.152433842    0.326216847    0.741234779
    0.819100440    0.159550130    0.948246956
    0.485767245    0.992883682    0.534222484
    0.152433842    0.826216936    0.741234779
    0.819100440    0.659550190    0.948246956
    0.152433947    0.826216877    0.585975528
    0.819100559    0.659550130    0.792987704
    0.485767186    0.492883444    1.000000000
    0.152433947    0.326216936    0.585975528
    0.819100559    0.159550220    0.792987704
    0.485767186    0.992883503    1.000000000
    0.652433872    0.826216817    0.585975528
    0.319100529    0.659550130    0.792987704
    0.985767186    0.492883444    1.000000000
    0.652433872    0.326216936    0.585975528
    0.319100529    0.159550235    0.792987704
    0.985767186    0.992883503    1.000000000
    0.235767260    0.742883623    0.534222484
    0.902433872    0.576216936    0.741234779
    0.569100380    0.409550130    0.948246956
    0.235767290    0.242883623    0.534222484
    0.902433872    0.076216899    0.741234779
    0.569100440    0.909550190    0.948246956
    0.735767245    0.742883563    0.534222484
    0.402433842    0.576216877    0.741234779
    0.069100402    0.409550101    0.948246956
    0.735767245    0.242883608    0.534222484
    0.402433842    0.076216891    0.741234779
    0.069100417    0.909550190    0.948246956
    0.402433932    0.576216936    0.585975528
    0.069100514    0.409550160    0.792987704
    0.735767186    0.242883489    1.000000000
    0.402433932    0.076216973    0.585975528
    0.069100514    0.909550250    0.792987704
    0.735767186    0.742883563    1.000000000
    0.902433991    0.576216877    0.585975528
    0.569100618    0.409550190    0.792987704
    0.235767245    0.242883459    1.000000000
    0.902433991    0.076216973    0.585975528
    0.569100618    0.909550250    0.792987704
    0.235767245    0.742883563    1.000000000
    0.235767275    0.492883593    0.534222484
    0.902433872    0.326216847    0.741234779
    0.569100440    0.159550115    0.948246956
    0.235767290    0.992883682    0.534222484
    0.902433872    0.826216936    0.741234779
    0.569100440    0.659550190    0.948246956
    0.735767245    0.492883593    0.534222484
    0.402433842    0.326216877    0.741234779
    0.069100402    0.159550115    0.948246956
    0.735767245    0.992883682    0.534222484
    0.402433842    0.826216936    0.741234779
    0.069100417    0.659550190    0.948246956
    0.402433932    0.826216936    0.585975528
    0.069100499    0.659550130    0.792987704
    0.735767186    0.492883474    1.000000000
    0.402433932    0.326216996    0.585975528
    0.069100529    0.159550250    0.792987704
    0.735767186    0.992883563    1.000000000
    0.902433991    0.826216877    0.585975528
    0.569100559    0.659550130    0.792987704
    0.235767245    0.492883474    0.999999881
    0.902433991    0.326216966    0.585975528
    0.569100618    0.159550250    0.792987704
    0.235767245    0.992883563    1.000000000
    0.985767305    0.742883623    0.534222484
    0.652433932    0.576216877    0.741234779
    0.319100499    0.409550160    0.948246837
    0.985767305    0.242883623    0.534222484
    0.652433872    0.076216884    0.741234779
    0.319100499    0.909550190    0.948246956
    0.485767245    0.742883623    0.534222484
    0.152433842    0.576216936    0.741234779
    0.819100440    0.409550101    0.948246956
    0.485767245    0.242883623    0.534222484
    0.152433842    0.076216899    0.741234779
    0.819100440    0.909550190    0.948246956
    0.152433977    0.576216936    0.585975528
    0.819100618    0.409550220    0.792987704
    0.485767245    0.242883548    1.000000000
    0.152433977    0.076216981    0.585975528
    0.819100618    0.909550309    0.792987704
    0.485767245    0.742883563    1.000000000
    0.652433991    0.576216936    0.585975528
    0.319100618    0.409550220    0.792987704
    0.985767245    0.242883518    1.000000000
    0.652433991    0.076216988    0.585975528
    0.319100618    0.909550309    0.792987704
    0.985767245    0.742883563    1.000000000
