Si+Ge
    1.000000000
    5.431000233    0.000000000    0.000000000
    0.000000000   17.174331665    0.000000000
    0.000000000    0.000000276   11.365839005
Si  Ge 
24     36
Direct
    0.108862542    0.923796177    0.000000000
    0.608862519    0.573796093    0.075552478
    0.108862400    0.223796010    0.151104987
    0.608862519    0.873795867    0.226657510
    0.108862638    0.523795724    0.302210033
    0.608862638    0.173795700    0.377762467
    0.858862579    0.173796192    0.000000012
    0.358862519    0.823796093    0.075552508
    0.858862400    0.473796010    0.151105016
    0.358862638    0.123795867    0.226657480
    0.858862400    0.773795724    0.302210033
    0.358862638    0.423795581    0.377762526
    0.108862542    0.423796177    0.000000025
    0.608862519    0.073796093    0.075552516
    0.108862400    0.723796010    0.151105016
    0.608862519    0.373795927    0.226657525
    0.108862638    0.023795724    0.302210033
    0.608862638    0.673795700    0.377762496
    0.858862579    0.673796177    0.000000039
    0.358862519    0.323796093    0.075552516
    0.858862400    0.973796010    0.151105016
    0.358862638    0.623795867    0.226657555
    0.858862400    0.273795784    0.302210033
    0.358862638    0.923795700    0.377762556
    0.000000000    0.994305491    0.377762556
    0.000000000    0.827638865    0.626657426
    0.000000000    0.660972118    0.875552416
    0.000000000    0.327638835    0.377762556
    0.000000000    0.160972148    0.626657426
    0.000000000    0.994305432    0.875552416
    0.000000000    0.660972118    0.377762556
    0.000000000    0.494305462    0.626657426
    0.000000000    0.327638775    0.875552416
    0.249999985    0.077638842    0.502210021
    0.249999985    0.910972118    0.751104951
    0.249999985    0.744305491    1.000000000
    0.249999985    0.410972118    0.502210021
    0.249999985    0.244305432    0.751104951
    0.249999985    0.077638723    1.000000000
    0.249999985    0.744305491    0.502210021
    0.249999985    0.577638745    0.751104951
    0.249999985    0.410972089    1.000000000
    0.499999970    0.160972163    0.377762556
    0.499999970    0.994305491    0.626657426
    0.499999970    0.827638805    0.875552416
    0.499999970    0.494305462    0.377762556
    0.499999970    0.327638775    0.626657426
    0.499999970    0.160972089    0.875552416
    0.499999970    0.827638865    0.377762556
    0.499999970    0.660972118    0.626657426
    0.499999970    0.494305462    0.875552416
    0.750000000    0.244305477    0.502210021
    0.750000000    0.077638790    0.751104951
    0.750000000    0.910972118    1.000000000
    0.750000000    0.577638865    0.502210021
    0.750000000    0.410972178    0.751104951
    0.750000000    0.244305462    1.000000000
    0.750000000    0.910972178    0.502210021
    0.750000000    0.744305491    0.751104951
    0.750000000    0.577638745    1.000000000
