Si Ge                                   
   1.00000000000000     
     4.1126546330908527   -0.0094413148740429    0.0065860190726582
     2.0485425707447500    3.5534926259878832    0.0224871987261260
     0.0427945018227538    0.1487471640746542   31.2058189395155345
   Si   Ge
    10    10
Direct
  0.0866715177697251  0.1756712585785579  0.0388509699786555
  0.1516139564973485  0.2091239219057646  0.1087001166168739
  0.8323884890959090  0.8695916589377695  0.1280854371812157
  0.8237792643495794  0.8588567776390071  0.2101165156294935
  0.4962613428794171  0.5145254566512079  0.2317441870867269
  0.4905247704569711  0.5225362493522738  0.3051781582552695
  0.1627041308517770  0.1789238377991548  0.3272223337852952
  0.1645918127541345  0.1622281044812907  0.4056410744728194
  0.8338861877118512  0.8327950274277893  0.4253146738256262
  0.7507805122017304  0.8443411346600671  0.4955726946037666
  0.0901586052416716  0.1830903484164296  0.5162306660987340
  0.9742116959902382  0.1759148863135184  0.5956082485314115
  0.6407609734444656  0.8505552812636414  0.6220399640286937
  0.6639367364773233  0.8313708016030954  0.6998708295855758
  0.3412779043218270  0.4917486265677266  0.7290024741384348
  0.3252357820714131  0.5012579440944913  0.8059084768278723
  0.0083393256214062  0.1549138581665263  0.8344383969635996
  0.9843943717007331  0.1443266213698417  0.9150091878805892
  0.6537526572481440  0.8175442521229910  0.9393005142370855
  0.7709948580151287  0.8276629548319936  0.0187943894635839
 
  0.00000000E+00  0.00000000E+00  0.00000000E+00
  0.00000000E+00  0.00000000E+00  0.00000000E+00
  0.00000000E+00  0.00000000E+00  0.00000000E+00
  0.00000000E+00  0.00000000E+00  0.00000000E+00
  0.00000000E+00  0.00000000E+00  0.00000000E+00
  0.00000000E+00  0.00000000E+00  0.00000000E+00
  0.00000000E+00  0.00000000E+00  0.00000000E+00
  0.00000000E+00  0.00000000E+00  0.00000000E+00
  0.00000000E+00  0.00000000E+00  0.00000000E+00
  0.00000000E+00  0.00000000E+00  0.00000000E+00
  0.00000000E+00  0.00000000E+00  0.00000000E+00
  0.00000000E+00  0.00000000E+00  0.00000000E+00
  0.00000000E+00  0.00000000E+00  0.00000000E+00
  0.00000000E+00  0.00000000E+00  0.00000000E+00
  0.00000000E+00  0.00000000E+00  0.00000000E+00
  0.00000000E+00  0.00000000E+00  0.00000000E+00
  0.00000000E+00  0.00000000E+00  0.00000000E+00
  0.00000000E+00  0.00000000E+00  0.00000000E+00
  0.00000000E+00  0.00000000E+00  0.00000000E+00
  0.00000000E+00  0.00000000E+00  0.00000000E+00
