Si Ge
 1.0000000000000000
     3.9201999948982196    0.0000000000000000    0.0000000000000000
     1.9600999974491096    3.3949927834974849    0.0000000000000000
     0.0000000000000000    0.0000000000000000   27.9190049261828364
 Si  Ge 
  10  10
Cartesian
  0.9749964418905470  0.6271673527361825  0.0261957102110740
  0.9749964418905472  0.6271673527361830  2.3774546814858240
  4.8951964367887673  2.8904958750678396  3.1612076719107414
  4.8951964367887673  2.8904958750678396  5.5124666431854923
  2.9350964393396581  1.7588316139020119  6.2962196336104093
  2.9350964393396581  1.7588316139020119  8.6474786048851602
  0.9749964418905477  0.6271673527361836  9.4312315953100754
  0.9749964418905475  0.6271673527361834 11.7824905665848281
  4.8951964367887690  2.8904958750678413 12.5662435570097433
  4.8951964367887690  2.8904958750678404 14.9175025282844960
  0.3264136746543074  0.5543961736033868 13.6733731691750666
  0.3264136746543074  0.5543961736033868 16.1233590364812436
  4.2466136695525263  2.8177246959350435 16.9400209922499698
  4.2466136695525254  2.8177246959350435 19.3900068595561450
  2.2865136721034176  1.6860604347692161 20.2066688153248748
  2.2865136721034167  1.6860604347692161 22.6566546826310500
  0.3264136746543078  0.5543961736033876 23.4733166383997727
  4.2466136695525254  0.5543961736033883 25.9233025057059479
  4.2466136695525272  2.8177246959350453 26.7399644614746776
  4.2466136695525263  2.8177246959350435 29.1899503287808528
