Si+C                                    
   1.00000000000000     
    16.2930011750000006    0.0000000000000000    0.0000000000000000
   -10.8620004649999995   12.1440858840000008    0.0000000000000000
     0.0000000000000000    0.0000000000000000    8.1924037930000004
   Si   C 
    36    84
Direct
  0.9743584989999974  0.9829056259999973  0.0000000020000002
  0.6743584279999979  0.7829055790000012  0.1482359769999988
  0.3743584159999997  0.5829055310000015  0.2964719530000011
  0.3076917830000028  0.9829056259999973  0.0000000020000002
  0.0076917259999973  0.7829055790000012  0.1482359769999988
  0.7076916689999990  0.5829055310000015  0.2964719530000011
  0.6410250659999974  0.9829056259999973  0.0000000020000002
  0.3410250250000004  0.7829055790000012  0.1482359769999988
  0.0410249870000001  0.5829055310000015  0.2964719530000011
  0.1576919700000019  0.6329056020000010  0.0741178390000030
  0.8576919440000026  0.4329055250000025  0.2223538160000018
  0.5576919319999973  0.2329055069999981  0.3705897629999981
  0.4910252090000000  0.6329056020000010  0.0741178390000030
  0.1910251529999982  0.4329055250000025  0.2223538160000018
  0.8910251860000002  0.2329055069999981  0.3705897629999981
  0.8243584630000029  0.6329056020000010  0.0741178390000030
  0.5243583920000034  0.4329055250000025  0.2223538160000018
  0.2243584989999974  0.2329055069999981  0.3705897629999981
  0.1410251559999978  0.4829055960000019  0.0000000000000000
  0.8410251139999971  0.2829054890000009  0.1482359769999988
  0.5410251019999990  0.0829054339999971  0.2964719530000011
  0.4743584389999995  0.4829055960000019  0.0000000000000000
  0.1743583829999977  0.2829054890000009  0.1482359769999988
  0.8743583560000019  0.0829054339999971  0.2964719530000011
  0.8076916930000024  0.4829055960000019  0.0000000000000000
  0.5076916809999972  0.2829054890000009  0.1482359769999988
  0.2076916250000025  0.0829054339999971  0.2964719530000011
  0.9910252090000000  0.1329056619999989  0.0741178469999966
  0.6910251380000005  0.9329056139999992  0.2223538160000018
  0.3910251860000002  0.7329055670000031  0.3705897629999981
  0.3243584630000029  0.1329056619999989  0.0741178469999966
  0.0243584139999982  0.9329056139999992  0.2223538160000018
  0.7243584389999995  0.7329055670000031  0.3705897629999981
  0.6576916579999974  0.1329056619999989  0.0741178469999966
  0.3576916159999968  0.9329056139999992  0.2223538160000018
  0.0576916520000026  0.7329055670000031  0.3705897629999981
  0.7328225369999970  0.3220145700000003  0.7583101390000024
  0.9613939520000017  0.3791570659999977  0.5636027460000008
  0.8471082450000011  0.8505858779999969  0.6609565019999977
  0.5899653430000029  0.0363001819999980  0.7583101390000024
  0.8185368179999983  0.0934427979999981  0.5636027460000008
  0.7042510510000000  0.5648715499999994  0.6609565019999977
  0.4471081789999971  0.7505859729999997  0.7583101390000024
  0.6756796239999971  0.8077285889999999  0.5636027460000008
  0.5613938569999988  0.2791574000000026  0.6609565019999977
  0.3042511049999987  0.4648716450000023  0.7583101390000024
  0.5328225490000023  0.5220142599999988  0.5636027460000008
  0.4185368119999993  0.9934430719999980  0.6609565019999977
  0.1613939849999966  0.1791574949999983  0.7583101390000024
  0.3899654149999989  0.2362999919999993  0.5636027460000008
  0.2756796780000030  0.7077288030000020  0.6609565019999977
  0.0185368060000002  0.8934431670000009  0.7583101390000024
  0.2471082510000002  0.9505857230000032  0.5636027460000008
  0.1328225139999972  0.4220144749999974  0.6609565019999977
  0.8756797309999982  0.6077288390000035  0.7583101390000024
  0.1042511460000028  0.6648714540000000  0.5636027460000008
  0.9899654390000023  0.1363002060000014  0.6609565019999977
  0.7828226090000001  0.7720145580000022  0.8069869280000006
  0.0113940239999977  0.8291570539999995  0.6122795340000025
  0.8971083759999985  0.3005859849999979  0.7096332309999980
  0.6399654149999989  0.4863002299999977  0.8069869280000006
  0.8685367699999986  0.5434429649999970  0.6122795340000025
  0.7542510629999981  0.0148715970000026  0.7096332309999980
  0.4971083399999969  0.2005856039999969  0.8069869280000006
  0.7256796960000003  0.2577283379999997  0.6122795940000003
  0.6113940480000011  0.7291570309999997  0.7096332309999980
  0.3542511759999982  0.9148715139999979  0.8069869280000006
  0.5828225610000004  0.9720141290000015  0.6122795940000003
  0.4685368239999974  0.4434428220000015  0.7096332309999980
  0.2113939669999993  0.6291572450000018  0.8069869280000006
  0.4399654269999971  0.6862999800000011  0.6122795340000025
  0.3256796599999987  0.1577286719999975  0.7096332309999980
  0.0685369970000025  0.3434431550000028  0.8069869280000006
  0.2971083819999976  0.4005858900000021  0.6122795340000025
  0.1828226599999994  0.8720144629999993  0.7096332309999980
  0.9256796840000021  0.0577285290000020  0.8069869280000006
  0.1542511580000010  0.1148712640000014  0.6122795340000025
  0.0399653910000026  0.5862998959999999  0.7096332309999980
  0.8042510149999984  0.9648717050000002  0.7583101390000024
  0.0328226090000001  0.0220143800000017  0.5636027460000008
  0.9185367230000026  0.4934430120000002  0.6609565019999977
  0.6613938209999972  0.6791574359999970  0.7583101390000024
  0.8899652959999997  0.7363000510000006  0.5636028050000021
  0.7756795290000014  0.2077287440000006  0.6609565019999977
  0.5185367469999989  0.3934431079999996  0.7583101390000024
  0.7471082209999977  0.4505856039999969  0.5636027460000008
  0.6328225139999972  0.9220145339999988  0.6609565019999977
  0.3756796119999990  0.1077287199999972  0.7583101390000024
  0.6042511460000028  0.1648714540000000  0.5636027460000008
  0.4899653490000020  0.6363001470000000  0.6609565019999977
  0.2328225520000018  0.8220146299999982  0.7583101390000024
  0.4613939819999970  0.8791571860000005  0.5636027460000008
  0.3471082149999987  0.3505859380000018  0.6609565019999977
  0.0899653430000029  0.5363001819999980  0.7583101390000024
  0.3185368179999983  0.5934427979999981  0.5636028050000021
  0.2042511399999967  0.0648715499999994  0.6609565019999977
  0.9471082689999974  0.2505857940000027  0.7583101390000024
  0.1756796840000021  0.3077285290000020  0.5636028050000021
  0.0613940949999972  0.7791574600000004  0.6609565019999977
  0.8542511460000028  0.4148714540000000  0.8069869280000006
  0.0828226799999996  0.4720141889999994  0.6122795340000025
  0.9685368539999999  0.9434427619999965  0.7096332309999980
  0.7113940119999995  0.1291575429999980  0.8069869280000006
  0.9399653079999979  0.1862999200000033  0.6122795340000025
  0.8256796599999987  0.6577287320000025  0.7096332309999980
  0.5685368780000033  0.8434427380000002  0.8069869280000006
  0.7971082330000030  0.9005854130000017  0.6122795340000025
  0.6828225260000025  0.3720140459999968  0.7096332309999980
  0.4256797130000010  0.5577285290000020  0.8069869280000006
  0.6542511580000010  0.6148712039999964  0.6122795340000025
  0.5399655100000018  0.0862998959999999  0.7096332309999980
  0.2828225789999976  0.2720143800000017  0.8069869280000006
  0.5113940239999977  0.3291571139999974  0.6122795340000025
  0.3971083160000006  0.8005856870000017  0.7096332309999980
  0.1399654299999966  0.9863002900000026  0.8069869280000006
  0.3685368599999990  0.0434429649999970  0.6122795340000025
  0.2542511520000019  0.5148715970000026  0.7096332309999980
  0.9971084000000019  0.7005857830000011  0.8069869280000006
  0.2256798149999995  0.7577282789999984  0.6122795340000025
  0.1113941670000003  0.2291572090000003  0.7096331719999966
 
  0.00000000E+00  0.00000000E+00  0.00000000E+00
  0.00000000E+00  0.00000000E+00  0.00000000E+00
  0.00000000E+00  0.00000000E+00  0.00000000E+00
  0.00000000E+00  0.00000000E+00  0.00000000E+00
  0.00000000E+00  0.00000000E+00  0.00000000E+00
  0.00000000E+00  0.00000000E+00  0.00000000E+00
  0.00000000E+00  0.00000000E+00  0.00000000E+00
  0.00000000E+00  0.00000000E+00  0.00000000E+00
  0.00000000E+00  0.00000000E+00  0.00000000E+00
  0.00000000E+00  0.00000000E+00  0.00000000E+00
  0.00000000E+00  0.00000000E+00  0.00000000E+00
  0.00000000E+00  0.00000000E+00  0.00000000E+00
  0.00000000E+00  0.00000000E+00  0.00000000E+00
  0.00000000E+00  0.00000000E+00  0.00000000E+00
  0.00000000E+00  0.00000000E+00  0.00000000E+00
  0.00000000E+00  0.00000000E+00  0.00000000E+00
  0.00000000E+00  0.00000000E+00  0.00000000E+00
  0.00000000E+00  0.00000000E+00  0.00000000E+00
  0.00000000E+00  0.00000000E+00  0.00000000E+00
  0.00000000E+00  0.00000000E+00  0.00000000E+00
  0.00000000E+00  0.00000000E+00  0.00000000E+00
  0.00000000E+00  0.00000000E+00  0.00000000E+00
  0.00000000E+00  0.00000000E+00  0.00000000E+00
  0.00000000E+00  0.00000000E+00  0.00000000E+00
  0.00000000E+00  0.00000000E+00  0.00000000E+00
  0.00000000E+00  0.00000000E+00  0.00000000E+00
  0.00000000E+00  0.00000000E+00  0.00000000E+00
  0.00000000E+00  0.00000000E+00  0.00000000E+00
  0.00000000E+00  0.00000000E+00  0.00000000E+00
  0.00000000E+00  0.00000000E+00  0.00000000E+00
  0.00000000E+00  0.00000000E+00  0.00000000E+00
  0.00000000E+00  0.00000000E+00  0.00000000E+00
  0.00000000E+00  0.00000000E+00  0.00000000E+00
  0.00000000E+00  0.00000000E+00  0.00000000E+00
  0.00000000E+00  0.00000000E+00  0.00000000E+00
  0.00000000E+00  0.00000000E+00  0.00000000E+00
  0.00000000E+00  0.00000000E+00  0.00000000E+00
  0.00000000E+00  0.00000000E+00  0.00000000E+00
  0.00000000E+00  0.00000000E+00  0.00000000E+00
  0.00000000E+00  0.00000000E+00  0.00000000E+00
  0.00000000E+00  0.00000000E+00  0.00000000E+00
  0.00000000E+00  0.00000000E+00  0.00000000E+00
  0.00000000E+00  0.00000000E+00  0.00000000E+00
  0.00000000E+00  0.00000000E+00  0.00000000E+00
  0.00000000E+00  0.00000000E+00  0.00000000E+00
  0.00000000E+00  0.00000000E+00  0.00000000E+00
  0.00000000E+00  0.00000000E+00  0.00000000E+00
  0.00000000E+00  0.00000000E+00  0.00000000E+00
  0.00000000E+00  0.00000000E+00  0.00000000E+00
  0.00000000E+00  0.00000000E+00  0.00000000E+00
  0.00000000E+00  0.00000000E+00  0.00000000E+00
  0.00000000E+00  0.00000000E+00  0.00000000E+00
  0.00000000E+00  0.00000000E+00  0.00000000E+00
  0.00000000E+00  0.00000000E+00  0.00000000E+00
  0.00000000E+00  0.00000000E+00  0.00000000E+00
  0.00000000E+00  0.00000000E+00  0.00000000E+00
  0.00000000E+00  0.00000000E+00  0.00000000E+00
  0.00000000E+00  0.00000000E+00  0.00000000E+00
  0.00000000E+00  0.00000000E+00  0.00000000E+00
  0.00000000E+00  0.00000000E+00  0.00000000E+00
  0.00000000E+00  0.00000000E+00  0.00000000E+00
  0.00000000E+00  0.00000000E+00  0.00000000E+00
  0.00000000E+00  0.00000000E+00  0.00000000E+00
  0.00000000E+00  0.00000000E+00  0.00000000E+00
  0.00000000E+00  0.00000000E+00  0.00000000E+00
  0.00000000E+00  0.00000000E+00  0.00000000E+00
  0.00000000E+00  0.00000000E+00  0.00000000E+00
  0.00000000E+00  0.00000000E+00  0.00000000E+00
  0.00000000E+00  0.00000000E+00  0.00000000E+00
  0.00000000E+00  0.00000000E+00  0.00000000E+00
  0.00000000E+00  0.00000000E+00  0.00000000E+00
  0.00000000E+00  0.00000000E+00  0.00000000E+00
  0.00000000E+00  0.00000000E+00  0.00000000E+00
  0.00000000E+00  0.00000000E+00  0.00000000E+00
  0.00000000E+00  0.00000000E+00  0.00000000E+00
  0.00000000E+00  0.00000000E+00  0.00000000E+00
  0.00000000E+00  0.00000000E+00  0.00000000E+00
  0.00000000E+00  0.00000000E+00  0.00000000E+00
  0.00000000E+00  0.00000000E+00  0.00000000E+00
  0.00000000E+00  0.00000000E+00  0.00000000E+00
  0.00000000E+00  0.00000000E+00  0.00000000E+00
  0.00000000E+00  0.00000000E+00  0.00000000E+00
  0.00000000E+00  0.00000000E+00  0.00000000E+00
  0.00000000E+00  0.00000000E+00  0.00000000E+00
  0.00000000E+00  0.00000000E+00  0.00000000E+00
  0.00000000E+00  0.00000000E+00  0.00000000E+00
  0.00000000E+00  0.00000000E+00  0.00000000E+00
  0.00000000E+00  0.00000000E+00  0.00000000E+00
  0.00000000E+00  0.00000000E+00  0.00000000E+00
  0.00000000E+00  0.00000000E+00  0.00000000E+00
  0.00000000E+00  0.00000000E+00  0.00000000E+00
  0.00000000E+00  0.00000000E+00  0.00000000E+00
  0.00000000E+00  0.00000000E+00  0.00000000E+00
  0.00000000E+00  0.00000000E+00  0.00000000E+00
  0.00000000E+00  0.00000000E+00  0.00000000E+00
  0.00000000E+00  0.00000000E+00  0.00000000E+00
  0.00000000E+00  0.00000000E+00  0.00000000E+00
  0.00000000E+00  0.00000000E+00  0.00000000E+00
  0.00000000E+00  0.00000000E+00  0.00000000E+00
  0.00000000E+00  0.00000000E+00  0.00000000E+00
  0.00000000E+00  0.00000000E+00  0.00000000E+00
  0.00000000E+00  0.00000000E+00  0.00000000E+00
  0.00000000E+00  0.00000000E+00  0.00000000E+00
  0.00000000E+00  0.00000000E+00  0.00000000E+00
  0.00000000E+00  0.00000000E+00  0.00000000E+00
  0.00000000E+00  0.00000000E+00  0.00000000E+00
  0.00000000E+00  0.00000000E+00  0.00000000E+00
  0.00000000E+00  0.00000000E+00  0.00000000E+00
  0.00000000E+00  0.00000000E+00  0.00000000E+00
  0.00000000E+00  0.00000000E+00  0.00000000E+00
  0.00000000E+00  0.00000000E+00  0.00000000E+00
  0.00000000E+00  0.00000000E+00  0.00000000E+00
  0.00000000E+00  0.00000000E+00  0.00000000E+00
  0.00000000E+00  0.00000000E+00  0.00000000E+00
  0.00000000E+00  0.00000000E+00  0.00000000E+00
  0.00000000E+00  0.00000000E+00  0.00000000E+00
  0.00000000E+00  0.00000000E+00  0.00000000E+00
  0.00000000E+00  0.00000000E+00  0.00000000E+00
  0.00000000E+00  0.00000000E+00  0.00000000E+00
  0.00000000E+00  0.00000000E+00  0.00000000E+00
