Ge+Sn
    1.000000000
   19.599195480    0.000000000    0.000000000
   -6.533064842   18.478298187    0.000000000
    0.000000000    0.000000000   25.800939560
Ge  Sn 
192     144
Direct
    0.744844615    0.234533861    0.000000014
    0.682344615    0.047033865    0.077529542
    0.619844615    0.859533846    0.155059069
    0.557344615    0.672033906    0.232588559
    0.494844615    0.484533906    0.310118109
    0.432344586    0.297033846    0.387647569
    0.494844645    0.984533846    0.000000013
    0.432344615    0.797033846    0.077529527
    0.369844615    0.609533787    0.155059084
    0.307344615    0.422033846    0.232588589
    0.244844645    0.234533906    0.310118079
    0.182344645    0.047033846    0.387647629
    0.744844615    0.734533846    0.000000016
    0.682344615    0.547033846    0.077529527
    0.619844615    0.359533817    0.155059084
    0.557344615    0.172033846    0.232588559
    0.494844615    0.984533906    0.310118079
    0.432344586    0.797033846    0.387647599
    0.494844615    0.484533846    0.000000016
    0.432344615    0.297033846    0.077529527
    0.369844615    0.109533817    0.155059069
    0.307344615    0.922033846    0.232588559
    0.244844630    0.734533906    0.310118079
    0.182344630    0.547033846    0.387647599
    0.244844630    0.234533861    0.000000016
    0.182344630    0.047033854    0.077529527
    0.119844608    0.859533787    0.155059069
    0.057344612    0.672033846    0.232588559
    0.994844615    0.484533906    0.310118079
    0.932344615    0.297033846    0.387647599
    0.994844615    0.984533846    0.000000016
    0.932344615    0.797033846    0.077529527
    0.869844615    0.609533787    0.155059069
    0.807344615    0.422033846    0.232588559
    0.744844675    0.234533906    0.310118079
    0.682344615    0.047033846    0.387647599
    0.244844615    0.734533846    0.000000007
    0.182344615    0.547033846    0.077529527
    0.119844608    0.359533846    0.155059069
    0.057344619    0.172033861    0.232588559
    0.994844615    0.984533906    0.310118079
    0.932344615    0.797033846    0.387647599
    0.994844615    0.484533876    0.000000007
    0.932344615    0.297033876    0.077529527
    0.869844615    0.109533824    0.155059069
    0.807344615    0.922033846    0.232588559
    0.744844675    0.734533906    0.310118079
    0.682344615    0.547033846    0.387647599
    0.869844615    0.109533794    0.000000000
    0.807344615    0.922033787    0.077529527
    0.744844675    0.734533787    0.155059054
    0.682344675    0.547033787    0.232588589
    0.619844675    0.359533846    0.310118079
    0.557344615    0.172033787    0.387647569
    0.869844615    0.609533846    0.000000018
    0.807344615    0.422033846    0.077529535
    0.744844615    0.234533802    0.155059069
    0.682344615    0.047033843    0.232588559
    0.619844615    0.859533906    0.310118079
    0.557344615    0.672033787    0.387647569
    0.619844615    0.359533846    0.000000018
    0.557344615    0.172033831    0.077529535
    0.494844645    0.984533787    0.155059069
    0.432344645    0.797033846    0.232588559
    0.369844645    0.609533906    0.310118079
    0.307344615    0.422033846    0.387647569
    0.369844615    0.109533861    0.000000019
    0.307344615    0.922033846    0.077529542
    0.244844615    0.734533787    0.155059084
    0.182344615    0.547033846    0.232588589
    0.119844638    0.359533906    0.310118079
    0.057344612    0.172033846    0.387647599
    0.619844615    0.859533846    0.000000015
    0.557344615    0.672033846    0.077529527
    0.494844615    0.484533757    0.155059069
    0.432344615    0.297033846    0.232588589
    0.369844615    0.109533846    0.310118079
    0.307344615    0.922033846    0.387647599
    0.369844615    0.609533846    0.000000016
    0.307344615    0.422033846    0.077529527
    0.244844601    0.234533846    0.155059069
    0.182344615    0.047033861    0.232588589
    0.119844608    0.859533906    0.310118079
    0.057344619    0.672033846    0.387647599
    0.119844630    0.359533876    0.000000016
    0.057344623    0.172033861    0.077529527
    0.994844615    0.984533787    0.155059069
    0.932344615    0.797033846    0.232588559
    0.869844675    0.609533906    0.310118079
    0.807344615    0.422033846    0.387647599
    0.119844615    0.859533846    0.000000019
    0.057344623    0.672033846    0.077529550
    0.994844615    0.484533817    0.155059084
    0.932344615    0.297033846    0.232588589
    0.869844675    0.109533884    0.310118109
    0.807344615    0.922033846    0.387647599
    0.869844675    0.234533906    0.000000007
    0.807344675    0.047033865    0.077529535
    0.744844615    0.859533846    0.155059069
    0.682344675    0.672033846    0.232588559
    0.619844675    0.484533906    0.310118079
    0.557344675    0.297033846    0.387647599
    0.619844615    0.984533846    0.000000007
    0.557344615    0.797033846    0.077529535
    0.494844645    0.609533787    0.155059069
    0.432344645    0.422033846    0.232588559
    0.369844645    0.234533906    0.310118079
    0.307344645    0.047033846    0.387647599
    0.869844675    0.734533906    0.000000017
    0.807344675    0.547033906    0.077529527
    0.744844675    0.359533876    0.155059084
    0.682344675    0.172033891    0.232588559
    0.619844675    0.984533966    0.310118079
    0.557344675    0.797033906    0.387647599
    0.619844675    0.484533906    0.000000018
    0.557344675    0.297033876    0.077529535
    0.494844645    0.109533831    0.155059069
    0.432344645    0.922033846    0.232588589
    0.369844675    0.734533906    0.310118079
    0.307344645    0.547033906    0.387647599
    0.369844615    0.234533846    0.000000018
    0.307344615    0.047033846    0.077529527
    0.244844615    0.859533787    0.155059084
    0.182344630    0.672033846    0.232588589
    0.119844645    0.484533906    0.310118109
    0.057344619    0.297033846    0.387647599
    0.119844615    0.984533846    0.000000018
    0.057344615    0.797033846    0.077529527
    0.994844615    0.609533787    0.155059069
    0.932344615    0.422033846    0.232588589
    0.869844675    0.234533906    0.310118079
    0.807344615    0.047033846    0.387647599
    0.369844615    0.734533846    0.000000015
    0.307344615    0.547033846    0.077529535
    0.244844601    0.359533817    0.155059084
    0.182344615    0.172033802    0.232588589
    0.119844615    0.984533846    0.310118079
    0.057344612    0.797033787    0.387647599
    0.119844615    0.484533846    0.000000015
    0.057344615    0.297033846    0.077529535
    0.994844615    0.109533817    0.155059084
    0.932344615    0.922033846    0.232588589
    0.869844675    0.734533906    0.310118079
    0.807344615    0.547033846    0.387647599
    0.744844615    0.359533846    0.000000006
    0.682344615    0.172033846    0.077529535
    0.619844615    0.984533787    0.155059069
    0.557344556    0.797033846    0.232588559
    0.494844586    0.609533906    0.310118079
    0.432344586    0.422033846    0.387647569
    0.494844615    0.109533846    0.000000006
    0.432344615    0.922033846    0.077529535
    0.369844615    0.734533787    0.155059069
    0.307344615    0.547033906    0.232588559
    0.244844630    0.359533906    0.310118079
    0.182344601    0.172033846    0.387647569
    0.744844615    0.859533846    0.000000016
    0.682344556    0.672033787    0.077529527
    0.619844556    0.484533787    0.155059069
    0.557344615    0.297033846    0.232588559
    0.494844615    0.109533854    0.310118079
    0.432344586    0.922033846    0.387647599
    0.494844615    0.609533846    0.000000016
    0.432344615    0.422033846    0.077529527
    0.369844586    0.234533802    0.155059069
    0.307344615    0.047033828    0.232588589
    0.244844615    0.859533846    0.310118079
    0.182344601    0.672033846    0.387647599
    0.244844615    0.359533846    0.000000016
    0.182344615    0.172033846    0.077529527
    0.119844615    0.984533846    0.155059069
    0.057344627    0.797033846    0.232588589
    0.994844615    0.609533906    0.310118079
    0.932344615    0.422033846    0.387647599
    0.994844615    0.109533839    0.000000016
    0.932344615    0.922033846    0.077529527
    0.869844615    0.734533787    0.155059069
    0.807344615    0.547033846    0.232588589
    0.744844675    0.359533906    0.310118079
    0.682344615    0.172033846    0.387647599
    0.244844615    0.859533846    0.000000014
    0.182344615    0.672033846    0.077529542
    0.119844593    0.484533817    0.155059069
    0.057344593    0.297033846    0.232588589
    0.994844615    0.109533876    0.310118079
    0.932344615    0.922033846    0.387647599
    0.994844615    0.609533846    0.000000014
    0.932344615    0.422033846    0.077529542
    0.869844615    0.234533846    0.155059069
    0.807344615    0.047033865    0.232588589
    0.744844675    0.859533906    0.310118079
    0.682344615    0.672033846    0.387647599
    0.365369201    0.785017073    0.471518040
    0.240369201    0.576683581    0.560440421
    0.115369201    0.368350089    0.649362683
    0.990369201    0.160016537    0.738284945
    0.865369081    0.951683044    0.827207327
    0.740369081    0.743349552    0.916129649
    0.365369201    0.451683760    0.471518040
    0.240369201    0.243350238    0.560440421
    0.115369201    0.035016775    0.649362683
    0.990369201    0.826683164    0.738284945
    0.865369081    0.618349671    0.827207327
    0.740369081    0.410016239    0.916129649
    0.365369201    0.118350387    0.471518040
    0.240369201    0.910016894    0.560440421
    0.115369201    0.701683402    0.649362683
    0.990369201    0.493349791    0.738284945
    0.865369081    0.285016298    0.827207327
    0.740369081    0.076682806    0.916129649
    0.865369201    0.951683640    0.471518040
    0.740369201    0.743350148    0.560440421
    0.615369201    0.535016716    0.649362683
    0.490369141    0.326683164    0.738285005
    0.365369081    0.118349671    0.827207327
    0.240369081    0.910016179    0.916129589
    0.865369201    0.618350387    0.471518040
    0.740369201    0.410016894    0.560440421
    0.615369201    0.201683402    0.649362683
    0.490369141    0.993349791    0.738285005
    0.365369081    0.785016298    0.827207327
    0.240369081    0.576682866    0.916129589
    0.865369201    0.285017073    0.471518040
    0.740369201    0.076683640    0.560440421
    0.615369201    0.868350029    0.649362683
    0.490369141    0.660016477    0.738285005
    0.365369081    0.451682985    0.827207327
    0.240369081    0.243349507    0.916129589
    0.615369201    0.868350387    0.471518040
    0.490369201    0.660016894    0.560440421
    0.365369201    0.451683402    0.649362683
    0.240369201    0.243349880    0.738284945
    0.115369081    0.035016418    0.827207327
    0.990369081    0.826682866    0.916129649
    0.615369201    0.535017073    0.471518040
    0.490369201    0.326683581    0.560440421
    0.365369201    0.118350148    0.649362683
    0.240369201    0.910016537    0.738284945
    0.115369081    0.701682985    0.827207327
    0.990369081    0.493349552    0.916129649
    0.615369201    0.201683730    0.471518040
    0.490369201    0.993350208    0.560440421
    0.365369201    0.785016716    0.649362683
    0.240369201    0.576683104    0.738284945
    0.115369081    0.368349671    0.827207327
    0.990369081    0.160016194    0.916129649
    0.115369201    0.035017133    0.471518040
    0.990369201    0.826683581    0.560440421
    0.865369201    0.618350089    0.649362683
    0.740369141    0.410016537    0.738285005
    0.615369141    0.201683044    0.827207327
    0.490369111    0.993349552    0.916129589
    0.115369201    0.701683700    0.471518040
    0.990369201    0.493350208    0.560440421
    0.865369201    0.285016716    0.649362683
    0.740369141    0.076683164    0.738285005
    0.615369141    0.868349671    0.827207327
    0.490369111    0.660016179    0.916129589
    0.115369201    0.368350416    0.471518040
    0.990369201    0.160016909    0.560440421
    0.865369201    0.951683402    0.649362683
    0.740369141    0.743349791    0.738285005
    0.615369141    0.535016298    0.827207327
    0.490369111    0.326682866    0.916129589
    0.740369201    0.993350446    0.471518070
    0.615369201    0.785016894    0.560440421
    0.490369201    0.576683402    0.649362683
    0.365369081    0.368349880    0.738285005
    0.240369081    0.160016388    0.827207327
    0.115369081    0.951682866    0.916129589
    0.740369201    0.660017014    0.471518070
    0.615369201    0.451683521    0.560440421
    0.490369201    0.243350029    0.649362683
    0.365369081    0.035016418    0.738285005
    0.240369081    0.826682925    0.827207327
    0.115369081    0.618349433    0.916129589
    0.740369201    0.326683760    0.471518070
    0.615369201    0.118350267    0.560440421
    0.490369201    0.910016716    0.649362683
    0.365369081    0.701683164    0.738285005
    0.240369081    0.493349671    0.827207327
    0.115369081    0.285016179    0.916129589
    0.240369320    0.826683760    0.471518040
    0.115369201    0.618350327    0.560440421
    0.990369201    0.410016775    0.649362683
    0.865369201    0.201683223    0.738285005
    0.740369201    0.993349731    0.827207327
    0.615369141    0.785016179    0.916129589
    0.240369320    0.493350387    0.471518040
    0.115369201    0.285016865    0.560440421
    0.990369201    0.076683402    0.649362683
    0.865369201    0.868349791    0.738285005
    0.740369201    0.660016298    0.827207327
    0.615369141    0.451682746    0.916129589
    0.240369320    0.160017073    0.471518040
    0.115369201    0.951683521    0.560440421
    0.990369201    0.743350029    0.649362683
    0.865369201    0.535016477    0.738285005
    0.740369201    0.326682925    0.827207327
    0.615369141    0.118349433    0.916129589
    0.490369231    0.910017133    0.471518040
    0.365369201    0.701683581    0.560440421
    0.240369201    0.493350148    0.649362683
    0.115369081    0.285016596    0.738285005
    0.990369081    0.076683044    0.827207327
    0.865369081    0.868349552    0.916129589
    0.490369231    0.576683760    0.471518040
    0.365369201    0.368350238    0.560440421
    0.240369201    0.160016730    0.649362683
    0.115369081    0.951683164    0.738285005
    0.990369081    0.743349671    0.827207327
    0.865369081    0.535016179    0.916129589
    0.490369231    0.243350446    0.471518040
    0.365369201    0.035016894    0.560440421
    0.240369201    0.826683402    0.649362683
    0.115369081    0.618349850    0.738285005
    0.990369081    0.410016358    0.827207327
    0.865369081    0.201682821    0.916129589
    0.990369201    0.076683760    0.471518070
    0.865369201    0.868350267    0.560440421
    0.740369201    0.660016775    0.649362683
    0.615369141    0.451683223    0.738285005
    0.490369111    0.243349716    0.827207327
    0.365369081    0.035016179    0.916129589
    0.990369201    0.743350387    0.471518070
    0.865369201    0.535016894    0.560440421
    0.740369201    0.326683402    0.649362683
    0.615369141    0.118349791    0.738285005
    0.490369111    0.910016298    0.827207327
    0.365369081    0.701682806    0.916129589
    0.990369201    0.410017073    0.471518070
    0.865369201    0.201683566    0.560440421
    0.740369201    0.993350029    0.649362683
    0.615369141    0.785016418    0.738285005
    0.490369111    0.576683044    0.827207327
    0.365369081    0.368349493    0.916129589
