fcc Si+fcc Ge
    1.000000000
   16.440000000    0.000000000    0.000000000
    0.000000000   16.440000000    0.000000000
    0.000000000    0.000000000   25.400000000
Si    Ge   
108     176
Direct
    0.000000000    0.000000000    0.000000000
    0.833333333    0.000000000    0.107874016
    0.666666667    0.000000000    0.215748031
    0.000000000    0.333333333    0.000000000
    0.833333333    0.333333333    0.107874016
    0.666666667    0.333333333    0.215748031
    0.000000000    0.666666667    0.000000000
    0.833333333    0.666666667    0.107874016
    0.666666667    0.666666667    0.215748031
    0.333333333    0.000000000    0.000000000
    0.166666667    0.000000000    0.107874016
    0.000000000    0.000000000    0.215748031
    0.333333333    0.333333333    0.000000000
    0.166666667    0.333333333    0.107874016
    0.000000000    0.333333333    0.215748031
    0.333333333    0.666666667    0.000000000
    0.166666667    0.666666667    0.107874016
    0.000000000    0.666666667    0.215748031
    0.666666667    0.000000000    0.000000000
    0.500000000    0.000000000    0.107874016
    0.333333333    0.000000000    0.215748031
    0.666666667    0.333333333    0.000000000
    0.500000000    0.333333333    0.107874016
    0.333333333    0.333333333    0.215748031
    0.666666667    0.666666667    0.000000000
    0.500000000    0.666666667    0.107874016
    0.333333333    0.666666667    0.215748031
    0.166666667    0.166666667    0.000000000
    0.000000000    0.166666667    0.107874016
    0.833333333    0.166666667    0.215748031
    0.166666667    0.500000000    0.000000000
    0.000000000    0.500000000    0.107874016
    0.833333333    0.500000000    0.215748031
    0.166666667    0.833333333    0.000000000
    0.000000000    0.833333333    0.107874016
    0.833333333    0.833333333    0.215748031
    0.500000000    0.166666667    0.000000000
    0.333333333    0.166666667    0.107874016
    0.166666667    0.166666667    0.215748031
    0.500000000    0.500000000    0.000000000
    0.333333333    0.500000000    0.107874016
    0.166666667    0.500000000    0.215748031
    0.500000000    0.833333333    0.000000000
    0.333333333    0.833333333    0.107874016
    0.166666667    0.833333333    0.215748031
    0.833333333    0.166666667    0.000000000
    0.666666667    0.166666667    0.107874016
    0.500000000    0.166666667    0.215748031
    0.833333333    0.500000000    0.000000000
    0.666666667    0.500000000    0.107874016
    0.500000000    0.500000000    0.215748031
    0.833333333    0.833333333    0.000000000
    0.666666667    0.833333333    0.107874016
    0.500000000    0.833333333    0.215748031
    0.083333333    0.083333333    0.053937008
    0.916666667    0.083333333    0.161811024
    0.750000000    0.083333333    0.269685039
    0.083333333    0.416666667    0.053937008
    0.916666667    0.416666667    0.161811024
    0.750000000    0.416666667    0.269685039
    0.083333333    0.750000000    0.053937008
    0.916666667    0.750000000    0.161811024
    0.750000000    0.750000000    0.269685039
    0.416666667    0.083333333    0.053937008
    0.250000000    0.083333333    0.161811024
    0.083333333    0.083333333    0.269685039
    0.416666667    0.416666667    0.053937008
    0.250000000    0.416666667    0.161811024
    0.083333333    0.416666667    0.269685039
    0.416666667    0.750000000    0.053937008
    0.250000000    0.750000000    0.161811024
    0.083333333    0.750000000    0.269685039
    0.750000000    0.083333333    0.053937008
    0.583333333    0.083333333    0.161811024
    0.416666667    0.083333333    0.269685039
    0.750000000    0.416666667    0.053937008
    0.583333333    0.416666667    0.161811024
    0.416666667    0.416666667    0.269685039
    0.750000000    0.750000000    0.053937008
    0.583333333    0.750000000    0.161811024
    0.416666667    0.750000000    0.269685039
    0.250000000    0.250000000    0.053937008
    0.083333333    0.250000000    0.161811024
    0.916666667    0.250000000    0.269685039
    0.250000000    0.583333333    0.053937008
    0.083333333    0.583333333    0.161811024
    0.916666667    0.583333333    0.269685039
    0.250000000    0.916666667    0.053937008
    0.083333333    0.916666667    0.161811024
    0.916666667    0.916666667    0.269685039
    0.583333333    0.250000000    0.053937008
    0.416666667    0.250000000    0.161811024
    0.250000000    0.250000000    0.269685039
    0.583333333    0.583333333    0.053937008
    0.416666667    0.583333333    0.161811024
    0.250000000    0.583333333    0.269685039
    0.583333333    0.916666667    0.053937008
    0.416666667    0.916666667    0.161811024
    0.250000000    0.916666667    0.269685039
    0.916666667    0.250000000    0.053937008
    0.750000000    0.250000000    0.161811024
    0.583333333    0.250000000    0.269685039
    0.916666667    0.583333333    0.053937008
    0.750000000    0.583333333    0.161811024
    0.583333333    0.583333333    0.269685039
    0.916666667    0.916666667    0.053937008
    0.750000000    0.916666667    0.161811024
    0.583333333    0.916666667    0.269685039
    0.631901840    0.542944785    0.356299213
    0.506901840    0.167944785    0.467716535
    0.381901840    0.792944785    0.579133858
    0.256901840    0.417944785    0.690551181
    0.131901840    0.042944785    0.801968504
    0.006901840    0.667944785    0.913385827
    0.881901840    0.792944785    0.356299213
    0.756901840    0.417944785    0.467716535
    0.631901840    0.042944785    0.579133858
    0.506901840    0.667944785    0.690551181
    0.381901840    0.292944785    0.801968504
    0.256901840    0.917944785    0.913385827
    0.631901840    0.042944785    0.356299213
    0.506901840    0.667944785    0.467716535
    0.381901840    0.292944785    0.579133858
    0.256901840    0.917944785    0.690551181
    0.131901840    0.542944785    0.801968504
    0.006901840    0.167944785    0.913385827
    0.881901840    0.292944785    0.356299213
    0.756901840    0.917944785    0.467716535
    0.631901840    0.542944785    0.579133858
    0.506901840    0.167944785    0.690551181
    0.381901840    0.792944785    0.801968504
    0.256901840    0.417944785    0.913385827
    0.131901840    0.542944785    0.356299213
    0.006901840    0.167944785    0.467716535
    0.881901840    0.792944785    0.579133858
    0.756901840    0.417944785    0.690551181
    0.631901840    0.042944785    0.801968504
    0.506901840    0.667944785    0.913385827
    0.381901840    0.792944785    0.356299213
    0.256901840    0.417944785    0.467716535
    0.131901840    0.042944785    0.579133858
    0.006901840    0.667944785    0.690551181
    0.881901840    0.292944785    0.801968504
    0.756901840    0.917944785    0.913385827
    0.131901840    0.042944785    0.356299213
    0.006901840    0.667944785    0.467716535
    0.881901840    0.292944785    0.579133858
    0.756901840    0.917944785    0.690551181
    0.631901840    0.542944785    0.801968504
    0.506901840    0.167944785    0.913385827
    0.381901840    0.292944785    0.356299213
    0.256901840    0.917944785    0.467716535
    0.131901840    0.542944785    0.579133858
    0.006901840    0.167944785    0.690551181
    0.881901840    0.792944785    0.801968504
    0.756901840    0.417944785    0.913385827
    0.631901840    0.792944785    0.356299213
    0.506901840    0.417944785    0.467716535
    0.381901840    0.042944785    0.579133858
    0.256901840    0.667944785    0.690551181
    0.131901840    0.292944785    0.801968504
    0.006901840    0.917944785    0.913385827
    0.631901840    0.292944785    0.356299213
    0.506901840    0.917944785    0.467716535
    0.381901840    0.542944785    0.579133858
    0.256901840    0.167944785    0.690551181
    0.131901840    0.792944785    0.801968504
    0.006901840    0.417944785    0.913385827
    0.881901840    0.542944785    0.356299213
    0.756901840    0.167944785    0.467716535
    0.631901840    0.792944785    0.579133858
    0.506901840    0.417944785    0.690551181
    0.381901840    0.042944785    0.801968504
    0.256901840    0.667944785    0.913385827
    0.131901840    0.792944785    0.356299213
    0.006901840    0.417944785    0.467716535
    0.881901840    0.042944785    0.579133858
    0.756901840    0.667944785    0.690551181
    0.631901840    0.292944785    0.801968504
    0.506901840    0.917944785    0.913385827
    0.881901840    0.042944785    0.356299213
    0.756901840    0.667944785    0.467716535
    0.631901840    0.292944785    0.579133858
    0.506901840    0.917944785    0.690551181
    0.381901840    0.542944785    0.801968504
    0.256901840    0.167944785    0.913385827
    0.131901840    0.292944785    0.356299213
    0.006901840    0.917944785    0.467716535
    0.881901840    0.542944785    0.579133858
    0.756901840    0.167944785    0.690551181
    0.631901840    0.792944785    0.801968504
    0.506901840    0.417944785    0.913385827
    0.381901840    0.542944785    0.356299213
    0.256901840    0.167944785    0.467716535
    0.131901840    0.792944785    0.579133858
    0.006901840    0.417944785    0.690551181
    0.881901840    0.042944785    0.801968504
    0.756901840    0.667944785    0.913385827
    0.381901840    0.042944785    0.356299213
    0.256901840    0.667944785    0.467716535
    0.131901840    0.292944785    0.579133858
    0.006901840    0.917944785    0.690551181
    0.881901840    0.542944785    0.801968504
    0.756901840    0.167944785    0.913385827
    0.756901840    0.542944785    0.412007874
    0.631901840    0.167944785    0.523425197
    0.506901840    0.792944785    0.634842520
    0.381901840    0.417944785    0.746259843
    0.256901840    0.042944785    0.857677165
    0.006901840    0.792944785    0.412007874
    0.881901840    0.417944785    0.523425197
    0.756901840    0.042944785    0.634842520
    0.631901840    0.667944785    0.746259843
    0.506901840    0.292944785    0.857677165
    0.756901840    0.042944785    0.412007874
    0.631901840    0.667944785    0.523425197
    0.506901840    0.292944785    0.634842520
    0.381901840    0.917944785    0.746259843
    0.256901840    0.542944785    0.857677165
    0.006901840    0.292944785    0.412007874
    0.881901840    0.917944785    0.523425197
    0.756901840    0.542944785    0.634842520
    0.631901840    0.167944785    0.746259843
    0.506901840    0.792944785    0.857677165
    0.256901840    0.542944785    0.412007874
    0.131901840    0.167944785    0.523425197
    0.006901840    0.792944785    0.634842520
    0.881901840    0.417944785    0.746259843
    0.756901840    0.042944785    0.857677165
    0.506901840    0.792944785    0.412007874
    0.381901840    0.417944785    0.523425197
    0.256901840    0.042944785    0.634842520
    0.131901840    0.667944785    0.746259843
    0.006901840    0.292944785    0.857677165
    0.256901840    0.042944785    0.412007874
    0.131901840    0.667944785    0.523425197
    0.006901840    0.292944785    0.634842520
    0.881901840    0.917944785    0.746259843
    0.756901840    0.542944785    0.857677165
    0.506901840    0.292944785    0.412007874
    0.381901840    0.917944785    0.523425197
    0.256901840    0.542944785    0.634842520
    0.131901840    0.167944785    0.746259843
    0.006901840    0.792944785    0.857677165
    0.756901840    0.792944785    0.412007874
    0.631901840    0.417944785    0.523425197
    0.506901840    0.042944785    0.634842520
    0.381901840    0.667944785    0.746259843
    0.256901840    0.292944785    0.857677165
    0.756901840    0.292944785    0.412007874
    0.631901840    0.917944785    0.523425197
    0.506901840    0.542944785    0.634842520
    0.381901840    0.167944785    0.746259843
    0.256901840    0.792944785    0.857677165
    0.006901840    0.542944785    0.412007874
    0.881901840    0.167944785    0.523425197
    0.756901840    0.792944785    0.634842520
    0.631901840    0.417944785    0.746259843
    0.506901840    0.042944785    0.857677165
    0.256901840    0.792944785    0.412007874
    0.131901840    0.417944785    0.523425197
    0.006901840    0.042944785    0.634842520
    0.881901840    0.667944785    0.746259843
    0.756901840    0.292944785    0.857677165
    0.006901840    0.042944785    0.412007874
    0.881901840    0.667944785    0.523425197
    0.756901840    0.292944785    0.634842520
    0.631901840    0.917944785    0.746259843
    0.506901840    0.542944785    0.857677165
    0.256901840    0.292944785    0.412007874
    0.131901840    0.917944785    0.523425197
    0.006901840    0.542944785    0.634842520
    0.881901840    0.167944785    0.746259843
    0.756901840    0.792944785    0.857677165
    0.506901840    0.542944785    0.412007874
    0.381901840    0.167944785    0.523425197
    0.256901840    0.792944785    0.634842520
    0.131901840    0.417944785    0.746259843
    0.006901840    0.042944785    0.857677165
    0.506901840    0.042944785    0.412007874
    0.381901840    0.667944785    0.523425197
    0.256901840    0.292944785    0.634842520
    0.131901840    0.917944785    0.746259843
    0.006901840    0.542944785    0.857677165
