Ge+Sn                                   
   1.00000000000000     
    11.3156003950000006    0.0000000000000000    0.0000000000000000
   -11.3156003950000006   16.0026760099999983    0.0000000000000000
     0.0000000000000000    0.0000000000000000   25.6042194370000011
   Ge   Sn
    96    72
Direct
  0.4690677230000020  0.9896892309999998  0.0000000169999979
  0.0940677079999972  0.8646892309999998  0.0781252089999995
  0.7190676330000016  0.7396892309999998  0.1562504170000025
  0.3440676929999995  0.6146892309999998  0.2343755810000019
  0.9690678119999987  0.4896892909999977  0.3125007749999966
  0.5940676929999995  0.3646892309999998  0.3906259829999996
  0.9690676929999995  0.9896892309999998  0.0000000169999979
  0.5940676929999995  0.8646892309999998  0.0781252089999995
  0.2190676330000016  0.7396892309999998  0.1562504170000025
  0.8440676929999995  0.6146892309999998  0.2343755810000019
  0.4690678119999987  0.4896892909999977  0.3125007749999966
  0.0940676929999995  0.3646892309999998  0.3906259829999996
  0.4690676929999995  0.4896892309999998  0.0000000089999972
  0.0940676999999965  0.3646892309999998  0.0781252089999995
  0.7190675740000003  0.2396892160000021  0.1562504170000025
  0.3440676929999995  0.1146892309999998  0.2343755810000019
  0.9690678119999987  0.9896892309999998  0.3125007749999966
  0.5940676929999995  0.8646892309999998  0.3906259829999996
  0.9690676929999995  0.4896892309999998  0.0000000089999972
  0.5940676929999995  0.3646892309999998  0.0781252089999995
  0.2190675740000003  0.2396892160000021  0.1562504170000025
  0.8440676929999995  0.1146892309999998  0.2343755810000019
  0.4690676929999995  0.9896892309999998  0.3125007749999966
  0.0940675740000003  0.8646892309999998  0.3906259829999996
  0.7190676929999995  0.2396892309999998  0.0000000169999979
  0.3440676629999970  0.1146892309999998  0.0781252089999995
  0.9690675740000003  0.9896892309999998  0.1562504170000025
  0.5940676929999995  0.8646892309999998  0.2343755810000019
  0.2190676929999995  0.7396892309999998  0.3125007749999966
  0.8440675740000003  0.6146892309999998  0.3906259829999996
  0.2190676780000018  0.2396892309999998  0.0000000169999979
  0.8440676929999995  0.1146892309999998  0.0781252089999995
  0.4690676330000016  0.9896892309999998  0.1562504170000025
  0.0940676929999995  0.8646892309999998  0.2343755810000019
  0.7190678119999987  0.7396892309999998  0.3125007749999966
  0.3440676929999995  0.6146892309999998  0.3906259829999996
  0.7190676330000016  0.7396892309999998  0.0000000209999982
  0.3440676629999970  0.6146892309999998  0.0781252239999972
  0.9690675740000003  0.4896892009999974  0.1562504320000002
  0.5940676330000016  0.3646892309999998  0.2343756109999973
  0.2190676929999995  0.2396892459999975  0.3125008049999991
  0.8440676929999995  0.1146892309999998  0.3906259829999996
  0.2190676929999995  0.7396892309999998  0.0000000209999982
  0.8440676929999995  0.6146892309999998  0.0781252239999972
  0.4690675740000003  0.4896892009999974  0.1562504320000002
  0.0940676929999995  0.3646892309999998  0.2343756109999973
  0.7190676929999995  0.2396892459999975  0.3125008049999991
  0.3440675740000003  0.1146892309999998  0.3906259829999996
  0.4690676629999970  0.3646892309999998  0.0000000160000013
  0.0940676929999995  0.2396892309999998  0.0781252159999966
  0.7190676330000016  0.1146892089999980  0.1562504320000002
  0.3440676929999995  0.9896892309999998  0.2343756109999973
  0.9690678119999987  0.8646892309999998  0.3125007749999966
  0.5940676929999995  0.7396892309999998  0.3906259829999996
  0.9690676929999995  0.3646892309999998  0.0000000160000013
  0.5940676929999995  0.2396892309999998  0.0781252159999966
  0.2190676330000016  0.1146892089999980  0.1562504320000002
  0.8440676929999995  0.9896892309999998  0.2343756109999973
  0.4690678119999987  0.8646892309999998  0.3125007749999966
  0.0940676929999995  0.7396892309999998  0.3906259829999996
  0.4690677520000008  0.8646892909999977  0.0000000000000000
  0.0940677370000031  0.7396892909999977  0.0781252089999995
  0.7190676929999995  0.6146892909999977  0.1562504019999977
  0.3440676929999995  0.4896892909999977  0.2343755810000019
  0.9690678119999987  0.3646892909999977  0.3125007749999966
  0.5940676929999995  0.2396892909999977  0.3906259540000008
  0.9690676929999995  0.8646892909999977  0.0000000000000000
  0.5940675740000003  0.7396892909999977  0.0781252089999995
  0.2190675740000003  0.6146892909999977  0.1562504019999977
  0.8440675740000003  0.4896892909999977  0.2343755810000019
  0.4690675740000003  0.3646892909999977  0.3125007749999966
  0.0940676929999995  0.2396892909999977  0.3906259540000008
  0.7190676929999995  0.1146892229999992  0.0000000169999979
  0.3440676629999970  0.9896892309999998  0.0781252089999995
  0.9690676330000016  0.8646892309999998  0.1562504170000025
  0.5940676929999995  0.7396892309999998  0.2343756109999973
  0.2190676929999995  0.6146892309999998  0.3125007749999966
  0.8440676929999995  0.4896892309999998  0.3906259829999996
  0.2190676780000018  0.1146892229999992  0.0000000169999979
  0.8440676929999995  0.9896892309999998  0.0781252089999995
  0.4690676330000016  0.8646892309999998  0.1562504170000025
  0.0940676929999995  0.7396892309999998  0.2343756109999973
  0.7190678119999987  0.6146892309999998  0.3125007749999966
  0.3440676929999995  0.4896892309999998  0.3906259829999996
  0.7190676929999995  0.6146892309999998  0.0000000149999977
  0.3440676929999995  0.4896892309999998  0.0781252159999966
  0.9690676330000016  0.3646892309999998  0.1562504170000025
  0.5940676929999995  0.2396892309999998  0.2343756109999973
  0.2190677520000008  0.1146892530000017  0.3125007749999966
  0.8440675740000003  0.9896892309999998  0.3906259829999996
  0.2190677230000020  0.6146892309999998  0.0000000149999977
  0.8440676929999995  0.4896892309999998  0.0781252159999966
  0.4690676330000016  0.3646892309999998  0.1562504170000025
  0.0940676929999995  0.2396892309999998  0.2343756109999973
  0.7190678119999987  0.1146892530000017  0.3125007749999966
  0.3440676929999995  0.9896892309999998  0.3906259829999996
  0.4405986069999983  0.3513129950000007  0.4712992010000008
  0.6905986069999983  0.6013128760000015  0.5609046820000003
  0.9405987860000025  0.8513131739999977  0.6505102519999966
  0.1905990690000010  0.1013133530000019  0.7401157620000021
  0.4405989649999995  0.3513133530000019  0.8297212720000005
  0.6905990839999987  0.6013133530000019  0.9193268419999967
  0.1072652340000033  0.6846461889999986  0.4712992010000008
  0.3572652940000012  0.9346462489999965  0.5609047410000016
  0.6072655319999996  0.1846463680000028  0.6505102519999966
  0.8572657109999966  0.4346466060000012  0.7401158210000034
  0.1072656959999989  0.6846466659999990  0.8297212720000005
  0.3572658300000029  0.9346467849999982  0.9193268419999967
  0.7739319800000004  0.0179796219999986  0.4712992010000008
  0.0239320989999996  0.2679796219999986  0.5609047410000016
  0.2739322190000024  0.5179797409999978  0.6505102519999966
  0.5239324570000008  0.7679799200000019  0.7401157620000021
  0.7739323380000016  0.0179798599999970  0.8297212720000005
  0.0239326949999992  0.2679800989999990  0.9193268419999967
  0.2739319209999991  0.5179796219999986  0.4712991709999983
  0.5239318610000012  0.7679796809999999  0.5609046820000003
  0.7739321589999975  0.0179798599999970  0.6505102519999966
  0.0239323380000016  0.2679798599999970  0.7401157620000021
  0.2739322190000024  0.5179800989999990  0.8297212720000005
  0.5239324570000008  0.7679802780000031  0.9193268419999967
  0.6072653530000025  0.1846462489999965  0.4712992010000008
  0.8572652340000033  0.4346463680000028  0.5609047410000016
  0.1072654580000005  0.6846464280000006  0.6505102519999966
  0.3572657109999966  0.9346466659999990  0.7401157620000021
  0.6072657109999966  0.1846466060000012  0.8297212720000005
  0.8572655919999974  0.4346468450000032  0.9193268419999967
  0.9405987259999975  0.8513128760000015  0.4712992010000008
  0.1905988310000026  0.1013129950000007  0.5609047410000016
  0.4405989649999995  0.3513131139999999  0.6505102519999966
  0.6905990839999987  0.6013133530000019  0.7401157620000021
  0.9405989649999995  0.8513132929999969  0.8297212720000005
  0.1905993069999994  0.1013135910000003  0.9193268419999967
  0.1905986220000031  0.3513128760000015  0.4712991709999983
  0.4405986670000033  0.6013128760000015  0.5609047410000016
  0.6905987259999975  0.8513130549999985  0.6505102519999966
  0.9405989050000017  0.1013131139999999  0.7401157620000021
  0.1905989500000018  0.3513131139999999  0.8297212720000005
  0.4405989649999995  0.6013133530000019  0.9193268419999967
  0.5239319800000004  0.0179796219999986  0.4712992010000008
  0.7739319800000004  0.2679796219999986  0.5609047410000016
  0.0239320989999996  0.5179797409999978  0.6505102519999966
  0.2739323380000016  0.7679798010000027  0.7401157620000021
  0.5239322190000024  0.0179798599999970  0.8297212720000005
  0.7739323380000016  0.2679800989999990  0.9193268419999967
  0.8572652940000012  0.6846461889999986  0.4712992010000008
  0.1072653379999977  0.9346462489999965  0.5609047410000016
  0.3572654720000017  0.1846463680000028  0.6505102519999966
  0.6072657109999966  0.4346466060000012  0.7401158210000034
  0.8572658300000029  0.6846466659999990  0.8297212720000005
  0.1072658149999981  0.9346466659999990  0.9193268419999967
  0.3572652340000033  0.1846463680000028  0.4712992010000008
  0.6072653530000025  0.4346462489999965  0.5609047410000016
  0.8572654130000004  0.6846464280000006  0.6505102519999966
  0.1072655769999997  0.9346465469999998  0.7401158210000034
  0.3572655919999974  0.1846466060000012  0.8297212720000005
  0.6072657109999966  0.4346468450000032  0.9193267819999988
  0.0239318610000012  0.5179796219999986  0.4712992010000008
  0.2739320989999996  0.7679796809999999  0.5609047410000016
  0.5239322190000024  0.0179798599999970  0.6505102519999966
  0.7739324570000008  0.2679798599999970  0.7401158210000034
  0.0239323380000016  0.5179798599999970  0.8297212720000005
  0.2739328150000020  0.7679802780000031  0.9193267819999988
  0.6905986670000033  0.8513129350000028  0.4712992010000008
  0.9405986069999983  0.1013128760000015  0.5609047410000016
  0.1905987109999998  0.3513131139999999  0.6505102519999966
  0.4405988449999967  0.6013132329999991  0.7401157620000021
  0.6905988449999967  0.8513132929999969  0.8297212720000005
  0.9405988449999967  0.1013133530000019  0.9193268419999967
 
  0.00000000E+00  0.00000000E+00  0.00000000E+00
  0.00000000E+00  0.00000000E+00  0.00000000E+00
  0.00000000E+00  0.00000000E+00  0.00000000E+00
  0.00000000E+00  0.00000000E+00  0.00000000E+00
  0.00000000E+00  0.00000000E+00  0.00000000E+00
  0.00000000E+00  0.00000000E+00  0.00000000E+00
  0.00000000E+00  0.00000000E+00  0.00000000E+00
  0.00000000E+00  0.00000000E+00  0.00000000E+00
  0.00000000E+00  0.00000000E+00  0.00000000E+00
  0.00000000E+00  0.00000000E+00  0.00000000E+00
  0.00000000E+00  0.00000000E+00  0.00000000E+00
  0.00000000E+00  0.00000000E+00  0.00000000E+00
  0.00000000E+00  0.00000000E+00  0.00000000E+00
  0.00000000E+00  0.00000000E+00  0.00000000E+00
  0.00000000E+00  0.00000000E+00  0.00000000E+00
  0.00000000E+00  0.00000000E+00  0.00000000E+00
  0.00000000E+00  0.00000000E+00  0.00000000E+00
  0.00000000E+00  0.00000000E+00  0.00000000E+00
  0.00000000E+00  0.00000000E+00  0.00000000E+00
  0.00000000E+00  0.00000000E+00  0.00000000E+00
  0.00000000E+00  0.00000000E+00  0.00000000E+00
  0.00000000E+00  0.00000000E+00  0.00000000E+00
  0.00000000E+00  0.00000000E+00  0.00000000E+00
  0.00000000E+00  0.00000000E+00  0.00000000E+00
  0.00000000E+00  0.00000000E+00  0.00000000E+00
  0.00000000E+00  0.00000000E+00  0.00000000E+00
  0.00000000E+00  0.00000000E+00  0.00000000E+00
  0.00000000E+00  0.00000000E+00  0.00000000E+00
  0.00000000E+00  0.00000000E+00  0.00000000E+00
  0.00000000E+00  0.00000000E+00  0.00000000E+00
  0.00000000E+00  0.00000000E+00  0.00000000E+00
  0.00000000E+00  0.00000000E+00  0.00000000E+00
  0.00000000E+00  0.00000000E+00  0.00000000E+00
  0.00000000E+00  0.00000000E+00  0.00000000E+00
  0.00000000E+00  0.00000000E+00  0.00000000E+00
  0.00000000E+00  0.00000000E+00  0.00000000E+00
  0.00000000E+00  0.00000000E+00  0.00000000E+00
  0.00000000E+00  0.00000000E+00  0.00000000E+00
  0.00000000E+00  0.00000000E+00  0.00000000E+00
  0.00000000E+00  0.00000000E+00  0.00000000E+00
  0.00000000E+00  0.00000000E+00  0.00000000E+00
  0.00000000E+00  0.00000000E+00  0.00000000E+00
  0.00000000E+00  0.00000000E+00  0.00000000E+00
  0.00000000E+00  0.00000000E+00  0.00000000E+00
  0.00000000E+00  0.00000000E+00  0.00000000E+00
  0.00000000E+00  0.00000000E+00  0.00000000E+00
  0.00000000E+00  0.00000000E+00  0.00000000E+00
  0.00000000E+00  0.00000000E+00  0.00000000E+00
  0.00000000E+00  0.00000000E+00  0.00000000E+00
  0.00000000E+00  0.00000000E+00  0.00000000E+00
  0.00000000E+00  0.00000000E+00  0.00000000E+00
  0.00000000E+00  0.00000000E+00  0.00000000E+00
  0.00000000E+00  0.00000000E+00  0.00000000E+00
  0.00000000E+00  0.00000000E+00  0.00000000E+00
  0.00000000E+00  0.00000000E+00  0.00000000E+00
  0.00000000E+00  0.00000000E+00  0.00000000E+00
  0.00000000E+00  0.00000000E+00  0.00000000E+00
  0.00000000E+00  0.00000000E+00  0.00000000E+00
  0.00000000E+00  0.00000000E+00  0.00000000E+00
  0.00000000E+00  0.00000000E+00  0.00000000E+00
  0.00000000E+00  0.00000000E+00  0.00000000E+00
  0.00000000E+00  0.00000000E+00  0.00000000E+00
  0.00000000E+00  0.00000000E+00  0.00000000E+00
  0.00000000E+00  0.00000000E+00  0.00000000E+00
  0.00000000E+00  0.00000000E+00  0.00000000E+00
  0.00000000E+00  0.00000000E+00  0.00000000E+00
  0.00000000E+00  0.00000000E+00  0.00000000E+00
  0.00000000E+00  0.00000000E+00  0.00000000E+00
  0.00000000E+00  0.00000000E+00  0.00000000E+00
  0.00000000E+00  0.00000000E+00  0.00000000E+00
  0.00000000E+00  0.00000000E+00  0.00000000E+00
  0.00000000E+00  0.00000000E+00  0.00000000E+00
  0.00000000E+00  0.00000000E+00  0.00000000E+00
  0.00000000E+00  0.00000000E+00  0.00000000E+00
  0.00000000E+00  0.00000000E+00  0.00000000E+00
  0.00000000E+00  0.00000000E+00  0.00000000E+00
  0.00000000E+00  0.00000000E+00  0.00000000E+00
  0.00000000E+00  0.00000000E+00  0.00000000E+00
  0.00000000E+00  0.00000000E+00  0.00000000E+00
  0.00000000E+00  0.00000000E+00  0.00000000E+00
  0.00000000E+00  0.00000000E+00  0.00000000E+00
  0.00000000E+00  0.00000000E+00  0.00000000E+00
  0.00000000E+00  0.00000000E+00  0.00000000E+00
  0.00000000E+00  0.00000000E+00  0.00000000E+00
  0.00000000E+00  0.00000000E+00  0.00000000E+00
  0.00000000E+00  0.00000000E+00  0.00000000E+00
  0.00000000E+00  0.00000000E+00  0.00000000E+00
  0.00000000E+00  0.00000000E+00  0.00000000E+00
  0.00000000E+00  0.00000000E+00  0.00000000E+00
  0.00000000E+00  0.00000000E+00  0.00000000E+00
  0.00000000E+00  0.00000000E+00  0.00000000E+00
  0.00000000E+00  0.00000000E+00  0.00000000E+00
  0.00000000E+00  0.00000000E+00  0.00000000E+00
  0.00000000E+00  0.00000000E+00  0.00000000E+00
  0.00000000E+00  0.00000000E+00  0.00000000E+00
  0.00000000E+00  0.00000000E+00  0.00000000E+00
  0.00000000E+00  0.00000000E+00  0.00000000E+00
  0.00000000E+00  0.00000000E+00  0.00000000E+00
  0.00000000E+00  0.00000000E+00  0.00000000E+00
  0.00000000E+00  0.00000000E+00  0.00000000E+00
  0.00000000E+00  0.00000000E+00  0.00000000E+00
  0.00000000E+00  0.00000000E+00  0.00000000E+00
  0.00000000E+00  0.00000000E+00  0.00000000E+00
  0.00000000E+00  0.00000000E+00  0.00000000E+00
  0.00000000E+00  0.00000000E+00  0.00000000E+00
  0.00000000E+00  0.00000000E+00  0.00000000E+00
  0.00000000E+00  0.00000000E+00  0.00000000E+00
  0.00000000E+00  0.00000000E+00  0.00000000E+00
  0.00000000E+00  0.00000000E+00  0.00000000E+00
  0.00000000E+00  0.00000000E+00  0.00000000E+00
  0.00000000E+00  0.00000000E+00  0.00000000E+00
  0.00000000E+00  0.00000000E+00  0.00000000E+00
  0.00000000E+00  0.00000000E+00  0.00000000E+00
  0.00000000E+00  0.00000000E+00  0.00000000E+00
  0.00000000E+00  0.00000000E+00  0.00000000E+00
  0.00000000E+00  0.00000000E+00  0.00000000E+00
  0.00000000E+00  0.00000000E+00  0.00000000E+00
  0.00000000E+00  0.00000000E+00  0.00000000E+00
  0.00000000E+00  0.00000000E+00  0.00000000E+00
  0.00000000E+00  0.00000000E+00  0.00000000E+00
  0.00000000E+00  0.00000000E+00  0.00000000E+00
  0.00000000E+00  0.00000000E+00  0.00000000E+00
  0.00000000E+00  0.00000000E+00  0.00000000E+00
  0.00000000E+00  0.00000000E+00  0.00000000E+00
  0.00000000E+00  0.00000000E+00  0.00000000E+00
  0.00000000E+00  0.00000000E+00  0.00000000E+00
  0.00000000E+00  0.00000000E+00  0.00000000E+00
  0.00000000E+00  0.00000000E+00  0.00000000E+00
  0.00000000E+00  0.00000000E+00  0.00000000E+00
  0.00000000E+00  0.00000000E+00  0.00000000E+00
  0.00000000E+00  0.00000000E+00  0.00000000E+00
  0.00000000E+00  0.00000000E+00  0.00000000E+00
  0.00000000E+00  0.00000000E+00  0.00000000E+00
  0.00000000E+00  0.00000000E+00  0.00000000E+00
  0.00000000E+00  0.00000000E+00  0.00000000E+00
  0.00000000E+00  0.00000000E+00  0.00000000E+00
  0.00000000E+00  0.00000000E+00  0.00000000E+00
  0.00000000E+00  0.00000000E+00  0.00000000E+00
  0.00000000E+00  0.00000000E+00  0.00000000E+00
  0.00000000E+00  0.00000000E+00  0.00000000E+00
  0.00000000E+00  0.00000000E+00  0.00000000E+00
  0.00000000E+00  0.00000000E+00  0.00000000E+00
  0.00000000E+00  0.00000000E+00  0.00000000E+00
  0.00000000E+00  0.00000000E+00  0.00000000E+00
  0.00000000E+00  0.00000000E+00  0.00000000E+00
  0.00000000E+00  0.00000000E+00  0.00000000E+00
  0.00000000E+00  0.00000000E+00  0.00000000E+00
  0.00000000E+00  0.00000000E+00  0.00000000E+00
  0.00000000E+00  0.00000000E+00  0.00000000E+00
  0.00000000E+00  0.00000000E+00  0.00000000E+00
  0.00000000E+00  0.00000000E+00  0.00000000E+00
  0.00000000E+00  0.00000000E+00  0.00000000E+00
  0.00000000E+00  0.00000000E+00  0.00000000E+00
  0.00000000E+00  0.00000000E+00  0.00000000E+00
  0.00000000E+00  0.00000000E+00  0.00000000E+00
  0.00000000E+00  0.00000000E+00  0.00000000E+00
  0.00000000E+00  0.00000000E+00  0.00000000E+00
  0.00000000E+00  0.00000000E+00  0.00000000E+00
  0.00000000E+00  0.00000000E+00  0.00000000E+00
  0.00000000E+00  0.00000000E+00  0.00000000E+00
  0.00000000E+00  0.00000000E+00  0.00000000E+00
  0.00000000E+00  0.00000000E+00  0.00000000E+00
  0.00000000E+00  0.00000000E+00  0.00000000E+00
  0.00000000E+00  0.00000000E+00  0.00000000E+00
  0.00000000E+00  0.00000000E+00  0.00000000E+00
  0.00000000E+00  0.00000000E+00  0.00000000E+00
  0.00000000E+00  0.00000000E+00  0.00000000E+00
  0.00000000E+00  0.00000000E+00  0.00000000E+00
