Sn
 1.0000000000000000
     6.4892000000000003    0.0000000000000000    0.0000000000000000
     0.0000000000000000   14.5102923195916347    0.0000000000000000
     0.0000000000000000    0.0000000000000000   62.4909530953670327
 Sn 
  64
Direct
  0.0000000000000000  0.0000000000000000  0.3200463268575554
  0.2499999999999999  0.0499999999999996  0.3548760700464156
  0.0000000000000000  0.6999999999999998  0.3432661556501289
  0.2499999999999999  0.3499999999999999  0.3316562412538421
  0.4999999999999996  0.5000000000000000  0.3200463268575554
  0.7499999999999992  0.5499999999999999  0.3548760700464156
  0.4999999999999996  0.1999999999999999  0.3432661556501289
  0.7499999999999992  0.8499999999999998  0.3316562412538421
  0.0000000000000000  0.4000000000000000  0.3664859844427024
  0.2499999999999999  0.4499999999999997  0.4013157276315626
  0.0000000000000000  0.0999999999999999  0.3897058132352759
  0.2499999999999999  0.7499999999999999  0.3780958988389891
  0.4999999999999996  0.8999999999999999  0.3664859844427024
  0.7499999999999992  0.9500000000000000  0.4013157276315626
  0.4999999999999996  0.5999999999999999  0.3897058132352759
  0.7499999999999992  0.2499999999999995  0.3780958988389891
  0.0000000000000000  0.7999999999999999  0.4129256420278494
  0.2499999999999999  0.8499999999999996  0.4477553852167096
  0.0000000000000000  0.5000000000000000  0.4361454708204229
  0.2499999999999999  0.1499999999999997  0.4245355564241360
  0.4999999999999996  0.3000000000000000  0.4129256420278494
  0.7499999999999992  0.3499999999999996  0.4477553852167097
  0.4999999999999996  0.9999999999999999  0.4361454708204229
  0.7499999999999992  0.6499999999999997  0.4245355564241361
  0.0000000000000000  0.2000000000000000  0.4593652996129964
  0.2499999999999999  0.2500000000000000  0.4941950428018566
  0.0000000000000000  0.8999999999999999  0.4825851284055698
  0.2499999999999999  0.5499999999999998  0.4709752140092831
  0.4999999999999996  0.7000000000000000  0.4593652996129963
  0.7499999999999992  0.7499999999999998  0.4941950428018566
  0.4999999999999996  0.3999999999999999  0.4825851284055699
  0.7499999999999992  0.0499999999999998  0.4709752140092831
  0.0000000000000000  0.5999999999999999  0.5058049571981433
  0.2499999999999999  0.6499999999999999  0.5406347003870037
  0.0000000000000000  0.2999999999999998  0.5290247859907168
  0.2499999999999999  0.9499999999999997  0.5174148715944300
  0.4999999999999996  0.0999999999999996  0.5058049571981433
  0.7499999999999992  0.1499999999999999  0.5406347003870037
  0.4999999999999996  0.7999999999999998  0.5290247859907168
  0.7499999999999992  0.4499999999999997  0.5174148715944301
  0.0000000000000000  0.9999999999999998  0.5522446147832903
  0.2499999999999999  0.0499999999999989  0.5870743579721506
  0.0000000000000000  0.6999999999999993  0.5754644435758639
  0.2499999999999999  0.3499999999999996  0.5638545291795771
  0.4999999999999996  0.4999999999999991  0.5522446147832903
  0.7499999999999992  0.5499999999999998  0.5870743579721506
  0.4999999999999996  0.1999999999999993  0.5754644435758638
  0.7499999999999992  0.8499999999999996  0.5638545291795771
  0.0000000000000000  0.3999999999999999  0.5986842723684374
  0.2499999999999999  0.4499999999999997  0.6335140155572975
  0.0000000000000000  0.0999999999999992  0.6219041011610108
  0.2499999999999999  0.7500000000000000  0.6102941867647241
  0.4999999999999996  0.8999999999999994  0.5986842723684375
  0.7499999999999992  0.9499999999999997  0.6335140155572975
  0.4999999999999996  0.5999999999999996  0.6219041011610108
  0.7499999999999992  0.2500000000000000  0.6102941867647241
  0.0000000000000000  0.7999999999999998  0.6451239299535844
  0.2499999999999999  0.8500000000000001  0.6799536731424447
  0.0000000000000000  0.4999999999999996  0.6683437587461579
  0.2499999999999999  0.1499999999999999  0.6567338443498710
  0.4999999999999996  0.2999999999999994  0.6451239299535844
  0.7499999999999992  0.3500000000000001  0.6799536731424447
  0.4999999999999996  0.0000000000000000  0.6683437587461578
  0.7499999999999992  0.6499999999999999  0.6567338443498710
