Sn+Ge
    1.000000000
   12.978400230    0.000000000    0.000000000
    0.000000000   12.978400230    0.000000000
    0.000000000    0.000000000   19.583751678
Sn  Ge 
48     60
Direct
    0.992552638    0.499999970    0.000000000
    0.742552638    0.499999970    0.165678188
    0.492552757    0.499999970    0.331356287
    0.992552638    0.000000000    0.000000000
    0.742552638    0.000000000    0.165678188
    0.492552757    0.000000000    0.331356287
    0.492552608    0.499999970    0.000000000
    0.242552638    0.499999970    0.165678188
    0.992552698    0.499999970    0.331356287
    0.492552608    0.000000000    0.000000000
    0.242552638    0.000000000    0.165678188
    0.992552698    0.000000000    0.331356287
    0.117552646    0.874999940    0.082839087
    0.867552757    0.874999940    0.248517260
    0.617552698    0.874999940    0.414195418
    0.117552646    0.374999970    0.082839087
    0.867552757    0.374999970    0.248517260
    0.617552698    0.374999970    0.414195418
    0.617552578    0.874999940    0.082839087
    0.367552698    0.874999940    0.248517260
    0.117552668    0.874999940    0.414195418
    0.617552578    0.374999970    0.082839087
    0.367552698    0.374999970    0.248517260
    0.117552668    0.374999970    0.414195418
    0.242552638    0.749999940    0.000000000
    0.992552638    0.749999940    0.165678188
    0.742552757    0.749999940    0.331356287
    0.242552638    0.249999985    0.000000000
    0.992552638    0.249999985    0.165678188
    0.742552757    0.249999985    0.331356287
    0.742552578    0.749999940    0.000000000
    0.492552608    0.749999940    0.165678188
    0.242552698    0.749999940    0.331356287
    0.742552578    0.249999985    0.000000000
    0.492552608    0.249999985    0.165678188
    0.242552698    0.249999985    0.331356287
    0.367552638    0.624999940    0.082839087
    0.117552713    0.624999940    0.248517260
    0.867552698    0.624999940    0.414195418
    0.367552638    0.124999993    0.082839087
    0.117552713    0.124999993    0.248517260
    0.867552698    0.124999993    0.414195418
    0.867552638    0.624999940    0.082839087
    0.617552757    0.624999940    0.248517260
    0.367552698    0.624999940    0.414195418
    0.867552638    0.124999993    0.082839087
    0.617552757    0.124999993    0.248517260
    0.367552698    0.124999993    0.414195418
    0.717197657    0.327447712    0.526533484
    0.517197609    0.427447706    0.670984805
    0.317197561    0.527447701    0.815436304
    0.917197585    0.727447689    0.526533484
    0.717197537    0.827447653    0.670984805
    0.517197490    0.927447736    0.815436304
    0.117197633    0.127447695    0.526533484
    0.917197585    0.227447718    0.670984805
    0.717197537    0.327447742    0.815436304
    0.317197621    0.527447701    0.526533484
    0.117197514    0.627447665    0.670984805
    0.917197526    0.727447689    0.815436304
    0.517197609    0.927447677    0.526533484
    0.317197561    0.027447701    0.670984805
    0.117197514    0.127447665    0.815436304
    0.067197561    0.277447701    0.598759174
    0.867197514    0.377447724    0.743210614
    0.667197406    0.477447748    0.887661994
    0.667197645    0.477447689    0.598759174
    0.467197567    0.577447772    0.743210614
    0.267197490    0.677447736    0.887661994
    0.867197633    0.877447665    0.598759174
    0.667197585    0.977447689    0.743210614
    0.467197537    0.077447653    0.887661994
    0.267197609    0.677447677    0.598759174
    0.067197561    0.777447760    0.743210614
    0.867197454    0.877447784    0.887661994
    0.467197597    0.077447653    0.598759174
    0.267197549    0.177447736    0.743210614
    0.067197561    0.277447760    0.887661994
    0.017197490    0.427447647    0.526533484
    0.817197502    0.527447641    0.670984805
    0.617197394    0.627447665    0.815436304
    0.417197615    0.227447703    0.526533484
    0.217197597    0.327447712    0.670984805
    0.017197609    0.427447736    0.815436304
    0.617197633    0.627447724    0.526533484
    0.417197585    0.727447748    0.670984805
    0.217197537    0.827447772    0.815436304
    0.817197561    0.027447701    0.526533484
    0.617197514    0.127447784    0.670984805
    0.417197496    0.227447808    0.815436304
    0.217197627    0.827447712    0.526533484
    0.017197609    0.927447736    0.670984805
    0.817197561    0.027447701    0.815436304
    0.767197609    0.177447721    0.598759174
    0.567197561    0.277447760    0.743210614
    0.367197514    0.377447784    0.887661994
    0.967197716    0.577447712    0.598759174
    0.767197669    0.677447736    0.743210614
    0.567197561    0.777447760    0.887661994
    0.367197633    0.377447695    0.598759174
    0.167197585    0.477447748    0.743210614
    0.967197537    0.577447772    0.887661994
    0.567197621    0.777447701    0.598759174
    0.367197573    0.877447724    0.743210614
    0.167197511    0.977447748    0.887661994
    0.167197615    0.977447689    0.598759174
    0.967197537    0.077447653    0.743210614
    0.767197490    0.177447736    0.887661994
