Ge+Sn
    1.000000000
   16.002676010    0.000000000    0.000000000
  -16.002676010   11.315601349    0.000000000
    0.000000000    0.000000000   21.473068237
Ge  Sn 
96     72
Direct
    0.969067693    0.479378492    0.000000009
    0.594067693    0.229378477    0.093155518
    0.219067633    0.979378402    0.186311066
    0.844067693    0.729378462    0.279466540
    0.469067812    0.479378521    0.372622073
    0.094067693    0.229378462    0.465777546
    0.969067693    0.979378462    0.000000014
    0.594067693    0.729378462    0.093155526
    0.219067633    0.479378402    0.186311051
    0.844067693    0.229378462    0.279466540
    0.469067812    0.979378581    0.372621983
    0.094067693    0.729378462    0.465777546
    0.469067723    0.479378492    0.000000014
    0.094067708    0.229378477    0.093155526
    0.719067633    0.979378402    0.186311051
    0.344067752    0.729378462    0.279466540
    0.969067812    0.479378521    0.372621983
    0.594067693    0.229378462    0.465777546
    0.469067693    0.979378462    0.000000002
    0.094067700    0.729378462    0.093155518
    0.719067633    0.479378402    0.186311051
    0.344067693    0.229378462    0.279466540
    0.969067812    0.979378581    0.372622073
    0.594067693    0.729378462    0.465777516
    0.219067708    0.479378492    0.000000015
    0.844067693    0.229378477    0.093155533
    0.469067633    0.979378402    0.186311051
    0.094067693    0.729378462    0.279466540
    0.719067812    0.479378521    0.372622073
    0.344067693    0.229378462    0.465777516
    0.219067678    0.979378462    0.000000011
    0.844067693    0.729378462    0.093155526
    0.469067633    0.479378402    0.186311051
    0.094067693    0.229378462    0.279466540
    0.719067812    0.979378581    0.372622073
    0.344067693    0.729378462    0.465777546
    0.719067693    0.479378492    0.000000011
    0.344067723    0.229378477    0.093155526
    0.969067633    0.979378402    0.186311051
    0.594067693    0.729378462    0.279466540
    0.219067752    0.479378521    0.372622073
    0.844067693    0.229378462    0.465777516
    0.719067633    0.979378462    0.000000016
    0.344067693    0.729378462    0.093155541
    0.969067633    0.479378402    0.186311051
    0.594067693    0.229378462    0.279466540
    0.219067872    0.979378581    0.372622102
    0.844067693    0.729378462    0.465777546
    0.219067737    0.854378521    0.000000002
    0.844067693    0.604378462    0.093155526
    0.469067693    0.354378462    0.186311051
    0.094067752    0.104378499    0.279466540
    0.719067812    0.854378521    0.372621983
    0.344067693    0.604378521    0.465777546
    0.219067678    0.354378462    0.000000014
    0.844067693    0.104378462    0.093155518
    0.469067633    0.854378402    0.186311051
    0.094067633    0.604378462    0.279466540
    0.719067693    0.354378462    0.372622073
    0.344067574    0.104378402    0.465777516
    0.719067752    0.854378521    0.000000014
    0.344067663    0.604378462    0.093155526
    0.969067633    0.354378462    0.186311036
    0.594067693    0.104378499    0.279466540
    0.219067812    0.854378521    0.372622073
    0.844067693    0.604378521    0.465777516
    0.719067693    0.354378462    0.000000010
    0.344067693    0.104378462    0.093155526
    0.969067633    0.854378402    0.186311066
    0.594067693    0.604378462    0.279466540
    0.219067752    0.354378462    0.372622073
    0.844067574    0.104378402    0.465777546
    0.969067693    0.854378521    0.000000020
    0.594067633    0.604378462    0.093155541
    0.219067633    0.354378462    0.186311051
    0.844067574    0.104378499    0.279466569
    0.469067812    0.854378521    0.372622102
    0.094067693    0.604378521    0.465777546
    0.969067693    0.354378462    0.000000000
    0.594067693    0.104378462    0.093155526
    0.219067633    0.854378402    0.186311051
    0.844067693    0.604378462    0.279466540
    0.469067693    0.354378462    0.372621983
    0.094067693    0.104378402    0.465777516
    0.469067752    0.854378521    0.000000000
    0.094067685    0.604378462    0.093155526
    0.719067693    0.354378462    0.186311051
    0.344067752    0.104378499    0.279466540
    0.969067812    0.854378521    0.372621983
    0.594067812    0.604378521    0.465777516
    0.469067693    0.354378462    0.000000012
    0.094067693    0.104378462    0.093155526
    0.719067633    0.854378402    0.186311036
    0.344067693    0.604378462    0.279466540
    0.969067693    0.354378462    0.372622073
    0.594067693    0.104378402    0.465777516
    0.982020497    0.666666687    0.465777546
    0.732020497    0.666666687    0.572621942
    0.482020378    0.666666508    0.679466605
    0.232020319    0.666666567    0.786311030
    0.982020259    0.666666389    0.893155456
    0.732020259    0.666666389    1.000000000
    0.982020497    0.333333343    0.465777546
    0.732020497    0.333333313    0.572621942
    0.482020378    0.333333194    0.679466605
    0.232020319    0.333333135    0.786311030
    0.982020259    0.333333015    0.893155456
    0.732020259    0.333333015    1.000000000
    0.982020497    0.000000000    0.465777546
    0.732020497    0.999999940    0.572621942
    0.482020378    0.999999821    0.679466605
    0.232020319    0.999999821    0.786311030
    0.982020259    0.999999702    0.893155456
    0.732020259    0.999999583    1.000000000
    0.482020497    0.666666687    0.465777546
    0.232020482    0.666666687    0.572621942
    0.982020378    0.666666567    0.679466605
    0.732020378    0.666666508    0.786311030
    0.482020319    0.666666329    0.893155456
    0.232020259    0.666666329    1.000000000
    0.482020497    0.333333343    0.465777546
    0.232020482    0.333333284    0.572621942
    0.982020378    0.333333194    0.679466605
    0.732020378    0.333333164    0.786311030
    0.482020319    0.333333075    0.893155456
    0.232020259    0.333332956    1.000000000
    0.482020497    0.000000000    0.465777546
    0.232020482    0.999999940    0.572621942
    0.982020378    0.999999881    0.679466605
    0.732020378    0.999999821    0.786311030
    0.482020319    0.999999702    0.893155456
    0.232020259    0.999999642    1.000000000
    0.732020497    0.916666746    0.465777546
    0.482020468    0.916666687    0.572622061
    0.232020393    0.916666627    0.679466605
    0.982020319    0.916666567    0.786311030
    0.732020259    0.916666389    0.893155575
    0.482020259    0.916666448    1.000000000
    0.732020497    0.583333373    0.465777546
    0.482020468    0.583333313    0.572622061
    0.232020393    0.583333194    0.679466605
    0.982020319    0.583333194    0.786311030
    0.732020259    0.583333135    0.893155575
    0.482020259    0.583333075    1.000000000
    0.732020497    0.250000000    0.465777546
    0.482020468    0.249999925    0.572622061
    0.232020393    0.249999866    0.679466605
    0.982020319    0.249999791    0.786311030
    0.732020259    0.249999732    0.893155575
    0.482020259    0.249999672    1.000000000
    0.232020497    0.916666746    0.465777546
    0.982020497    0.916666687    0.572622061
    0.732020378    0.916666567    0.679466605
    0.482020259    0.916666627    0.786311030
    0.232020319    0.916666448    0.893155456
    0.982020259    0.916666508    1.000000000
    0.232020497    0.583333373    0.465777546
    0.982020497    0.583333313    0.572622061
    0.732020378    0.583333194    0.679466605
    0.482020259    0.583333135    0.786311030
    0.232020319    0.583333075    0.893155456
    0.982020259    0.583333135    1.000000000
    0.232020497    0.250000030    0.465777546
    0.982020497    0.249999970    0.572622061
    0.732020378    0.249999851    0.679466605
    0.482020259    0.249999732    0.786311030
    0.232020319    0.249999791    0.893155456
    0.982020259    0.249999732    1.000000000
