Ge+Si
    1.000000000
   16.002676010    0.000000000    0.000000000
    0.000000000   16.973402023    0.000000000
    0.000000000    0.000000000   10.600553513
Ge  Si 
48     72
Direct
    0.913237751    0.910024285    0.000000024
    0.538237751    0.521135390    0.062900461
    0.163237810    0.132246494    0.125800863
    0.788237810    0.743357420    0.188701361
    0.413237810    0.354468584    0.251601785
    0.038237691    0.965579510    0.314502209
    0.413237691    0.910024285    0.000000027
    0.038237717    0.521135330    0.062900461
    0.663237751    0.132246435    0.125800863
    0.288237691    0.743357420    0.188701302
    0.913237810    0.354468465    0.251601785
    0.538237810    0.965579748    0.314502329
    0.038237728    0.660024226    0.000000024
    0.663237751    0.271135300    0.062900439
    0.288237810    0.882246375    0.125800878
    0.913237810    0.493357420    0.188701302
    0.538237691    0.104468405    0.251601756
    0.163237691    0.715579629    0.314502209
    0.538237691    0.660024226    0.000000024
    0.163237706    0.271135300    0.062900439
    0.788237751    0.882246375    0.125800878
    0.413237691    0.493357480    0.188701302
    0.038237751    0.104468465    0.251601815
    0.663237691    0.715579629    0.314502239
    0.288237751    0.660024226    0.000000024
    0.913237751    0.271135300    0.062900439
    0.538237810    0.882246375    0.125800878
    0.163237810    0.493357420    0.188701302
    0.788237810    0.104468465    0.251601756
    0.413237810    0.715579510    0.314502209
    0.788237691    0.660024166    0.000000000
    0.413237721    0.271135300    0.062900439
    0.038237784    0.882246375    0.125800878
    0.663237751    0.493357420    0.188701287
    0.288237691    0.104468465    0.251601756
    0.913237810    0.715579629    0.314502239
    0.163237721    0.910024285    0.000000024
    0.788237691    0.521135330    0.062900461
    0.413237810    0.132246494    0.125800908
    0.038237751    0.743357420    0.188701361
    0.663237810    0.354468584    0.251601726
    0.288237691    0.965579510    0.314502209
    0.663237691    0.910024285    0.000000034
    0.288237751    0.521135330    0.062900439
    0.913237751    0.132246494    0.125800908
    0.538237810    0.743357420    0.188701361
    0.163237691    0.354468465    0.251601726
    0.788237810    0.965579748    0.314502209
    0.419687092    0.619104147    0.859768391
    0.253020644    0.869103312    0.454733998
    0.086353898    0.219103456    0.535740912
    0.919687271    0.569103599    0.616747677
    0.753020465    0.919103920    0.697754622
    0.586353719    0.269104004    0.778761506
    0.753020465    0.619104147    0.859768391
    0.586354017    0.869103312    0.454733998
    0.419687271    0.219103456    0.535740912
    0.253020525    0.569103599    0.616747677
    0.086353779    0.919103920    0.697754622
    0.919687033    0.269104004    0.778761506
    0.086353779    0.619104147    0.859768391
    0.919687331    0.869103312    0.454733998
    0.753020644    0.219103456    0.535740912
    0.586353958    0.569103599    0.616747677
    0.419687152    0.919103920    0.697754622
    0.253020406    0.269104004    0.778761506
    0.503020406    0.369104147    0.859768271
    0.336353958    0.619103432    0.454733878
    0.169687271    0.969103634    0.535740852
    0.003020525    0.319103956    0.616747618
    0.836353779    0.669104099    0.697754562
    0.669687152    0.019104004    0.778761387
    0.836353779    0.369104147    0.859768271
    0.669687271    0.619103432    0.454733878
    0.503020585    0.969103634    0.535740852
    0.336353898    0.319103956    0.616747618
    0.169687152    0.669104099    0.697754562
    0.003020525    0.019104004    0.778761387
    0.169687033    0.369104147    0.859768271
    0.003020525    0.619103432    0.454733878
    0.836353898    0.969103634    0.535740852
    0.669687152    0.319103956    0.616747618
    0.503020406    0.669104099    0.697754562
    0.336353779    0.019104004    0.778761387
    0.419687092    0.119104147    0.859768391
    0.253020525    0.369103432    0.454733938
    0.086353898    0.719103575    0.535740852
    0.919687212    0.069103718    0.616747618
    0.753020465    0.419103861    0.697754622
    0.586353838    0.769104004    0.778761387
    0.753020465    0.119104147    0.859768391
    0.586353958    0.369103432    0.454733938
    0.419687241    0.719103575    0.535740852
    0.253020525    0.069103718    0.616747618
    0.086353779    0.419103861    0.697754622
    0.919687152    0.769104004    0.778761387
    0.086353779    0.119104147    0.859768391
    0.919687331    0.369103432    0.454733938
    0.753020585    0.719103575    0.535740852
    0.586353898    0.069103718    0.616747618
    0.419687152    0.419103861    0.697754622
    0.253020525    0.769104004    0.778761387
    0.503020406    0.869104207    0.859768271
    0.336353958    0.119103312    0.454733998
    0.169687271    0.469103456    0.535740852
    0.003020525    0.819103658    0.616747677
    0.836353779    0.169103861    0.697754562
    0.669687033    0.519104242    0.778761387
    0.836353779    0.869104207    0.859768271
    0.669687271    0.119103312    0.454733998
    0.503020585    0.469103456    0.535740852
    0.336353928    0.819103658    0.616747677
    0.169687152    0.169103861    0.697754562
    0.003020406    0.519104242    0.778761387
    0.169687152    0.869104207    0.859768271
    0.003020644    0.119103312    0.454733998
    0.836353958    0.469103456    0.535740852
    0.669687271    0.819103658    0.616747677
    0.503020465    0.169103861    0.697754562
    0.336353719    0.519104242    0.778761387
