Sn+Si                                   
   1.00000000000000     
    12.9784002300000001    0.0000000000000000    0.0000000000000000
   -12.9784002300000001    9.1771144870000008    0.0000000000000000
     0.0000000000000000    0.0000000000000000   21.0721416469999987
   Sn   Si
    48    72
Direct
  0.0000000000000000  0.0179795080000034  0.0000000140000012
  0.0000000000000000  0.2679795029999994  0.1088773310000022
  0.0000000169999979  0.5179795620000007  0.2177547069999974
  0.0000000249999985  0.7679795620000007  0.3266320230000019
  0.0000000000000000  0.0179796219999986  0.4355093839999995
  0.0000000539999974  0.2679796219999986  0.5443867440000005
  0.5000000000000000  0.0179795080000034  0.0000000140000012
  0.4999999699999975  0.2679795029999994  0.1088773310000022
  0.5000000000000000  0.5179795620000007  0.2177547069999974
  0.4999999400000021  0.7679795620000007  0.3266320230000019
  0.4999999699999975  0.0179796219999986  0.4355093839999995
  0.5000000000000000  0.2679796219999986  0.5443867440000005
  0.0000000550000010  0.5179795029999994  0.0000000160000013
  0.0000000000000000  0.7679795029999994  0.1088773459999999
  0.0000000850000035  0.0179796219999986  0.2177547069999974
  0.0000000920000005  0.2679796219999986  0.3266320230000019
  0.0000000269999987  0.5179795029999994  0.4355093839999995
  0.9999999400000021  0.7679796219999986  0.5443867440000005
  0.4999999699999975  0.5179795029999994  0.0000000160000013
  0.5000000000000000  0.7679795029999994  0.1088773459999999
  0.5000000000000000  0.0179796219999986  0.2177547069999974
  0.5000000599999979  0.2679796219999986  0.3266320230000019
  0.4999999110000033  0.5179795029999994  0.4355093839999995
  0.5000000599999979  0.7679796219999986  0.5443867440000005
  0.1249999930000030  0.2679795029999994  0.0000000149999977
  0.1250000000000000  0.5179795029999994  0.1088773459999999
  0.1250000149999977  0.7679795620000007  0.2177547069999974
  0.1250000300000025  0.0179796219999986  0.3266320230000019
  0.1249999779999982  0.2679796219999986  0.4355094129999983
  0.1249999850000023  0.5179796219999986  0.5443867440000005
  0.6249999400000021  0.2679795029999994  0.0000000149999977
  0.6249999400000021  0.5179795029999994  0.1088773459999999
  0.6249999400000021  0.7679795620000007  0.2177547069999974
  0.6249998810000008  0.0179796219999986  0.3266320230000019
  0.6249999400000021  0.2679796219999986  0.4355094129999983
  0.6249998810000008  0.5179796219999986  0.5443867440000005
  0.1249999930000030  0.7679794430000015  0.0000000000000000
  0.1250000599999979  0.0179795029999994  0.1088773459999999
  0.1250000149999977  0.2679795029999994  0.2177546919999997
  0.1249999779999982  0.5179796219999986  0.3266320230000019
  0.1249999850000023  0.7679796219999986  0.4355094129999983
  0.1249999930000030  0.0179796219999986  0.5443867440000005
  0.6249998810000008  0.7679794430000015  0.0000000000000000
  0.6249999400000021  0.0179795029999994  0.1088773459999999
  0.6249999400000021  0.2679795029999994  0.2177546919999997
  0.6249999400000021  0.5179796219999986  0.3266320230000019
  0.6250000000000000  0.7679796219999986  0.4355094129999983
  0.6249998810000008  0.0179796219999986  0.5443867440000005
  0.9785172939999995  0.6666667459999971  0.5443867440000005
  0.7285172340000017  0.6666666870000029  0.6355093720000013
  0.4785171750000003  0.6666666269999979  0.7266319989999985
  0.2285172340000017  0.6666666269999979  0.8177545670000015
  0.9785171750000003  0.6666665079999987  0.9088771939999987
  0.7285171750000003  0.6666664480000009  0.9999998210000030
  0.9785172939999995  0.3333333730000021  0.5443867440000005
  0.7285172340000017  0.3333332839999983  0.6355093720000013
  0.4785171750000003  0.3333332240000004  0.7266319989999985
  0.2285172340000017  0.3333331640000026  0.8177545670000015
  0.9785171750000003  0.3333330150000009  0.9088771939999987
  0.7285171750000003  0.3333330450000034  0.9999998210000030
  0.9785172939999995  0.0000000000000000  0.5443867440000005
  0.7285172340000017  0.9999999400000021  0.6355093720000013
  0.4785171750000003  0.9999998810000008  0.7266319989999985
  0.2285172340000017  0.9999998210000030  0.8177545670000015
  0.9785171750000003  0.9999997620000016  0.9088771939999987
  0.7285171750000003  0.9999997019999967  0.9999998210000030
  0.4785172939999995  0.6666667459999971  0.5443867440000005
  0.2285172489999994  0.6666666269999979  0.6355093720000013
  0.9785172340000017  0.6666665670000000  0.7266319989999985
  0.7285172939999995  0.6666665670000000  0.8177545670000015
  0.4785171750000003  0.6666663290000017  0.9088771939999987
  0.2285171150000025  0.6666663290000017  0.9999998210000030
  0.4785172939999995  0.3333333429999996  0.5443867440000005
  0.2285172489999994  0.3333332839999983  0.6355093720000013
  0.9785172340000017  0.3333332240000004  0.7266319989999985
  0.7285172939999995  0.3333331640000026  0.8177545670000015
  0.4785171750000003  0.3333331050000012  0.9088771939999987
  0.2285171150000025  0.3333329559999996  0.9999998210000030
  0.4785172939999995  0.0000000000000000  0.5443867440000005
  0.2285172489999994  0.9999999400000021  0.6355093720000013
  0.9785172340000017  0.9999998810000008  0.7266319989999985
  0.7285172939999995  0.9999998210000030  0.8177545670000015
  0.4785171750000003  0.9999997620000016  0.9088771939999987
  0.2285171150000025  0.9999996419999988  0.9999998210000030
  0.7285173539999974  0.9166666870000029  0.5443867440000005
  0.4785172939999995  0.9166666870000029  0.6355093720000013
  0.2285172639999971  0.9166666269999979  0.7266319989999985
  0.9785172939999995  0.9166666269999979  0.8177545670000015
  0.7285172340000017  0.9166663889999995  0.9088771939999987
  0.4785172340000017  0.9166663290000017  0.9999998210000030
  0.7285173539999974  0.5833334330000000  0.5443867440000005
  0.4785172939999995  0.5833333129999971  0.6355093720000013
  0.2285172639999971  0.5833332540000029  0.7266319989999985
  0.9785172939999995  0.5833332540000029  0.8177545670000015
  0.7285172340000017  0.5833331349999966  0.9088771939999987
  0.4785172340000017  0.5833331939999979  0.9999998210000030
  0.7285173539999974  0.2500000000000000  0.5443867440000005
  0.4785172939999995  0.2499999549999998  0.6355093720000013
  0.2285172639999971  0.2499998810000008  0.7266319989999985
  0.9785172939999995  0.2499998210000030  0.8177545670000015
  0.7285172340000017  0.2499997910000005  0.9088771939999987
  0.4785172340000017  0.2499997319999991  0.9999998210000030
  0.2285172939999995  0.9166667459999971  0.5443867440000005
  0.9785172340000017  0.9166667459999971  0.6355093720000013
  0.7285171750000003  0.9166666870000029  0.7266319989999985
  0.4785172939999995  0.9166665670000000  0.8177545670000015
  0.2285171750000003  0.9166665670000000  0.9088771939999987
  0.9785170560000012  0.9166665079999987  0.9999998210000030
  0.2285172939999995  0.5833333730000021  0.5443867440000005
  0.9785172340000017  0.5833333129999971  0.6355093720000013
  0.7285171750000003  0.5833332540000029  0.7266319989999985
  0.4785172939999995  0.5833331939999979  0.8177545670000015
  0.2285171750000003  0.5833331939999979  0.9088771939999987
  0.9785170560000012  0.5833331349999966  0.9999998210000030
  0.2285172939999995  0.2500000300000025  0.5443867440000005
  0.9785172340000017  0.2499999850000023  0.6355093720000013
  0.7285171750000003  0.2499998810000008  0.7266319989999985
  0.4785172939999995  0.2499999110000033  0.8177545670000015
  0.2285171750000003  0.2499997910000005  0.9088771939999987
  0.9785170560000012  0.2499997620000016  0.9999998210000030
 
  0.00000000E+00  0.00000000E+00  0.00000000E+00
  0.00000000E+00  0.00000000E+00  0.00000000E+00
  0.00000000E+00  0.00000000E+00  0.00000000E+00
  0.00000000E+00  0.00000000E+00  0.00000000E+00
  0.00000000E+00  0.00000000E+00  0.00000000E+00
  0.00000000E+00  0.00000000E+00  0.00000000E+00
  0.00000000E+00  0.00000000E+00  0.00000000E+00
  0.00000000E+00  0.00000000E+00  0.00000000E+00
  0.00000000E+00  0.00000000E+00  0.00000000E+00
  0.00000000E+00  0.00000000E+00  0.00000000E+00
  0.00000000E+00  0.00000000E+00  0.00000000E+00
  0.00000000E+00  0.00000000E+00  0.00000000E+00
  0.00000000E+00  0.00000000E+00  0.00000000E+00
  0.00000000E+00  0.00000000E+00  0.00000000E+00
  0.00000000E+00  0.00000000E+00  0.00000000E+00
  0.00000000E+00  0.00000000E+00  0.00000000E+00
  0.00000000E+00  0.00000000E+00  0.00000000E+00
  0.00000000E+00  0.00000000E+00  0.00000000E+00
  0.00000000E+00  0.00000000E+00  0.00000000E+00
  0.00000000E+00  0.00000000E+00  0.00000000E+00
  0.00000000E+00  0.00000000E+00  0.00000000E+00
  0.00000000E+00  0.00000000E+00  0.00000000E+00
  0.00000000E+00  0.00000000E+00  0.00000000E+00
  0.00000000E+00  0.00000000E+00  0.00000000E+00
  0.00000000E+00  0.00000000E+00  0.00000000E+00
  0.00000000E+00  0.00000000E+00  0.00000000E+00
  0.00000000E+00  0.00000000E+00  0.00000000E+00
  0.00000000E+00  0.00000000E+00  0.00000000E+00
  0.00000000E+00  0.00000000E+00  0.00000000E+00
  0.00000000E+00  0.00000000E+00  0.00000000E+00
  0.00000000E+00  0.00000000E+00  0.00000000E+00
  0.00000000E+00  0.00000000E+00  0.00000000E+00
  0.00000000E+00  0.00000000E+00  0.00000000E+00
  0.00000000E+00  0.00000000E+00  0.00000000E+00
  0.00000000E+00  0.00000000E+00  0.00000000E+00
  0.00000000E+00  0.00000000E+00  0.00000000E+00
  0.00000000E+00  0.00000000E+00  0.00000000E+00
  0.00000000E+00  0.00000000E+00  0.00000000E+00
  0.00000000E+00  0.00000000E+00  0.00000000E+00
  0.00000000E+00  0.00000000E+00  0.00000000E+00
  0.00000000E+00  0.00000000E+00  0.00000000E+00
  0.00000000E+00  0.00000000E+00  0.00000000E+00
  0.00000000E+00  0.00000000E+00  0.00000000E+00
  0.00000000E+00  0.00000000E+00  0.00000000E+00
  0.00000000E+00  0.00000000E+00  0.00000000E+00
  0.00000000E+00  0.00000000E+00  0.00000000E+00
  0.00000000E+00  0.00000000E+00  0.00000000E+00
  0.00000000E+00  0.00000000E+00  0.00000000E+00
  0.00000000E+00  0.00000000E+00  0.00000000E+00
  0.00000000E+00  0.00000000E+00  0.00000000E+00
  0.00000000E+00  0.00000000E+00  0.00000000E+00
  0.00000000E+00  0.00000000E+00  0.00000000E+00
  0.00000000E+00  0.00000000E+00  0.00000000E+00
  0.00000000E+00  0.00000000E+00  0.00000000E+00
  0.00000000E+00  0.00000000E+00  0.00000000E+00
  0.00000000E+00  0.00000000E+00  0.00000000E+00
  0.00000000E+00  0.00000000E+00  0.00000000E+00
  0.00000000E+00  0.00000000E+00  0.00000000E+00
  0.00000000E+00  0.00000000E+00  0.00000000E+00
  0.00000000E+00  0.00000000E+00  0.00000000E+00
  0.00000000E+00  0.00000000E+00  0.00000000E+00
  0.00000000E+00  0.00000000E+00  0.00000000E+00
  0.00000000E+00  0.00000000E+00  0.00000000E+00
  0.00000000E+00  0.00000000E+00  0.00000000E+00
  0.00000000E+00  0.00000000E+00  0.00000000E+00
  0.00000000E+00  0.00000000E+00  0.00000000E+00
  0.00000000E+00  0.00000000E+00  0.00000000E+00
  0.00000000E+00  0.00000000E+00  0.00000000E+00
  0.00000000E+00  0.00000000E+00  0.00000000E+00
  0.00000000E+00  0.00000000E+00  0.00000000E+00
  0.00000000E+00  0.00000000E+00  0.00000000E+00
  0.00000000E+00  0.00000000E+00  0.00000000E+00
  0.00000000E+00  0.00000000E+00  0.00000000E+00
  0.00000000E+00  0.00000000E+00  0.00000000E+00
  0.00000000E+00  0.00000000E+00  0.00000000E+00
  0.00000000E+00  0.00000000E+00  0.00000000E+00
  0.00000000E+00  0.00000000E+00  0.00000000E+00
  0.00000000E+00  0.00000000E+00  0.00000000E+00
  0.00000000E+00  0.00000000E+00  0.00000000E+00
  0.00000000E+00  0.00000000E+00  0.00000000E+00
  0.00000000E+00  0.00000000E+00  0.00000000E+00
  0.00000000E+00  0.00000000E+00  0.00000000E+00
  0.00000000E+00  0.00000000E+00  0.00000000E+00
  0.00000000E+00  0.00000000E+00  0.00000000E+00
  0.00000000E+00  0.00000000E+00  0.00000000E+00
  0.00000000E+00  0.00000000E+00  0.00000000E+00
  0.00000000E+00  0.00000000E+00  0.00000000E+00
  0.00000000E+00  0.00000000E+00  0.00000000E+00
  0.00000000E+00  0.00000000E+00  0.00000000E+00
  0.00000000E+00  0.00000000E+00  0.00000000E+00
  0.00000000E+00  0.00000000E+00  0.00000000E+00
  0.00000000E+00  0.00000000E+00  0.00000000E+00
  0.00000000E+00  0.00000000E+00  0.00000000E+00
  0.00000000E+00  0.00000000E+00  0.00000000E+00
  0.00000000E+00  0.00000000E+00  0.00000000E+00
  0.00000000E+00  0.00000000E+00  0.00000000E+00
  0.00000000E+00  0.00000000E+00  0.00000000E+00
  0.00000000E+00  0.00000000E+00  0.00000000E+00
  0.00000000E+00  0.00000000E+00  0.00000000E+00
  0.00000000E+00  0.00000000E+00  0.00000000E+00
  0.00000000E+00  0.00000000E+00  0.00000000E+00
  0.00000000E+00  0.00000000E+00  0.00000000E+00
  0.00000000E+00  0.00000000E+00  0.00000000E+00
  0.00000000E+00  0.00000000E+00  0.00000000E+00
  0.00000000E+00  0.00000000E+00  0.00000000E+00
  0.00000000E+00  0.00000000E+00  0.00000000E+00
  0.00000000E+00  0.00000000E+00  0.00000000E+00
  0.00000000E+00  0.00000000E+00  0.00000000E+00
  0.00000000E+00  0.00000000E+00  0.00000000E+00
  0.00000000E+00  0.00000000E+00  0.00000000E+00
  0.00000000E+00  0.00000000E+00  0.00000000E+00
  0.00000000E+00  0.00000000E+00  0.00000000E+00
  0.00000000E+00  0.00000000E+00  0.00000000E+00
  0.00000000E+00  0.00000000E+00  0.00000000E+00
  0.00000000E+00  0.00000000E+00  0.00000000E+00
  0.00000000E+00  0.00000000E+00  0.00000000E+00
  0.00000000E+00  0.00000000E+00  0.00000000E+00
  0.00000000E+00  0.00000000E+00  0.00000000E+00
  0.00000000E+00  0.00000000E+00  0.00000000E+00
  0.00000000E+00  0.00000000E+00  0.00000000E+00
