Sn+Si
    1.000000000
   12.978400230    0.000000000    0.000000000
  -12.978400230    9.177114487    0.000000000
    0.000000000    0.000000000   21.072141647
Sn  Si 
48     72
Direct
    0.000000000    0.017979508    0.000000014
    0.000000000    0.267979503    0.108877331
    0.000000017    0.517979562    0.217754707
    0.000000025    0.767979562    0.326632023
    1.000000000    0.017979622    0.435509384
    0.000000054    0.267979622    0.544386744
    0.500000000    0.017979508    0.000000014
    0.499999970    0.267979503    0.108877331
    0.500000000    0.517979562    0.217754707
    0.499999940    0.767979562    0.326632023
    0.499999970    0.017979622    0.435509384
    0.500000000    0.267979622    0.544386744
    0.000000055    0.517979503    0.000000016
    0.000000000    0.767979503    0.108877346
    0.000000085    0.017979622    0.217754707
    0.000000092    0.267979622    0.326632023
    0.000000027    0.517979503    0.435509384
    0.999999940    0.767979622    0.544386744
    0.499999970    0.517979503    0.000000016
    0.500000000    0.767979503    0.108877346
    0.500000000    0.017979622    0.217754707
    0.500000060    0.267979622    0.326632023
    0.499999911    0.517979503    0.435509384
    0.500000060    0.767979622    0.544386744
    0.124999993    0.267979503    0.000000015
    0.125000000    0.517979503    0.108877346
    0.125000015    0.767979562    0.217754707
    0.125000030    0.017979622    0.326632023
    0.124999978    0.267979622    0.435509413
    0.124999985    0.517979622    0.544386744
    0.624999940    0.267979503    0.000000015
    0.624999940    0.517979503    0.108877346
    0.624999940    0.767979562    0.217754707
    0.624999881    0.017979622    0.326632023
    0.624999940    0.267979622    0.435509413
    0.624999881    0.517979622    0.544386744
    0.124999993    0.767979443    0.000000000
    0.125000060    0.017979503    0.108877346
    0.125000015    0.267979503    0.217754692
    0.124999978    0.517979622    0.326632023
    0.124999985    0.767979622    0.435509413
    0.124999993    0.017979622    0.544386744
    0.624999881    0.767979443    0.000000000
    0.624999940    0.017979503    0.108877346
    0.624999940    0.267979503    0.217754692
    0.624999940    0.517979622    0.326632023
    0.625000000    0.767979622    0.435509413
    0.624999881    0.017979622    0.544386744
    0.978517294    0.666666746    0.544386744
    0.728517234    0.666666687    0.635509372
    0.478517175    0.666666627    0.726631999
    0.228517234    0.666666627    0.817754567
    0.978517175    0.666666508    0.908877194
    0.728517175    0.666666448    0.999999821
    0.978517294    0.333333373    0.544386744
    0.728517234    0.333333284    0.635509372
    0.478517175    0.333333224    0.726631999
    0.228517234    0.333333164    0.817754567
    0.978517175    0.333333015    0.908877194
    0.728517175    0.333333045    0.999999821
    0.978517294    0.000000000    0.544386744
    0.728517234    0.999999940    0.635509372
    0.478517175    0.999999881    0.726631999
    0.228517234    0.999999821    0.817754567
    0.978517175    0.999999762    0.908877194
    0.728517175    0.999999702    0.999999821
    0.478517294    0.666666746    0.544386744
    0.228517249    0.666666627    0.635509372
    0.978517234    0.666666567    0.726631999
    0.728517294    0.666666567    0.817754567
    0.478517175    0.666666329    0.908877194
    0.228517115    0.666666329    0.999999821
    0.478517294    0.333333343    0.544386744
    0.228517249    0.333333284    0.635509372
    0.978517234    0.333333224    0.726631999
    0.728517294    0.333333164    0.817754567
    0.478517175    0.333333105    0.908877194
    0.228517115    0.333332956    0.999999821
    0.478517294    0.000000000    0.544386744
    0.228517249    0.999999940    0.635509372
    0.978517234    0.999999881    0.726631999
    0.728517294    0.999999821    0.817754567
    0.478517175    0.999999762    0.908877194
    0.228517115    0.999999642    0.999999821
    0.728517354    0.916666687    0.544386744
    0.478517294    0.916666687    0.635509372
    0.228517264    0.916666627    0.726631999
    0.978517294    0.916666627    0.817754567
    0.728517234    0.916666389    0.908877194
    0.478517234    0.916666329    0.999999821
    0.728517354    0.583333433    0.544386744
    0.478517294    0.583333313    0.635509372
    0.228517264    0.583333254    0.726631999
    0.978517294    0.583333254    0.817754567
    0.728517234    0.583333135    0.908877194
    0.478517234    0.583333194    0.999999821
    0.728517354    0.250000000    0.544386744
    0.478517294    0.249999955    0.635509372
    0.228517264    0.249999881    0.726631999
    0.978517294    0.249999821    0.817754567
    0.728517234    0.249999791    0.908877194
    0.478517234    0.249999732    0.999999821
    0.228517294    0.916666746    0.544386744
    0.978517234    0.916666746    0.635509372
    0.728517175    0.916666687    0.726631999
    0.478517294    0.916666567    0.817754567
    0.228517175    0.916666567    0.908877194
    0.978517056    0.916666508    0.999999821
    0.228517294    0.583333373    0.544386744
    0.978517234    0.583333313    0.635509372
    0.728517175    0.583333254    0.726631999
    0.478517294    0.583333194    0.817754567
    0.228517175    0.583333194    0.908877194
    0.978517056    0.583333135    0.999999821
    0.228517294    0.250000030    0.544386744
    0.978517234    0.249999985    0.635509372
    0.728517175    0.249999881    0.726631999
    0.478517294    0.249999911    0.817754567
    0.228517175    0.249999791    0.908877194
    0.978517056    0.249999762    0.999999821
