Ge+Si
    1.000000000
   16.973400116    0.000000000    0.000000000
    0.000000000   16.973400116    0.000000000
    0.000000000    0.000000000   17.861000061
Ge  Si 
108     120
Direct
    0.994305491    0.666666567    0.000000000
    0.827638865    0.666666567    0.158384174
    0.660972118    0.666666567    0.316768378
    0.994305491    0.333333284    0.000000000
    0.827638865    0.333333284    0.158384174
    0.660972118    0.333333284    0.316768378
    0.994305491    0.000000000    0.000000000
    0.827638865    0.000000000    0.158384174
    0.660972118    0.000000000    0.316768378
    0.327638805    0.666666567    0.000000000
    0.160972148    0.666666567    0.158384174
    0.994305432    0.666666567    0.316768378
    0.327638805    0.333333284    0.000000000
    0.160972148    0.333333284    0.158384174
    0.994305432    0.333333284    0.316768378
    0.327638805    0.000000000    0.000000000
    0.160972148    0.000000000    0.158384174
    0.994305432    0.000000000    0.316768378
    0.660972118    0.666666567    0.000000000
    0.494305432    0.666666567    0.158384174
    0.327638745    0.666666567    0.316768378
    0.660972118    0.333333284    0.000000000
    0.494305432    0.333333284    0.158384174
    0.327638745    0.333333284    0.316768378
    0.660972118    0.000000000    0.000000000
    0.494305432    0.000000000    0.158384174
    0.327638745    0.000000000    0.316768378
    0.077638842    0.916666567    0.079192095
    0.910972118    0.916666567    0.237576291
    0.744305491    0.916666567    0.395960480
    0.077638842    0.583333313    0.079192095
    0.910972118    0.583333313    0.237576291
    0.744305491    0.583333313    0.395960480
    0.077638842    0.249999955    0.079192095
    0.910972118    0.249999955    0.237576291
    0.744305491    0.249999955    0.395960480
    0.410972089    0.916666567    0.079192095
    0.244305417    0.916666567    0.237576291
    0.077638723    0.916666567    0.395960480
    0.410972089    0.583333313    0.079192095
    0.244305417    0.583333313    0.237576291
    0.077638723    0.583333313    0.395960480
    0.410972089    0.249999955    0.079192095
    0.244305417    0.249999955    0.237576291
    0.077638723    0.249999955    0.395960480
    0.744305491    0.916666567    0.079192095
    0.577638745    0.916666567    0.237576291
    0.410972059    0.916666567    0.395960480
    0.744305491    0.583333313    0.079192095
    0.577638745    0.583333313    0.237576291
    0.410972059    0.583333313    0.395960480
    0.744305491    0.249999955    0.079192095
    0.577638745    0.249999955    0.237576291
    0.410972059    0.249999955    0.395960480
    0.160972163    0.833333194    0.000000000
    0.994305491    0.833333194    0.158384174
    0.827638805    0.833333194    0.316768378
    0.160972163    0.499999911    0.000000000
    0.994305491    0.499999911    0.158384174
    0.827638805    0.499999911    0.316768378
    0.160972163    0.166666642    0.000000000
    0.994305491    0.166666642    0.158384174
    0.827638805    0.166666642    0.316768378
    0.494305432    0.833333194    0.000000000
    0.327638745    0.833333194    0.158384174
    0.160972074    0.833333194    0.316768378
    0.494305432    0.499999911    0.000000000
    0.327638745    0.499999911    0.158384174
    0.160972074    0.499999911    0.316768378
    0.494305432    0.166666642    0.000000000
    0.327638745    0.166666642    0.158384174
    0.160972074    0.166666642    0.316768378
    0.827638805    0.833333194    0.000000000
    0.660972118    0.833333194    0.158384174
    0.494305432    0.833333194    0.316768378
    0.827638805    0.499999911    0.000000000
    0.660972118    0.499999911    0.158384174
    0.494305432    0.499999911    0.316768378
    0.827638805    0.166666642    0.000000000
    0.660972118    0.166666642    0.158384174
    0.494305432    0.166666642    0.316768378
    0.244305462    0.749999881    0.079192095
    0.077638783    0.749999881    0.237576291
    0.910972118    0.749999881    0.395960480
    0.244305462    0.416666627    0.079192095
    0.077638783    0.416666627    0.237576291
    0.910972118    0.416666627    0.395960480
    0.244305462    0.083333328    0.079192095
    0.077638783    0.083333328    0.237576291
    0.910972118    0.083333328    0.395960480
    0.577638865    0.749999881    0.079192095
    0.410972148    0.749999881    0.237576291
    0.244305447    0.749999881    0.395960480
    0.577638865    0.416666627    0.079192095
    0.410972148    0.416666627    0.237576291
    0.244305447    0.416666627    0.395960480
    0.577638865    0.083333328    0.079192095
    0.410972148    0.083333328    0.237576291
    0.244305447    0.083333328    0.395960480
    0.910972178    0.749999881    0.079192095
    0.744305491    0.749999881    0.237576291
    0.577638745    0.749999881    0.395960480
    0.910972178    0.416666627    0.079192095
    0.744305491    0.416666627    0.237576291
    0.577638745    0.416666627    0.395960480
    0.910972178    0.083333328    0.079192095
    0.744305491    0.083333328    0.237576291
    0.577638745    0.083333328    0.395960480
    0.736049294    0.252937198    0.507936299
    0.686049223    0.902937114    0.659971476
    0.636049271    0.552936971    0.812006712
    0.836049318    0.952937245    0.507936299
    0.786049306    0.602937162    0.659971476
    0.736049175    0.252937078    0.812006712
    0.936049342    0.652937174    0.507936299
    0.886049271    0.302937120    0.659971476
    0.836049199    0.952936947    0.812006712
    0.036049366    0.352937162    0.507936299
    0.986049235    0.002937078    0.659971476
    0.936049163    0.652936935    0.812006712
    0.136049390    0.052937269    0.507936299
    0.086049318    0.702937126    0.659971476
    0.036049247    0.352936983    0.812006712
    0.236049294    0.752937198    0.507936299
    0.186049223    0.402937114    0.659971476
    0.136049151    0.052937031    0.812006712
    0.336049318    0.452937156    0.507936299
    0.286049247    0.102937102    0.659971476
    0.236049175    0.752936959    0.812006712
    0.436049461    0.152937293    0.507936299
    0.386049390    0.802937150    0.659971476
    0.336049318    0.452937067    0.812006712
    0.536049366    0.852937222    0.507936299
    0.486049294    0.502937138    0.659971476
    0.436049223    0.152936935    0.812006712
    0.636049509    0.552937210    0.507936299
    0.586049318    0.202937126    0.659971476
    0.536049366    0.852936983    0.812006712
    0.736049414    0.502937198    0.583953917
    0.686049223    0.152937055    0.735989094
    0.636049271    0.802936971    0.888024211
    0.836049318    0.202937126    0.583953917
    0.786049247    0.852937043    0.735989094
    0.736049175    0.502936900    0.888024211
    0.936049342    0.902937174    0.583953917
    0.886049271    0.552937031    0.735989094
    0.836049199    0.202937007    0.888024211
    0.036049366    0.602937102    0.583953917
    0.986049294    0.252937078    0.735989094
    0.936049223    0.902936995    0.888024211
    0.136049390    0.302937150    0.583953917
    0.086049318    0.952937067    0.735989094
    0.036049128    0.602936983    0.888024211
    0.236049414    0.002937198    0.583953917
    0.186049342    0.652937055    0.735989094
    0.136049271    0.302937031    0.888024211
    0.336049318    0.702937126    0.583953917
    0.286049247    0.352937013    0.735989094
    0.236049175    0.002936959    0.888024211
    0.436049461    0.402937174    0.583953917
    0.386049271    0.052937031    0.735989094
    0.336049318    0.702937007    0.888024211
    0.536049366    0.102937222    0.583953917
    0.486049414    0.752937078    0.735989094
    0.436049223    0.402936995    0.888024211
    0.636049390    0.802937150    0.583953917
    0.586049318    0.452937067    0.735989094
    0.536049247    0.102936983    0.888024211
    0.736049414    0.752937198    0.507936299
    0.686049223    0.402937114    0.659971476
    0.636049271    0.052937031    0.812006712
    0.836049318    0.452937186    0.507936299
    0.786049247    0.102937102    0.659971476
    0.736049175    0.752936959    0.812006712
    0.936049342    0.152937174    0.507936299
    0.886049271    0.802937090    0.659971476
    0.836049199    0.452936947    0.812006712
    0.036049366    0.852937162    0.507936299
    0.986049294    0.502937078    0.659971476
    0.936049223    0.152936935    0.812006712
    0.136049390    0.552937150    0.507936299
    0.086049318    0.202937126    0.659971476
    0.036049247    0.852936983    0.812006712
    0.236049414    0.252937078    0.507936299
    0.186049223    0.902937055    0.659971476
    0.136049151    0.552936912    0.812006712
    0.336049318    0.952937186    0.507936299
    0.286049247    0.602937102    0.659971476
    0.236049175    0.252936959    0.812006712
    0.436049342    0.652937174    0.507936299
    0.386049271    0.302937061    0.659971476
    0.336049199    0.952936947    0.812006712
    0.536049366    0.352937162    0.507936299
    0.486049294    0.002937078    0.659971476
    0.436049223    0.652936935    0.812006712
    0.636049509    0.052937269    0.507936299
    0.586049318    0.702937126    0.659971476
    0.536049366    0.352936983    0.812006712
    0.736049294    0.002937317    0.583953917
    0.686049223    0.652937114    0.735989094
    0.636049271    0.302937061    0.888024211
    0.836049318    0.702937186    0.583953917
    0.786049247    0.352937073    0.735989094
    0.736049175    0.002937078    0.888024211
    0.936049342    0.402937174    0.583953917
    0.886049271    0.052937031    0.735989094
    0.836049199    0.702937007    0.888024211
    0.036049366    0.102937222    0.583953917
    0.986049294    0.752937078    0.735989094
    0.936049223    0.402936995    0.888024211
    0.136049390    0.802937269    0.583953917
    0.086049318    0.452937156    0.735989094
    0.036049247    0.102937102    0.888024211
    0.236049414    0.502937138    0.583953917
    0.186049223    0.152937055    0.735989094
    0.136049151    0.802936971    0.888024211
    0.336049318    0.202937126    0.583953917
    0.286049366    0.852937102    0.735989094
    0.236049175    0.502937019    0.888024211
    0.436049461    0.902937233    0.583953917
    0.386049271    0.552937090    0.735989094
    0.336049318    0.202937126    0.888024211
    0.536049366    0.602937102    0.583953917
    0.486049175    0.252937078    0.735989094
    0.436049223    0.902936995    0.888024211
    0.636049271    0.302937150    0.583953917
    0.586049318    0.952937067    0.735989094
    0.536049128    0.602936924    0.888024211
