Ge+Si
    1.000000000
   16.002676010    0.000000000    0.000000000
    0.000000000   16.973400116    0.000000000
    0.000000000    0.000000000   18.072525024
Ge  Si 
144     72
Direct
    0.989689231    0.986252308    0.000000021
    0.864689231    0.819585621    0.110683732
    0.739689231    0.652918935    0.221367493
    0.614689231    0.486252248    0.332051188
    0.489689291    0.319585562    0.442734867
    0.364689231    0.152918875    0.553418636
    0.989689231    0.319585651    0.000000021
    0.864689231    0.152918950    0.110683732
    0.739689231    0.986252248    0.221367493
    0.614689231    0.819585562    0.332051188
    0.489689291    0.652918935    0.442734867
    0.364689231    0.486252189    0.553418636
    0.989689231    0.652918994    0.000000021
    0.864689231    0.486252308    0.110683732
    0.739689231    0.319585592    0.221367493
    0.614689231    0.152918935    0.332051188
    0.489689291    0.986252248    0.442734867
    0.364689231    0.819585562    0.553418636
    0.489689231    0.986252308    0.000000019
    0.364689231    0.819585621    0.110683747
    0.239689216    0.652918935    0.221367493
    0.114689231    0.486252248    0.332051218
    0.989689231    0.319585562    0.442734897
    0.864689231    0.152918875    0.553418577
    0.489689231    0.319585651    0.000000019
    0.364689231    0.152918950    0.110683747
    0.239689216    0.986252248    0.221367493
    0.114689231    0.819585562    0.332051218
    0.989689231    0.652918935    0.442734897
    0.864689231    0.486252189    0.553418577
    0.489689231    0.652918994    0.000000019
    0.364689231    0.486252308    0.110683747
    0.239689216    0.319585592    0.221367493
    0.114689231    0.152918935    0.332051218
    0.989689231    0.986252248    0.442734897
    0.864689231    0.819585562    0.553418577
    0.239689231    0.986252308    0.000000026
    0.114689231    0.819585621    0.110683747
    0.989689231    0.652918935    0.221367493
    0.864689231    0.486252248    0.332051218
    0.739689231    0.319585562    0.442734897
    0.614689231    0.152918875    0.553418636
    0.239689231    0.319585651    0.000000026
    0.114689231    0.152918950    0.110683747
    0.989689231    0.986252248    0.221367493
    0.864689231    0.819585562    0.332051218
    0.739689231    0.652918935    0.442734897
    0.614689231    0.486252189    0.553418636
    0.239689231    0.652918994    0.000000026
    0.114689231    0.486252308    0.110683747
    0.989689231    0.319585592    0.221367493
    0.864689231    0.152918935    0.332051218
    0.739689231    0.986252248    0.442734897
    0.614689231    0.819585562    0.553418636
    0.739689231    0.986252308    0.000000012
    0.614689231    0.819585621    0.110683747
    0.489689201    0.652918935    0.221367463
    0.364689231    0.486252248    0.332051218
    0.239689246    0.319585562    0.442734897
    0.114689231    0.152918875    0.553418577
    0.739689231    0.319585651    0.000000012
    0.614689231    0.152918950    0.110683747
    0.489689201    0.986252248    0.221367463
    0.364689231    0.819585562    0.332051218
    0.239689246    0.652918935    0.442734897
    0.114689231    0.486252189    0.553418577
    0.739689231    0.652918994    0.000000012
    0.614689231    0.486252308    0.110683747
    0.489689201    0.319585592    0.221367463
    0.364689231    0.152918935    0.332051218
    0.239689246    0.986252248    0.442734897
    0.114689231    0.819585562    0.553418577
    0.364689231    0.236252308    0.000000012
    0.239689231    0.069585621    0.110683732
    0.114689209    0.902918875    0.221367463
    0.989689231    0.736252189    0.332051218
    0.864689231    0.569585562    0.442734897
    0.739689231    0.402918875    0.553418636
    0.364689231    0.569585681    0.000000012
    0.239689231    0.402918994    0.110683732
    0.114689209    0.236252293    0.221367463
    0.989689231    0.069585614    0.332051218
    0.864689231    0.902918935    0.442734897
    0.739689231    0.736252189    0.553418636
    0.364689231    0.902918994    0.000000012
    0.239689231    0.736252308    0.110683732
    0.114689209    0.569585562    0.221367463
    0.989689231    0.402918905    0.332051218
    0.864689231    0.236252263    0.442734897
    0.739689231    0.069585547    0.553418636
    0.864689291    0.236252308    0.000000000
    0.739689291    0.069585621    0.110683732
    0.614689291    0.902918875    0.221367463
    0.489689291    0.736252189    0.332051188
    0.364689291    0.569585562    0.442734867
    0.239689291    0.402918875    0.553418577
    0.864689291    0.569585681    0.000000000
    0.739689291    0.402918994    0.110683732
    0.614689291    0.236252293    0.221367463
    0.489689291    0.069585614    0.332051188
    0.364689291    0.902918935    0.442734867
    0.239689291    0.736252189    0.553418577
    0.864689291    0.902918994    0.000000000
    0.739689291    0.736252308    0.110683732
    0.614689291    0.569585562    0.221367463
    0.489689291    0.402918905    0.332051188
    0.364689291    0.236252263    0.442734867
    0.239689291    0.069585547    0.553418577
    0.114689223    0.236252308    0.000000024
    0.989689231    0.069585621    0.110683747
    0.864689231    0.902918875    0.221367463
    0.739689231    0.736252189    0.332051218
    0.614689231    0.569585562    0.442734897
    0.489689231    0.402918875    0.553418577
    0.114689223    0.569585681    0.000000024
    0.989689231    0.402918994    0.110683747
    0.864689231    0.236252293    0.221367463
    0.739689231    0.069585614    0.332051218
    0.614689231    0.902918935    0.442734897
    0.489689231    0.736252189    0.553418577
    0.114689223    0.902918994    0.000000024
    0.989689231    0.736252308    0.110683747
    0.864689231    0.569585562    0.221367463
    0.739689231    0.402918905    0.332051218
    0.614689231    0.236252263    0.442734897
    0.489689231    0.069585547    0.553418577
    0.614689231    0.236252308    0.000000006
    0.489689231    0.069585621    0.110683747
    0.364689231    0.902918875    0.221367463
    0.239689231    0.736252189    0.332051218
    0.114689253    0.569585562    0.442734867
    0.989689231    0.402918875    0.553418577
    0.614689231    0.569585681    0.000000006
    0.489689231    0.402918994    0.110683747
    0.364689231    0.236252293    0.221367463
    0.239689231    0.069585614    0.332051218
    0.114689253    0.902918935    0.442734867
    0.989689231    0.736252189    0.553418577
    0.614689231    0.902918994    0.000000006
    0.489689231    0.736252308    0.110683747
    0.364689231    0.569585562    0.221367463
    0.239689231    0.402918905    0.332051218
    0.114689253    0.236252263    0.442734867
    0.989689231    0.069585547    0.553418577
    0.721573889    0.068808198    0.895497143
    0.554907441    0.318807483    0.657921731
    0.388240695    0.668807566    0.705436766
    0.221574068    0.018807769    0.752951860
    0.054907322    0.368808031    0.800467014
    0.888240516    0.718808174    0.847982109
    0.054907322    0.068808198    0.895497143
    0.888240814    0.318807483    0.657921731
    0.721574068    0.668807566    0.705436766
    0.554907322    0.018807769    0.752951860
    0.388240576    0.368808031    0.800467014
    0.221573830    0.718808174    0.847982109
    0.388240576    0.068808198    0.895497143
    0.221574068    0.318807483    0.657921731
    0.054907441    0.668807566    0.705436766
    0.888240755    0.018807769    0.752951860
    0.721573949    0.368808031    0.800467014
    0.554907203    0.718808174    0.847982109
    0.804907203    0.818808317    0.895497143
    0.638240755    0.068807602    0.657921672
    0.471574068    0.418807745    0.705436766
    0.304907322    0.768808007    0.752951801
    0.138240576    0.118808150    0.800466955
    0.971573949    0.468808174    0.847982049
    0.138240576    0.818808317    0.895497143
    0.971574068    0.068807602    0.657921672
    0.804907382    0.418807745    0.705436766
    0.638240695    0.768808007    0.752951801
    0.471573949    0.118808150    0.800466955
    0.304907322    0.468808174    0.847982049
    0.471573830    0.818808317    0.895497143
    0.304907322    0.068807602    0.657921672
    0.138240695    0.418807745    0.705436766
    0.971573949    0.768808007    0.752951801
    0.804907203    0.118808150    0.800466955
    0.638240576    0.468808174    0.847982049
    0.721573889    0.568808317    0.895497143
    0.554907322    0.818807542    0.657921672
    0.388240695    0.168807745    0.705436766
    0.221574068    0.518807769    0.752951801
    0.054907322    0.868808031    0.800467014
    0.888240635    0.218808174    0.847982049
    0.054907322    0.568808317    0.895497143
    0.888240755    0.818807542    0.657921672
    0.721574068    0.168807745    0.705436766
    0.554907322    0.518807769    0.752951801
    0.388240576    0.868808031    0.800467014
    0.221573949    0.218808174    0.847982049
    0.388240576    0.568808317    0.895497143
    0.221574068    0.818807542    0.657921672
    0.054907322    0.168807745    0.705436766
    0.888240695    0.518807769    0.752951801
    0.721573949    0.868808031    0.800467014
    0.554907322    0.218808174    0.847982049
    0.804907203    0.318808317    0.895497143
    0.638240755    0.568807483    0.657921731
    0.471574068    0.918807566    0.705436766
    0.304907322    0.268807769    0.752951801
    0.138240576    0.618808031    0.800466955
    0.971573830    0.968808293    0.847982049
    0.138240576    0.318808317    0.895497143
    0.971574068    0.568807483    0.657921731
    0.804907382    0.918807566    0.705436766
    0.638240695    0.268807769    0.752951801
    0.471573949    0.618808031    0.800466955
    0.304907203    0.968808293    0.847982049
    0.471573949    0.318808317    0.895497143
    0.304907441    0.568807483    0.657921731
    0.138240814    0.918807566    0.705436766
    0.971574068    0.268807769    0.752951801
    0.804907262    0.618808031    0.800466955
    0.638240516    0.968808293    0.847982049
