Ge+Si
    1.000000000
   16.973400116    0.000000000    0.000000000
    0.000000000   16.973400116    0.000000000
    0.000000000    0.000000000   17.861000061
Ge  Si 
108     120
Direct
    0.994305491    0.666666567    0.000000000
    0.827638865    0.666666567    0.158384174
    0.660972118    0.666666567    0.316768378
    0.994305491    0.333333284    0.000000000
    0.827638865    0.333333284    0.158384174
    0.660972118    0.333333284    0.316768378
    0.994305491    0.000000000    0.000000000
    0.827638865    0.000000000    0.158384174
    0.660972118    0.000000000    0.316768378
    0.327638805    0.666666567    0.000000000
    0.160972148    0.666666567    0.158384174
    0.994305432    0.666666567    0.316768378
    0.327638805    0.333333284    0.000000000
    0.160972148    0.333333284    0.158384174
    0.994305432    0.333333284    0.316768378
    0.327638805    0.000000000    0.000000000
    0.160972148    0.000000000    0.158384174
    0.994305432    0.000000000    0.316768378
    0.660972118    0.666666567    0.000000000
    0.494305432    0.666666567    0.158384174
    0.327638745    0.666666567    0.316768378
    0.660972118    0.333333284    0.000000000
    0.494305432    0.333333284    0.158384174
    0.327638745    0.333333284    0.316768378
    0.660972118    0.000000000    0.000000000
    0.494305432    0.000000000    0.158384174
    0.327638745    0.000000000    0.316768378
    0.077638842    0.916666567    0.079192095
    0.910972118    0.916666567    0.237576291
    0.744305491    0.916666567    0.395960480
    0.077638842    0.583333313    0.079192095
    0.910972118    0.583333313    0.237576291
    0.744305491    0.583333313    0.395960480
    0.077638842    0.249999955    0.079192095
    0.910972118    0.249999955    0.237576291
    0.744305491    0.249999955    0.395960480
    0.410972089    0.916666567    0.079192095
    0.244305417    0.916666567    0.237576291
    0.077638723    0.916666567    0.395960480
    0.410972089    0.583333313    0.079192095
    0.244305417    0.583333313    0.237576291
    0.077638723    0.583333313    0.395960480
    0.410972089    0.249999955    0.079192095
    0.244305417    0.249999955    0.237576291
    0.077638723    0.249999955    0.395960480
    0.744305491    0.916666567    0.079192095
    0.577638745    0.916666567    0.237576291
    0.410972059    0.916666567    0.395960480
    0.744305491    0.583333313    0.079192095
    0.577638745    0.583333313    0.237576291
    0.410972059    0.583333313    0.395960480
    0.744305491    0.249999955    0.079192095
    0.577638745    0.249999955    0.237576291
    0.410972059    0.249999955    0.395960480
    0.160972163    0.833333194    0.000000000
    0.994305491    0.833333194    0.158384174
    0.827638805    0.833333194    0.316768378
    0.160972163    0.499999911    0.000000000
    0.994305491    0.499999911    0.158384174
    0.827638805    0.499999911    0.316768378
    0.160972163    0.166666642    0.000000000
    0.994305491    0.166666642    0.158384174
    0.827638805    0.166666642    0.316768378
    0.494305432    0.833333194    0.000000000
    0.327638745    0.833333194    0.158384174
    0.160972074    0.833333194    0.316768378
    0.494305432    0.499999911    0.000000000
    0.327638745    0.499999911    0.158384174
    0.160972074    0.499999911    0.316768378
    0.494305432    0.166666642    0.000000000
    0.327638745    0.166666642    0.158384174
    0.160972074    0.166666642    0.316768378
    0.827638805    0.833333194    0.000000000
    0.660972118    0.833333194    0.158384174
    0.494305432    0.833333194    0.316768378
    0.827638805    0.499999911    0.000000000
    0.660972118    0.499999911    0.158384174
    0.494305432    0.499999911    0.316768378
    0.827638805    0.166666642    0.000000000
    0.660972118    0.166666642    0.158384174
    0.494305432    0.166666642    0.316768378
    0.244305462    0.749999881    0.079192095
    0.077638783    0.749999881    0.237576291
    0.910972118    0.749999881    0.395960480
    0.244305462    0.416666627    0.079192095
    0.077638783    0.416666627    0.237576291
    0.910972118    0.416666627    0.395960480
    0.244305462    0.083333328    0.079192095
    0.077638783    0.083333328    0.237576291
    0.910972118    0.083333328    0.395960480
    0.577638865    0.749999881    0.079192095
    0.410972148    0.749999881    0.237576291
    0.244305447    0.749999881    0.395960480
    0.577638865    0.416666627    0.079192095
    0.410972148    0.416666627    0.237576291
    0.244305447    0.416666627    0.395960480
    0.577638865    0.083333328    0.079192095
    0.410972148    0.083333328    0.237576291
    0.244305447    0.083333328    0.395960480
    0.910972178    0.749999881    0.079192095
    0.744305491    0.749999881    0.237576291
    0.577638745    0.749999881    0.395960480
    0.910972178    0.416666627    0.079192095
    0.744305491    0.416666627    0.237576291
    0.577638745    0.416666627    0.395960480
    0.910972178    0.083333328    0.079192095
    0.744305491    0.083333328    0.237576291
    0.577638745    0.083333328    0.395960480
    0.741966486    0.241102934    0.507936299
    0.691966534    0.891102791    0.659971476
    0.641966343    0.541102648    0.812006712
    0.841966510    0.941102922    0.507936299
    0.791966498    0.591102839    0.659971476
    0.741966367    0.241102695    0.812006712
    0.941966534    0.641102850    0.507936299
    0.891966462    0.291102797    0.659971476
    0.841966391    0.941102624    0.812006712
    0.041966558    0.341102839    0.507936299
    0.991966426    0.991102815    0.659971476
    0.941966355    0.641102612    0.812006712
    0.141966581    0.041102886    0.507936299
    0.091966510    0.691102743    0.659971476
    0.041966438    0.341102660    0.812006712
    0.241966486    0.741102874    0.507936299
    0.191966414    0.391102791    0.659971476
    0.141966343    0.041102648    0.812006712
    0.341966510    0.441102833    0.507936299
    0.291966438    0.091102839    0.659971476
    0.241966367    0.741102636    0.812006712
    0.441966653    0.141103029    0.507936299
    0.391966581    0.791102827    0.659971476
    0.341966510    0.441102743    0.812006712
    0.541966558    0.841102898    0.507936299
    0.491966486    0.491102815    0.659971476
    0.441966414    0.141102672    0.812006712
    0.641966581    0.541102886    0.507936299
    0.591966629    0.191102743    0.659971476
    0.541966438    0.841102660    0.812006712
    0.741966486    0.491102874    0.583953917
    0.691966414    0.141102791    0.735989094
    0.641966343    0.791102648    0.888024211
    0.841966510    0.191102743    0.583953917
    0.791966438    0.841102719    0.735989094
    0.741966367    0.491102576    0.888024211
    0.941966534    0.891102850    0.583953917
    0.891966462    0.541102767    0.735989094
    0.841966391    0.191102743    0.888024211
    0.041966558    0.591102839    0.583953917
    0.991966486    0.241102695    0.735989094
    0.941966414    0.891102672    0.888024211
    0.141966581    0.291102827    0.583953917
    0.091966391    0.941102743    0.735989094
    0.041966438    0.591102660    0.888024211
    0.241966605    0.991102874    0.583953917
    0.191966534    0.641102791    0.735989094
    0.141966462    0.291102707    0.888024211
    0.341966510    0.691102743    0.583953917
    0.291966438    0.341102690    0.735989094
    0.241966367    0.991102636    0.888024211
    0.441966653    0.391102850    0.583953917
    0.391966581    0.041102767    0.735989094
    0.341966510    0.691102684    0.888024211
    0.541966677    0.091102839    0.583953917
    0.491966486    0.741102755    0.735989094
    0.441966534    0.391102672    0.888024211
    0.641966581    0.791102827    0.583953917
    0.591966510    0.441102743    0.735989094
    0.541966438    0.091102600    0.888024211
    0.741966486    0.741102874    0.507936299
    0.691966534    0.391102791    0.659971476
    0.641966343    0.041102648    0.812006712
    0.841966510    0.441102862    0.507936299
    0.791966438    0.091102839    0.659971476
    0.741966367    0.741102636    0.812006712
    0.941966534    0.141102791    0.507936299
    0.891966462    0.791102767    0.659971476
    0.841966391    0.441102624    0.812006712
    0.041966558    0.841102839    0.507936299
    0.991966486    0.491102785    0.659971476
    0.941966414    0.141102672    0.812006712
    0.141966581    0.541102886    0.507936299
    0.091966510    0.191102743    0.659971476
    0.041966438    0.841102660    0.812006712
    0.241966486    0.241102815    0.507936299
    0.191966534    0.891102731    0.659971476
    0.141966343    0.541102588    0.812006712
    0.341966510    0.941102862    0.507936299
    0.291966438    0.591102779    0.659971476
    0.241966367    0.241102695    0.812006712
    0.441966534    0.641102791    0.507936299
    0.391966462    0.291102737    0.659971476
    0.341966391    0.941102624    0.812006712
    0.541966558    0.341102839    0.507936299
    0.491966486    0.991102695    0.659971476
    0.441966414    0.641102612    0.812006712
    0.641966581    0.041102886    0.507936299
    0.591966629    0.691102803    0.659971476
    0.541966438    0.341102660    0.812006712
    0.741966486    0.991102934    0.583953917
    0.691966414    0.641102791    0.735989094
    0.641966343    0.291102737    0.888024211
    0.841966510    0.691102862    0.583953917
    0.791966438    0.341102749    0.735989094
    0.741966367    0.991102695    0.888024211
    0.941966534    0.391102850    0.583953917
    0.891966462    0.041102767    0.735989094
    0.841966391    0.691102684    0.888024211
    0.041966558    0.091102839    0.583953917
    0.991966486    0.741102755    0.735989094
    0.941966414    0.391102672    0.888024211
    0.141966581    0.791102946    0.583953917
    0.091966510    0.441102833    0.735989094
    0.041966438    0.091102839    0.888024211
    0.241966486    0.491102815    0.583953917
    0.191966534    0.141102791    0.735989094
    0.141966343    0.791102648    0.888024211
    0.341966629    0.191102862    0.583953917
    0.291966438    0.841102779    0.735989094
    0.241966486    0.491102695    0.888024211
    0.441966534    0.891102910    0.583953917
    0.391966581    0.541102767    0.735989094
    0.341966391    0.191102743    0.888024211
    0.541966438    0.591102839    0.583953917
    0.491966486    0.241102695    0.735989094
    0.441966295    0.891102672    0.888024211
    0.641966581    0.291102827    0.583953917
    0.591966391    0.941102743    0.735989094
    0.541966438    0.591102600    0.888024211
