Ge+Sn
    1.000000000
   12.651226044    0.000000000    0.000000000
    0.000000000   12.651226997    0.000000000
    0.000000000    0.000000000   19.783754349
Ge  Sn 
60     48
Direct
    0.000000000    0.034514841    0.000000000
    0.000000068    0.534514844    0.142991066
    0.000000088    0.034514904    0.285982132
    0.199999988    0.634514809    0.000000000
    0.200000003    0.134514809    0.142991066
    0.200000137    0.634514809    0.285982132
    0.399999976    0.234514832    0.000000000
    0.400000036    0.734514773    0.142991066
    0.400000095    0.234514832    0.285982132
    0.600000024    0.834514856    0.000000000
    0.600000024    0.334514856    0.142991066
    0.600000203    0.834514856    0.285982132
    0.799999952    0.434514821    0.000000000
    0.800000012    0.934514761    0.142991066
    0.800000012    0.434514880    0.285982132
    0.150000006    0.984514713    0.071495533
    0.150000051    0.484514832    0.214486614
    0.150000080    0.984514832    0.357477695
    0.349999994    0.584514856    0.071495533
    0.350000054    0.084514856    0.214486614
    0.350000143    0.584514856    0.357477695
    0.549999952    0.184514761    0.071495533
    0.549999952    0.684514880    0.214486614
    0.550000012    0.184514761    0.357477695
    0.750000060    0.784514844    0.071495533
    0.750000119    0.284514904    0.214486614
    0.750000119    0.784514904    0.357477695
    0.950000107    0.384514838    0.071495533
    0.950000107    0.884514809    0.214486614
    0.950000167    0.384514809    0.357477695
    0.100000024    0.334514827    0.000000000
    0.100000076    0.834514797    0.142991066
    0.100000143    0.334514737    0.285982132
    0.300000042    0.934514761    0.000000000
    0.300000101    0.434514761    0.142991066
    0.300000191    0.934514761    0.285982132
    0.500000000    0.534514844    0.000000000
    0.500000060    0.034514785    0.142991066
    0.500000119    0.534514904    0.285982132
    0.699999988    0.134514838    0.000000000
    0.700000048    0.634514809    0.142991066
    0.700000167    0.134514809    0.285982132
    0.899999976    0.734514773    0.000000000
    0.900000036    0.234514832    0.142991066
    0.900000155    0.734514713    0.285982132
    0.050000016    0.684514821    0.071495533
    0.050000083    0.184514880    0.214486614
    0.050000150    0.684514880    0.357477695
    0.250000000    0.284514844    0.071495533
    0.250000060    0.784514844    0.214486614
    0.250000119    0.284514904    0.357477695
    0.449999988    0.884514809    0.071495533
    0.449999988    0.384514809    0.214486614
    0.450000137    0.884514809    0.357477695
    0.649999976    0.484514862    0.071495533
    0.650000036    0.984514832    0.214486614
    0.650000095    0.484514952    0.357477695
    0.850000083    0.084514856    0.071495533
    0.850000143    0.584514856    0.214486614
    0.850000262    0.084514856    0.357477695
    0.198901892    0.888888836    0.473734707
    0.948901832    0.888888836    0.637737930
    0.698901951    0.888888836    0.801741123
    0.198901892    0.388888896    0.473734707
    0.948901832    0.388888896    0.637737930
    0.698901951    0.388888896    0.801741123
    0.698901832    0.888888836    0.473734707
    0.448901832    0.888888836    0.637737930
    0.198901892    0.888888836    0.801741123
    0.698901832    0.388888896    0.473734707
    0.448901832    0.388888896    0.637737930
    0.198901892    0.388888896    0.801741123
    0.323901862    0.263888836    0.555736303
    0.073902011    0.263888836    0.719739556
    0.823901892    0.263888836    0.883742869
    0.323901862    0.763888836    0.555736303
    0.073902011    0.763888836    0.719739556
    0.823901892    0.763888836    0.883742869
    0.823901772    0.263888836    0.555736303
    0.573901892    0.263888836    0.719739556
    0.323901892    0.263888836    0.883742869
    0.823901772    0.763888836    0.555736303
    0.573901892    0.763888836    0.719739556
    0.323901892    0.763888836    0.883742869
    0.448901832    0.138888836    0.473734707
    0.198901892    0.138888836    0.637737930
    0.948901951    0.138888836    0.801741123
    0.448901832    0.638888896    0.473734707
    0.198901892    0.638888896    0.637737930
    0.948901951    0.638888896    0.801741123
    0.948901772    0.138888836    0.473734707
    0.698901832    0.138888836    0.637737930
    0.448901892    0.138888836    0.801741123
    0.948901772    0.638888896    0.473734707
    0.698901832    0.638888896    0.637737930
    0.448901892    0.638888896    0.801741123
    0.573901832    0.013888836    0.555736303
    0.323901922    0.013888836    0.719739556
    0.073901892    0.013888836    0.883742869
    0.573901832    0.513888896    0.555736303
    0.323901922    0.513888896    0.719739556
    0.073901892    0.513888896    0.883742869
    0.073901892    0.013888836    0.555736303
    0.823901951    0.013888836    0.719739556
    0.573901892    0.013888836    0.883742869
    0.073901892    0.513888896    0.555736303
    0.823901951    0.513888896    0.719739556
    0.573901892    0.513888896    0.883742869
