fcc Si+fcc Ge
    1.000000000
   17.329281578    0.000000000    0.000000000
    0.000000000   17.329281578    0.000000000
    0.000000000    0.000000000   24.575000000
Si    Ge   
220     108
Direct
    0.975000000    0.175000000    0.055747711
    0.925000000    0.525000000    0.167243133
    0.875000000    0.875000000    0.278738555
    0.825000000    0.225000000    0.390233978
    0.775000000    0.575000000    0.501729400
    0.075000000    0.475000000    0.055747711
    0.025000000    0.825000000    0.167243133
    0.975000000    0.175000000    0.278738555
    0.925000000    0.525000000    0.390233978
    0.875000000    0.875000000    0.501729400
    0.175000000    0.775000000    0.055747711
    0.125000000    0.125000000    0.167243133
    0.075000000    0.475000000    0.278738555
    0.025000000    0.825000000    0.390233978
    0.975000000    0.175000000    0.501729400
    0.275000000    0.075000000    0.055747711
    0.225000000    0.425000000    0.167243133
    0.175000000    0.775000000    0.278738555
    0.125000000    0.125000000    0.390233978
    0.075000000    0.475000000    0.501729400
    0.375000000    0.375000000    0.055747711
    0.325000000    0.725000000    0.167243133
    0.275000000    0.075000000    0.278738555
    0.225000000    0.425000000    0.390233978
    0.175000000    0.775000000    0.501729400
    0.475000000    0.675000000    0.055747711
    0.425000000    0.025000000    0.167243133
    0.375000000    0.375000000    0.278738555
    0.325000000    0.725000000    0.390233978
    0.275000000    0.075000000    0.501729400
    0.575000000    0.975000000    0.055747711
    0.525000000    0.325000000    0.167243133
    0.475000000    0.675000000    0.278738555
    0.425000000    0.025000000    0.390233978
    0.375000000    0.375000000    0.501729400
    0.675000000    0.275000000    0.055747711
    0.625000000    0.625000000    0.167243133
    0.575000000    0.975000000    0.278738555
    0.525000000    0.325000000    0.390233978
    0.475000000    0.675000000    0.501729400
    0.775000000    0.575000000    0.055747711
    0.725000000    0.925000000    0.167243133
    0.675000000    0.275000000    0.278738555
    0.625000000    0.625000000    0.390233978
    0.575000000    0.975000000    0.501729400
    0.875000000    0.875000000    0.055747711
    0.825000000    0.225000000    0.167243133
    0.775000000    0.575000000    0.278738555
    0.725000000    0.925000000    0.390233978
    0.675000000    0.275000000    0.501729400
    0.975000000    0.675000000    0.055747711
    0.925000000    0.025000000    0.167243133
    0.875000000    0.375000000    0.278738555
    0.825000000    0.725000000    0.390233978
    0.775000000    0.075000000    0.501729400
    0.075000000    0.975000000    0.055747711
    0.025000000    0.325000000    0.167243133
    0.975000000    0.675000000    0.278738555
    0.925000000    0.025000000    0.390233978
    0.875000000    0.375000000    0.501729400
    0.175000000    0.275000000    0.055747711
    0.125000000    0.625000000    0.167243133
    0.075000000    0.975000000    0.278738555
    0.025000000    0.325000000    0.390233978
    0.975000000    0.675000000    0.501729400
    0.275000000    0.575000000    0.055747711
    0.225000000    0.925000000    0.167243133
    0.175000000    0.275000000    0.278738555
    0.125000000    0.625000000    0.390233978
    0.075000000    0.975000000    0.501729400
    0.375000000    0.875000000    0.055747711
    0.325000000    0.225000000    0.167243133
    0.275000000    0.575000000    0.278738555
    0.225000000    0.925000000    0.390233978
    0.175000000    0.275000000    0.501729400
    0.475000000    0.175000000    0.055747711
    0.425000000    0.525000000    0.167243133
    0.375000000    0.875000000    0.278738555
    0.325000000    0.225000000    0.390233978
    0.275000000    0.575000000    0.501729400
    0.575000000    0.475000000    0.055747711
    0.525000000    0.825000000    0.167243133
    0.475000000    0.175000000    0.278738555
    0.425000000    0.525000000    0.390233978
    0.375000000    0.875000000    0.501729400
    0.675000000    0.775000000    0.055747711
    0.625000000    0.125000000    0.167243133
    0.575000000    0.475000000    0.278738555
    0.525000000    0.825000000    0.390233978
    0.475000000    0.175000000    0.501729400
    0.775000000    0.075000000    0.055747711
    0.725000000    0.425000000    0.167243133
    0.675000000    0.775000000    0.278738555
    0.625000000    0.125000000    0.390233978
    0.575000000    0.475000000    0.501729400
    0.875000000    0.375000000    0.055747711
    0.825000000    0.725000000    0.167243133
    0.775000000    0.075000000    0.278738555
    0.725000000    0.425000000    0.390233978
    0.675000000    0.775000000    0.501729400
    0.025000000    0.575000000    0.000000000
    0.975000000    0.925000000    0.111495422
    0.925000000    0.275000000    0.222990844
    0.875000000    0.625000000    0.334486267
    0.825000000    0.975000000    0.445981689
    0.775000000    0.325000000    0.557477111
    0.125000000    0.875000000    0.000000000
    0.075000000    0.225000000    0.111495422
    0.025000000    0.575000000    0.222990844
    0.975000000    0.925000000    0.334486267
    0.925000000    0.275000000    0.445981689
    0.875000000    0.625000000    0.557477111
    0.225000000    0.175000000    0.000000000
    0.175000000    0.525000000    0.111495422
    0.125000000    0.875000000    0.222990844
    0.075000000    0.225000000    0.334486267
    0.025000000    0.575000000    0.445981689
    0.975000000    0.925000000    0.557477111
    0.325000000    0.475000000    0.000000000
    0.275000000    0.825000000    0.111495422
    0.225000000    0.175000000    0.222990844
    0.175000000    0.525000000    0.334486267
    0.125000000    0.875000000    0.445981689
    0.075000000    0.225000000    0.557477111
    0.425000000    0.775000000    0.000000000
    0.375000000    0.125000000    0.111495422
    0.325000000    0.475000000    0.222990844
    0.275000000    0.825000000    0.334486267
    0.225000000    0.175000000    0.445981689
    0.175000000    0.525000000    0.557477111
    0.525000000    0.075000000    0.000000000
    0.475000000    0.425000000    0.111495422
    0.425000000    0.775000000    0.222990844
    0.375000000    0.125000000    0.334486267
    0.325000000    0.475000000    0.445981689
    0.275000000    0.825000000    0.557477111
    0.625000000    0.375000000    0.000000000
    0.575000000    0.725000000    0.111495422
    0.525000000    0.075000000    0.222990844
    0.475000000    0.425000000    0.334486267
    0.425000000    0.775000000    0.445981689
    0.375000000    0.125000000    0.557477111
    0.725000000    0.675000000    0.000000000
    0.675000000    0.025000000    0.111495422
    0.625000000    0.375000000    0.222990844
    0.575000000    0.725000000    0.334486267
    0.525000000    0.075000000    0.445981689
    0.475000000    0.425000000    0.557477111
    0.825000000    0.975000000    0.000000000
    0.775000000    0.325000000    0.111495422
    0.725000000    0.675000000    0.222990844
    0.675000000    0.025000000    0.334486267
    0.625000000    0.375000000    0.445981689
    0.575000000    0.725000000    0.557477111
    0.925000000    0.275000000    0.000000000
    0.875000000    0.625000000    0.111495422
    0.825000000    0.975000000    0.222990844
    0.775000000    0.325000000    0.334486267
    0.725000000    0.675000000    0.445981689
    0.675000000    0.025000000    0.557477111
    0.025000000    0.075000000    0.000000000
    0.975000000    0.425000000    0.111495422
    0.925000000    0.775000000    0.222990844
    0.875000000    0.125000000    0.334486267
    0.825000000    0.475000000    0.445981689
    0.775000000    0.825000000    0.557477111
    0.125000000    0.375000000    0.000000000
    0.075000000    0.725000000    0.111495422
    0.025000000    0.075000000    0.222990844
    0.975000000    0.425000000    0.334486267
    0.925000000    0.775000000    0.445981689
    0.875000000    0.125000000    0.557477111
    0.225000000    0.675000000    0.000000000
    0.175000000    0.025000000    0.111495422
    0.125000000    0.375000000    0.222990844
    0.075000000    0.725000000    0.334486267
    0.025000000    0.075000000    0.445981689
    0.975000000    0.425000000    0.557477111
    0.325000000    0.975000000    0.000000000
    0.275000000    0.325000000    0.111495422
    0.225000000    0.675000000    0.222990844
    0.175000000    0.025000000    0.334486267
    0.125000000    0.375000000    0.445981689
    0.075000000    0.725000000    0.557477111
    0.425000000    0.275000000    0.000000000
    0.375000000    0.625000000    0.111495422
    0.325000000    0.975000000    0.222990844
    0.275000000    0.325000000    0.334486267
    0.225000000    0.675000000    0.445981689
    0.175000000    0.025000000    0.557477111
    0.525000000    0.575000000    0.000000000
    0.475000000    0.925000000    0.111495422
    0.425000000    0.275000000    0.222990844
    0.375000000    0.625000000    0.334486267
    0.325000000    0.975000000    0.445981689
    0.275000000    0.325000000    0.557477111
    0.625000000    0.875000000    0.000000000
    0.575000000    0.225000000    0.111495422
    0.525000000    0.575000000    0.222990844
    0.475000000    0.925000000    0.334486267
    0.425000000    0.275000000    0.445981689
    0.375000000    0.625000000    0.557477111
    0.725000000    0.175000000    0.000000000
    0.675000000    0.525000000    0.111495422
    0.625000000    0.875000000    0.222990844
    0.575000000    0.225000000    0.334486267
    0.525000000    0.575000000    0.445981689
    0.475000000    0.925000000    0.557477111
    0.825000000    0.475000000    0.000000000
    0.775000000    0.825000000    0.111495422
    0.725000000    0.175000000    0.222990844
    0.675000000    0.525000000    0.334486267
    0.625000000    0.875000000    0.445981689
    0.575000000    0.225000000    0.557477111
    0.925000000    0.775000000    0.000000000
    0.875000000    0.125000000    0.111495422
    0.825000000    0.475000000    0.222990844
    0.775000000    0.825000000    0.334486267
    0.725000000    0.175000000    0.445981689
    0.675000000    0.525000000    0.557477111
    0.982558140    0.093023256    0.634791455
    0.815891473    0.093023256    0.749949135
    0.649224806    0.093023256    0.865106816
    0.982558140    0.426356589    0.634791455
    0.815891473    0.426356589    0.749949135
    0.649224806    0.426356589    0.865106816
    0.982558140    0.759689922    0.634791455
    0.815891473    0.759689922    0.749949135
    0.649224806    0.759689922    0.865106816
    0.315891473    0.093023256    0.634791455
    0.149224806    0.093023256    0.749949135
    0.982558140    0.093023256    0.865106816
    0.315891473    0.426356589    0.634791455
    0.149224806    0.426356589    0.749949135
    0.982558140    0.426356589    0.865106816
    0.315891473    0.759689922    0.634791455
    0.149224806    0.759689922    0.749949135
    0.982558140    0.759689922    0.865106816
    0.649224806    0.093023256    0.634791455
    0.482558140    0.093023256    0.749949135
    0.315891473    0.093023256    0.865106816
    0.649224806    0.426356589    0.634791455
    0.482558140    0.426356589    0.749949135
    0.315891473    0.426356589    0.865106816
    0.649224806    0.759689922    0.634791455
    0.482558140    0.759689922    0.749949135
    0.315891473    0.759689922    0.865106816
    0.149224806    0.259689922    0.634791455
    0.982558140    0.259689922    0.749949135
    0.815891473    0.259689922    0.865106816
    0.149224806    0.593023256    0.634791455
    0.982558140    0.593023256    0.749949135
    0.815891473    0.593023256    0.865106816
    0.149224806    0.926356589    0.634791455
    0.982558140    0.926356589    0.749949135
    0.815891473    0.926356589    0.865106816
    0.482558140    0.259689922    0.634791455
    0.315891473    0.259689922    0.749949135
    0.149224806    0.259689922    0.865106816
    0.482558140    0.593023256    0.634791455
    0.315891473    0.593023256    0.749949135
    0.149224806    0.593023256    0.865106816
    0.482558140    0.926356589    0.634791455
    0.315891473    0.926356589    0.749949135
    0.149224806    0.926356589    0.865106816
    0.815891473    0.259689922    0.634791455
    0.649224806    0.259689922    0.749949135
    0.482558140    0.259689922    0.865106816
    0.815891473    0.593023256    0.634791455
    0.649224806    0.593023256    0.749949135
    0.482558140    0.593023256    0.865106816
    0.815891473    0.926356589    0.634791455
    0.649224806    0.926356589    0.749949135
    0.482558140    0.926356589    0.865106816
    0.065891473    0.176356589    0.692370295
    0.899224806    0.176356589    0.807527976
    0.732558140    0.176356589    0.922685656
    0.065891473    0.509689922    0.692370295
    0.899224806    0.509689922    0.807527976
    0.732558140    0.509689922    0.922685656
    0.065891473    0.843023256    0.692370295
    0.899224806    0.843023256    0.807527976
    0.732558140    0.843023256    0.922685656
    0.399224806    0.176356589    0.692370295
    0.232558140    0.176356589    0.807527976
    0.065891473    0.176356589    0.922685656
    0.399224806    0.509689922    0.692370295
    0.232558140    0.509689922    0.807527976
    0.065891473    0.509689922    0.922685656
    0.399224806    0.843023256    0.692370295
    0.232558140    0.843023256    0.807527976
    0.065891473    0.843023256    0.922685656
    0.732558140    0.176356589    0.692370295
    0.565891473    0.176356589    0.807527976
    0.399224806    0.176356589    0.922685656
    0.732558140    0.509689922    0.692370295
    0.565891473    0.509689922    0.807527976
    0.399224806    0.509689922    0.922685656
    0.732558140    0.843023256    0.692370295
    0.565891473    0.843023256    0.807527976
    0.399224806    0.843023256    0.922685656
    0.232558140    0.343023256    0.692370295
    0.065891473    0.343023256    0.807527976
    0.899224806    0.343023256    0.922685656
    0.232558140    0.676356589    0.692370295
    0.065891473    0.676356589    0.807527976
    0.899224806    0.676356589    0.922685656
    0.232558140    0.009689922    0.692370295
    0.065891473    0.009689922    0.807527976
    0.899224806    0.009689922    0.922685656
    0.565891473    0.343023256    0.692370295
    0.399224806    0.343023256    0.807527976
    0.232558140    0.343023256    0.922685656
    0.565891473    0.676356589    0.692370295
    0.399224806    0.676356589    0.807527976
    0.232558140    0.676356589    0.922685656
    0.565891473    0.009689922    0.692370295
    0.399224806    0.009689922    0.807527976
    0.232558140    0.009689922    0.922685656
    0.899224806    0.343023256    0.692370295
    0.732558140    0.343023256    0.807527976
    0.565891473    0.343023256    0.922685656
    0.899224806    0.676356589    0.692370295
    0.732558140    0.676356589    0.807527976
    0.565891473    0.676356589    0.922685656
    0.899224806    0.009689922    0.692370295
    0.732558140    0.009689922    0.807527976
    0.565891473    0.009689922    0.922685656
