Si+Ge                                   
   1.00000000000000     
    16.2930011750000006    0.0000000000000000    0.0000000000000000
     0.0000000000000000   16.2930011750000006    0.0000000000000000
     0.0000000000000000    0.0000000000000000   13.2939167020000006
   Si   Ge
   108    48
Direct
  0.0000000000000000  0.9940677290000011  0.0000000000000000
  0.0000000000000000  0.8274010419999982  0.2042663840000003
  0.0000000000000000  0.6607342960000011  0.4085327980000031
  0.3333333429999996  0.9940677290000011  0.0000000000000000
  0.3333333429999996  0.8274010419999982  0.2042663840000003
  0.3333333429999996  0.6607342960000011  0.4085327980000031
  0.6666666870000029  0.9940677290000011  0.0000000000000000
  0.6666666870000029  0.8274010419999982  0.2042663840000003
  0.6666666870000029  0.6607342960000011  0.4085327980000031
  0.0000000000000000  0.3274010419999982  0.0000000000000000
  0.0000000000000000  0.1607343700000001  0.2042663840000003
  0.0000000000000000  0.9940676690000032  0.4085327980000031
  0.3333333429999996  0.3274010419999982  0.0000000000000000
  0.3333333429999996  0.1607343700000001  0.2042663840000003
  0.3333333429999996  0.9940676690000032  0.4085327980000031
  0.6666666870000029  0.3274010419999982  0.0000000000000000
  0.6666666870000029  0.1607343700000001  0.2042663840000003
  0.6666666870000029  0.9940676690000032  0.4085327980000031
  0.0000000000000000  0.6607344150000003  0.0000000000000000
  0.0000000000000000  0.4940676989999986  0.2042663840000003
  0.0000000000000000  0.3274010419999982  0.4085327980000031
  0.3333333429999996  0.6607344150000003  0.0000000000000000
  0.3333333429999996  0.4940676989999986  0.2042663840000003
  0.3333333429999996  0.3274010419999982  0.4085327980000031
  0.6666666870000029  0.6607344150000003  0.0000000000000000
  0.6666666870000029  0.4940676989999986  0.2042663840000003
  0.6666666870000029  0.3274010419999982  0.4085327980000031
  0.0833333360000026  0.0774010490000023  0.1021331999999973
  0.0833333360000026  0.9107343550000024  0.3063995239999997
  0.0833333360000026  0.7440676690000032  0.5106660129999980
  0.4166666870000029  0.0774010490000023  0.1021331999999973
  0.4166666870000029  0.9107343550000024  0.3063995239999997
  0.4166666870000029  0.7440676690000032  0.5106660129999980
  0.7500000000000000  0.0774010490000023  0.1021331999999973
  0.7500000000000000  0.9107343550000024  0.3063995239999997
  0.7500000000000000  0.7440676690000032  0.5106660129999980
  0.0833333360000026  0.4107343550000024  0.1021331999999973
  0.0833333360000026  0.2440676690000032  0.3063995239999997
  0.0833333360000026  0.0774009820000003  0.5106660129999980
  0.4166666870000029  0.4107343550000024  0.1021331999999973
  0.4166666870000029  0.2440676690000032  0.3063995239999997
  0.4166666870000029  0.0774009820000003  0.5106660129999980
  0.7500000000000000  0.4107343550000024  0.1021331999999973
  0.7500000000000000  0.2440676690000032  0.3063995239999997
  0.7500000000000000  0.0774009820000003  0.5106660129999980
  0.0833333360000026  0.7440677290000011  0.1021331999999973
  0.0833333360000026  0.5774010419999982  0.3063995239999997
  0.0833333360000026  0.4107343550000024  0.5106660129999980
  0.4166666870000029  0.7440677290000011  0.1021331999999973
  0.4166666870000029  0.5774010419999982  0.3063995239999997
  0.4166666870000029  0.4107343550000024  0.5106660129999980
  0.7500000000000000  0.7440677290000011  0.1021331999999973
  0.7500000000000000  0.5774010419999982  0.3063995239999997
  0.7500000000000000  0.4107343550000024  0.5106660129999980
  0.1666666719999981  0.1607343849999978  0.0000000000000000
  0.1666666719999981  0.9940676690000032  0.2042663840000003
  0.1666666719999981  0.8274009820000003  0.4085327980000031
  0.5000000000000000  0.1607343849999978  0.0000000000000000
  0.5000000000000000  0.9940676690000032  0.2042663840000003
  0.5000000000000000  0.8274009820000003  0.4085327980000031
  0.8333333730000021  0.1607343849999978  0.0000000000000000
  0.8333333730000021  0.9940676690000032  0.2042663840000003
  0.8333333730000021  0.8274009820000003  0.4085327980000031
  0.1666666719999981  0.4940676989999986  0.0000000000000000
  0.1666666719999981  0.3274010419999982  0.2042663840000003
  0.1666666719999981  0.1607343109999988  0.4085327980000031
  0.5000000000000000  0.4940676989999986  0.0000000000000000
  0.5000000000000000  0.3274010419999982  0.2042663840000003
  0.5000000000000000  0.1607343109999988  0.4085327980000031
  0.8333333730000021  0.4940676989999986  0.0000000000000000
  0.8333333730000021  0.3274010419999982  0.2042663840000003
  0.8333333730000021  0.1607343109999988  0.4085327980000031
  0.1666666719999981  0.8274010419999982  0.0000000000000000
  0.1666666719999981  0.6607343550000024  0.2042663840000003
  0.1666666719999981  0.4940676390000007  0.4085327980000031
  0.5000000000000000  0.8274010419999982  0.0000000000000000
  0.5000000000000000  0.6607343550000024  0.2042663840000003
  0.5000000000000000  0.4940676390000007  0.4085327980000031
  0.8333333730000021  0.8274010419999982  0.0000000000000000
  0.8333333730000021  0.6607343550000024  0.2042663840000003
  0.8333333730000021  0.4940676390000007  0.4085327980000031
  0.2500000000000000  0.2440677140000034  0.1021331999999973
  0.2500000000000000  0.0774010270000005  0.3063995239999997
  0.2500000000000000  0.9107343550000024  0.5106660129999980
  0.5833333730000021  0.2440677140000034  0.1021331999999973
  0.5833333730000021  0.0774010270000005  0.3063995239999997
  0.5833333730000021  0.9107343550000024  0.5106660129999980
  0.9166666870000029  0.2440677140000034  0.1021331999999973
  0.9166666870000029  0.0774010270000005  0.3063995239999997
  0.9166666870000029  0.9107343550000024  0.5106660129999980
  0.2500000000000000  0.5774011609999974  0.1021331999999973
  0.2500000000000000  0.4107344450000028  0.3063995239999997
  0.2500000000000000  0.2440677430000022  0.5106660129999980
  0.5833333730000021  0.5774011609999974  0.1021331999999973
  0.5833333730000021  0.4107344450000028  0.3063995239999997
  0.5833333730000021  0.2440677430000022  0.5106660129999980
  0.9166666870000029  0.5774011609999974  0.1021331999999973
  0.9166666870000029  0.4107344450000028  0.3063995239999997
  0.9166666870000029  0.2440677430000022  0.5106660129999980
  0.2500000000000000  0.9107343550000024  0.1021331999999973
  0.2500000000000000  0.7440676690000032  0.3063995239999997
  0.2500000000000000  0.5774010419999982  0.5106660129999980
  0.5833333730000021  0.9107343550000024  0.1021331999999973
  0.5833333730000021  0.7440676690000032  0.3063995239999997
  0.5833333730000021  0.5774010419999982  0.5106660129999980
  0.9166666870000029  0.9107343550000024  0.1021331999999973
  0.9166666870000029  0.7440676690000032  0.3063995239999997
  0.9166666870000029  0.5774010419999982  0.5106660129999980
  0.0026168819999981  0.6663241389999968  0.6299411649999982
  0.6137279269999993  0.2913241389999968  0.6800979969999972
  0.2248389720000006  0.9163241979999981  0.7302546499999991
  0.8359498980000026  0.5413242580000031  0.7804114220000002
  0.4470610620000031  0.1663242580000031  0.8305680750000022
  0.0581721069999972  0.7913241389999968  0.8807248470000033
  0.0026168819999981  0.1663241389999968  0.6299411649999982
  0.6137279269999993  0.7913240789999989  0.6800979969999972
  0.2248389720000006  0.4163241389999968  0.7302547099999970
  0.8359498980000026  0.0413241389999968  0.7804114220000002
  0.4470610620000031  0.6663242580000031  0.8305680750000022
  0.0581721069999972  0.2913241389999968  0.8807247880000020
  0.7526167629999989  0.7913241389999968  0.6299411649999982
  0.3637278080000002  0.4163241389999968  0.6800979969999972
  0.9748389120000027  0.0413241389999968  0.7302546499999991
  0.5859499569999969  0.6663242580000031  0.7804113629999989
  0.1970610019999981  0.2913242580000031  0.8305681350000000
  0.8081718680000023  0.9163242580000031  0.8807247880000020
  0.7526168229999968  0.2913241389999968  0.6299411649999982
  0.3637278380000026  0.9163240789999989  0.6800979969999972
  0.9748389120000027  0.5413241389999968  0.7302546499999991
  0.5859499569999969  0.1663241389999968  0.7804113629999989
  0.1970610019999981  0.7913241979999981  0.8305681350000000
  0.8081719879999980  0.4163240190000010  0.8807247880000020
  0.7526168229999968  0.0413241389999968  0.6299412250000032
  0.3637278380000026  0.6663241389999968  0.6800979969999972
  0.9748389120000027  0.2913241389999968  0.7302546499999991
  0.5859498980000026  0.9163241979999981  0.7804113629999989
  0.1970610620000031  0.5413242580000031  0.8305681350000000
  0.8081719879999980  0.1663242580000031  0.8807248470000033
  0.7526168229999968  0.5413241389999968  0.6299411649999982
  0.3637278380000026  0.1663240190000010  0.6800979969999972
  0.9748389120000027  0.7913241389999968  0.7302546499999991
  0.5859499569999969  0.4163241389999968  0.7804113629999989
  0.1970610620000031  0.0413241389999968  0.8305681350000000
  0.8081718680000023  0.6663240190000010  0.8807247880000020
  0.0026168819999981  0.9163241389999968  0.6299411649999982
  0.6137279269999993  0.5413241389999968  0.6800979969999972
  0.2248389720000006  0.1663242580000031  0.7302547099999970
  0.8359498980000026  0.7913241979999981  0.7804114220000002
  0.4470613000000014  0.4163243770000022  0.8305681350000000
  0.0581721069999972  0.0413241389999968  0.8807248470000033
  0.0026168819999981  0.4163241389999968  0.6299411649999982
  0.6137279269999993  0.0413241389999968  0.6800979969999972
  0.2248389720000006  0.6663241389999968  0.7302547099999970
  0.8359500170000018  0.2913241389999968  0.7804114220000002
  0.4470611810000023  0.9163242580000031  0.8305680750000022
  0.0581718680000023  0.5413240190000010  0.8807247880000020
 
  0.00000000E+00  0.00000000E+00  0.00000000E+00
  0.00000000E+00  0.00000000E+00  0.00000000E+00
  0.00000000E+00  0.00000000E+00  0.00000000E+00
  0.00000000E+00  0.00000000E+00  0.00000000E+00
  0.00000000E+00  0.00000000E+00  0.00000000E+00
  0.00000000E+00  0.00000000E+00  0.00000000E+00
  0.00000000E+00  0.00000000E+00  0.00000000E+00
  0.00000000E+00  0.00000000E+00  0.00000000E+00
  0.00000000E+00  0.00000000E+00  0.00000000E+00
  0.00000000E+00  0.00000000E+00  0.00000000E+00
  0.00000000E+00  0.00000000E+00  0.00000000E+00
  0.00000000E+00  0.00000000E+00  0.00000000E+00
  0.00000000E+00  0.00000000E+00  0.00000000E+00
  0.00000000E+00  0.00000000E+00  0.00000000E+00
  0.00000000E+00  0.00000000E+00  0.00000000E+00
  0.00000000E+00  0.00000000E+00  0.00000000E+00
  0.00000000E+00  0.00000000E+00  0.00000000E+00
  0.00000000E+00  0.00000000E+00  0.00000000E+00
  0.00000000E+00  0.00000000E+00  0.00000000E+00
  0.00000000E+00  0.00000000E+00  0.00000000E+00
  0.00000000E+00  0.00000000E+00  0.00000000E+00
  0.00000000E+00  0.00000000E+00  0.00000000E+00
  0.00000000E+00  0.00000000E+00  0.00000000E+00
  0.00000000E+00  0.00000000E+00  0.00000000E+00
  0.00000000E+00  0.00000000E+00  0.00000000E+00
  0.00000000E+00  0.00000000E+00  0.00000000E+00
  0.00000000E+00  0.00000000E+00  0.00000000E+00
  0.00000000E+00  0.00000000E+00  0.00000000E+00
  0.00000000E+00  0.00000000E+00  0.00000000E+00
  0.00000000E+00  0.00000000E+00  0.00000000E+00
  0.00000000E+00  0.00000000E+00  0.00000000E+00
  0.00000000E+00  0.00000000E+00  0.00000000E+00
  0.00000000E+00  0.00000000E+00  0.00000000E+00
  0.00000000E+00  0.00000000E+00  0.00000000E+00
  0.00000000E+00  0.00000000E+00  0.00000000E+00
  0.00000000E+00  0.00000000E+00  0.00000000E+00
  0.00000000E+00  0.00000000E+00  0.00000000E+00
  0.00000000E+00  0.00000000E+00  0.00000000E+00
  0.00000000E+00  0.00000000E+00  0.00000000E+00
  0.00000000E+00  0.00000000E+00  0.00000000E+00
  0.00000000E+00  0.00000000E+00  0.00000000E+00
  0.00000000E+00  0.00000000E+00  0.00000000E+00
  0.00000000E+00  0.00000000E+00  0.00000000E+00
  0.00000000E+00  0.00000000E+00  0.00000000E+00
  0.00000000E+00  0.00000000E+00  0.00000000E+00
  0.00000000E+00  0.00000000E+00  0.00000000E+00
  0.00000000E+00  0.00000000E+00  0.00000000E+00
  0.00000000E+00  0.00000000E+00  0.00000000E+00
  0.00000000E+00  0.00000000E+00  0.00000000E+00
  0.00000000E+00  0.00000000E+00  0.00000000E+00
  0.00000000E+00  0.00000000E+00  0.00000000E+00
  0.00000000E+00  0.00000000E+00  0.00000000E+00
  0.00000000E+00  0.00000000E+00  0.00000000E+00
  0.00000000E+00  0.00000000E+00  0.00000000E+00
  0.00000000E+00  0.00000000E+00  0.00000000E+00
  0.00000000E+00  0.00000000E+00  0.00000000E+00
  0.00000000E+00  0.00000000E+00  0.00000000E+00
  0.00000000E+00  0.00000000E+00  0.00000000E+00
  0.00000000E+00  0.00000000E+00  0.00000000E+00
  0.00000000E+00  0.00000000E+00  0.00000000E+00
  0.00000000E+00  0.00000000E+00  0.00000000E+00
  0.00000000E+00  0.00000000E+00  0.00000000E+00
  0.00000000E+00  0.00000000E+00  0.00000000E+00
  0.00000000E+00  0.00000000E+00  0.00000000E+00
  0.00000000E+00  0.00000000E+00  0.00000000E+00
  0.00000000E+00  0.00000000E+00  0.00000000E+00
  0.00000000E+00  0.00000000E+00  0.00000000E+00
  0.00000000E+00  0.00000000E+00  0.00000000E+00
  0.00000000E+00  0.00000000E+00  0.00000000E+00
  0.00000000E+00  0.00000000E+00  0.00000000E+00
  0.00000000E+00  0.00000000E+00  0.00000000E+00
  0.00000000E+00  0.00000000E+00  0.00000000E+00
  0.00000000E+00  0.00000000E+00  0.00000000E+00
  0.00000000E+00  0.00000000E+00  0.00000000E+00
  0.00000000E+00  0.00000000E+00  0.00000000E+00
  0.00000000E+00  0.00000000E+00  0.00000000E+00
  0.00000000E+00  0.00000000E+00  0.00000000E+00
  0.00000000E+00  0.00000000E+00  0.00000000E+00
  0.00000000E+00  0.00000000E+00  0.00000000E+00
  0.00000000E+00  0.00000000E+00  0.00000000E+00
  0.00000000E+00  0.00000000E+00  0.00000000E+00
  0.00000000E+00  0.00000000E+00  0.00000000E+00
  0.00000000E+00  0.00000000E+00  0.00000000E+00
  0.00000000E+00  0.00000000E+00  0.00000000E+00
  0.00000000E+00  0.00000000E+00  0.00000000E+00
  0.00000000E+00  0.00000000E+00  0.00000000E+00
  0.00000000E+00  0.00000000E+00  0.00000000E+00
  0.00000000E+00  0.00000000E+00  0.00000000E+00
  0.00000000E+00  0.00000000E+00  0.00000000E+00
  0.00000000E+00  0.00000000E+00  0.00000000E+00
  0.00000000E+00  0.00000000E+00  0.00000000E+00
  0.00000000E+00  0.00000000E+00  0.00000000E+00
  0.00000000E+00  0.00000000E+00  0.00000000E+00
  0.00000000E+00  0.00000000E+00  0.00000000E+00
  0.00000000E+00  0.00000000E+00  0.00000000E+00
  0.00000000E+00  0.00000000E+00  0.00000000E+00
  0.00000000E+00  0.00000000E+00  0.00000000E+00
  0.00000000E+00  0.00000000E+00  0.00000000E+00
  0.00000000E+00  0.00000000E+00  0.00000000E+00
  0.00000000E+00  0.00000000E+00  0.00000000E+00
  0.00000000E+00  0.00000000E+00  0.00000000E+00
  0.00000000E+00  0.00000000E+00  0.00000000E+00
  0.00000000E+00  0.00000000E+00  0.00000000E+00
  0.00000000E+00  0.00000000E+00  0.00000000E+00
  0.00000000E+00  0.00000000E+00  0.00000000E+00
  0.00000000E+00  0.00000000E+00  0.00000000E+00
  0.00000000E+00  0.00000000E+00  0.00000000E+00
  0.00000000E+00  0.00000000E+00  0.00000000E+00
  0.00000000E+00  0.00000000E+00  0.00000000E+00
  0.00000000E+00  0.00000000E+00  0.00000000E+00
  0.00000000E+00  0.00000000E+00  0.00000000E+00
  0.00000000E+00  0.00000000E+00  0.00000000E+00
  0.00000000E+00  0.00000000E+00  0.00000000E+00
  0.00000000E+00  0.00000000E+00  0.00000000E+00
  0.00000000E+00  0.00000000E+00  0.00000000E+00
  0.00000000E+00  0.00000000E+00  0.00000000E+00
  0.00000000E+00  0.00000000E+00  0.00000000E+00
  0.00000000E+00  0.00000000E+00  0.00000000E+00
  0.00000000E+00  0.00000000E+00  0.00000000E+00
  0.00000000E+00  0.00000000E+00  0.00000000E+00
  0.00000000E+00  0.00000000E+00  0.00000000E+00
  0.00000000E+00  0.00000000E+00  0.00000000E+00
  0.00000000E+00  0.00000000E+00  0.00000000E+00
  0.00000000E+00  0.00000000E+00  0.00000000E+00
  0.00000000E+00  0.00000000E+00  0.00000000E+00
  0.00000000E+00  0.00000000E+00  0.00000000E+00
  0.00000000E+00  0.00000000E+00  0.00000000E+00
  0.00000000E+00  0.00000000E+00  0.00000000E+00
  0.00000000E+00  0.00000000E+00  0.00000000E+00
  0.00000000E+00  0.00000000E+00  0.00000000E+00
  0.00000000E+00  0.00000000E+00  0.00000000E+00
  0.00000000E+00  0.00000000E+00  0.00000000E+00
  0.00000000E+00  0.00000000E+00  0.00000000E+00
  0.00000000E+00  0.00000000E+00  0.00000000E+00
  0.00000000E+00  0.00000000E+00  0.00000000E+00
  0.00000000E+00  0.00000000E+00  0.00000000E+00
  0.00000000E+00  0.00000000E+00  0.00000000E+00
  0.00000000E+00  0.00000000E+00  0.00000000E+00
  0.00000000E+00  0.00000000E+00  0.00000000E+00
  0.00000000E+00  0.00000000E+00  0.00000000E+00
  0.00000000E+00  0.00000000E+00  0.00000000E+00
  0.00000000E+00  0.00000000E+00  0.00000000E+00
  0.00000000E+00  0.00000000E+00  0.00000000E+00
  0.00000000E+00  0.00000000E+00  0.00000000E+00
  0.00000000E+00  0.00000000E+00  0.00000000E+00
  0.00000000E+00  0.00000000E+00  0.00000000E+00
  0.00000000E+00  0.00000000E+00  0.00000000E+00
  0.00000000E+00  0.00000000E+00  0.00000000E+00
  0.00000000E+00  0.00000000E+00  0.00000000E+00
  0.00000000E+00  0.00000000E+00  0.00000000E+00
  0.00000000E+00  0.00000000E+00  0.00000000E+00
  0.00000000E+00  0.00000000E+00  0.00000000E+00
  0.00000000E+00  0.00000000E+00  0.00000000E+00
  0.00000000E+00  0.00000000E+00  0.00000000E+00
  0.00000000E+00  0.00000000E+00  0.00000000E+00
  0.00000000E+00  0.00000000E+00  0.00000000E+00
