Si+Sn
    1.000000000
   16.293001175    0.000000000    0.000000000
    5.431000233   15.361187935    0.000000000
    0.000000000    0.000000000   21.072139740
Si  Sn 
144     96
Direct
    0.161572933    0.454156429    0.000000014
    0.119906209    0.079156362    0.091122635
    0.078239486    0.704156280    0.182245255
    0.036572769    0.329156280    0.273367822
    0.994906008    0.954156280    0.364490479
    0.953239262    0.579156160    0.455613106
    0.494906396    0.454156429    0.000000014
    0.453239620    0.079156362    0.091122635
    0.411572903    0.704156280    0.182245255
    0.369906157    0.329156280    0.273367822
    0.328239441    0.954156280    0.364490479
    0.286572695    0.579156160    0.455613106
    0.828239679    0.454156429    0.000000014
    0.786572874    0.079156362    0.091122635
    0.744906187    0.704156280    0.182245255
    0.703239501    0.329156280    0.273367822
    0.661572754    0.954156280    0.364490479
    0.619906008    0.579156160    0.455613106
    0.994906247    0.954156399    0.000000019
    0.953239560    0.579156339    0.091122635
    0.911572814    0.204156280    0.182245240
    0.869906068    0.829156280    0.273367882
    0.828239381    0.454156160    0.364490449
    0.786572635    0.079156160    0.455613077
    0.328239650    0.954156399    0.000000019
    0.286572903    0.579156339    0.091122635
    0.244906187    0.204156280    0.182245240
    0.203239486    0.829156280    0.273367882
    0.161572725    0.454156160    0.364490449
    0.119905986    0.079156160    0.455613077
    0.661573052    0.954156399    0.000000019
    0.619906247    0.579156339    0.091122635
    0.578239560    0.204156280    0.182245240
    0.536572874    0.829156280    0.273367882
    0.494906098    0.454156160    0.364490449
    0.453239381    0.079156160    0.455613077
    0.078239590    0.704156458    0.000000003
    0.036572870    0.329156369    0.091122627
    0.994906127    0.954156339    0.182245255
    0.953239441    0.579156280    0.273367882
    0.911572695    0.204156160    0.364490479
    0.869905949    0.829156041    0.455613106
    0.411572963    0.704156458    0.000000003
    0.369906217    0.329156369    0.091122627
    0.328239501    0.954156339    0.182245255
    0.286572784    0.579156280    0.273367882
    0.244906023    0.204156160    0.364490479
    0.203239322    0.829156041    0.455613106
    0.744906366    0.704156458    0.000000003
    0.703239560    0.329156369    0.091122627
    0.661572814    0.954156339    0.182245255
    0.619906127    0.579156280    0.273367882
    0.578239441    0.204156160    0.364490479
    0.536572695    0.829156041    0.455613106
    0.244906276    0.204156414    0.000000019
    0.203239545    0.829156339    0.091122635
    0.161572814    0.454156280    0.182245255
    0.119906105    0.079156280    0.273367822
    0.078239374    0.704156160    0.364490390
    0.036572605    0.329156160    0.455613106
    0.578239739    0.204156414    0.000000019
    0.536572993    0.829156339    0.091122635
    0.494906217    0.454156280    0.182245255
    0.453239501    0.079156280    0.273367822
    0.411572784    0.704156160    0.364490390
    0.369906068    0.329156160    0.455613106
    0.911573052    0.204156414    0.000000019
    0.869906247    0.829156339    0.091122635
    0.828239560    0.454156280    0.182245255
    0.786572754    0.079156280    0.273367822
    0.744906068    0.704156160    0.364490390
    0.703239322    0.329156160    0.455613106
    0.036572963    0.579156458    0.000000000
    0.994906247    0.204156354    0.091122635
    0.953239501    0.829156280    0.182245255
    0.911572754    0.454156280    0.273367822
    0.869906068    0.079156220    0.364490479
    0.828239322    0.704156041    0.455613106
    0.369906336    0.579156458    0.000000000
    0.328239560    0.204156354    0.091122635
    0.286572844    0.829156280    0.182245255
    0.244906113    0.454156280    0.273367822
    0.203239381    0.079156220    0.364490479
    0.161572665    0.704156041    0.455613106
    0.703239739    0.579156458    0.000000000
    0.661572933    0.204156354    0.091122635
    0.619906247    0.829156280    0.182245255
    0.578239441    0.454156280    0.273367822
    0.536572754    0.079156220    0.364490479
    0.494906038    0.704156041    0.455613106
    0.203239605    0.079156421    0.000000021
    0.161572888    0.704156339    0.091122635
    0.119906150    0.329156280    0.182245240
    0.078239411    0.954156280    0.273367822
    0.036572691    0.579156160    0.364490479
    0.994905949    0.204156160    0.455613106
    0.536572993    0.079156421    0.000000021
    0.494906217    0.704156339    0.091122635
    0.453239501    0.329156280    0.182245240
    0.411572754    0.954156280    0.273367822
    0.369906038    0.579156160    0.364490479
    0.328239322    0.204156160    0.455613106
    0.869906425    0.079156421    0.000000021
    0.828239679    0.704156339    0.091122635
    0.786572933    0.329156280    0.182245240
    0.744906187    0.954156280    0.273367822
    0.703239501    0.579156160    0.364490479
    0.661572754    0.204156160    0.455613106
    0.286572993    0.829156458    0.000000040
    0.244906217    0.454156369    0.091122635
    0.203239501    0.079156302    0.182245255
    0.161572769    0.704156280    0.273367882
    0.119906045    0.329156160    0.364490479
    0.078239329    0.954156041    0.455613106
    0.619906306    0.829156458    0.000000040
    0.578239501    0.454156369    0.091122635
    0.536572814    0.079156302    0.182245255
    0.494906038    0.704156280    0.273367882
    0.453239352    0.329156160    0.364490479
    0.411572635    0.954156041    0.455613106
    0.953239620    0.829156458    0.000000040
    0.911572933    0.454156369    0.091122635
    0.869906187    0.079156302    0.182245255
    0.828239441    0.704156280    0.273367882
    0.786572814    0.329156160    0.364490479
    0.744906008    0.954156041    0.455613106
    0.119906239    0.329156429    0.000000018
    0.078239515    0.954156339    0.091122635
    0.036572788    0.579156280    0.182245269
    0.994906068    0.204156280    0.273367882
    0.953239322    0.829156280    0.364490449
    0.911572576    0.454156160    0.455613106
    0.453239650    0.329156429    0.000000018
    0.411572903    0.954156339    0.091122635
    0.369906187    0.579156280    0.182245269
    0.328239441    0.204156280    0.273367882
    0.286572695    0.829156280    0.364490449
    0.244905978    0.454156160    0.455613106
    0.786573052    0.329156429    0.000000018
    0.744906247    0.954156339    0.091122635
    0.703239501    0.579156280    0.182245269
    0.661572814    0.204156280    0.273367882
    0.619906068    0.829156280    0.364490449
    0.578239381    0.454156160    0.455613106
    0.000000000    0.017979508    0.455613136
    0.000000000    0.267979503    0.564490438
    0.000000000    0.517979562    0.673367798
    0.000000000    0.767979562    0.782245100
    0.000000013    0.017979622    0.891122580
    0.000000000    0.267979622    1.000000000
    0.249999970    0.267979473    0.455613136
    0.250000000    0.517979503    0.564490438
    0.249999955    0.767979562    0.673367798
    0.249999955    0.017979503    0.782245100
    0.249999955    0.267979503    0.891122580
    0.250000030    0.517979741    1.000000000
    0.500000000    0.517979503    0.455613136
    0.500000000    0.767979503    0.564490438
    0.499999970    0.017979503    0.673367798
    0.499999970    0.267979503    0.782245100
    0.500000000    0.517979622    0.891122580
    0.499999970    0.767979622    1.000000000
    0.749999940    0.767979443    0.455613136
    0.749999940    0.017979503    0.564490497
    0.749999881    0.267979503    0.673367798
    0.750000000    0.517979622    0.782245278
    0.750000000    0.767979622    0.891122580
    0.749999881    0.017979622    1.000000000
    0.000000000    0.517979443    0.455613136
    0.000000000    0.767979503    0.564490497
    0.999999940    0.017979503    0.673367798
    0.999999940    0.267979503    0.782245100
    0.000000000    0.517979503    0.891122580
    0.000000028    0.767979622    1.000000000
    0.250000000    0.767979503    0.455613136
    0.250000000    0.017979503    0.564490497
    0.249999955    0.267979503    0.673367798
    0.249999955    0.517979503    0.782245100
    0.250000060    0.767979622    0.891122580
    0.249999970    0.017979622    1.000000000
    0.499999970    0.017979480    0.455613136
    0.500000000    0.267979503    0.564490438
    0.499999970    0.517979562    0.673367798
    0.499999940    0.767979562    0.782245100
    0.499999970    0.017979503    0.891122580
    0.499999970    0.267979741    1.000000000
    0.750000000    0.267979532    0.455613136
    0.750000000    0.517979503    0.564490438
    0.749999940    0.767979562    0.673367798
    0.749999881    0.017979622    0.782245100
    0.750000000    0.267979622    0.891122639
    0.750000000    0.517979622    1.000000000
    0.062499985    0.330479473    0.455613136
    0.062500000    0.580479503    0.564490497
    0.062499959    0.830479562    0.673367798
    0.062500015    0.080479622    0.782245100
    0.062500015    0.330479622    0.891122639
    0.062500007    0.580479622    1.000000000
    0.312499970    0.580479503    0.455613136
    0.312500000    0.830479503    0.564490438
    0.312499970    0.080479503    0.673367798
    0.312500030    0.330479622    0.782245100
    0.312500000    0.580479622    0.891122639
    0.312500000    0.830479622    1.000000000
    0.562500000    0.830479503    0.455613136
    0.562500000    0.080479503    0.564490497
    0.562499940    0.330479503    0.673367798
    0.562500000    0.580479622    0.782245100
    0.562500000    0.830479622    0.891122639
    0.562499881    0.080479383    1.000000000
    0.812500000    0.080479458    0.455613136
    0.812500000    0.330479503    0.564490497
    0.812500000    0.580479503    0.673367798
    0.812500000    0.830479622    0.782245278
    0.812500000    0.080479622    0.891122639
    0.812500000    0.330479622    1.000000000
    0.062499989    0.830479443    0.455613136
    0.062499996    0.080479503    0.564490497
    0.062499993    0.330479503    0.673367798
    0.062500015    0.580479622    0.782245100
    0.062500007    0.830479622    0.891122639
    0.062500000    0.080479622    1.000000000
    0.312499970    0.080479495    0.455613136
    0.312500000    0.330479503    0.564490497
    0.312499970    0.580479562    0.673367798
    0.312499970    0.830479622    0.782245278
    0.312500030    0.080479622    0.891122580
    0.312499970    0.330479622    1.000000000
    0.562499940    0.330479473    0.455613136
    0.562500000    0.580479503    0.564490497
    0.562499940    0.830479562    0.673367798
    0.562500000    0.080479622    0.782245278
    0.562500000    0.330479622    0.891122580
    0.562500000    0.580479622    1.000000000
    0.812500000    0.580479503    0.455613136
    0.812500000    0.830479503    0.564490497
    0.812500000    0.080479503    0.673367798
    0.812500000    0.330479622    0.782245100
    0.812500000    0.580479622    0.891122580
    0.812499881    0.830479503    1.000000000
