Sn+Sn
    1.000000000
    9.177114487    0.000000000    0.000000000
    0.000000000   19.467601776    0.000000000
    0.000000000    0.000000000    7.647602558
Sn 
48
Direct
    0.693514049    0.523244023    0.100000001
    0.943514049    0.912132978    0.000000022
    0.806485891    0.106577218    0.899999857
    0.556486249    0.717688084    0.999999762
    0.443513811    0.717688084    0.499999821
    0.193513989    0.106577039    0.399999797
    0.443513989    0.495465994    0.299999923
    0.443514049    0.912132978    0.000000017
    0.806486130    0.967688322    0.999999881
    0.806485951    0.523244023    0.599999964
    0.693513870    0.967688084    0.499999970
    0.693513870    0.106577158    0.399999917
    0.193514034    0.523244023    0.099999964
    0.443513989    0.273243964    0.100000016
    0.556485891    0.912132978    0.499999940
    0.056486130    0.717688084    0.999999881
    0.943513870    0.717688084    0.499999821
    0.943513870    0.356577158    0.399999857
    0.943514049    0.273243934    0.099999987
    0.693514049    0.662132919    0.000000035
    0.056485925    0.912132978    0.499999940
    0.806485891    0.662132919    0.499999940
    0.443513989    0.356577277    0.399999857
    0.443514049    0.134355187    0.199999899
    0.943514049    0.134355187    0.199999973
    0.306485951    0.523244023    0.599999964
    0.556485951    0.134355187    0.699999928
    0.806486070    0.745466113    0.799999952
    0.056486130    0.356577158    0.899999857
    0.943514049    0.134355187    0.199999973
    0.693514049    0.745466113    0.299999952
    0.056485891    0.273243964    0.600000024
    0.306485891    0.884355068    0.699999928
    0.556486011    0.495465934    0.799999952
    0.443514049    0.134355187    0.199999899
    0.943513930    0.495465994    0.299999952
    0.943513930    0.495465994    0.299999952
    0.556485951    0.273243934    0.599999964
    0.806485891    0.884355068    0.699999928
    0.056486011    0.495465994    0.799999952
    0.306486011    0.106577098    0.899999857
    0.193513930    0.745466113    0.299999952
    0.193514019    0.884355068    0.199999973
    0.443513989    0.495465994    0.299999923
    0.056485891    0.134355187    0.699999928
    0.306486011    0.745466113    0.799999952
    0.556486011    0.356577277    0.899999857
    0.693514109    0.884355068    0.199999973
