Sn+Sn                                   
   1.00000000000000     
     6.4892001150000000    0.0000000000000000    0.0000000000000000
     0.0000000000000000    6.4892001150000000    0.0000000000000000
     0.0000000000000000    0.0000000000000000   16.2229995729999992
   Sn
    24
Direct
  0.0148947109999966  0.0000000000000000  0.0000000000000000
  0.5148946640000034  0.0000000000000000  0.2000000029999995
  0.0148944849999992  0.0000000000000000  0.3999999170000024
  0.2648946939999988  0.7499999400000021  0.0999999940000009
  0.7648945449999971  0.7499999400000021  0.2999999820000028
  0.2648946050000021  0.7499999400000021  0.5000000000000000
  0.5148946640000034  0.4999999699999975  0.0000000000000000
  0.0148947240000012  0.4999999699999975  0.2000000029999995
  0.5148944849999992  0.4999999699999975  0.3999999170000024
  0.7648946640000034  0.2499999850000023  0.0999999940000009
  0.2648944849999992  0.2499999850000023  0.2999999820000028
  0.7648944849999992  0.2499999850000023  0.5000000000000000
  0.0148947109999966  0.0000000000000000  0.5000000000000000
  0.5148946640000034  0.0000000000000000  0.7000000479999997
  0.0148944849999992  0.0000000000000000  0.8999999759999966
  0.2648946939999988  0.7499999400000021  0.5999999639999984
  0.7648945449999971  0.7499999400000021  0.8000000119999982
  0.2648946050000021  0.7499999400000021  0.0000000000000000
  0.5148946640000034  0.4999999699999975  0.5000000000000000
  0.0148947240000012  0.4999999699999975  0.7000000479999997
  0.5148944849999992  0.4999999699999975  0.8999999759999966
  0.7648946640000034  0.2499999850000023  0.5999999639999984
  0.2648944849999992  0.2499999850000023  0.8000000119999982
  0.7648944849999992  0.2499999850000023  0.0000000000000000
 
  0.00000000E+00  0.00000000E+00  0.00000000E+00
  0.00000000E+00  0.00000000E+00  0.00000000E+00
  0.00000000E+00  0.00000000E+00  0.00000000E+00
  0.00000000E+00  0.00000000E+00  0.00000000E+00
  0.00000000E+00  0.00000000E+00  0.00000000E+00
  0.00000000E+00  0.00000000E+00  0.00000000E+00
  0.00000000E+00  0.00000000E+00  0.00000000E+00
  0.00000000E+00  0.00000000E+00  0.00000000E+00
  0.00000000E+00  0.00000000E+00  0.00000000E+00
  0.00000000E+00  0.00000000E+00  0.00000000E+00
  0.00000000E+00  0.00000000E+00  0.00000000E+00
  0.00000000E+00  0.00000000E+00  0.00000000E+00
  0.00000000E+00  0.00000000E+00  0.00000000E+00
  0.00000000E+00  0.00000000E+00  0.00000000E+00
  0.00000000E+00  0.00000000E+00  0.00000000E+00
  0.00000000E+00  0.00000000E+00  0.00000000E+00
  0.00000000E+00  0.00000000E+00  0.00000000E+00
  0.00000000E+00  0.00000000E+00  0.00000000E+00
  0.00000000E+00  0.00000000E+00  0.00000000E+00
  0.00000000E+00  0.00000000E+00  0.00000000E+00
  0.00000000E+00  0.00000000E+00  0.00000000E+00
  0.00000000E+00  0.00000000E+00  0.00000000E+00
  0.00000000E+00  0.00000000E+00  0.00000000E+00
  0.00000000E+00  0.00000000E+00  0.00000000E+00
