Si+Sn
    1.000000000
   19.581750870    0.000000000    0.000000000
    0.000000000   19.581748962    0.000000000
    0.000000000    0.000000000   19.100250244
Si  Sn 
156     108
Direct
    0.995893002    0.997262001    0.000000000
    0.880508363    0.920338869    0.142170906
    0.765123725    0.843415737    0.284341902
    0.072816126    0.381877452    0.000000000
    0.328368425    0.630769253    0.805117786
    0.842046797    0.228031158    0.284341902
    0.226662278    0.151108176    0.000000000
    0.161701918    0.797435880    0.805117786
    0.995892942    0.997261941    0.284341902
    0.328368425    0.297435910    0.805117786
    0.034354534    0.689569712    0.142170906
    0.918969870    0.612646580    0.284341902
    0.303585410    0.535723567    0.000000000
    0.188200727    0.458800435    0.142170906
    0.072816066    0.381877303    0.284341902
    0.245035052    0.714102626    0.890053868
    0.328368425    0.964102626    0.805117786
    0.226662204    0.151108071    0.284341902
    0.078368425    0.880769372    0.890053868
    0.495893002    0.997261941    0.142170906
    0.380508363    0.920338809    0.284341902
    0.380508512    0.920339048    0.000000000
    0.265123844    0.843415916    0.142170906
    0.149739176    0.766492724    0.284341902
    0.534354627    0.689569712    0.000000000
    0.418969929    0.612646580    0.142170906
    0.303585261    0.535723448    0.284341902
    0.688200712    0.458800495    0.000000000
    0.661701798    0.964102626    0.805117786
    0.457431376    0.304954231    0.284341902
    0.842046916    0.228031188    0.000000000
    0.726662278    0.151108041    0.142170906
    0.611277580    0.074184909    0.284341902
    0.578368425    0.714102626    0.890053868
    0.649739265    0.766492724    0.142170906
    0.534354568    0.689569592    0.284341902
    0.918970048    0.612646639    0.000000000
    0.995035172    0.964102626    0.805117786
    0.688200712    0.458800375    0.284341902
    0.015123837    0.593415856    0.071085475
    0.899739206    0.516492724    0.213256419
    0.495035172    0.464102566    0.465373576
    0.168969959    0.362646669    0.071085475
    0.053585295    0.285723537    0.213256419
    0.995035172    0.630769253    0.465373576
    0.322816133    0.131877407    0.071085475
    0.207431450    0.054954268    0.213256419
    0.661701798    0.630769253    0.465373576
    0.092046887    0.978031278    0.071085475
    0.976662219    0.901108146    0.213256419
    0.161701798    0.464102566    0.465373576
    0.245893061    0.747262061    0.071085475
    0.130508408    0.670338929    0.213256419
    0.015123715    0.593415797    0.355427384
    0.399739265    0.516492844    0.071085475
    0.284354597    0.439569682    0.213256419
    0.168969929    0.362646550    0.355427384
    0.553585410    0.285723537    0.071085475
    0.828368425    0.464102566    0.465373576
    0.661701798    0.297435910    0.465373576
    0.707431555    0.054954302    0.071085475
    0.592046857    0.978031158    0.213256419
    0.476662189    0.901108027    0.355427384
    0.476662397    0.901108205    0.071085475
    0.361277699    0.824185073    0.213256419
    0.245893002    0.747261941    0.355427384
    0.630508542    0.670338988    0.071085475
    0.515123844    0.593415797    0.213256419
    0.399739146    0.516492665    0.355427384
    0.784354687    0.439569712    0.071085475
    0.668969989    0.362646550    0.213256419
    0.495035172    0.130769253    0.465373576
    0.938200831    0.208800495    0.071085475
    0.161701798    0.130769253    0.465373576
    0.707431436    0.054954205    0.355427384
    0.861277878    0.824185133    0.071085475
    0.745893180    0.747262001    0.213256419
    0.630508423    0.670338809    0.355427384
    0.745035052    0.214102626    0.890053868
    0.918969929    0.112646602    0.142170906
    0.803585231    0.035723470    0.284341902
    0.411701679    0.214102626    0.890053868
    0.995893002    0.497262001    0.142170906
    0.328368425    0.297435910    0.465373576
    0.265123844    0.343415916    0.000000000
    0.149739191    0.266492784    0.142170906
    0.034354493    0.189569652    0.284341902
    0.418969989    0.112646602    0.000000000
    0.303585321    0.035723474    0.142170906
    0.188200638    0.958800316    0.284341902
    0.245035052    0.380769253    0.890053868
    0.411701679    0.880769372    0.890053868
    0.957431376    0.804954231    0.284341902
    0.911701798    0.380769253    0.890053868
    0.226662233    0.651108146    0.142170906
    0.111277573    0.574185014    0.284341902
    0.495893091    0.497262001    0.000000000
    0.380508423    0.420338869    0.142170906
    0.265123725    0.343415737    0.284341902
    0.649739265    0.266492784    0.000000000
    0.534354627    0.189569652    0.142170906
    0.418969929    0.112646520    0.284341902
    0.745035052    0.880769372    0.890053868
    0.078368425    0.214102626    0.890053868
    0.572816074    0.881877303    0.284341902
    0.911701798    0.047435999    0.890053868
    0.457431436    0.804954290    0.142170906
    0.828368425    0.797435880    0.465373576
    0.726662338    0.651108146    0.000000000
    0.611277640    0.574185014    0.142170906
    0.495892942    0.497261852    0.284341902
    0.880508482    0.420338988    0.000000000
    0.765123844    0.343415856    0.142170906
    0.649739146    0.266492724    0.284341902
    0.957431614    0.804954290    0.000000000
    0.842046916    0.728031158    0.142170906
    0.726662278    0.651108027    0.284341902
    0.578368425    0.047435999    0.890053868
    0.015123768    0.093415834    0.213256419
    0.078368425    0.547435880    0.550309598
    0.053585343    0.785723627    0.071085475
    0.938200712    0.708800435    0.213256419
    0.822816014    0.631877303    0.355427384
    0.207431525    0.554954410    0.071085475
    0.078368425    0.214102626    0.550309598
    0.976662159    0.401108086    0.355427384
    0.361277699    0.324185133    0.071085475
    0.245893031    0.247262001    0.213256419
    0.130508333    0.170338854    0.355427384
    0.515123844    0.093415849    0.071085475
    0.399739206    0.016492724    0.213256419
    0.284354508    0.939569533    0.355427384
    0.284354657    0.939569831    0.071085475
    0.168969989    0.862646639    0.213256419
    0.053585291    0.785723507    0.355427384
    0.438200772    0.708800614    0.071085475
    0.411701918    0.214102626    0.550309598
    0.995035172    0.964102626    0.465373576
    0.078368425    0.547435880    0.890053868
    0.476662278    0.401108146    0.213256419
    0.828368425    0.130769253    0.465373576
    0.745893121    0.247262001    0.071085475
    0.630508423    0.170338869    0.213256419
    0.328368425    0.964102626    0.465373576
    0.899739265    0.016492788    0.071085475
    0.784354568    0.939569652    0.213256419
    0.668969929    0.862646520    0.355427384
    0.668970108    0.862646759    0.071085475
    0.745035112    0.214102626    0.550309598
    0.438200712    0.708800495    0.355427384
    0.822816253    0.631877422    0.071085475
    0.078368425    0.880769372    0.550309598
    0.592046797    0.478031129    0.355427384
    0.976662278    0.401108235    0.071085475
    0.911701798    0.047435999    0.550309598
    0.745892882    0.247261927    0.355427384
    0.661701798    0.964102626    0.465373576
    0.495035172    0.964102626    0.635245681
    0.342046857    0.228031203    0.142170906
    0.092046767    0.978031158    0.355427384
    0.495035172    0.630769253    0.635245681
    0.957431436    0.304954290    0.142170906
    0.322816044    0.131877258    0.355427384
    0.495035172    0.297435910    0.635245681
    0.149739221    0.766492844    0.000000000
    0.207431406    0.554954290    0.355427384
    0.828368425    0.964102626    0.635245681
    0.572816074    0.381877363    0.142170906
    0.938200593    0.208800375    0.355427384
    0.828368425    0.630769253    0.635245681
    0.661701798    0.630769253    0.805117786
    0.995035172    0.297435910    0.465373576
    0.828368425    0.297435910    0.635245681
    0.661701798    0.297435910    0.805117786
    0.515123785    0.093415722    0.355427384
    0.161701798    0.964102626    0.635245681
    0.803585410    0.535723507    0.142170906
    0.328368425    0.630769253    0.465373576
    0.161701798    0.630769253    0.635245681
    0.995035172    0.630769253    0.805117786
    0.880508304    0.420338839    0.284341902
    0.161701798    0.297435910    0.635245681
    0.995035172    0.297435910    0.805117786
    0.553585410    0.785723627    0.213256419
    0.578368425    0.214102626    0.720181704
    0.111277662    0.574185073    0.000000000
    0.745035112    0.880769372    0.550309598
    0.578368425    0.880769372    0.720181704
    0.072816059    0.881877303    0.142170906
    0.745035112    0.547435880    0.550309598
    0.578368425    0.547435880    0.720181704
    0.411701679    0.547435880    0.890053868
    0.092046872    0.478031248    0.213256419
    0.911701798    0.214102626    0.720181704
    0.034354586    0.189569741    0.000000000
    0.707431555    0.554954290    0.213256419
    0.911701798    0.880769372    0.720181704
    0.803585410    0.035723574    0.000000000
    0.899739087    0.016492693    0.355427384
    0.911701798    0.547435880    0.720181704
    0.745035052    0.547435880    0.890053868
    0.322816074    0.631877422    0.213256419
    0.245035172    0.214102626    0.720181704
    0.688200712    0.958800435    0.142170906
    0.411701918    0.880769372    0.550309598
    0.245035172    0.880769372    0.720181704
    0.611277699    0.074185103    0.000000000
    0.411701918    0.547435880    0.550309598
    0.245035172    0.547435880    0.720181704
    0.592046976    0.478031278    0.071085475
    0.361277610    0.324185014    0.355427384
    0.661701679    0.130769253    0.635245681
    0.495035172    0.130769253    0.805117786
    0.342046797    0.728031099    0.284341902
    0.661701679    0.797435880    0.635245681
    0.495035172    0.797435880    0.805117786
    0.438200712    0.208800390    0.213256419
    0.661701679    0.464102566    0.635245681
    0.495035172    0.464102566    0.805117786
    0.822816133    0.131877348    0.213256419
    0.995035112    0.130769253    0.635245681
    0.828368425    0.130769253    0.805117786
    0.161701798    0.797435880    0.465373576
    0.995035112    0.797435880    0.635245681
    0.828368425    0.797435880    0.805117786
    0.861277521    0.824185014    0.355427384
    0.995035112    0.464102566    0.635245681
    0.828368425    0.464102566    0.805117786
    0.553585291    0.285723418    0.355427384
    0.328368545    0.130769253    0.635245681
    0.161701918    0.130769253    0.805117786
    0.495035172    0.797435880    0.465373576
    0.328368545    0.797435880    0.635245681
    0.111277618    0.074185051    0.142170906
    0.784354508    0.439569622    0.355427384
    0.328368545    0.464102566    0.635245681
    0.161701918    0.464102566    0.805117786
    0.861277580    0.324185073    0.213256419
    0.745035112    0.047435999    0.720181704
    0.130508438    0.170338959    0.071085475
    0.911701798    0.714102626    0.550309598
    0.745035112    0.714102626    0.720181704
    0.765123904    0.843415856    0.000000000
    0.911701798    0.380769253    0.550309598
    0.745035112    0.380769253    0.720181704
    0.578368425    0.380769253    0.890053868
    0.245035172    0.047435999    0.550309598
    0.078368545    0.047435999    0.720181704
    0.572816133    0.881877363    0.000000000
    0.245035172    0.714102626    0.550309598
    0.078368545    0.714102626    0.720181704
    0.911701798    0.714102626    0.890053868
    0.245035172    0.380769253    0.550309598
    0.078368545    0.380769253    0.720181704
    0.342046916    0.728031278    0.000000000
    0.578368425    0.047435999    0.550309598
    0.411701679    0.047435999    0.720181704
    0.245035052    0.047435999    0.890053868
    0.578368425    0.714102626    0.550309598
    0.411701679    0.714102626    0.720181704
    0.457431555    0.304954350    0.000000000
    0.578368425    0.380769253    0.550309598
    0.411701679    0.380769253    0.720181704
    0.188200757    0.958800435    0.000000000
