Si
 1.0000000000000000
     5.4310000000000000    0.0000000000000000    0.0000000000000000
     0.0000000000000000    7.6805938572482795    0.0000000000000000
     0.0000000000000000    0.0000000000000000   61.1216331074327712
 Si 
  48
Direct
  0.0000000000000000  0.0000000000000000  0.3272163877697155
  0.2499999999999999  0.0000000000000000  0.3586315899934036
  0.0000000000000000  0.5000000000000000  0.3272163877697155
  0.2499999999999999  0.4999999999999999  0.3586315899934035
  0.4999999999999997  0.7500000000000002  0.3586315899934036
  0.7499999999999996  0.2500000000000000  0.3272163877697155
  0.4999999999999997  0.2499999999999999  0.3586315899934036
  0.7499999999999996  0.7499999999999998  0.3272163877697155
  0.0000000000000000  0.5000000000000000  0.3900467922170917
  0.2499999999999999  0.5000000000000000  0.4214619944407798
  0.0000000000000000  0.0000000000000000  0.3900467922170917
  0.2499999999999999  1.0000000000000000  0.4214619944407798
  0.4999999999999997  0.2500000000000001  0.4214619944407798
  0.7499999999999996  0.7500000000000000  0.3900467922170917
  0.4999999999999997  0.7500000000000000  0.4214619944407798
  0.7499999999999996  0.2499999999999998  0.3900467922170917
  0.0000000000000000  0.0000000000000000  0.4528771966644679
  0.2499999999999999  0.0000000000000000  0.4842923988881559
  0.0000000000000000  0.5000000000000000  0.4528771966644678
  0.2499999999999999  0.5000000000000000  0.4842923988881559
  0.4999999999999997  0.7500000000000003  0.4842923988881559
  0.7499999999999996  0.2500000000000001  0.4528771966644678
  0.4999999999999997  0.2500000000000000  0.4842923988881559
  0.7499999999999996  0.7499999999999999  0.4528771966644678
  0.0000000000000000  0.5000000000000002  0.5157076011118440
  0.2499999999999999  0.5000000000000002  0.5471228033355321
  0.0000000000000000  0.0000000000000000  0.5157076011118440
  0.2499999999999999  0.0000000000000000  0.5471228033355321
  0.4999999999999997  0.2500000000000002  0.5471228033355321
  0.7499999999999996  0.7500000000000000  0.5157076011118440
  0.4999999999999997  0.7500000000000000  0.5471228033355321
  0.7499999999999996  0.2500000000000000  0.5157076011118440
  0.0000000000000000  0.0000000000000000  0.5785380055592202
  0.2499999999999999  0.0000000000000000  0.6099532077829084
  0.0000000000000000  0.5000000000000002  0.5785380055592201
  0.2499999999999999  0.5000000000000000  0.6099532077829084
  0.4999999999999997  0.7500000000000000  0.6099532077829084
  0.7499999999999996  0.2500000000000000  0.5785380055592202
  0.4999999999999997  0.2500000000000000  0.6099532077829084
  0.7499999999999996  0.7499999999999998  0.5785380055592202
  0.0000000000000000  0.5000000000000000  0.6413684100065964
  0.2499999999999999  0.5000000000000000  0.6727836122302846
  0.0000000000000000  0.0000000000000000  0.6413684100065964
  0.2499999999999999  0.0000000000000000  0.6727836122302846
  0.4999999999999997  0.2500000000000004  0.6727836122302845
  0.7499999999999996  0.7499999999999996  0.6413684100065964
  0.4999999999999997  0.7499999999999996  0.6727836122302846
  0.7499999999999996  0.2500000000000000  0.6413684100065964
