fcc Si+fcc Ge
    1.000000000
   16.440000000    0.000000000    0.000000000
    5.480000000   15.499780644    0.000000000
    0.000000000    0.000000000   24.092923856
Si    Ge   
144     144
Direct
    0.988752556    0.946319018    0.908686882
    0.625000000    0.958333333    0.080416665
    0.250000000    0.916666667    0.160833329
    0.875000000    0.875000000    0.241249994
    0.500000000    0.833333333    0.321666659
    0.863752556    0.821319018    0.493396442
    0.530419223    0.571319018    0.908686882
    0.822085890    0.446319018    0.908686882
    0.250000000    0.250000000    0.160833329
    0.875000000    0.208333333    0.241249994
    0.500000000    0.166666667    0.321666659
    0.113752556    0.071319018    0.493396442
    0.738752556    0.696319018    0.908686882
    0.625000000    0.625000000    0.080416665
    0.250000000    0.583333333    0.160833329
    0.875000000    0.541666667    0.241249994
    0.500000000    0.500000000    0.321666659
    0.655419223    0.696319018    0.493396442
    0.405419223    0.696319018    0.908686882
    0.125000000    0.125000000    0.080416665
    0.750000000    0.083333333    0.160833329
    0.375000000    0.041666667    0.241249994
    0.000000000    0.000000000    0.321666659
    0.625000000    0.958333333    0.402083324
    0.500000000    0.500000000    0.000000000
    0.125000000    0.458333333    0.080416665
    0.750000000    0.416666667    0.160833329
    0.375000000    0.375000000    0.241249994
    0.000000000    0.333333333    0.321666659
    0.530419223    0.821319018    0.493396442
    0.500000000    0.833333333    0.000000000
    0.125000000    0.791666667    0.080416665
    0.750000000    0.750000000    0.160833329
    0.375000000    0.708333333    0.241249994
    0.000000000    0.666666667    0.321666659
    0.625000000    0.625000000    0.402083324
    0.250000000    0.250000000    0.000000000
    0.875000000    0.208333333    0.080416665
    0.500000000    0.166666667    0.160833329
    0.155419223    0.196319018    0.493396442
    0.750000000    0.083333333    0.321666659
    0.988752556    0.696319018    0.493396442
    0.250000000    0.583333333    0.000000000
    0.875000000    0.541666667    0.080416665
    0.500000000    0.500000000    0.160833329
    0.125000000    0.458333333    0.241249994
    0.947085890    0.571319018    0.493396442
    0.375000000    0.375000000    0.402083324
    0.863752556    0.571319018    0.908686882
    0.875000000    0.875000000    0.080416665
    0.500000000    0.833333333    0.160833329
    0.822085890    0.196319018    0.493396442
    0.750000000    0.750000000    0.321666659
    0.375000000    0.708333333    0.402083324
    0.113752556    0.821319018    0.908686882
    0.375000000    0.041666667    0.080416665
    0.030419223    0.071319018    0.908686882
    0.625000000    0.958333333    0.241249994
    0.250000000    0.916666667    0.321666659
    0.447085890    0.071319018    0.493396442
    0.750000000    0.416666667    0.000000000
    0.375000000    0.375000000    0.080416665
    0.000000000    0.333333333    0.160833329
    0.625000000    0.291666667    0.241249994
    0.250000000    0.250000000    0.321666659
    0.238752556    0.946319018    0.493396442
    0.322085890    0.946319018    0.908686882
    0.375000000    0.708333333    0.080416665
    0.697085890    0.071319018    0.908686882
    0.625000000    0.625000000    0.241249994
    0.250000000    0.583333333    0.321666659
    0.875000000    0.541666667    0.402083324
    0.375000000    0.125000000    0.000000000
    0.000000000    0.083333333    0.080416665
    0.625000000    0.041666667    0.160833329
    0.988752556    0.946319018    0.576454530
    0.875000000    0.958333333    0.321666659
    0.072085890    0.446319018    0.493396442
    0.375000000    0.458333333    0.000000000
    0.000000000    0.416666667    0.080416665
    0.625000000    0.375000000    0.160833329
    0.250000000    0.333333333    0.241249994
    0.875000000    0.291666667    0.321666659
    0.500000000    0.250000000    0.402083324
    0.947085890    0.321319018    0.908686882
    0.000000000    0.750000000    0.080416665
    0.625000000    0.708333333    0.160833329
    0.250000000    0.666666667    0.241249994
    0.875000000    0.625000000    0.321666659
    0.500000000    0.583333333    0.402083324
    0.875000000    0.291666667    0.000000000
    0.500000000    0.250000000    0.080416665
    0.125000000    0.208333333    0.160833329
    0.750000000    0.166666667    0.241249994
    0.375000000    0.125000000    0.321666659
    0.000000000    0.083333333    0.402083324
    0.875000000    0.625000000    0.000000000
    0.500000000    0.583333333    0.080416665
    0.125000000    0.541666667    0.160833329
    0.750000000    0.500000000    0.241249994
    0.375000000    0.458333333    0.321666659
    0.000000000    0.416666667    0.402083324
    0.875000000    0.958333333    0.000000000
    0.500000000    0.916666667    0.080416665
    0.863752556    0.821319018    0.825628794
    0.750000000    0.833333333    0.241249994
    0.375000000    0.791666667    0.321666659
    0.000000000    0.750000000    0.402083324
    0.125000000    0.208333333    0.000000000
    0.750000000    0.166666667    0.080416665
    0.375000000    0.125000000    0.160833329
    0.000000000    0.083333333    0.241249994
    0.625000000    0.041666667    0.321666659
    0.250000000    0.000000000    0.402083324
    0.125000000    0.541666667    0.000000000
    0.750000000    0.500000000    0.080416665
    0.375000000    0.458333333    0.160833329
    0.000000000    0.416666667    0.241249994
    0.625000000    0.375000000    0.321666659
    0.250000000    0.333333333    0.402083324
    0.125000000    0.875000000    0.000000000
    0.750000000    0.833333333    0.080416665
    0.375000000    0.791666667    0.160833329
    0.000000000    0.750000000    0.241249994
    0.625000000    0.708333333    0.321666659
    0.250000000    0.666666667    0.402083324
    0.625000000    0.041666667    0.000000000
    0.250000000    0.000000000    0.080416665
    0.875000000    0.958333333    0.160833329
    0.500000000    0.916666667    0.241249994
    0.125000000    0.875000000    0.321666659
    0.280419223    0.571319018    0.493396442
    0.625000000    0.375000000    0.000000000
    0.250000000    0.333333333    0.080416665
    0.875000000    0.291666667    0.160833329
    0.500000000    0.250000000    0.241249994
    0.125000000    0.208333333    0.321666659
    0.750000000    0.166666667    0.402083324
    0.155419223    0.446319018    0.908686882
    0.250000000    0.666666667    0.080416665
    0.875000000    0.625000000    0.160833329
    0.500000000    0.583333333    0.241249994
    0.125000000    0.541666667    0.321666659
    0.750000000    0.500000000    0.402083324
    0.125000000    0.791666667    0.241249994
    0.780419223    0.821319018    0.576454530
    0.738752556    0.446319018    0.659512618
    0.697085890    0.071319018    0.742570706
    0.655419223    0.696319018    0.825628794
    0.613752556    0.321319018    0.908686882
    0.125000000    0.125000000    0.241249994
    0.113752556    0.821319018    0.576454530
    0.072085890    0.446319018    0.659512618
    0.030419223    0.071319018    0.742570706
    0.988752556    0.696319018    0.825628794
    0.375000000    0.791666667    0.000000000
    0.488752556    0.196319018    0.493396442
    0.447085890    0.821319018    0.576454530
    0.405419223    0.446319018    0.659512618
    0.363752556    0.071319018    0.742570706
    0.322085890    0.696319018    0.825628794
    0.280419223    0.321319018    0.908686882
    0.375000000    0.041666667    0.402083324
    0.947085890    0.321319018    0.576454530
    0.905419223    0.946319018    0.659512618
    0.863752556    0.571319018    0.742570706
    0.822085890    0.196319018    0.825628794
    0.780419223    0.821319018    0.908686882
    0.322085890    0.696319018    0.493396442
    0.280419223    0.321319018    0.576454530
    0.238752556    0.946319018    0.659512618
    0.197085890    0.571319018    0.742570706
    0.155419223    0.196319018    0.825628794
    0.750000000    0.083333333    0.000000000
    0.125000000    0.458333333    0.402083324
    0.613752556    0.321319018    0.576454530
    0.572085890    0.946319018    0.659512618
    0.530419223    0.571319018    0.742570706
    0.488752556    0.196319018    0.825628794
    0.447085890    0.821319018    0.908686882
    0.500000000    0.916666667    0.402083324
    0.030419223    0.071319018    0.576454530
    0.988752556    0.696319018    0.659512618
    0.947085890    0.321319018    0.742570706
    0.905419223    0.946319018    0.825628794
    0.250000000    0.916666667    0.000000000
    0.405419223    0.446319018    0.493396442
    0.363752556    0.071319018    0.576454530
    0.322085890    0.696319018    0.659512618
    0.280419223    0.321319018    0.742570706
    0.238752556    0.946319018    0.825628794
    0.197085890    0.571319018    0.908686882
    0.738752556    0.446319018    0.493396442
    0.697085890    0.071319018    0.576454530
    0.655419223    0.696319018    0.659512618
    0.613752556    0.321319018    0.742570706
    0.572085890    0.946319018    0.825628794
    0.000000000    0.333333333    0.000000000
    0.905419223    0.946319018    0.493396442
    0.863752556    0.571319018    0.576454530
    0.822085890    0.196319018    0.659512618
    0.780419223    0.821319018    0.742570706
    0.738752556    0.446319018    0.825628794
    0.000000000    0.666666667    0.160833329
    0.875000000    0.208333333    0.402083324
    0.197085890    0.571319018    0.576454530
    0.155419223    0.196319018    0.659512618
    0.113752556    0.821319018    0.742570706
    0.072085890    0.446319018    0.825628794
    0.000000000    0.000000000    0.160833329
    0.572085890    0.946319018    0.493396442
    0.530419223    0.571319018    0.576454530
    0.488752556    0.196319018    0.659512618
    0.447085890    0.821319018    0.742570706
    0.405419223    0.446319018    0.825628794
    0.363752556    0.071319018    0.908686882
    0.750000000    0.416666667    0.321666659
    0.905419223    0.196319018    0.576454530
    0.863752556    0.821319018    0.659512618
    0.822085890    0.446319018    0.742570706
    0.780419223    0.071319018    0.825628794
    0.000000000    0.666666667    0.000000000
    0.750000000    0.833333333    0.402083324
    0.238752556    0.196319018    0.576454530
    0.197085890    0.821319018    0.659512618
    0.155419223    0.446319018    0.742570706
    0.113752556    0.071319018    0.825628794
    0.072085890    0.696319018    0.908686882
    0.613752556    0.571319018    0.493396442
    0.572085890    0.196319018    0.576454530
    0.530419223    0.821319018    0.659512618
    0.488752556    0.446319018    0.742570706
    0.447085890    0.071319018    0.825628794
    0.500000000    0.166666667    0.000000000
    0.125000000    0.125000000    0.402083324
    0.072085890    0.696319018    0.576454530
    0.030419223    0.321319018    0.659512618
    0.988752556    0.946319018    0.742570706
    0.947085890    0.571319018    0.825628794
    0.905419223    0.196319018    0.908686882
    0.875000000    0.875000000    0.402083324
    0.405419223    0.696319018    0.576454530
    0.363752556    0.321319018    0.659512618
    0.322085890    0.946319018    0.742570706
    0.280419223    0.571319018    0.825628794
    0.238752556    0.196319018    0.908686882
    0.780419223    0.071319018    0.493396442
    0.738752556    0.696319018    0.576454530
    0.697085890    0.321319018    0.659512618
    0.655419223    0.946319018    0.742570706
    0.613752556    0.571319018    0.825628794
    0.572085890    0.196319018    0.908686882
    0.030419223    0.321319018    0.493396442
    0.250000000    0.000000000    0.241249994
    0.947085890    0.571319018    0.659512618
    0.905419223    0.196319018    0.742570706
    0.125000000    0.875000000    0.160833329
    0.625000000    0.291666667    0.080416665
    0.363752556    0.321319018    0.493396442
    0.322085890    0.946319018    0.576454530
    0.280419223    0.571319018    0.659512618
    0.238752556    0.196319018    0.742570706
    0.197085890    0.821319018    0.825628794
    0.625000000    0.708333333    0.000000000
    0.697085890    0.321319018    0.493396442
    0.655419223    0.946319018    0.576454530
    0.613752556    0.571319018    0.659512618
    0.572085890    0.196319018    0.742570706
    0.530419223    0.821319018    0.825628794
    0.488752556    0.446319018    0.908686882
    0.125000000    0.791666667    0.402083324
    0.822085890    0.446319018    0.576454530
    0.780419223    0.071319018    0.659512618
    0.738752556    0.696319018    0.742570706
    0.697085890    0.321319018    0.825628794
    0.655419223    0.946319018    0.908686882
    0.197085890    0.821319018    0.493396442
    0.155419223    0.446319018    0.576454530
    0.113752556    0.071319018    0.659512618
    0.072085890    0.696319018    0.742570706
    0.030419223    0.321319018    0.825628794
    0.000000000    0.000000000    0.000000000
    0.625000000    0.291666667    0.402083324
    0.488752556    0.446319018    0.576454530
    0.447085890    0.071319018    0.659512618
    0.405419223    0.696319018    0.742570706
    0.363752556    0.321319018    0.825628794
    0.750000000    0.750000000    0.000000000
