Ge+Ge
    1.000000000
    8.001338005    0.000000000    0.000000000
    4.000669003   12.002006531    0.000000000
    0.000000000    0.000000000   11.413372993
Ge 
48
Direct
    0.660972118    0.660972118    0.000000000
    0.494305372    0.494305462    0.247858346
    0.327638626    0.327638775    0.495716751
    0.327638805    0.327638805    0.000000000
    0.160972089    0.160972148    0.247858346
    0.994305313    0.994305491    0.495716751
    0.994305491    0.994305491    0.000000000
    0.827638805    0.827638865    0.247858346
    0.660971999    0.660972178    0.495716751
    0.410972089    0.660972059    0.123929173
    0.244305372    0.494305402    0.371787578
    0.077638626    0.327638716    0.619645953
    0.744305491    0.994305491    0.123929173
    0.577638686    0.827638865    0.371787578
    0.410971940    0.660972118    0.619645953
    0.077638842    0.327638835    0.123929173
    0.910972118    0.160972148    0.371787578
    0.744305372    0.994305432    0.619645953
    0.827638745    0.327638835    0.000000000
    0.660972059    0.160972178    0.247858346
    0.494305313    0.994305491    0.495716751
    0.160972208    0.660972118    0.000000000
    0.994305491    0.494305491    0.247858346
    0.827638745    0.327638775    0.495716751
    0.494305432    0.994305491    0.000000000
    0.327638716    0.827638865    0.247858346
    0.160971999    0.660972118    0.495716751
    0.910972297    0.660972059    0.123929173
    0.744305491    0.494305402    0.371787578
    0.577638745    0.327638716    0.619645953
    0.577638805    0.327638835    0.123929173
    0.410972029    0.160972148    0.371787578
    0.244305283    0.994305432    0.619645953
    0.244305477    0.994305491    0.123929173
    0.077638723    0.827638865    0.371787578
    0.910971999    0.660972118    0.619645953
    0.166599989    0.727430105    0.706548631
    0.055488825    0.449652314    0.789168119
    0.944377661    0.171874523    0.871787667
    0.666599929    0.727430105    0.706548631
    0.555488765    0.449652195    0.789168119
    0.444377631    0.171874523    0.871787667
    0.861044288    0.838541150    0.747858405
    0.749933124    0.560763359    0.830477893
    0.638821959    0.282985449    0.913097382
    0.361044347    0.838541150    0.747858405
    0.249933198    0.560763359    0.830477893
    0.138822079    0.282985449    0.913097382
